<?xml version="1.0"?>
<VTKFile type="UnstructuredGrid" version="0.1" byte_order="LittleEndian">
<UnstructuredGrid>
<Piece NumberOfPoints="30979" NumberOfCells="10840">
<Points>
<DataArray type="Float64" NumberOfComponents="3" format="ascii">
-0.5 -0.5 0 -0.45566396609255122 -0.46738184304253999 0 -0.48168049895180642 -0.44054721128114638 0 -0.5 -0.5 0 -0.48168049895180642 -0.44054721128114638 0 -0.5 -0.41826907986550721 0 -0.5 -0.5 0 -0.4437440370372035 -0.5 0 -0.45566396609255122 -0.46738184304253999 0 -0.4437440370372035 -0.5 0 -0.45566396609255122 -0.46738184304253999 0 -0.42809511023068592 -0.47672877674729941 0 -0.44230143731911947 -0.44175467822505898 0 -0.45566396609255122 -0.46738184304253999 0 -0.48168049895180642 -0.44054721128114638 0 -0.44230143731911947 -0.44175467822505898 0 -0.45566396609255122 -0.46738184304253999 0 -0.4245901042273888 -0.45839720476864299 0 -0.48168049895180642 -0.44054721128114638 0 -0.5 -0.41826907986550721 0 -0.46065406903617789 -0.42050628408324969 0 -0.5 -0.41826907986550721 0 -0.47894729271241038 -0.39512202691991383 0 -0.46065406903617789 -0.42050628408324969 0 -0.48168049895180642 -0.44054721128114638 0 -0.46065406903617789 -0.42050628408324969 0 -0.5 -0.41826907986550721 0 -0.47894729271241038 -0.39512202691991383 0 -0.5 -0.35841782388268417 0 -0.47894729271241038 -0.39512202691991383 0 -0.47860696210132803 -0.36435486710316412 0 -0.45574650359470142 -0.37412855344555501 0 -0.47894729271241038 -0.39512202691991383 0 -0.43962763912054942 -0.40046535688535312 0 -0.46065406903617789 -0.42050628408324969 0 -0.47894729271241038 -0.39512202691991383 0 -0.43962763912054942 -0.40046535688535312 0 -0.45574650359470142 -0.37412855344555501 0 -0.43962763912054942 -0.40046535688535312 0 -0.43643624458113078 -0.37614954950182389 0 -0.45574650359470142 -0.37412855344555501 0 -0.43962763912054942 -0.40046535688535312 0 -0.46065406903617789 -0.42050628408324969 0 -0.42928209368157039 -0.41865460272783422 0 -0.44230143731911947 -0.44175467822505898 0 -0.48168049895180642 -0.44054721128114638 0 -0.46065406903617789 -0.42050628408324969 0 -0.44230143731911947 -0.44175467822505898 0 -0.46065406903617789 -0.42050628408324969 0 -0.42928209368157039 -0.41865460272783422 0 -0.43962763912054942 -0.40046535688535312 0 -0.46065406903617789 -0.42050628408324969 0 -0.44230143731911947 -0.44175467822505898 0 -0.42928209368157039 -0.41865460272783422 0 -0.41508809379409511 -0.43319730311662052 0 -0.43962763912054942 -0.40046535688535312 0 -0.42928209368157039 -0.41865460272783422 0 -0.41412050099289671 -0.4064420045106692 0 -0.41063832349300899 -0.41970077410794099 0 -0.41412050099289671 -0.4064420045106692 0 -0.39825486268490951 -0.411985419321795 0 -0.42928209368157039 -0.41865460272783422 0 -0.41063832349300899 -0.41970077410794099 0 -0.41412050099289671 -0.4064420045106692 0 -0.41063832349300899 -0.41970077410794099 0 -0.41508809379409511 -0.43319730311662052 0 -0.39644606631157348 -0.42822454086278677 0 -0.42928209368157039 -0.41865460272783422 0 -0.41063832349300899 -0.41970077410794099 0 -0.41508809379409511 -0.43319730311662052 0 -0.43962763912054942 -0.40046535688535312 0 -0.41860120920492089 -0.3804244296874566 0 -0.43962763912054942 -0.40046535688535312 0 -0.43643624458113078 -0.37614954950182389 0 -0.41860120920492089 -0.3804244296874566 0 -0.43962763912054942 -0.40046535688535312 0 -0.41412050099289671 -0.4064420045106692 0 -0.41293465319379657 -0.39322660128121761 0 -0.43962763912054942 -0.40046535688535312 0 -0.41293465319379657 -0.39322660128121761 0 -0.41860120920492089 -0.3804244296874566 0 -0.41412050099289671 -0.4064420045106692 0 -0.41293465319379657 -0.39322660128121761 0 -0.40092696773705572 -0.39947867840182799 0 -0.41293465319379657 -0.39322660128121761 0 -0.41860120920492089 -0.3804244296874566 0 -0.39600251545542342 -0.38224660206833327 0 -0.40092696773705572 -0.39947867840182799 0 -0.38524472509184832 -0.40521618567257578 0 -0.39825486268490951 -0.411985419321795 0 -0.41293465319379657 -0.39322660128121761 0 -0.39600251545542342 -0.38224660206833327 0 -0.40092696773705572 -0.39947867840182799 0 -0.41412050099289671 -0.4064420045106692 0 -0.40092696773705572 -0.39947867840182799 0 -0.39825486268490951 -0.411985419321795 0 -0.39600251545542342 -0.38224660206833327 0 -0.40092696773705572 -0.39947867840182799 0 -0.38524472509184832 -0.40521618567257578 0 -0.37981789051486531 -0.40249136897996052 0 -0.38093630885333318 -0.39155049565269678 0 -0.36845583533737852 -0.38560237085173249 0 -0.39600251545542342 -0.38224660206833327 0 -0.38524472509184832 -0.40521618567257578 0 -0.39600251545542342 -0.38224660206833327 0 -0.38524472509184832 -0.40521618567257578 0 -0.38093630885333318 -0.39155049565269678 0 -0.38524472509184832 -0.40521618567257578 0 -0.37981789051486531 -0.40249136897996052 0 -0.38093630885333318 -0.39155049565269678 0 -0.37981789051486531 -0.40249136897996052 0 -0.37601704211179948 -0.41047839704081651 0 -0.36960007437807008 -0.39879557688083861 0 -0.38524472509184832 -0.40521618567257578 0 -0.37981789051486531 -0.40249136897996052 0 -0.37601704211179948 -0.41047839704081651 0 -0.39600251545542342 -0.38224660206833327 0 -0.38093630885333318 -0.39155049565269678 0 -0.38187580265442911 -0.38355052738800238 0 -0.38093630885333318 -0.39155049565269678 0 -0.3759023492620272 -0.37814682537852329 0 -0.36845583533737852 -0.38560237085173249 0 -0.38093630885333318 -0.39155049565269678 0 -0.3759023492620272 -0.37814682537852329 0 -0.38093630885333318 -0.39155049565269678 0 -0.38187580265442911 -0.38355052738800238 0 -0.3759023492620272 -0.37814682537852329 0 -0.38187580265442911 -0.38355052738800238 0 -0.37979388515948742 -0.37896530263301598 0 -0.3759023492620272 -0.37814682537852329 0 -0.38187580265442911 -0.38355052738800238 0 -0.37979388515948742 -0.37896530263301598 0 -0.38307336420015298 -0.37702770842289968 0 -0.37979388515948742 -0.37896530263301598 0 -0.3759023492620272 -0.37814682537852329 0 -0.38075208743137801 -0.37436048879717287 0 -0.37979388515948742 -0.37896530263301598 0 -0.38307336420015298 -0.37702770842289968 0 -0.38075208743137801 -0.37436048879717287 0 -0.39600251545542342 -0.38224660206833327 0 -0.38307336420015298 -0.37702770842289968 0 -0.38798606415442682 -0.37257274489144399 0 -0.39600251545542342 -0.38224660206833327 0 -0.38187580265442911 -0.38355052738800238 0 -0.38307336420015298 -0.37702770842289968 0 -0.41508809379409511 -0.43319730311662052 0 -0.39644606631157348 -0.42822454086278677 0 -0.40373881166512637 -0.44887363791454099 0 -0.39644606631157348 -0.42822454086278677 0 -0.39825486268490951 -0.411985419321795 0 -0.38860814720415099 -0.41840297878349397 0 -0.41063832349300899 -0.41970077410794099 0 -0.39644606631157348 -0.42822454086278677 0 -0.39825486268490951 -0.411985419321795 0 -0.38524472509184832 -0.40521618567257578 0 -0.39825486268490951 -0.411985419321795 0 -0.38860814720415099 -0.41840297878349397 0 -0.38524472509184832 -0.40521618567257578 0 -0.38860814720415099 -0.41840297878349397 0 -0.3744869347282731 -0.42818576927681828 0 -0.38524472509184832 -0.40521618567257578 0 -0.3744869347282731 -0.42818576927681828 0 -0.38524472509184832 -0.40521618567257578 0 -0.37601704211179948 -0.41047839704081651 0 -0.3744869347282731 -0.42818576927681828 0 -0.39644606631157348 -0.42822454086278677 0 -0.38860814720415099 -0.41840297878349397 0 -0.3744869347282731 -0.42818576927681828 0 -0.39644606631157348 -0.42822454086278677 0 -0.38811639353944938 -0.44189261653749018 0 -0.3744869347282731 -0.42818576927681828 0 -0.38811639353944938 -0.44189261653749018 0 -0.36372914436469789 -0.45115535288106079 0 -0.3744869347282731 -0.42818576927681828 0 -0.38811639353944938 -0.44189261653749018 0 -0.38912887489226172 -0.46024280839623039 0 -0.36372914436469789 -0.45115535288106079 0 -0.39644606631157348 -0.42822454086278677 0 -0.38811639353944938 -0.44189261653749018 0 -0.40373881166512637 -0.44887363791454099 0 -0.38811639353944938 -0.44189261653749018 0 -0.40373881166512637 -0.44887363791454099 0 -0.38912887489226172 -0.46024280839623039 0 -0.38912887489226172 -0.46024280839623039 0 -0.3936650873929336 -0.47656217978209042 0 -0.40777201582978201 -0.46789701495477382 0 -0.40373881166512637 -0.44887363791454099 0 -0.38912887489226172 -0.46024280839623039 0 -0.40777201582978201 -0.46789701495477382 0 -0.38912887489226172 -0.46024280839623039 0 -0.37502175290265061 -0.47431805020415158 0 -0.36372914436469789 -0.45115535288106079 0 -0.38912887489226172 -0.46024280839623039 0 -0.37502175290265061 -0.47431805020415158 0 -0.3936650873929336 -0.47656217978209042 0 -0.38568059225937951 -0.49008316144307451 0 -0.40030267429403987 -0.5 0 -0.36394707794846332 -0.49358884076630988 0 -0.37502175290265061 -0.47431805020415158 0 -0.38568059225937951 -0.49008316144307451 0 -0.3936650873929336 -0.47656217978209042 0 -0.38568059225937951 -0.49008316144307451 0 -0.40741410657029559 -0.48657748211983898 0 -0.38568059225937951 -0.49008316144307451 0 -0.3936650873929336 -0.47656217978209042 0 -0.40741410657029559 -0.48657748211983898 0 -0.38568059225937951 -0.49008316144307451 0 -0.40030267429403987 -0.5 0 -0.40741410657029559 -0.48657748211983898 0 -0.3936650873929336 -0.47656217978209042 0 -0.40741410657029559 -0.48657748211983898 0 -0.40777201582978201 -0.46789701495477382 0 -0.4437440370372035 -0.5 0 -0.40741410657029559 -0.48657748211983898 0 -0.42809511023068592 -0.47672877674729941 0 -0.4437440370372035 -0.5 0 -0.40030267429403987 -0.5 0 -0.40741410657029559 -0.48657748211983898 0 -0.40741410657029559 -0.48657748211983898 0 -0.42809511023068592 -0.47672877674729941 0 -0.40777201582978201 -0.46789701495477382 0 -0.45566396609255122 -0.46738184304253999 0 -0.42809511023068592 -0.47672877674729941 0 -0.4245901042273888 -0.45839720476864299 0 -0.44230143731911947 -0.44175467822505898 0 -0.41508809379409511 -0.43319730311662052 0 -0.4245901042273888 -0.45839720476864299 0 -0.41508809379409511 -0.43319730311662052 0 -0.40373881166512637 -0.44887363791454099 0 -0.4245901042273888 -0.45839720476864299 0 -0.40373881166512637 -0.44887363791454099 0 -0.4245901042273888 -0.45839720476864299 0 -0.40777201582978201 -0.46789701495477382 0 -0.42809511023068592 -0.47672877674729941 0 -0.4245901042273888 -0.45839720476864299 0 -0.40777201582978201 -0.46789701495477382 0 -0.4390991636073881 -0.26041247515603222 0 -0.45524180529174452 -0.27192125516298149 0 -0.45360333466393149 -0.25675680710036891 0 -0.4390991636073881 -0.26041247515603222 0 -0.45360333466393149 -0.25675680710036891 0 -0.44455293825259162 -0.24420180263955019 0 -0.4390991636073881 -0.26041247515603222 0 -0.43087007348020911 -0.2482678335700837 0 -0.44455293825259162 -0.24420180263955019 0 -0.4390991636073881 -0.26041247515603222 0 -0.44151595066371191 -0.2753060157213349 0 -0.45524180529174452 -0.27192125516298149 0 -0.44151595066371191 -0.2753060157213349 0 -0.45524180529174452 -0.27192125516298149 0 -0.44949790992150768 -0.28716965248218879 0 -0.45524180529174452 -0.27192125516298149 0 -0.47050690663659173 -0.27497962663607228 0 -0.46342062516237531 -0.28655080436028407 0 -0.45524180529174452 -0.27192125516298149 0 -0.4657879472486593 -0.26108541193090051 0 -0.47050690663659173 -0.27497962663607228 0 -0.4657879472486593 -0.26108541193090051 0 -0.45360333466393149 -0.25675680710036891 0 -0.45960163186968561 -0.24483046644316611 0 -0.4657879472486593 -0.26108541193090051 0 -0.47874668222461941 -0.24787796986358751 0 -0.45960163186968561 -0.24483046644316611 0 -0.45524180529174452 -0.27192125516298149 0 -0.4657879472486593 -0.26108541193090051 0 -0.45360333466393149 -0.25675680710036891 0 -0.4657879472486593 -0.26108541193090051 0 -0.47757311502094812 -0.26599718200831451 0 -0.47874668222461941 -0.24787796986358751 0 -0.49164879552119639 -0.26888858072784477 0 -0.47757311502094812 -0.26599718200831451 0 -0.47874668222461941 -0.24787796986358751 0 -0.49164879552119639 -0.26888858072784477 0 -0.47874668222461941 -0.24787796986358751 0 -0.5 -0.25920616778627159 0 -0.49164879552119639 -0.26888858072784477 0 -0.49537896685928201 -0.2468030661077717 0 -0.49164879552119639 -0.26888858072784477 0 -0.49537896685928201 -0.2468030661077717 0 -0.49164879552119639 -0.26888858072784477 0 -0.49537896685928201 -0.2468030661077717 0 -0.47874668222461941 -0.24787796986358751 0 -0.49164879552119639 -0.26888858072784477 0 -0.48821335806337252 -0.28922904161403179 0 -0.49164879552119639 -0.26888858072784477 0 -0.48821335806337252 -0.28922904161403179 0 -0.50000000000000222 -0.28248820611623832 0 -0.49164879552119639 -0.26888858072784477 0 -0.48117524347367308 -0.2771543208831676 0 -0.48821335806337252 -0.28922904161403179 0 -0.5 -0.25920616778627159 0 -0.49164879552119639 -0.26888858072784477 0 -0.50000000000000222 -0.28248820611623832 0 -0.49164879552119639 -0.26888858072784477 0 -0.50000000000000222 -0.28248820611623832 0 -0.49164879552119639 -0.26888858072784477 0 -0.48117524347367308 -0.2771543208831676 0 -0.47757311502094812 -0.26599718200831451 0 -0.4657879472486593 -0.26108541193090051 0 -0.47757311502094812 -0.26599718200831451 0 -0.47050690663659173 -0.27497962663607228 0 -0.48117524347367308 -0.2771543208831676 0 -0.47757311502094812 -0.26599718200831451 0 -0.47050690663659173 -0.27497962663607228 0 -0.48117524347367308 -0.2771543208831676 0 -0.47050690663659173 -0.27497962663607228 0 -0.47667124854332188 -0.28820872077451148 0 -0.47667124854332188 -0.28820872077451148 0 -0.48821335806337252 -0.28922904161403179 0 -0.48477792060554892 -0.30956950250021892 0 -0.47050690663659173 -0.27497962663607228 0 -0.47667124854332188 -0.28820872077451148 0 -0.46342062516237531 -0.28655080436028407 0 -0.47667124854332188 -0.28820872077451148 0 -0.4705456826053766 -0.29813617333486631 0 -0.46342062516237531 -0.28655080436028407 0 -0.48117524347367308 -0.2771543208831676 0 -0.47667124854332188 -0.28820872077451148 0 -0.48821335806337252 -0.28922904161403179 0 -0.48821335806337252 -0.28922904161403179 0 -0.50000000000000222 -0.28248820611623832 0 -0.50000000000000167 -0.30161210183263981 0 -0.48821335806337252 -0.28922904161403179 0 -0.48477792060554892 -0.30956950250021892 0 -0.50000000000000167 -0.30161210183263981 0 -0.48477792060554892 -0.30956950250021892 0 -0.48489276485012089 -0.32578425237027819 0 -0.48821335806337252 -0.28922904161403179 0 -0.50000000000000167 -0.30161210183263981 0 -0.48477792060554892 -0.30956950250021892 0 -0.47667124854332188 -0.28820872077451148 0 -0.48477792060554892 -0.30956950250021892 0 -0.4705456826053766 -0.29813617333486631 0 -0.48477792060554892 -0.30956950250021892 0 -0.4699398639492654 -0.30866440632723402 0 -0.47363751034604601 -0.31862390186809048 0 -0.48477792060554892 -0.30956950250021892 0 -0.4705456826053766 -0.29813617333486631 0 -0.4699398639492654 -0.30866440632723402 0 -0.4699398639492654 -0.30866440632723402 0 -0.45780943339521768 -0.30065285365808753 0 -0.46292877279413791 -0.31633960027490687 0 -0.45780943339521768 -0.30065285365808753 0 -0.44862912425492291 -0.31021778230937042 0 -0.46292877279413791 -0.31633960027490687 0 -0.4705456826053766 -0.29813617333486631 0 -0.4699398639492654 -0.30866440632723402 0 -0.45780943339521768 -0.30065285365808753 0 -0.4705456826053766 -0.29813617333486631 0 -0.45780943339521768 -0.30065285365808753 0 -0.46342062516237531 -0.28655080436028407 0 -0.45524180529174452 -0.27192125516298149 0 -0.46342062516237531 -0.28655080436028407 0 -0.44949790992150768 -0.28716965248218879 0 -0.45780943339521768 -0.30065285365808753 0 -0.46342062516237531 -0.28655080436028407 0 -0.44949790992150768 -0.28716965248218879 0 -0.44949790992150768 -0.28716965248218879 0 -0.43842839155002661 -0.29885044216654899 0 -0.43369583836386472 -0.28491629531842738 0 -0.44151595066371191 -0.2753060157213349 0 -0.44949790992150768 -0.28716965248218879 0 -0.43369583836386472 -0.28491629531842738 0 -0.45780943339521768 -0.30065285365808753 0 -0.44949790992150768 -0.28716965248218879 0 -0.43842839155002661 -0.29885044216654899 0 -0.45780943339521768 -0.30065285365808753 0 -0.43842839155002661 -0.29885044216654899 0 -0.44862912425492291 -0.31021778230937042 0 -0.43842839155002661 -0.29885044216654899 0 -0.44862912425492291 -0.31021778230937042 0 -0.43519360181830702 -0.30879669313083691 0 -0.4381855652163188 -0.32174551747962038 0 -0.46083980418067882 -0.3391180043914318 0 -0.45572211987851408 -0.32333621073391022 0 -0.44862912425492291 -0.31021778230937042 0 -0.4381855652163188 -0.32174551747962038 0 -0.45572211987851408 -0.32333621073391022 0 -0.44862912425492291 -0.31021778230937042 0 -0.4381855652163188 -0.32174551747962038 0 -0.43519360181830702 -0.30879669313083691 0 -0.4381855652163188 -0.32174551747962038 0 -0.44264206767950298 -0.34180094851441267 0 -0.46083980418067882 -0.3391180043914318 0 -0.4381855652163188 -0.32174551747962038 0 -0.46083980418067882 -0.3391180043914318 0 -0.46083980418067882 -0.3391180043914318 0 -0.46802733294651189 -0.32926014921422148 0 -0.47031963422241108 -0.34995640290791658 0 -0.46083980418067882 -0.3391180043914318 0 -0.46802733294651189 -0.32926014921422148 0 -0.45572211987851408 -0.32333621073391022 0 -0.46802733294651189 -0.32926014921422148 0 -0.46292877279413791 -0.31633960027490687 0 -0.47363751034604601 -0.31862390186809048 0 -0.46802733294651189 -0.32926014921422148 0 -0.45572211987851408 -0.32333621073391022 0 -0.46292877279413791 -0.31633960027490687 0 -0.44862912425492291 -0.31021778230937042 0 -0.45572211987851408 -0.32333621073391022 0 -0.46292877279413791 -0.31633960027490687 0 -0.48477792060554892 -0.30956950250021892 0 -0.48134248314772521 -0.32990996338640588 0 -0.4699398639492654 -0.30866440632723402 0 -0.46292877279413791 -0.31633960027490687 0 -0.47363751034604601 -0.31862390186809048 0 -0.50000000000000167 -0.30161210183263981 0 -0.48489276485012089 -0.32578425237027819 0 -0.48802137997711659 -0.34414952835975099 0 -0.50000000000000167 -0.30161210183263981 0 -0.48802137997711659 -0.34414952835975099 0 -0.5 -0.35841782388268417 0 -0.48477792060554892 -0.30956950250021892 0 -0.47363751034604601 -0.31862390186809048 0 -0.48134248314772521 -0.32990996338640588 0 -0.48477792060554892 -0.30956950250021892 0 -0.48489276485012089 -0.32578425237027819 0 -0.48134248314772521 -0.32990996338640588 0 -0.46802733294651189 -0.32926014921422148 0 -0.47363751034604601 -0.31862390186809048 0 -0.48134248314772521 -0.32990996338640588 0 -0.50000000000000167 -0.30161210183263981 0 -0.48489276485012089 -0.32578425237027819 0 -0.48489276485012089 -0.32578425237027819 0 -0.47031963422241108 -0.34995640290791658 0 -0.48802137997711659 -0.34414952835975099 0 -0.48489276485012089 -0.32578425237027819 0 -0.48134248314772521 -0.32990996338640588 0 -0.47031963422241108 -0.34995640290791658 0 -0.48489276485012089 -0.32578425237027819 0 -0.47031963422241108 -0.34995640290791658 0 -0.46802733294651189 -0.32926014921422148 0 -0.48134248314772521 -0.32990996338640588 0 -0.47031963422241108 -0.34995640290791658 0 -0.47894729271241038 -0.39512202691991383 0 -0.5 -0.35841782388268417 0 -0.47860696210132803 -0.36435486710316412 0 -0.47031963422241108 -0.34995640290791658 0 -0.48802137997711659 -0.34414952835975099 0 -0.47860696210132803 -0.36435486710316412 0 -0.48802137997711659 -0.34414952835975099 0 -0.5 -0.35841782388268417 0 -0.47860696210132803 -0.36435486710316412 0 -0.47031963422241108 -0.34995640290791658 0 -0.47860696210132803 -0.36435486710316412 0 -0.45574650359470142 -0.37412855344555501 0 -0.47031963422241108 -0.34995640290791658 0 -0.45574650359470142 -0.37412855344555501 0 -0.47031963422241108 -0.34995640290791658 0 -0.45574650359470142 -0.37412855344555501 0 -0.45419810727844773 -0.35265296088453368 0 -0.46083980418067882 -0.3391180043914318 0 -0.47031963422241108 -0.34995640290791658 0 -0.45419810727844773 -0.35265296088453368 0 -0.44264206767950298 -0.34180094851441267 0 -0.45419810727844773 -0.35265296088453368 0 -0.44144252671494411 -0.35826089516335241 0 -0.44264206767950298 -0.34180094851441267 0 -0.46083980418067882 -0.3391180043914318 0 -0.45419810727844773 -0.35265296088453368 0 -0.44264206767950298 -0.34180094851441267 0 -0.44144252671494411 -0.35826089516335241 0 -0.43047170976324928 -0.34815610271458097 0 -0.43643624458113078 -0.37614954950182389 0 -0.45574650359470142 -0.37412855344555501 0 -0.44144252671494411 -0.35826089516335241 0 -0.45574650359470142 -0.37412855344555501 0 -0.45419810727844773 -0.35265296088453368 0 -0.44144252671494411 -0.35826089516335241 0 -0.43643624458113078 -0.37614954950182389 0 -0.44144252671494411 -0.35826089516335241 0 -0.42315151332907208 -0.36163855881874352 0 -0.43643624458113078 -0.37614954950182389 0 -0.41860120920492089 -0.3804244296874566 0 -0.42315151332907208 -0.36163855881874352 0 -0.44144252671494411 -0.35826089516335241 0 -0.42315151332907208 -0.36163855881874352 0 -0.43047170976324928 -0.34815610271458097 0 -0.42315151332907208 -0.36163855881874352 0 -0.43047170976324928 -0.34815610271458097 0 -0.41490322609999669 -0.34687126117393868 0 -0.42315151332907208 -0.36163855881874352 0 -0.41490322609999669 -0.34687126117393868 0 -0.39757477928929252 -0.36038350248956008 0 -0.41860120920492089 -0.3804244296874566 0 -0.42315151332907208 -0.36163855881874352 0 -0.39757477928929252 -0.36038350248956008 0 -0.41860120920492089 -0.3804244296874566 0 -0.39757477928929252 -0.36038350248956008 0 -0.41860120920492089 -0.3804244296874566 0 -0.39600251545542342 -0.38224660206833327 0 -0.39757477928929252 -0.36038350248956008 0 -0.39600251545542342 -0.38224660206833327 0 -0.39757477928929252 -0.36038350248956008 0 -0.38798606415442682 -0.37257274489144399 0 -0.39757477928929252 -0.36038350248956008 0 -0.38798606415442682 -0.37257274489144399 0 -0.37894777626538523 -0.36754201099490752 0 -0.39757477928929252 -0.36038350248956008 0 -0.37894777626538523 -0.36754201099490752 0 -0.38198591695923362 -0.35369740800768951 0 -0.38307336420015298 -0.37702770842289968 0 -0.38798606415442682 -0.37257274489144399 0 -0.38075208743137801 -0.37436048879717287 0 -0.37894777626538523 -0.36754201099490752 0 -0.38198591695923362 -0.35369740800768951 0 -0.36866915936615707 -0.35888737550884292 0 -0.38798606415442682 -0.37257274489144399 0 -0.37894777626538523 -0.36754201099490752 0 -0.38075208743137801 -0.37436048879717287 0 -0.3759023492620272 -0.37814682537852329 0 -0.37894777626538523 -0.36754201099490752 0 -0.38075208743137801 -0.37436048879717287 0 -0.39757477928929252 -0.36038350248956008 0 -0.38198591695923362 -0.35369740800768951 0 -0.38980658888708303 -0.34172521522345228 0 -0.38198591695923362 -0.35369740800768951 0 -0.38980658888708303 -0.34172521522345228 0 -0.37628784521265601 -0.34365063830525783 0 -0.38198591695923362 -0.35369740800768951 0 -0.37628784521265601 -0.34365063830525783 0 -0.36866915936615707 -0.35888737550884292 0 -0.39757477928929252 -0.36038350248956008 0 -0.40179124936574939 -0.34431050935293761 0 -0.38980658888708303 -0.34172521522345228 0 -0.41490322609999669 -0.34687126117393868 0 -0.39757477928929252 -0.36038350248956008 0 -0.40179124936574939 -0.34431050935293761 0 -0.40488040318662538 -0.32826205852479939 0 -0.38980658888708303 -0.34172521522345228 0 -0.37954159138052013 -0.32431526714714137 0 -0.40179124936574939 -0.34431050935293761 0 -0.40488040318662538 -0.32826205852479939 0 -0.38980658888708303 -0.34172521522345228 0 -0.38980658888708303 -0.34172521522345228 0 -0.37628784521265601 -0.34365063830525783 0 -0.37954159138052013 -0.32431526714714137 0 -0.37954159138052013 -0.32431526714714137 0 -0.39613329614759679 -0.31049606074591501 0 -0.38085035384366023 -0.3094789904538523 0 -0.37954159138052013 -0.32431526714714137 0 -0.38085035384366023 -0.3094789904538523 0 -0.36972964033199579 -0.31150233151287898 0 -0.40488040318662538 -0.32826205852479939 0 -0.37954159138052013 -0.32431526714714137 0 -0.39613329614759679 -0.31049606074591501 0 -0.40488040318662538 -0.32826205852479939 0 -0.40727693224574518 -0.31634524990821072 0 -0.39613329614759679 -0.31049606074591501 0 -0.40488040318662538 -0.32826205852479939 0 -0.37954159138052013 -0.32431526714714137 0 -0.4157352586864847 -0.32090252632223959 0 -0.42491784128687349 -0.31980748106803131 0 -0.41553132625195988 -0.30437303056780762 0 -0.40727693224574518 -0.31634524990821072 0 -0.4157352586864847 -0.32090252632223959 0 -0.41553132625195988 -0.30437303056780762 0 -0.4157352586864847 -0.32090252632223959 0 -0.41553132625195988 -0.30437303056780762 0 -0.40488040318662538 -0.32826205852479939 0 -0.4157352586864847 -0.32090252632223959 0 -0.43021921499273069 -0.33220884990245753 0 -0.40488040318662538 -0.32826205852479939 0 -0.40727693224574518 -0.31634524990821072 0 -0.4157352586864847 -0.32090252632223959 0 -0.40488040318662538 -0.32826205852479939 0 -0.43021921499273069 -0.33220884990245753 0 -0.41490322609999669 -0.34687126117393868 0 -0.40488040318662538 -0.32826205852479939 0 -0.43021921499273069 -0.33220884990245753 0 -0.41490322609999669 -0.34687126117393868 0 -0.40179124936574939 -0.34431050935293761 0 -0.40488040318662538 -0.32826205852479939 0 -0.4381855652163188 -0.32174551747962038 0 -0.44264206767950298 -0.34180094851441267 0 -0.43021921499273069 -0.33220884990245753 0 -0.43047170976324928 -0.34815610271458097 0 -0.41490322609999669 -0.34687126117393868 0 -0.43021921499273069 -0.33220884990245753 0 -0.44264206767950298 -0.34180094851441267 0 -0.43047170976324928 -0.34815610271458097 0 -0.43021921499273069 -0.33220884990245753 0 -0.4381855652163188 -0.32174551747962038 0 -0.41553132625195988 -0.30437303056780762 0 -0.4381855652163188 -0.32174551747962038 0 -0.43021921499273069 -0.33220884990245753 0 -0.42491784128687349 -0.31980748106803131 0 -0.4381855652163188 -0.32174551747962038 0 -0.42491784128687349 -0.31980748106803131 0 -0.41553132625195988 -0.30437303056780762 0 -0.4157352586864847 -0.32090252632223959 0 -0.43021921499273069 -0.33220884990245753 0 -0.42491784128687349 -0.31980748106803131 0 -0.4381855652163188 -0.32174551747962038 0 -0.43519360181830702 -0.30879669313083691 0 -0.41553132625195988 -0.30437303056780762 0 -0.43842839155002661 -0.29885044216654899 0 -0.42501354450155132 -0.29272490754908759 0 -0.41553132625195988 -0.30437303056780762 0 -0.43842839155002661 -0.29885044216654899 0 -0.43519360181830702 -0.30879669313083691 0 -0.41553132625195988 -0.30437303056780762 0 -0.43842839155002661 -0.29885044216654899 0 -0.43369583836386472 -0.28491629531842738 0 -0.42501354450155132 -0.29272490754908759 0 -0.43369583836386472 -0.28491629531842738 0 -0.42501354450155132 -0.29272490754908759 0 -0.41523609398876232 -0.28044333810612038 0 -0.41553132625195988 -0.30437303056780762 0 -0.41523609398876232 -0.28044333810612038 0 -0.42501354450155132 -0.29272490754908759 0 -0.41553132625195988 -0.30437303056780762 0 -0.41523609398876232 -0.28044333810612038 0 -0.41553132625195988 -0.30437303056780762 0 -0.39804551514420999 -0.29096397166763283 0 -0.41523609398876232 -0.28044333810612038 0 -0.40727693224574518 -0.31634524990821072 0 -0.41553132625195988 -0.30437303056780762 0 -0.39613329614759679 -0.31049606074591501 0 -0.41553132625195988 -0.30437303056780762 0 -0.39804551514420999 -0.29096397166763283 0 -0.41553132625195988 -0.30437303056780762 0 -0.39613329614759679 -0.31049606074591501 0 -0.39804551514420999 -0.29096397166763283 0 -0.39613329614759679 -0.31049606074591501 0 -0.38288890200021453 -0.29641931841193342 0 -0.39804551514420999 -0.29096397166763283 0 -0.39613329614759679 -0.31049606074591501 0 -0.38085035384366023 -0.3094789904538523 0 -0.38288890200021453 -0.29641931841193342 0 -0.38085035384366023 -0.3094789904538523 0 -0.38288890200021453 -0.29641931841193342 0 -0.37140178181993339 -0.30067511361573862 0 -0.39804551514420999 -0.29096397166763283 0 -0.38055970403646139 -0.2775549127674567 0 -0.38288890200021453 -0.29641931841193342 0 -0.38055970403646139 -0.2775549127674567 0 -0.3708285608100238 -0.28663936001168011 0 -0.38288890200021453 -0.29641931841193342 0 -0.39804551514420999 -0.29096397166763283 0 -0.38055970403646139 -0.2775549127674567 0 -0.38288890200021453 -0.29641931841193342 0 -0.3708285608100238 -0.28663936001168011 0 -0.37140178181993339 -0.30067511361573862 0 -0.39804551514420999 -0.29096397166763283 0 -0.39573730740489521 -0.26669863783090147 0 -0.38055970403646139 -0.2775549127674567 0 -0.39804551514420999 -0.29096397166763283 0 -0.39573730740489521 -0.26669863783090147 0 -0.41523609398876232 -0.28044333810612038 0 -0.39573730740489521 -0.26669863783090147 0 -0.38055970403646139 -0.2775549127674567 0 -0.37847751699227661 -0.2650232456814825 0 -0.39573730740489521 -0.26669863783090147 0 -0.38222351593722831 -0.25265012121307601 0 -0.37847751699227661 -0.2650232456814825 0 -0.39573730740489521 -0.26669863783090147 0 -0.41494086172556349 -0.25651364564443319 0 -0.40267907743116871 -0.24399032946339719 0 -0.39573730740489521 -0.26669863783090147 0 -0.38222351593722831 -0.25265012121307601 0 -0.40267907743116871 -0.24399032946339719 0 -0.39573730740489521 -0.26669863783090147 0 -0.41494086172556349 -0.25651364564443319 0 -0.41523609398876232 -0.28044333810612038 0 -0.41494086172556349 -0.25651364564443319 0 -0.41523609398876232 -0.28044333810612038 0 -0.41494086172556349 -0.25651364564443319 0 -0.41523609398876232 -0.28044333810612038 0 -0.43004503613405409 -0.27211040048704432 0 -0.43369583836386472 -0.28491629531842738 0 -0.41523609398876232 -0.28044333810612038 0 -0.43004503613405409 -0.27211040048704432 0 -0.44151595066371191 -0.2753060157213349 0 -0.43369583836386472 -0.28491629531842738 0 -0.43004503613405409 -0.27211040048704432 0 -0.4390991636073881 -0.26041247515603222 0 -0.44151595066371191 -0.2753060157213349 0 -0.43004503613405409 -0.27211040048704432 0 -0.4390991636073881 -0.26041247515603222 0 -0.41494086172556349 -0.25651364564443319 0 -0.43087007348020911 -0.2482678335700837 0 -0.4390991636073881 -0.26041247515603222 0 -0.41494086172556349 -0.25651364564443319 0 -0.43004503613405409 -0.27211040048704432 0 -0.31481979503186752 -0.25530384662369959 0 -0.32241457158726439 -0.26845522827212931 0 -0.33252058110213362 -0.25354567379234189 0 -0.31481979503186752 -0.25530384662369959 0 -0.32241457158726439 -0.26845522827212931 0 -0.30748898856133638 -0.26664065423350308 0 -0.32241457158726439 -0.26845522827212931 0 -0.31197806881480722 -0.28216603378379579 0 -0.30748898856133638 -0.26664065423350308 0 -0.32241457158726439 -0.26845522827212931 0 -0.33036557544197093 -0.28378102231050412 0 -0.31197806881480722 -0.28216603378379579 0 -0.33653155635384979 -0.26834145901071682 0 -0.35566311478539558 -0.26859462678867491 0 -0.33036557544197093 -0.28378102231050412 0 -0.35566311478539558 -0.26859462678867491 0 -0.33036557544197093 -0.28378102231050412 0 -0.32241457158726439 -0.26845522827212931 0 -0.33653155635384979 -0.26834145901071682 0 -0.33036557544197093 -0.28378102231050412 0 -0.33252058110213362 -0.25354567379234189 0 -0.35566311478539558 -0.26859462678867491 0 -0.34261796166657288 -0.24845914734495991 0 -0.33653155635384979 -0.26834145901071682 0 -0.33252058110213362 -0.25354567379234189 0 -0.35566311478539558 -0.26859462678867491 0 -0.32241457158726439 -0.26845522827212931 0 -0.33653155635384979 -0.26834145901071682 0 -0.33252058110213362 -0.25354567379234189 0 -0.36307389292871262 -0.26414585386728062 0 -0.34261796166657288 -0.24845914734495991 0 -0.36307389292871262 -0.26414585386728062 0 -0.35608750538503531 -0.2488188768555667 0 -0.34261796166657288 -0.24845914734495991 0 -0.36307389292871262 -0.26414585386728062 0 -0.35566311478539558 -0.26859462678867491 0 -0.34261796166657288 -0.24845914734495991 0 -0.33252058110213362 -0.25354567379234189 0 -0.35566311478539558 -0.26859462678867491 0 -0.38222351593722831 -0.25265012121307601 0 -0.36498091681668993 -0.25268992103884491 0 -0.36307389292871262 -0.26414585386728062 0 -0.36498091681668993 -0.25268992103884491 0 -0.36307389292871262 -0.26414585386728062 0 -0.35608750538503531 -0.2488188768555667 0 -0.38222351593722831 -0.25265012121307601 0 -0.37847751699227661 -0.2650232456814825 0 -0.36307389292871262 -0.26414585386728062 0 -0.38222351593722831 -0.25265012121307601 0 -0.36307389292871262 -0.26414585386728062 0 -0.38055970403646139 -0.2775549127674567 0 -0.36307389292871262 -0.26414585386728062 0 -0.36191878656256887 -0.27619908801224852 0 -0.38055970403646139 -0.2775549127674567 0 -0.37847751699227661 -0.2650232456814825 0 -0.36307389292871262 -0.26414585386728062 0 -0.38055970403646139 -0.2775549127674567 0 -0.36191878656256887 -0.27619908801224852 0 -0.3708285608100238 -0.28663936001168011 0 -0.38055970403646139 -0.2775549127674567 0 -0.36307389292871262 -0.26414585386728062 0 -0.36307389292871262 -0.26414585386728062 0 -0.36191878656256887 -0.27619908801224852 0 -0.35849091772575381 -0.27043346924710082 0 -0.35566311478539558 -0.26859462678867491 0 -0.34853111969174477 -0.28265607186037223 0 -0.33036557544197093 -0.28378102231050412 0 -0.35469029431666022 -0.27741905112789939 0 -0.35566311478539558 -0.26859462678867491 0 -0.34853111969174477 -0.28265607186037223 0 -0.36191878656256887 -0.27619908801224852 0 -0.35469029431666022 -0.27741905112789939 0 -0.35963758497508969 -0.28423674366843421 0 -0.36191878656256887 -0.27619908801224852 0 -0.35469029431666022 -0.27741905112789939 0 -0.35743547713327622 -0.27341818478630942 0 -0.35469029431666022 -0.27741905112789939 0 -0.34853111969174477 -0.28265607186037223 0 -0.35427764522647393 -0.28347333177491491 0 -0.35469029431666022 -0.27741905112789939 0 -0.35566311478539558 -0.26859462678867491 0 -0.35743547713327622 -0.27341818478630942 0 -0.36307389292871262 -0.26414585386728062 0 -0.35566311478539558 -0.26859462678867491 0 -0.36307389292871262 -0.26414585386728062 0 -0.35566311478539558 -0.26859462678867491 0 -0.35849091772575381 -0.27043346924710082 0 -0.35566311478539558 -0.26859462678867491 0 -0.35849091772575381 -0.27043346924710082 0 -0.35566311478539558 -0.26859462678867491 0 -0.35743547713327622 -0.27341818478630942 0 -0.35849091772575381 -0.27043346924710082 0 -0.36191878656256887 -0.27619908801224852 0 -0.35743547713327622 -0.27341818478630942 0 -0.35849091772575381 -0.27043346924710082 0 -0.34853111969174477 -0.28265607186037223 0 -0.3442786210685877 -0.29667031351947287 0 -0.35425158192240108 -0.28958146044295408 0 -0.35425158192240108 -0.28958146044295408 0 -0.36227705252188952 -0.29366878026629378 0 -0.35627651020036177 -0.29710088881775498 0 -0.35425158192240108 -0.28958146044295408 0 -0.35963758497508969 -0.28423674366843421 0 -0.36227705252188952 -0.29366878026629378 0 -0.3442786210685877 -0.29667031351947287 0 -0.35425158192240108 -0.28958146044295408 0 -0.35627651020036177 -0.29710088881775498 0 -0.34853111969174477 -0.28265607186037223 0 -0.35425158192240108 -0.28958146044295408 0 -0.35427764522647393 -0.28347333177491491 0 -0.35425158192240108 -0.28958146044295408 0 -0.35427764522647393 -0.28347333177491491 0 -0.35963758497508969 -0.28423674366843421 0 -0.35469029431666022 -0.27741905112789939 0 -0.35427764522647393 -0.28347333177491491 0 -0.35963758497508969 -0.28423674366843421 0 -0.36191878656256887 -0.27619908801224852 0 -0.35963758497508969 -0.28423674366843421 0 -0.3708285608100238 -0.28663936001168011 0 -0.35963758497508969 -0.28423674366843421 0 -0.36227705252188952 -0.29366878026629378 0 -0.3708285608100238 -0.28663936001168011 0 -0.36227705252188952 -0.29366878026629378 0 -0.3708285608100238 -0.28663936001168011 0 -0.37140178181993339 -0.30067511361573862 0 -0.38085035384366023 -0.3094789904538523 0 -0.36972964033199579 -0.31150233151287898 0 -0.37140178181993339 -0.30067511361573862 0 -0.36227705252188952 -0.29366878026629378 0 -0.37140178181993339 -0.30067511361573862 0 -0.35955790264279741 -0.30434847061996628 0 -0.36972964033199579 -0.31150233151287898 0 -0.35955790264279741 -0.30434847061996628 0 -0.36134384035565292 -0.31397614692653181 0 -0.36972964033199579 -0.31150233151287898 0 -0.37140178181993339 -0.30067511361573862 0 -0.35955790264279741 -0.30434847061996628 0 -0.35955790264279741 -0.30434847061996628 0 -0.35289245389065921 -0.30844984969809142 0 -0.36134384035565292 -0.31397614692653181 0 -0.35289245389065921 -0.30844984969809142 0 -0.3521386743135303 -0.31487248681162988 0 -0.36134384035565292 -0.31397614692653181 0 -0.35955790264279741 -0.30434847061996628 0 -0.35289245389065921 -0.30844984969809142 0 -0.35179008138502937 -0.30258540998621519 0 -0.36227705252188952 -0.29366878026629378 0 -0.35955790264279741 -0.30434847061996628 0 -0.35627651020036177 -0.29710088881775498 0 -0.35955790264279741 -0.30434847061996628 0 -0.35627651020036177 -0.29710088881775498 0 -0.35179008138502937 -0.30258540998621519 0 -0.3442786210685877 -0.29667031351947287 0 -0.35627651020036177 -0.29710088881775498 0 -0.35179008138502937 -0.30258540998621519 0 -0.3442786210685877 -0.29667031351947287 0 -0.35179008138502937 -0.30258540998621519 0 -0.3459449191227405 -0.30635752727579019 0 -0.35289245389065921 -0.30844984969809142 0 -0.3459449191227405 -0.30635752727579019 0 -0.34715652627512572 -0.31347986591977439 0 -0.35289245389065921 -0.30844984969809142 0 -0.34715652627512572 -0.31347986591977439 0 -0.3521386743135303 -0.31487248681162988 0 -0.35289245389065921 -0.30844984969809142 0 -0.35179008138502937 -0.30258540998621519 0 -0.3459449191227405 -0.30635752727579019 0 -0.3459449191227405 -0.30635752727579019 0 -0.34264049283586578 -0.31056729426944463 0 -0.34715652627512572 -0.31347986591977439 0 -0.3459449191227405 -0.30635752727579019 0 -0.34264049283586578 -0.31056729426944463 0 -0.33561838672177308 -0.30690335856927392 0 -0.3442786210685877 -0.29667031351947287 0 -0.33561838672177308 -0.30690335856927392 0 -0.32599267098277901 -0.29985956100814731 0 -0.33561838672177308 -0.30690335856927392 0 -0.31315615206785441 -0.31246843830047438 0 -0.341842139223824 -0.31552842531293968 0 -0.34264049283586578 -0.31056729426944463 0 -0.33561838672177308 -0.30690335856927392 0 -0.341842139223824 -0.31552842531293968 0 -0.3442786210685877 -0.29667031351947287 0 -0.3459449191227405 -0.30635752727579019 0 -0.33561838672177308 -0.30690335856927392 0 -0.3442786210685877 -0.29667031351947287 0 -0.33036557544197093 -0.28378102231050412 0 -0.32599267098277901 -0.29985956100814731 0 -0.34853111969174477 -0.28265607186037223 0 -0.3442786210685877 -0.29667031351947287 0 -0.33036557544197093 -0.28378102231050412 0 -0.33036557544197093 -0.28378102231050412 0 -0.32599267098277901 -0.29985956100814731 0 -0.30506803609854632 -0.29896741783233299 0 -0.33036557544197093 -0.28378102231050412 0 -0.30506803609854632 -0.29896741783233299 0 -0.33036557544197093 -0.28378102231050412 0 -0.30506803609854632 -0.29896741783233299 0 -0.31197806881480722 -0.28216603378379579 0 -0.33561838672177308 -0.30690335856927392 0 -0.32599267098277901 -0.29985956100814731 0 -0.31315615206785441 -0.31246843830047438 0 -0.32599267098277901 -0.29985956100814731 0 -0.31315615206785441 -0.31246843830047438 0 -0.30506803609854632 -0.29896741783233299 0 -0.31315615206785441 -0.31246843830047438 0 -0.341842139223824 -0.31552842531293968 0 -0.31315615206785441 -0.31246843830047438 0 -0.32795458561435548 -0.32539974728778298 0 -0.33252906879644528 -0.31989902270668741 0 -0.31315615206785441 -0.31246843830047438 0 -0.32795458561435548 -0.32539974728778298 0 -0.31419637860872141 -0.32663458878628993 0 -0.31419637860872141 -0.32663458878628993 0 -0.32166048387664858 -0.33945657432665888 0 -0.3063855305851878 -0.33527326107254579 0 -0.32166048387664858 -0.33945657432665888 0 -0.31149858273451059 -0.34893176571954992 0 -0.3063855305851878 -0.33527326107254579 0 -0.32795458561435548 -0.32539974728778298 0 -0.31419637860872141 -0.32663458878628993 0 -0.32166048387664858 -0.33945657432665888 0 -0.32795458561435548 -0.32539974728778298 0 -0.33911356714033591 -0.32785209206057109 0 -0.34145500218869662 -0.34546728847576608 0 -0.32795458561435548 -0.32539974728778298 0 -0.34145500218869662 -0.34546728847576608 0 -0.32795458561435548 -0.32539974728778298 0 -0.32166048387664858 -0.33945657432665888 0 -0.34145500218869662 -0.34546728847576608 0 -0.33911356714033591 -0.32785209206057109 0 -0.34703414969818552 -0.33274060887722767 0 -0.34145500218869662 -0.34546728847576608 0 -0.33911356714033591 -0.32785209206057109 0 -0.34405463265540198 -0.32460480218395132 0 -0.34703414969818552 -0.33274060887722767 0 -0.31315615206785441 -0.31246843830047438 0 -0.33252906879644528 -0.31989902270668741 0 -0.341842139223824 -0.31552842531293968 0 -0.33911356714033591 -0.32785209206057109 0 -0.34057889993585688 -0.3182464105716688 0 -0.34405463265540198 -0.32460480218395132 0 -0.33911356714033591 -0.32785209206057109 0 -0.33252906879644528 -0.31989902270668741 0 -0.34057889993585688 -0.3182464105716688 0 -0.32795458561435548 -0.32539974728778298 0 -0.33911356714033591 -0.32785209206057109 0 -0.33252906879644528 -0.31989902270668741 0 -0.33252906879644528 -0.31989902270668741 0 -0.34057889993585688 -0.3182464105716688 0 -0.341842139223824 -0.31552842531293968 0 -0.34057889993585688 -0.3182464105716688 0 -0.341842139223824 -0.31552842531293968 0 -0.34715652627512572 -0.31347986591977439 0 -0.34264049283586578 -0.31056729426944463 0 -0.341842139223824 -0.31552842531293968 0 -0.34715652627512572 -0.31347986591977439 0 -0.34057889993585688 -0.3182464105716688 0 -0.35420277957441498 -0.3203684757694828 0 -0.34057889993585688 -0.3182464105716688 0 -0.34715652627512572 -0.31347986591977439 0 -0.35420277957441498 -0.3203684757694828 0 -0.34715652627512572 -0.31347986591977439 0 -0.35420277957441498 -0.3203684757694828 0 -0.3521386743135303 -0.31487248681162988 0 -0.34057889993585688 -0.3182464105716688 0 -0.3474877855864878 -0.32276255768980261 0 -0.35420277957441498 -0.3203684757694828 0 -0.34405463265540198 -0.32460480218395132 0 -0.3474877855864878 -0.32276255768980261 0 -0.35111483018027712 -0.32783054223410729 0 -0.34057889993585688 -0.3182464105716688 0 -0.34405463265540198 -0.32460480218395132 0 -0.3474877855864878 -0.32276255768980261 0 -0.3474877855864878 -0.32276255768980261 0 -0.35111483018027712 -0.32783054223410729 0 -0.35420277957441498 -0.3203684757694828 0 -0.35420277957441498 -0.3203684757694828 0 -0.3521386743135303 -0.31487248681162988 0 -0.36134384035565292 -0.31397614692653181 0 -0.35420277957441498 -0.3203684757694828 0 -0.3521386743135303 -0.31487248681162988 0 -0.37954159138052013 -0.32431526714714137 0 -0.35420277957441498 -0.3203684757694828 0 -0.36134384035565292 -0.31397614692653181 0 -0.37954159138052013 -0.32431526714714137 0 -0.35420277957441498 -0.3203684757694828 0 -0.37954159138052013 -0.32431526714714137 0 -0.35420277957441498 -0.3203684757694828 0 -0.36143596947028622 -0.33962792563916278 0 -0.37954159138052013 -0.32431526714714137 0 -0.36972964033199579 -0.31150233151287898 0 -0.36134384035565292 -0.31397614692653181 0 -0.37628784521265601 -0.34365063830525783 0 -0.37954159138052013 -0.32431526714714137 0 -0.36143596947028622 -0.33962792563916278 0 -0.35420277957441498 -0.3203684757694828 0 -0.36143596947028622 -0.33962792563916278 0 -0.35111483018027712 -0.32783054223410729 0 -0.35420277957441498 -0.3203684757694828 0 -0.36143596947028622 -0.33962792563916278 0 -0.36143596947028622 -0.33962792563916278 0 -0.34703414969818552 -0.33274060887722767 0 -0.34145500218869662 -0.34546728847576608 0 -0.35111483018027712 -0.32783054223410729 0 -0.36143596947028622 -0.33962792563916278 0 -0.34703414969818552 -0.33274060887722767 0 -0.34405463265540198 -0.32460480218395132 0 -0.35111483018027712 -0.32783054223410729 0 -0.34703414969818552 -0.33274060887722767 0 -0.35699942535589357 -0.35228213385311141 0 -0.35495541876303771 -0.36553482966374917 0 -0.34145500218869662 -0.34546728847576608 0 -0.35495541876303771 -0.36553482966374917 0 -0.33873422860219649 -0.36187265185558132 0 -0.34145500218869662 -0.34546728847576608 0 -0.35495541876303771 -0.36553482966374917 0 -0.34145500218869662 -0.34546728847576608 0 -0.36143596947028622 -0.33962792563916278 0 -0.35699942535589357 -0.35228213385311141 0 -0.34145500218869662 -0.34546728847576608 0 -0.37628784521265601 -0.34365063830525783 0 -0.36143596947028622 -0.33962792563916278 0 -0.36866915936615707 -0.35888737550884292 0 -0.36143596947028622 -0.33962792563916278 0 -0.35699942535589357 -0.35228213385311141 0 -0.36866915936615707 -0.35888737550884292 0 -0.36143596947028622 -0.33962792563916278 0 -0.36866915936615707 -0.35888737550884292 0 -0.35699942535589357 -0.35228213385311141 0 -0.36866915936615707 -0.35888737550884292 0 -0.35495541876303771 -0.36553482966374917 0 -0.3759023492620272 -0.37814682537852329 0 -0.36866915936615707 -0.35888737550884292 0 -0.3669956906821501 -0.372042850350712 0 -0.35495541876303771 -0.36553482966374917 0 -0.36845583533737852 -0.38560237085173249 0 -0.3759023492620272 -0.37814682537852329 0 -0.37894777626538523 -0.36754201099490752 0 -0.36866915936615707 -0.35888737550884292 0 -0.3759023492620272 -0.37814682537852329 0 -0.36866915936615707 -0.35888737550884292 0 -0.3669956906821501 -0.372042850350712 0 -0.36866915936615707 -0.35888737550884292 0 -0.3669956906821501 -0.372042850350712 0 -0.35495541876303771 -0.36553482966374917 0 -0.34468989220755381 -0.37316124319252147 0 -0.35495541876303771 -0.36553482966374917 0 -0.33873422860219649 -0.36187265185558132 0 -0.34468989220755381 -0.37316124319252147 0 -0.35495541876303771 -0.36553482966374917 0 -0.35209992242156229 -0.38165380008842592 0 -0.33873422860219649 -0.36187265185558132 0 -0.32429363431401209 -0.35791188494003001 0 -0.33296999904341879 -0.3835836911623296 0 -0.34468989220755381 -0.37316124319252147 0 -0.33873422860219649 -0.36187265185558132 0 -0.33296999904341879 -0.3835836911623296 0 -0.32166048387664858 -0.33945657432665888 0 -0.34145500218869662 -0.34546728847576608 0 -0.32429363431401209 -0.35791188494003001 0 -0.33873422860219649 -0.36187265185558132 0 -0.34145500218869662 -0.34546728847576608 0 -0.32429363431401209 -0.35791188494003001 0 -0.32166048387664858 -0.33945657432665888 0 -0.32429363431401209 -0.35791188494003001 0 -0.31149858273451059 -0.34893176571954992 0 -0.32429363431401209 -0.35791188494003001 0 -0.3123700305103399 -0.35815389304672468 0 -0.31149858273451059 -0.34893176571954992 0 -0.32429363431401209 -0.35791188494003001 0 -0.30987784576464111 -0.36915629670582512 0 -0.33296999904341879 -0.3835836911623296 0 -0.32429363431401209 -0.35791188494003001 0 -0.30987784576464111 -0.36915629670582512 0 -0.3123700305103399 -0.35815389304672468 0 -0.30987784576464111 -0.36915629670582512 0 -0.30381005922819571 -0.35661562482149373 0 -0.29157242595809812 -0.38065256397732611 0 -0.30381005922819571 -0.35661562482149373 0 -0.29157242595809812 -0.38065256397732611 0 -0.30987784576464111 -0.36915629670582512 0 -0.3123700305103399 -0.35815389304672468 0 -0.30381005922819571 -0.35661562482149373 0 -0.3123700305103399 -0.35815389304672468 0 -0.31149858273451059 -0.34893176571954992 0 -0.30381005922819571 -0.35661562482149373 0 -0.29872366550303953 -0.34496688556008448 0 -0.30381005922819571 -0.35661562482149373 0 -0.29050596211002178 -0.35221556567390572 0 -0.31149858273451059 -0.34893176571954992 0 -0.29872366550303953 -0.34496688556008448 0 -0.30381005922819571 -0.35661562482149373 0 -0.30381005922819571 -0.35661562482149373 0 -0.29050596211002178 -0.35221556567390572 0 -0.2874967264458379 -0.36244813563371081 0 -0.29872366550303953 -0.34496688556008448 0 -0.29050596211002178 -0.35221556567390572 0 -0.2857131196905543 -0.34521555730703363 0 -0.29050596211002178 -0.35221556567390572 0 -0.2857131196905543 -0.34521555730703363 0 -0.27678623968248173 -0.35183162504720589 0 -0.29050596211002178 -0.35221556567390572 0 -0.2874967264458379 -0.36244813563371081 0 -0.27678623968248173 -0.35183162504720589 0 -0.30381005922819571 -0.35661562482149373 0 -0.2874967264458379 -0.36244813563371081 0 -0.29157242595809812 -0.38065256397732611 0 -0.2874967264458379 -0.36244813563371081 0 -0.28048208658083451 -0.37291916182691831 0 -0.29157242595809812 -0.38065256397732611 0 -0.2874967264458379 -0.36244813563371081 0 -0.28048208658083451 -0.37291916182691831 0 -0.2701721807568585 -0.36239222934573512 0 -0.28048208658083451 -0.37291916182691831 0 -0.2701721807568585 -0.36239222934573512 0 -0.27065776441976169 -0.37765865360262463 0 -0.2701721807568585 -0.36239222934573512 0 -0.25834872008660098 -0.37065405534010792 0 -0.27065776441976169 -0.37765865360262463 0 -0.2701721807568585 -0.36239222934573512 0 -0.25834872008660098 -0.37065405534010792 0 -0.25879175647590708 -0.35966614584213868 0 -0.25834872008660098 -0.37065405534010792 0 -0.25879175647590708 -0.35966614584213868 0 -0.24710529353841509 -0.36027620493245538 0 -0.25879175647590708 -0.35966614584213868 0 -0.25986077693605891 -0.34801270071467438 0 -0.24710529353841509 -0.36027620493245538 0 -0.2701721807568585 -0.36239222934573512 0 -0.25879175647590708 -0.35966614584213868 0 -0.25986077693605891 -0.34801270071467438 0 -0.2874967264458379 -0.36244813563371081 0 -0.2701721807568585 -0.36239222934573512 0 -0.27678623968248173 -0.35183162504720589 0 -0.25986077693605891 -0.34801270071467438 0 -0.27678623968248173 -0.35183162504720589 0 -0.27556820399614212 -0.33986576094815668 0 -0.2701721807568585 -0.36239222934573512 0 -0.25986077693605891 -0.34801270071467438 0 -0.27678623968248173 -0.35183162504720589 0 -0.2857131196905543 -0.34521555730703363 0 -0.27678623968248173 -0.35183162504720589 0 -0.27556820399614212 -0.33986576094815668 0 -0.27556820399614212 -0.33986576094815668 0 -0.25195553216614702 -0.32530766683916101 0 -0.27244651256508939 -0.32184821983862238 0 -0.27556820399614212 -0.33986576094815668 0 -0.27244651256508939 -0.32184821983862238 0 -0.28509164230121931 -0.32731200429752139 0 -0.25986077693605891 -0.34801270071467438 0 -0.27556820399614212 -0.33986576094815668 0 -0.25195553216614702 -0.32530766683916101 0 -0.25986077693605891 -0.34801270071467438 0 -0.25195553216614702 -0.32530766683916101 0 -0.24104659920294461 -0.34231976192871288 0 -0.27556820399614212 -0.33986576094815668 0 -0.25195553216614702 -0.32530766683916101 0 -0.25195553216614702 -0.32530766683916101 0 -0.2651470194500537 -0.30734721582026359 0 -0.24582387398822261 -0.30528598035251803 0 -0.25195553216614702 -0.32530766683916101 0 -0.27244651256508939 -0.32184821983862238 0 -0.2651470194500537 -0.30734721582026359 0 -0.27244651256508939 -0.32184821983862238 0 -0.28509164230121931 -0.32731200429752139 0 -0.28447016491188482 -0.30940845128800931 0 -0.27244651256508939 -0.32184821983862238 0 -0.28447016491188482 -0.30940845128800931 0 -0.2651470194500537 -0.30734721582026359 0 -0.28509164230121931 -0.32731200429752139 0 -0.28447016491188482 -0.30940845128800931 0 -0.28509164230121931 -0.32731200429752139 0 -0.29938018422961388 -0.3242195907929516 0 -0.28447016491188482 -0.30940845128800931 0 -0.2857131196905543 -0.34521555730703363 0 -0.28509164230121931 -0.32731200429752139 0 -0.29505882846192288 -0.33539745980602742 0 -0.2857131196905543 -0.34521555730703363 0 -0.27556820399614212 -0.33986576094815668 0 -0.28509164230121931 -0.32731200429752139 0 -0.2857131196905543 -0.34521555730703363 0 -0.28509164230121931 -0.32731200429752139 0 -0.29872366550303953 -0.34496688556008448 0 -0.2857131196905543 -0.34521555730703363 0 -0.29505882846192288 -0.33539745980602742 0 -0.28509164230121931 -0.32731200429752139 0 -0.29505882846192288 -0.33539745980602742 0 -0.29938018422961388 -0.3242195907929516 0 -0.29505882846192288 -0.33539745980602742 0 -0.3063855305851878 -0.33527326107254579 0 -0.29938018422961388 -0.3242195907929516 0 -0.29872366550303953 -0.34496688556008448 0 -0.29505882846192288 -0.33539745980602742 0 -0.3063855305851878 -0.33527326107254579 0 -0.31149858273451059 -0.34893176571954992 0 -0.29872366550303953 -0.34496688556008448 0 -0.3063855305851878 -0.33527326107254579 0 -0.31419637860872141 -0.32663458878628993 0 -0.3063855305851878 -0.33527326107254579 0 -0.29938018422961388 -0.3242195907929516 0 -0.31315615206785441 -0.31246843830047438 0 -0.31419637860872141 -0.32663458878628993 0 -0.29938018422961388 -0.3242195907929516 0 -0.31315615206785441 -0.31246843830047438 0 -0.29938018422961388 -0.3242195907929516 0 -0.28447016491188482 -0.30940845128800931 0 -0.31315615206785441 -0.31246843830047438 0 -0.30506803609854632 -0.29896741783233299 0 -0.28447016491188482 -0.30940845128800931 0 -0.31315615206785441 -0.31246843830047438 0 -0.28447016491188482 -0.30940845128800931 0 -0.30506803609854632 -0.29896741783233299 0 -0.31197806881480722 -0.28216603378379579 0 -0.28343023758095731 -0.27945017056083632 0 -0.30506803609854632 -0.29896741783233299 0 -0.28447016491188482 -0.30940845128800931 0 -0.28343023758095731 -0.27945017056083632 0 -0.28447016491188482 -0.30940845128800931 0 -0.28343023758095731 -0.27945017056083632 0 -0.28447016491188482 -0.30940845128800931 0 -0.2651470194500537 -0.30734721582026359 0 -0.28343023758095731 -0.27945017056083632 0 -0.28447016491188482 -0.30940845128800931 0 -0.2651470194500537 -0.30734721582026359 0 -0.2651470194500537 -0.30734721582026359 0 -0.25800203222715262 -0.28272475300151512 0 -0.24582387398822261 -0.30528598035251803 0 -0.2651470194500537 -0.30734721582026359 0 -0.24582387398822261 -0.30528598035251803 0 -0.2651470194500537 -0.30734721582026359 0 -0.25800203222715262 -0.28272475300151512 0 -0.28343023758095731 -0.27945017056083632 0 -0.25800203222715262 -0.28272475300151512 0 -0.26881021214819978 -0.26573101876900301 0 -0.28343023758095731 -0.27945017056083632 0 -0.25800203222715262 -0.28272475300151512 0 -0.26881021214819978 -0.26573101876900301 0 -0.2513037376167887 -0.25422011069476208 0 -0.26881021214819978 -0.26573101876900301 0 -0.28343023758095731 -0.27945017056083632 0 -0.28239031025003042 -0.24949188983366319 0 -0.26881021214819978 -0.26573101876900301 0 -0.2513037376167887 -0.25422011069476208 0 -0.28239031025003042 -0.24949188983366319 0 -0.28343023758095731 -0.27945017056083632 0 -0.29830836222957913 -0.25480462323278891 0 -0.28239031025003042 -0.24949188983366319 0 -0.28343023758095731 -0.27945017056083632 0 -0.28239031025003042 -0.24949188983366319 0 -0.28343023758095731 -0.27945017056083632 0 -0.30748898856133638 -0.26664065423350308 0 -0.29830836222957913 -0.25480462323278891 0 -0.31197806881480722 -0.28216603378379579 0 -0.28343023758095731 -0.27945017056083632 0 -0.30748898856133638 -0.26664065423350308 0 -0.31481979503186752 -0.25530384662369959 0 -0.30748898856133638 -0.26664065423350308 0 -0.29830836222957913 -0.25480462323278891 0 -0.32841178729498932 -0.45360251877503938 0 -0.33582490252137759 -0.46608569932046179 0 -0.32554856472325922 -0.46660009903420518 0 -0.32841178729498932 -0.45360251877503938 0 -0.33582490252137759 -0.46608569932046179 0 -0.3438232845690215 -0.45526242408390521 0 -0.33459776522966422 -0.44315839786498601 0 -0.3438232845690215 -0.45526242408390521 0 -0.34740475400227733 -0.44344763917657948 0 -0.33459776522966422 -0.44315839786498601 0 -0.34740475400227733 -0.44344763917657948 0 -0.34161784862466521 -0.43527635800311681 0 -0.33459776522966422 -0.44315839786498601 0 -0.33206724767067008 -0.43339290470857489 0 -0.32561854076654312 -0.43648967583344511 0 -0.33459776522966422 -0.44315839786498601 0 -0.32659265042597557 -0.443576771325011 0 -0.32561854076654312 -0.43648967583344511 0 -0.32841178729498932 -0.45360251877503938 0 -0.33459776522966422 -0.44315839786498601 0 -0.32659265042597557 -0.443576771325011 0 -0.32841178729498932 -0.45360251877503938 0 -0.33459776522966422 -0.44315839786498601 0 -0.3438232845690215 -0.45526242408390521 0 -0.32841178729498932 -0.45360251877503938 0 -0.32659265042597557 -0.443576771325011 0 -0.31822274185714949 -0.44637965422124132 0 -0.32659265042597557 -0.443576771325011 0 -0.32561854076654312 -0.43648967583344511 0 -0.31700296674302308 -0.43711764436280359 0 -0.32659265042597557 -0.443576771325011 0 -0.31822274185714949 -0.44637965422124132 0 -0.31700296674302308 -0.43711764436280359 0 -0.31822274185714949 -0.44637965422124132 0 -0.31700296674302308 -0.43711764436280359 0 -0.30630322915960961 -0.4445196286957116 0 -0.31822274185714949 -0.44637965422124132 0 -0.31332880675114771 -0.45577946874029729 0 -0.30630322915960961 -0.4445196286957116 0 -0.32841178729498932 -0.45360251877503938 0 -0.31822274185714949 -0.44637965422124132 0 -0.31332880675114771 -0.45577946874029729 0 -0.32841178729498932 -0.45360251877503938 0 -0.31332880675114771 -0.45577946874029729 0 -0.32554856472325922 -0.46660009903420518 0 -0.31332880675114771 -0.45577946874029729 0 -0.32554856472325922 -0.46660009903420518 0 -0.31234179346154622 -0.47103986609677939 0 -0.32554856472325922 -0.46660009903420518 0 -0.33125835820000932 -0.47926962734871559 0 -0.31234179346154622 -0.47103986609677939 0 -0.31625781492595401 -0.4872887989327791 0 -0.33125835820000932 -0.47926962734871559 0 -0.31234179346154622 -0.47103986609677939 0 -0.31625781492595401 -0.4872887989327791 0 -0.32420099506191918 -0.49999999999999989 0 -0.30271431745073141 -0.5 0 -0.31625781492595401 -0.4872887989327791 0 -0.32952478305606558 -0.49118627076206461 0 -0.33125835820000932 -0.47926962734871559 0 -0.31625781492595401 -0.4872887989327791 0 -0.32420099506191918 -0.49999999999999989 0 -0.32952478305606558 -0.49118627076206461 0 -0.32420099506191918 -0.49999999999999989 0 -0.34221356363754718 -0.49709452008954569 0 -0.34085278390724222 -0.49999999999999828 0 -0.32952478305606558 -0.49118627076206461 0 -0.34221356363754718 -0.49709452008954569 0 -0.33125835820000932 -0.47926962734871559 0 -0.32420099506191918 -0.49999999999999989 0 -0.32952478305606558 -0.49118627076206461 0 -0.34221356363754718 -0.49709452008954569 0 -0.32420099506191918 -0.49999999999999989 0 -0.34221356363754718 -0.49709452008954569 0 -0.34221356363754718 -0.49709452008954569 0 -0.34085278390724222 -0.49999999999999828 0 -0.33582490252137759 -0.46608569932046179 0 -0.33125835820000932 -0.47926962734871559 0 -0.35297135400112267 -0.47412493648530329 0 -0.34221356363754718 -0.49709452008954569 0 -0.33125835820000932 -0.47926962734871559 0 -0.35297135400112267 -0.47412493648530329 0 -0.33582490252137759 -0.46608569932046179 0 -0.32554856472325922 -0.46660009903420518 0 -0.33125835820000932 -0.47926962734871559 0 -0.40030267429403987 -0.5 0 -0.34085278390724222 -0.49999999999999828 0 -0.36394707794846332 -0.49358884076630988 0 -0.34221356363754718 -0.49709452008954569 0 -0.34085278390724222 -0.49999999999999828 0 -0.36394707794846332 -0.49358884076630988 0 -0.34221356363754718 -0.49709452008954569 0 -0.36394707794846332 -0.49358884076630988 0 -0.34221356363754718 -0.49709452008954569 0 -0.35297135400112267 -0.47412493648530329 0 -0.34221356363754718 -0.49709452008954569 0 -0.35297135400112267 -0.47412493648530329 0 -0.36394707794846332 -0.49358884076630988 0 -0.38568059225937951 -0.49008316144307451 0 -0.36394707794846332 -0.49358884076630988 0 -0.37502175290265061 -0.47431805020415158 0 -0.38568059225937951 -0.49008316144307451 0 -0.36394707794846332 -0.49358884076630988 0 -0.37502175290265061 -0.47431805020415158 0 -0.35297135400112267 -0.47412493648530329 0 -0.36394707794846332 -0.49358884076630988 0 -0.37502175290265061 -0.47431805020415158 0 -0.35297135400112267 -0.47412493648530329 0 -0.36372914436469789 -0.45115535288106079 0 -0.33582490252137759 -0.46608569932046179 0 -0.35297135400112267 -0.47412493648530329 0 -0.3438232845690215 -0.45526242408390521 0 -0.35297135400112267 -0.47412493648530329 0 -0.36372914436469789 -0.45115535288106079 0 -0.35297135400112267 -0.47412493648530329 0 -0.3438232845690215 -0.45526242408390521 0 -0.36372914436469789 -0.45115535288106079 0 -0.34740475400227733 -0.44344763917657948 0 -0.36372914436469789 -0.45115535288106079 0 -0.35397597015195648 -0.43292309876888579 0 -0.3438232845690215 -0.45526242408390521 0 -0.34740475400227733 -0.44344763917657948 0 -0.36372914436469789 -0.45115535288106079 0 -0.36372914436469789 -0.45115535288106079 0 -0.3744869347282731 -0.42818576927681828 0 -0.36372914436469789 -0.45115535288106079 0 -0.3744869347282731 -0.42818576927681828 0 -0.35397597015195648 -0.43292309876888579 0 -0.36167772226570533 -0.42317558382731479 0 -0.3744869347282731 -0.42818576927681828 0 -0.35397597015195648 -0.43292309876888579 0 -0.36167772226570533 -0.42317558382731479 0 -0.3744869347282731 -0.42818576927681828 0 -0.36851959067333839 -0.41913940410259037 0 -0.37601704211179948 -0.41047839704081651 0 -0.3744869347282731 -0.42818576927681828 0 -0.36851959067333839 -0.41913940410259037 0 -0.37601704211179948 -0.41047839704081651 0 -0.36851959067333839 -0.41913940410259037 0 -0.35920330206983492 -0.41446955210916142 0 -0.37601704211179948 -0.41047839704081651 0 -0.35920330206983492 -0.41446955210916142 0 -0.35606215232219629 -0.39801108561883441 0 -0.36167772226570533 -0.42317558382731479 0 -0.36851959067333839 -0.41913940410259037 0 -0.35920330206983492 -0.41446955210916142 0 -0.36167772226570533 -0.42317558382731479 0 -0.35920330206983492 -0.41446955210916142 0 -0.35095872021278962 -0.42200063742170268 0 -0.35920330206983492 -0.41446955210916142 0 -0.35095872021278962 -0.42200063742170268 0 -0.34039030315554292 -0.41370194248066178 0 -0.35920330206983492 -0.41446955210916142 0 -0.35606215232219629 -0.39801108561883441 0 -0.34039030315554292 -0.41370194248066178 0 -0.35095872021278962 -0.42200063742170268 0 -0.35397597015195648 -0.43292309876888579 0 -0.33954630342090852 -0.42573300992248941 0 -0.34740475400227733 -0.44344763917657948 0 -0.35397597015195648 -0.43292309876888579 0 -0.34161784862466521 -0.43527635800311681 0 -0.35397597015195648 -0.43292309876888579 0 -0.34161784862466521 -0.43527635800311681 0 -0.33954630342090852 -0.42573300992248941 0 -0.36167772226570533 -0.42317558382731479 0 -0.35095872021278962 -0.42200063742170268 0 -0.35397597015195648 -0.43292309876888579 0 -0.35495541876303771 -0.36553482966374917 0 -0.36845583533737852 -0.38560237085173249 0 -0.3759023492620272 -0.37814682537852329 0 -0.3669956906821501 -0.372042850350712 0 -0.36845583533737852 -0.38560237085173249 0 -0.3759023492620272 -0.37814682537852329 0 -0.36845583533737852 -0.38560237085173249 0 -0.37601704211179948 -0.41047839704081651 0 -0.36960007437807008 -0.39879557688083861 0 -0.35606215232219629 -0.39801108561883441 0 -0.37981789051486531 -0.40249136897996052 0 -0.36845583533737852 -0.38560237085173249 0 -0.36960007437807008 -0.39879557688083861 0 -0.37601704211179948 -0.41047839704081651 0 -0.35606215232219629 -0.39801108561883441 0 -0.37981789051486531 -0.40249136897996052 0 -0.36845583533737852 -0.38560237085173249 0 -0.36845583533737852 -0.38560237085173249 0 -0.35606215232219629 -0.39801108561883441 0 -0.36845583533737852 -0.38560237085173249 0 -0.36960007437807008 -0.39879557688083861 0 -0.35606215232219629 -0.39801108561883441 0 -0.35606215232219629 -0.39801108561883441 0 -0.34039030315554292 -0.41370194248066178 0 -0.35606215232219629 -0.39801108561883441 0 -0.33296999904341879 -0.3835836911623296 0 -0.35606215232219629 -0.39801108561883441 0 -0.35209992242156229 -0.38165380008842592 0 -0.33296999904341879 -0.3835836911623296 0 -0.36845583533737852 -0.38560237085173249 0 -0.35606215232219629 -0.39801108561883441 0 -0.35209992242156229 -0.38165380008842592 0 -0.35495541876303771 -0.36553482966374917 0 -0.36845583533737852 -0.38560237085173249 0 -0.35209992242156229 -0.38165380008842592 0 -0.34468989220755381 -0.37316124319252147 0 -0.35209992242156229 -0.38165380008842592 0 -0.33296999904341879 -0.3835836911623296 0 -0.35606215232219629 -0.39801108561883441 0 -0.33257509880250402 -0.39985411921675568 0 -0.34039030315554292 -0.41370194248066178 0 -0.35606215232219629 -0.39801108561883441 0 -0.33296999904341879 -0.3835836911623296 0 -0.33257509880250402 -0.39985411921675568 0 -0.33296999904341879 -0.3835836911623296 0 -0.33257509880250402 -0.39985411921675568 0 -0.31220253118914493 -0.39391427119594158 0 -0.33257509880250402 -0.39985411921675568 0 -0.32125050830221752 -0.41005960562601113 0 -0.31220253118914493 -0.39391427119594158 0 -0.30987784576464111 -0.36915629670582512 0 -0.33296999904341879 -0.3835836911623296 0 -0.31220253118914493 -0.39391427119594158 0 -0.30987784576464111 -0.36915629670582512 0 -0.33296999904341879 -0.3835836911623296 0 -0.33954630342090852 -0.42573300992248941 0 -0.34039030315554292 -0.41370194248066178 0 -0.32471845398888999 -0.42939279934248958 0 -0.33206724767067008 -0.43339290470857489 0 -0.33954630342090852 -0.42573300992248941 0 -0.32471845398888999 -0.42939279934248958 0 -0.33206724767067008 -0.43339290470857489 0 -0.32471845398888999 -0.42939279934248958 0 -0.33459776522966422 -0.44315839786498601 0 -0.33206724767067008 -0.43339290470857489 0 -0.34161784862466521 -0.43527635800311681 0 -0.33206724767067008 -0.43339290470857489 0 -0.34161784862466521 -0.43527635800311681 0 -0.33954630342090852 -0.42573300992248941 0 -0.33257509880250402 -0.39985411921675568 0 -0.34039030315554292 -0.41370194248066178 0 -0.32125050830221752 -0.41005960562601113 0 -0.34039030315554292 -0.41370194248066178 0 -0.32471845398888999 -0.42939279934248958 0 -0.35095872021278962 -0.42200063742170268 0 -0.33954630342090852 -0.42573300992248941 0 -0.34039030315554292 -0.41370194248066178 0 -0.34039030315554292 -0.41370194248066178 0 -0.32125050830221752 -0.41005960562601113 0 -0.32471845398888999 -0.42939279934248958 0 -0.32125050830221752 -0.41005960562601113 0 -0.32471845398888999 -0.42939279934248958 0 -0.30202662333844588 -0.41704115123782448 0 -0.32471845398888999 -0.42939279934248958 0 -0.31700296674302308 -0.43711764436280359 0 -0.30527187688567431 -0.43076488004577462 0 -0.32471845398888999 -0.42939279934248958 0 -0.30202662333844588 -0.41704115123782448 0 -0.32471845398888999 -0.42939279934248958 0 -0.32561854076654312 -0.43648967583344511 0 -0.31700296674302308 -0.43711764436280359 0 -0.33206724767067008 -0.43339290470857489 0 -0.32471845398888999 -0.42939279934248958 0 -0.32561854076654312 -0.43648967583344511 0 -0.32471845398888999 -0.42939279934248958 0 -0.31700296674302308 -0.43711764436280359 0 -0.30527187688567431 -0.43076488004577462 0 -0.30202662333844588 -0.41704115123782448 0 -0.28691476444439479 -0.42469653571868321 0 -0.31700296674302308 -0.43711764436280359 0 -0.30527187688567431 -0.43076488004577462 0 -0.30630322915960961 -0.4445196286957116 0 -0.32471845398888999 -0.42939279934248958 0 -0.30527187688567431 -0.43076488004577462 0 -0.30202662333844588 -0.41704115123782448 0 -0.32125050830221752 -0.41005960562601113 0 -0.30202662333844588 -0.41704115123782448 0 -0.31220253118914493 -0.39391427119594158 0 -0.30202662333844588 -0.41704115123782448 0 -0.27933479268800182 -0.40468950313315932 0 -0.30202662333844588 -0.41704115123782448 0 -0.29628409329342259 -0.39907437238606291 0 -0.27933479268800182 -0.40468950313315932 0 -0.30202662333844588 -0.41704115123782448 0 -0.28691476444439479 -0.42469653571868321 0 -0.27933479268800182 -0.40468950313315932 0 -0.30527187688567431 -0.43076488004577462 0 -0.28691476444439479 -0.42469653571868321 0 -0.28832441451831597 -0.43954914214058588 0 -0.28691476444439479 -0.42469653571868321 0 -0.27348077818143762 -0.43525067119849342 0 -0.28832441451831597 -0.43954914214058588 0 -0.30987784576464111 -0.36915629670582512 0 -0.31220253118914493 -0.39391427119594158 0 -0.29157242595809812 -0.38065256397732611 0 -0.30202662333844588 -0.41704115123782448 0 -0.31220253118914493 -0.39391427119594158 0 -0.29628409329342259 -0.39907437238606291 0 -0.31220253118914493 -0.39391427119594158 0 -0.29628409329342259 -0.39907437238606291 0 -0.29157242595809812 -0.38065256397732611 0 -0.28167146707328572 -0.39564689673853731 0 -0.29157242595809812 -0.38065256397732611 0 -0.27933479268800182 -0.40468950313315932 0 -0.29628409329342259 -0.39907437238606291 0 -0.29157242595809812 -0.38065256397732611 0 -0.27933479268800182 -0.40468950313315932 0 -0.29157242595809812 -0.38065256397732611 0 -0.27933479268800182 -0.40468950313315932 0 -0.28167146707328572 -0.39564689673853731 0 -0.29157242595809812 -0.38065256397732611 0 -0.27915192514613102 -0.38318002530955031 0 -0.28048208658083451 -0.37291916182691831 0 -0.29157242595809812 -0.38065256397732611 0 -0.27915192514613102 -0.38318002530955031 0 -0.28048208658083451 -0.37291916182691831 0 -0.27065776441976169 -0.37765865360262463 0 -0.27915192514613102 -0.38318002530955031 0 -0.28167146707328572 -0.39564689673853731 0 -0.27915192514613102 -0.38318002530955031 0 -0.27099062823795428 -0.38922190989022998 0 -0.27065776441976169 -0.37765865360262463 0 -0.27915192514613102 -0.38318002530955031 0 -0.27099062823795428 -0.38922190989022998 0 -0.27065776441976169 -0.37765865360262463 0 -0.27099062823795428 -0.38922190989022998 0 -0.26021015217907673 -0.38241296396365471 0 -0.27099062823795428 -0.38922190989022998 0 -0.27247372394177649 -0.40095487686695952 0 -0.25855258976627737 -0.39337730618954853 0 -0.28167146707328572 -0.39564689673853731 0 -0.27247372394177649 -0.40095487686695952 0 -0.28167146707328572 -0.39564689673853731 0 -0.27099062823795428 -0.38922190989022998 0 -0.27247372394177649 -0.40095487686695952 0 -0.28167146707328572 -0.39564689673853731 0 -0.27933479268800182 -0.40468950313315932 0 -0.27247372394177649 -0.40095487686695952 0 -0.27933479268800182 -0.40468950313315932 0 -0.27247372394177649 -0.40095487686695952 0 -0.27933479268800182 -0.40468950313315932 0 -0.27247372394177649 -0.40095487686695952 0 -0.26801048230183511 -0.41120378144449798 0 -0.27247372394177649 -0.40095487686695952 0 -0.25855258976627737 -0.39337730618954853 0 -0.25690353100278662 -0.40994037184482018 0 -0.25855258976627737 -0.39337730618954853 0 -0.25690353100278662 -0.40994037184482018 0 -0.24565479124063039 -0.40032632956832132 0 -0.27247372394177649 -0.40095487686695952 0 -0.25690353100278662 -0.40994037184482018 0 -0.27247372394177649 -0.40095487686695952 0 -0.25855258976627737 -0.39337730618954853 0 -0.25855258976627737 -0.39337730618954853 0 -0.26021015217907673 -0.38241296396365471 0 -0.24250105838478911 -0.38115289479576248 0 -0.25834872008660098 -0.37065405534010792 0 -0.26021015217907673 -0.38241296396365471 0 -0.24250105838478911 -0.38115289479576248 0 -0.27099062823795428 -0.38922190989022998 0 -0.25855258976627737 -0.39337730618954853 0 -0.26021015217907673 -0.38241296396365471 0 -0.25834872008660098 -0.37065405534010792 0 -0.27065776441976169 -0.37765865360262463 0 -0.26021015217907673 -0.38241296396365471 0 -0.27046605494262638 -0.42210931829427162 0 -0.26159731719725249 -0.43952913345538458 0 -0.27046605494262638 -0.42210931829427162 0 -0.27348077818143762 -0.43525067119849342 0 -0.26159731719725249 -0.43952913345538458 0 -0.28691476444439479 -0.42469653571868321 0 -0.27046605494262638 -0.42210931829427162 0 -0.27348077818143762 -0.43525067119849342 0 -0.28691476444439479 -0.42469653571868321 0 -0.27933479268800182 -0.40468950313315932 0 -0.27046605494262638 -0.42210931829427162 0 -0.27933479268800182 -0.40468950313315932 0 -0.27046605494262638 -0.42210931829427162 0 -0.26801048230183511 -0.41120378144449798 0 -0.27933479268800182 -0.40468950313315932 0 -0.27046605494262638 -0.42210931829427162 0 -0.27247372394177649 -0.40095487686695952 0 -0.26801048230183511 -0.41120378144449798 0 -0.25690353100278662 -0.40994037184482018 0 -0.26801048230183511 -0.41120378144449798 0 -0.25690353100278662 -0.40994037184482018 0 -0.25659812686809991 -0.42146916323162958 0 -0.27046605494262638 -0.42210931829427162 0 -0.26801048230183511 -0.41120378144449798 0 -0.25659812686809991 -0.42146916323162958 0 -0.25690353100278662 -0.40994037184482018 0 -0.25659812686809991 -0.42146916323162958 0 -0.2413333380637965 -0.41892586682268063 0 -0.27046605494262638 -0.42210931829427162 0 -0.25984470948554422 -0.42943879039609911 0 -0.26159731719725249 -0.43952913345538458 0 -0.25659812686809991 -0.42146916323162958 0 -0.25984470948554422 -0.42943879039609911 0 -0.25071733893419812 -0.43464754660311072 0 -0.27046605494262638 -0.42210931829427162 0 -0.25659812686809991 -0.42146916323162958 0 -0.25984470948554422 -0.42943879039609911 0 -0.25984470948554422 -0.42943879039609911 0 -0.25071733893419812 -0.43464754660311072 0 -0.26159731719725249 -0.43952913345538458 0 -0.25071733893419812 -0.43464754660311072 0 -0.26010133980459832 -0.4503692263835416 0 -0.242912010213964 -0.45695922397016919 0 -0.25071733893419812 -0.43464754660311072 0 -0.26010133980459832 -0.4503692263835416 0 -0.26159731719725249 -0.43952913345538458 0 -0.25071733893419812 -0.43464754660311072 0 -0.26010133980459832 -0.4503692263835416 0 -0.27348077818143762 -0.43525067119849342 0 -0.26010133980459832 -0.4503692263835416 0 -0.26159731719725249 -0.43952913345538458 0 -0.26010133980459832 -0.4503692263835416 0 -0.242912010213964 -0.45695922397016919 0 -0.26010133980459832 -0.4503692263835416 0 -0.27349762939539302 -0.47281297698640601 0 -0.25321784950521742 -0.46916892710010588 0 -0.26010133980459832 -0.4503692263835416 0 -0.25321784950521742 -0.46916892710010588 0 -0.242912010213964 -0.45695922397016919 0 -0.26010133980459832 -0.4503692263835416 0 -0.27915016107848972 -0.45554049064485502 0 -0.27349762939539302 -0.47281297698640601 0 -0.26010133980459832 -0.4503692263835416 0 -0.27349762939539302 -0.47281297698640601 0 -0.27348077818143762 -0.43525067119849342 0 -0.26010133980459832 -0.4503692263835416 0 -0.28832441451831597 -0.43954914214058588 0 -0.26010133980459832 -0.4503692263835416 0 -0.27915016107848972 -0.45554049064485502 0 -0.28832441451831597 -0.43954914214058588 0 -0.26010133980459832 -0.4503692263835416 0 -0.28832441451831597 -0.43954914214058588 0 -0.27915016107848972 -0.45554049064485502 0 -0.28832441451831597 -0.43954914214058588 0 -0.29467726059565119 -0.45943061706888622 0 -0.28832441451831597 -0.43954914214058588 0 -0.29467726059565119 -0.45943061706888622 0 -0.30630322915960961 -0.4445196286957116 0 -0.27915016107848972 -0.45554049064485502 0 -0.29467726059565119 -0.45943061706888622 0 -0.27349762939539302 -0.47281297698640601 0 -0.31332880675114771 -0.45577946874029729 0 -0.29467726059565119 -0.45943061706888622 0 -0.31234179346154622 -0.47103986609677939 0 -0.31332880675114771 -0.45577946874029729 0 -0.29467726059565119 -0.45943061706888622 0 -0.30630322915960961 -0.4445196286957116 0 -0.30527187688567431 -0.43076488004577462 0 -0.28832441451831597 -0.43954914214058588 0 -0.30630322915960961 -0.4445196286957116 0 -0.31625781492595401 -0.4872887989327791 0 -0.30271431745073141 -0.5 0 -0.29678607594480322 -0.4817620431808084 0 -0.29467726059565119 -0.45943061706888622 0 -0.31234179346154622 -0.47103986609677939 0 -0.29678607594480322 -0.4817620431808084 0 -0.31625781492595401 -0.4872887989327791 0 -0.31234179346154622 -0.47103986609677939 0 -0.29678607594480322 -0.4817620431808084 0 -0.29467726059565119 -0.45943061706888622 0 -0.29678607594480322 -0.4817620431808084 0 -0.27349762939539302 -0.47281297698640601 0 -0.30271431745073141 -0.5 0 -0.29678607594480322 -0.4817620431808084 0 -0.28122763983954352 -0.5 0 -0.29678607594480322 -0.4817620431808084 0 -0.28122763983954352 -0.5 0 -0.27349762939539302 -0.47281297698640601 0 -0.28122763983954352 -0.5 0 -0.27349762939539302 -0.47281297698640601 0 -0.26003092745765322 -0.48361480326918221 0 -0.28122763983954352 -0.5 0 -0.26003092745765322 -0.48361480326918221 0 -0.25974096222835558 -0.49999999999999939 0 -0.26003092745765322 -0.48361480326918221 0 -0.25321784950521742 -0.46916892710010588 0 -0.2436647368070986 -0.48277423481182957 0 -0.27349762939539302 -0.47281297698640601 0 -0.26003092745765322 -0.48361480326918221 0 -0.25321784950521742 -0.46916892710010588 0 -0.25974096222835558 -0.49999999999999939 0 -0.2436647368070986 -0.48277423481182957 0 -0.26003092745765322 -0.48361480326918221 0 -0.25974096222835558 -0.49999999999999939 0 -0.2436647368070986 -0.48277423481182957 0 -0.25974096222835558 -0.49999999999999939 0 -0.2436647368070986 -0.48277423481182957 0 -0.2317248454505739 -0.5 0 -0.2436647368070986 -0.48277423481182957 0 -0.22758851138584121 -0.46554846962366009 0 -0.2436647368070986 -0.48277423481182957 0 -0.23910045335259739 -0.46848309717950709 0 -0.22758851138584121 -0.46554846962366009 0 -0.25321784950521742 -0.46916892710010588 0 -0.2436647368070986 -0.48277423481182957 0 -0.23910045335259739 -0.46848309717950709 0 -0.2436647368070986 -0.48277423481182957 0 -0.2217104722292004 -0.4797232741329539 0 -0.22758851138584121 -0.46554846962366009 0 -0.2436647368070986 -0.48277423481182957 0 -0.2217104722292004 -0.4797232741329539 0 -0.2263761693771266 -0.4900302936313321 0 -0.2197016850391221 -0.47071990364744248 0 -0.2217104722292004 -0.4797232741329539 0 -0.22758851138584121 -0.46554846962366009 0 -0.2217104722292004 -0.4797232741329539 0 -0.2263761693771266 -0.4900302936313321 0 -0.2158929809496343 -0.48667912463452001 0 -0.2263761693771266 -0.4900302936313321 0 -0.217089027641582 -0.49874117997030393 0 -0.2158929809496343 -0.48667912463452001 0 -0.2436647368070986 -0.48277423481182957 0 -0.2263761693771266 -0.4900302936313321 0 -0.2317248454505739 -0.5 0 -0.2263761693771266 -0.4900302936313321 0 -0.2317248454505739 -0.5 0 -0.217089027641582 -0.49874117997030393 0 -0.25071733893419812 -0.43464754660311072 0 -0.242912010213964 -0.45695922397016919 0 -0.23393430339362931 -0.44129742504671271 0 -0.25321784950521742 -0.46916892710010588 0 -0.242912010213964 -0.45695922397016919 0 -0.23910045335259739 -0.46848309717950709 0 -0.242912010213964 -0.45695922397016919 0 -0.23910045335259739 -0.46848309717950709 0 -0.22758851138584121 -0.46554846962366009 0 -0.242912010213964 -0.45695922397016919 0 -0.2257226806233297 -0.46354922155679679 0 -0.242912010213964 -0.45695922397016919 0 -0.2257226806233297 -0.46354922155679679 0 -0.23393430339362931 -0.44129742504671271 0 -0.242912010213964 -0.45695922397016919 0 -0.22758851138584121 -0.46554846962366009 0 -0.2257226806233297 -0.46354922155679679 0 -0.23910045335259739 -0.46848309717950709 0 -0.22758851138584121 -0.46554846962366009 0 -0.22758851138584121 -0.46554846962366009 0 -0.2257226806233297 -0.46354922155679679 0 -0.22758851138584121 -0.46554846962366009 0 -0.22333569037576401 -0.4644643392690857 0 -0.2197016850391221 -0.47071990364744248 0 -0.22758851138584121 -0.46554846962366009 0 -0.22333569037576401 -0.4644643392690857 0 -0.22758851138584121 -0.46554846962366009 0 -0.22333569037576401 -0.4644643392690857 0 -0.2257226806233297 -0.46354922155679679 0 -0.22333569037576401 -0.4644643392690857 0 -0.2257226806233297 -0.46354922155679679 0 -0.22333569037576401 -0.4644643392690857 0 -0.2257226806233297 -0.46354922155679679 0 -0.21423475025763219 -0.45123984010735341 0 -0.2257226806233297 -0.46354922155679679 0 -0.21423475025763219 -0.45123984010735341 0 -0.2257226806233297 -0.46354922155679679 0 -0.23393430339362931 -0.44129742504671271 0 -0.21423475025763219 -0.45123984010735341 0 -0.23393430339362931 -0.44129742504671271 0 -0.21423475025763219 -0.45123984010735341 0 -0.21834682565744801 -0.43219128958238129 0 -0.21423475025763219 -0.45123984010735341 0 -0.21834682565744801 -0.43219128958238129 0 -0.20411982043448279 -0.44040163639580149 0 -0.21423475025763219 -0.45123984010735341 0 -0.21834682565744801 -0.43219128958238129 0 -0.20411982043448279 -0.44040163639580149 0 -0.21423475025763219 -0.45123984010735341 0 -0.2016943319914572 -0.45127954306647478 0 -0.20411982043448279 -0.44040163639580149 0 -0.21423475025763219 -0.45123984010735341 0 -0.21423475025763219 -0.45123984010735341 0 -0.21200354630108789 -0.46157554584358268 0 -0.2016943319914572 -0.45127954306647478 0 -0.21423475025763219 -0.45123984010735341 0 -0.21200354630108789 -0.46157554584358268 0 -0.22333569037576401 -0.4644643392690857 0 -0.21423475025763219 -0.45123984010735341 0 -0.21200354630108789 -0.46157554584358268 0 -0.22333569037576401 -0.4644643392690857 0 -0.21200354630108789 -0.46157554584358268 0 -0.22333569037576401 -0.4644643392690857 0 -0.21030118459439051 -0.46946147200711341 0 -0.2197016850391221 -0.47071990364744248 0 -0.22333569037576401 -0.4644643392690857 0 -0.21030118459439051 -0.46946147200711341 0 -0.22333569037576401 -0.4644643392690857 0 -0.21200354630108789 -0.46157554584358268 0 -0.21030118459439051 -0.46946147200711341 0 -0.21200354630108789 -0.46157554584358268 0 -0.21030118459439051 -0.46946147200711341 0 -0.21200354630108789 -0.46157554584358268 0 -0.1968415835740927 -0.46520014195321568 0 -0.21030118459439051 -0.46946147200711341 0 -0.21200354630108789 -0.46157554584358268 0 -0.1968415835740927 -0.46520014195321568 0 -0.1870859985187924 -0.45522355739912729 0 -0.21200354630108789 -0.46157554584358268 0 -0.2016943319914572 -0.45127954306647478 0 -0.1870859985187924 -0.45522355739912729 0 -0.21200354630108789 -0.46157554584358268 0 -0.1870859985187924 -0.45522355739912729 0 -0.1968415835740927 -0.46520014195321568 0 -0.18511440323008521 -0.46973434263189789 0 -0.1870859985187924 -0.45522355739912729 0 -0.20411982043448279 -0.44040163639580149 0 -0.2016943319914572 -0.45127954306647478 0 -0.19102754444528899 -0.44795713558650913 0 -0.2016943319914572 -0.45127954306647478 0 -0.19102754444528899 -0.44795713558650913 0 -0.1870859985187924 -0.45522355739912729 0 -0.19102754444528899 -0.44795713558650913 0 -0.19297592367033831 -0.43764088968916509 0 -0.1863612536021684 -0.43650929036265079 0 -0.20411982043448279 -0.44040163639580149 0 -0.19102754444528899 -0.44795713558650913 0 -0.20411982043448279 -0.44040163639580149 0 -0.19102754444528899 -0.44795713558650913 0 -0.19297592367033831 -0.43764088968916509 0 -0.2317248454505739 -0.5 0 -0.20370872867279219 -0.49999999999999939 0 -0.217089027641582 -0.49874117997030393 0 -0.205355862638538 -0.49236990776742467 0 -0.20370872867279219 -0.49999999999999939 0 -0.217089027641582 -0.49874117997030393 0 -0.205355862638538 -0.49236990776742467 0 -0.20370872867279219 -0.49999999999999939 0 -0.205355862638538 -0.49236990776742467 0 -0.217089027641582 -0.49874117997030393 0 -0.205355862638538 -0.49236990776742467 0 -0.217089027641582 -0.49874117997030393 0 -0.2158929809496343 -0.48667912463452001 0 -0.205355862638538 -0.49236990776742467 0 -0.2158929809496343 -0.48667912463452001 0 -0.21030118459439051 -0.46946147200711341 0 -0.2217104722292004 -0.4797232741329539 0 -0.2158929809496343 -0.48667912463452001 0 -0.21030118459439051 -0.46946147200711341 0 -0.205355862638538 -0.49236990776742467 0 -0.21030118459439051 -0.46946147200711341 0 -0.2197016850391221 -0.47071990364744248 0 -0.2217104722292004 -0.4797232741329539 0 -0.21030118459439051 -0.46946147200711341 0 -0.205355862638538 -0.49236990776742467 0 -0.21030118459439051 -0.46946147200711341 0 -0.18267374682958271 -0.48005320260572681 0 -0.21030118459439051 -0.46946147200711341 0 -0.18267374682958271 -0.48005320260572681 0 -0.1968415835740927 -0.46520014195321568 0 -0.21030118459439051 -0.46946147200711341 0 -0.18267374682958271 -0.48005320260572681 0 -0.1968415835740927 -0.46520014195321568 0 -0.18267374682958271 -0.48005320260572681 0 -0.18511440323008521 -0.46973434263189789 0 -0.205355862638538 -0.49236990776742467 0 -0.20370872867279219 -0.49999999999999939 0 -0.18270119183009009 -0.500000000000001 0 -0.205355862638538 -0.49236990776742467 0 -0.18270119183009009 -0.500000000000001 0 -0.18267374682958271 -0.48005320260572681 0 -0.205355862638538 -0.49236990776742467 0 -0.18267374682958271 -0.48005320260572681 0 -0.18270119183009009 -0.500000000000001 0 -0.1564744412691936 -0.49009741983386079 0 -0.18267374682958271 -0.48005320260572681 0 -0.18270119183009009 -0.500000000000001 0 -0.1564744412691936 -0.49009741983386079 0 -0.16231919323211841 -0.5 0 -0.18270119183009009 -0.500000000000001 0 -0.1564744412691936 -0.49009741983386079 0 -0.1564744412691936 -0.49009741983386079 0 -0.18267374682958271 -0.48005320260572681 0 -0.1564744412691936 -0.49009741983386079 0 -0.16354529878275059 -0.46966618859088949 0 -0.18267374682958271 -0.48005320260572681 0 -0.16354529878275059 -0.46966618859088949 0 -0.18267374682958271 -0.48005320260572681 0 -0.18511440323008521 -0.46973434263189789 0 -0.16354529878275059 -0.46966618859088949 0 -0.18267374682958271 -0.48005320260572681 0 -0.1870859985187924 -0.45522355739912729 0 -0.17378087288959679 -0.4577730201219129 0 -0.16216845073649569 -0.4488715689546765 0 -0.18511440323008521 -0.46973434263189789 0 -0.17378087288959679 -0.4577730201219129 0 -0.160471160343335 -0.45939579588569129 0 -0.18511440323008521 -0.46973434263189789 0 -0.160471160343335 -0.45939579588569129 0 -0.18511440323008521 -0.46973434263189789 0 -0.1870859985187924 -0.45522355739912729 0 -0.17378087288959679 -0.4577730201219129 0 -0.1870859985187924 -0.45522355739912729 0 -0.16216845073649569 -0.4488715689546765 0 -0.1870859985187924 -0.45522355739912729 0 -0.1781334954918268 -0.44174975155559132 0 -0.16216845073649569 -0.4488715689546765 0 -0.19102754444528899 -0.44795713558650913 0 -0.1781334954918268 -0.44174975155559132 0 -0.1863612536021684 -0.43650929036265079 0 -0.19102754444528899 -0.44795713558650913 0 -0.1870859985187924 -0.45522355739912729 0 -0.1781334954918268 -0.44174975155559132 0 -0.16216845073649569 -0.4488715689546765 0 -0.15060845543789619 -0.43152127253335931 0 -0.1669976273556843 -0.43731808345844309 0 -0.1781334954918268 -0.44174975155559132 0 -0.16216845073649569 -0.4488715689546765 0 -0.1669976273556843 -0.43731808345844309 0 -0.16354529878275059 -0.46966618859088949 0 -0.18511440323008521 -0.46973434263189789 0 -0.160471160343335 -0.45939579588569129 0 -0.17378087288959679 -0.4577730201219129 0 -0.16216845073649569 -0.4488715689546765 0 -0.160471160343335 -0.45939579588569129 0 -0.16216845073649569 -0.4488715689546765 0 -0.15667794228382709 -0.45338506782240318 0 -0.160471160343335 -0.45939579588569129 0 -0.16354529878275059 -0.46966618859088949 0 -0.14441685073591759 -0.45927917457605377 0 -0.160471160343335 -0.45939579588569129 0 -0.14441685073591759 -0.45927917457605377 0 -0.13582791745658471 -0.4490572491394848 0 -0.16354529878275059 -0.46966618859088949 0 -0.14441685073591759 -0.45927917457605377 0 -0.1479359565415741 -0.4756052101042022 0 -0.16354529878275059 -0.46966618859088949 0 -0.160471160343335 -0.45939579588569129 0 -0.14441685073591759 -0.45927917457605377 0 -0.15667794228382709 -0.45338506782240318 0 -0.160471160343335 -0.45939579588569129 0 -0.13582791745658471 -0.4490572491394848 0 -0.160471160343335 -0.45939579588569129 0 -0.13582791745658471 -0.4490572491394848 0 -0.14441685073591759 -0.45927917457605377 0 -0.13086806156195749 -0.4631310388861663 0 -0.1479359565415741 -0.4756052101042022 0 -0.15667794228382709 -0.45338506782240318 0 -0.13635799977779831 -0.44229196137578269 0 -0.13582791745658471 -0.4490572491394848 0 -0.16216845073649569 -0.4488715689546765 0 -0.15667794228382709 -0.45338506782240318 0 -0.13635799977779831 -0.44229196137578269 0 -0.16216845073649569 -0.4488715689546765 0 -0.13635799977779831 -0.44229196137578269 0 -0.14530409995387161 -0.42601652744076762 0 -0.16216845073649569 -0.4488715689546765 0 -0.13635799977779831 -0.44229196137578269 0 -0.13635799977779831 -0.44229196137578269 0 -0.13582791745658471 -0.4490572491394848 0 -0.1111846745698345 -0.43871870239327831 0 -0.13582791745658471 -0.4490572491394848 0 -0.13086806156195749 -0.4631310388861663 0 -0.11706670940628811 -0.45481574470285929 0 -0.14441685073591759 -0.45927917457605377 0 -0.13582791745658471 -0.4490572491394848 0 -0.13086806156195749 -0.4631310388861663 0 -0.13086806156195749 -0.4631310388861663 0 -0.1320937753763024 -0.48089187612963552 0 -0.1479359565415741 -0.4756052101042022 0 -0.1320937753763024 -0.48089187612963552 0 -0.1382744708058869 -0.48979738014465413 0 -0.1215551960361749 -0.49999999999999839 0 -0.1382744708058869 -0.48979738014465413 0 -0.1419371946341467 -0.5 0 -0.1215551960361749 -0.49999999999999839 0 -0.1564744412691936 -0.49009741983386079 0 -0.1382744708058869 -0.48979738014465413 0 -0.14859321527563249 -0.49311890243464263 0 -0.1564744412691936 -0.49009741983386079 0 -0.1320937753763024 -0.48089187612963552 0 -0.1382744708058869 -0.48979738014465413 0 -0.16231919323211841 -0.5 0 -0.1419371946341467 -0.5 0 -0.14859321527563249 -0.49311890243464263 0 -0.1564744412691936 -0.49009741983386079 0 -0.1320937753763024 -0.48089187612963552 0 -0.1382744708058869 -0.48979738014465413 0 -0.1419371946341467 -0.5 0 -0.14859321527563249 -0.49311890243464263 0 -0.1564744412691936 -0.49009741983386079 0 -0.16231919323211841 -0.5 0 -0.14859321527563249 -0.49311890243464263 0 -0.1564744412691936 -0.49009741983386079 0 -0.14859321527563249 -0.49311890243464263 0 -0.1564744412691936 -0.49009741983386079 0 -0.1320937753763024 -0.48089187612963552 0 -0.1479359565415741 -0.4756052101042022 0 -0.1564744412691936 -0.49009741983386079 0 -0.16354529878275059 -0.46966618859088949 0 -0.1479359565415741 -0.4756052101042022 0 -0.14594228148590949 -0.39532030934043583 0 -0.1412674808836441 -0.40141998868259537 0 -0.1384419210552699 -0.39717297300211513 0 -0.14594228148590949 -0.39532030934043583 0 -0.1412674808836441 -0.40141998868259537 0 -0.14844684554794241 -0.4053876144483044 0 -0.1412674808836441 -0.40141998868259537 0 -0.14844684554794241 -0.4053876144483044 0 -0.14145013198232079 -0.40891659921647677 0 -0.14594228148590949 -0.39532030934043583 0 -0.15564638073732279 -0.4026895523244447 0 -0.14844684554794241 -0.4053876144483044 0 -0.14594228148590949 -0.39532030934043583 0 -0.15564638073732279 -0.4026895523244447 0 -0.1574181366677232 -0.39063752702895682 0 -0.14599536200912319 -0.38179457645334819 0 -0.1574181366677232 -0.39063752702895682 0 -0.15921303315353841 -0.37827831273683571 0 -0.14594228148590949 -0.39532030934043583 0 -0.14599536200912319 -0.38179457645334819 0 -0.1574181366677232 -0.39063752702895682 0 -0.14599536200912319 -0.38179457645334819 0 -0.15921303315353841 -0.37827831273683571 0 -0.14622505556956761 -0.36630079224826201 0 -0.14594228148590949 -0.39532030934043583 0 -0.14599536200912319 -0.38179457645334819 0 -0.1340819605134706 -0.39076692259168189 0 -0.14599536200912319 -0.38179457645334819 0 -0.1340819605134706 -0.39076692259168189 0 -0.13215769554713411 -0.37400980942088041 0 -0.1340819605134706 -0.39076692259168189 0 -0.13215769554713411 -0.37400980942088041 0 -0.11523576724205831 -0.38526707901903051 0 -0.1340819605134706 -0.39076692259168189 0 -0.12843974917124809 -0.40316148592685819 0 -0.11523576724205831 -0.38526707901903051 0 -0.1340819605134706 -0.39076692259168189 0 -0.13247596133805559 -0.40118467139374742 0 -0.12843974917124809 -0.40316148592685819 0 -0.1340819605134706 -0.39076692259168189 0 -0.1384419210552699 -0.39717297300211513 0 -0.13247596133805559 -0.40118467139374742 0 -0.14594228148590949 -0.39532030934043583 0 -0.1340819605134706 -0.39076692259168189 0 -0.1384419210552699 -0.39717297300211513 0 -0.1412674808836441 -0.40141998868259537 0 -0.1384419210552699 -0.39717297300211513 0 -0.13247596133805559 -0.40118467139374742 0 -0.1412674808836441 -0.40141998868259537 0 -0.13247596133805559 -0.40118467139374742 0 -0.14145013198232079 -0.40891659921647677 0 -0.13247596133805559 -0.40118467139374742 0 -0.12843974917124809 -0.40316148592685819 0 -0.14145013198232079 -0.40891659921647677 0 -0.13247596133805559 -0.40118467139374742 0 -0.12843974917124809 -0.40316148592685819 0 -0.12843974917124809 -0.40316148592685819 0 -0.14530409995387161 -0.42601652744076762 0 -0.14145013198232079 -0.40891659921647677 0 -0.12843974917124809 -0.40316148592685819 0 -0.12557010975260849 -0.42481284607756248 0 -0.14530409995387161 -0.42601652744076762 0 -0.12843974917124809 -0.40316148592685819 0 -0.14530409995387161 -0.42601652744076762 0 -0.13635799977779831 -0.44229196137578269 0 -0.12557010975260849 -0.42481284607756248 0 -0.14530409995387161 -0.42601652744076762 0 -0.16216845073649569 -0.4488715689546765 0 -0.14530409995387161 -0.42601652744076762 0 -0.16216845073649569 -0.4488715689546765 0 -0.14530409995387161 -0.42601652744076762 0 -0.15060845543789619 -0.43152127253335931 0 -0.14530409995387161 -0.42601652744076762 0 -0.15292369119457491 -0.42302772867564692 0 -0.15060845543789619 -0.43152127253335931 0 -0.15292369119457491 -0.42302772867564692 0 -0.15060845543789619 -0.43152127253335931 0 -0.16279790018960619 -0.42059938071120262 0 -0.14530409995387161 -0.42601652744076762 0 -0.14145013198232079 -0.40891659921647677 0 -0.15298430919692571 -0.41397373401725801 0 -0.14844684554794241 -0.4053876144483044 0 -0.14145013198232079 -0.40891659921647677 0 -0.15298430919692571 -0.41397373401725801 0 -0.15292369119457491 -0.42302772867564692 0 -0.15298430919692571 -0.41397373401725801 0 -0.16279790018960619 -0.42059938071120262 0 -0.14530409995387161 -0.42601652744076762 0 -0.15292369119457491 -0.42302772867564692 0 -0.15298430919692571 -0.41397373401725801 0 -0.15564638073732279 -0.4026895523244447 0 -0.14844684554794241 -0.4053876144483044 0 -0.15298430919692571 -0.41397373401725801 0 -0.15564638073732279 -0.4026895523244447 0 -0.15298430919692571 -0.41397373401725801 0 -0.16447849630811809 -0.40949880829051027 0 -0.15298430919692571 -0.41397373401725801 0 -0.16279790018960619 -0.42059938071120262 0 -0.16447849630811809 -0.40949880829051027 0 -0.16279790018960619 -0.42059938071120262 0 -0.16447849630811809 -0.40949880829051027 0 -0.17519875072998101 -0.41484207312671839 0 -0.16279790018960619 -0.42059938071120262 0 -0.17708010775652011 -0.42712974079014387 0 -0.17519875072998101 -0.41484207312671839 0 -0.16447849630811809 -0.40949880829051027 0 -0.17519875072998101 -0.41484207312671839 0 -0.17401819457970241 -0.40596931019538379 0 -0.15060845543789619 -0.43152127253335931 0 -0.1669976273556843 -0.43731808345844309 0 -0.17708010775652011 -0.42712974079014387 0 -0.15060845543789619 -0.43152127253335931 0 -0.17708010775652011 -0.42712974079014387 0 -0.15060845543789619 -0.43152127253335931 0 -0.16279790018960619 -0.42059938071120262 0 -0.17708010775652011 -0.42712974079014387 0 -0.1781334954918268 -0.44174975155559132 0 -0.1669976273556843 -0.43731808345844309 0 -0.17708010775652011 -0.42712974079014387 0 -0.17708010775652011 -0.42712974079014387 0 -0.19027000707215741 -0.42494159398173009 0 -0.18874919288666481 -0.41690562506121892 0 -0.17708010775652011 -0.42712974079014387 0 -0.1863612536021684 -0.43650929036265079 0 -0.19027000707215741 -0.42494159398173009 0 -0.17708010775652011 -0.42712974079014387 0 -0.19027000707215741 -0.42494159398173009 0 -0.1781334954918268 -0.44174975155559132 0 -0.17708010775652011 -0.42712974079014387 0 -0.1863612536021684 -0.43650929036265079 0 -0.17519875072998101 -0.41484207312671839 0 -0.1854529017624624 -0.40765361436762781 0 -0.17401819457970241 -0.40596931019538379 0 -0.17708010775652011 -0.42712974079014387 0 -0.17519875072998101 -0.41484207312671839 0 -0.18874919288666481 -0.41690562506121892 0 -0.17519875072998101 -0.41484207312671839 0 -0.1854529017624624 -0.40765361436762781 0 -0.18874919288666481 -0.41690562506121892 0 -0.1790582241696729 -0.3968994767633594 0 -0.1836111253148113 -0.38581529531333669 0 -0.19492074552223221 -0.39559894412526009 0 -0.1854529017624624 -0.40765361436762781 0 -0.1790582241696729 -0.3968994767633594 0 -0.19492074552223221 -0.39559894412526009 0 -0.1790582241696729 -0.3968994767633594 0 -0.17401819457970241 -0.40596931019538379 0 -0.16622544241517059 -0.39891879936805469 0 -0.1854529017624624 -0.40765361436762781 0 -0.1790582241696729 -0.3968994767633594 0 -0.17401819457970241 -0.40596931019538379 0 -0.16447849630811809 -0.40949880829051027 0 -0.17401819457970241 -0.40596931019538379 0 -0.16622544241517059 -0.39891879936805469 0 -0.16622544241517059 -0.39891879936805469 0 -0.1574181366677232 -0.39063752702895682 0 -0.17013445205300351 -0.38687896130428961 0 -0.1790582241696729 -0.3968994767633594 0 -0.16622544241517059 -0.39891879936805469 0 -0.17013445205300351 -0.38687896130428961 0 -0.15564638073732279 -0.4026895523244447 0 -0.16622544241517059 -0.39891879936805469 0 -0.1574181366677232 -0.39063752702895682 0 -0.15564638073732279 -0.4026895523244447 0 -0.16447849630811809 -0.40949880829051027 0 -0.16622544241517059 -0.39891879936805469 0 -0.15921303315353841 -0.37827831273683571 0 -0.17013445205300351 -0.38687896130428961 0 -0.1768121502635504 -0.37234466383455289 0 -0.1574181366677232 -0.39063752702895682 0 -0.15921303315353841 -0.37827831273683571 0 -0.17013445205300351 -0.38687896130428961 0 -0.1836111253148113 -0.38581529531333669 0 -0.19713005456559751 -0.37735443053922191 0 -0.1768121502635504 -0.37234466383455289 0 -0.17013445205300351 -0.38687896130428961 0 -0.1836111253148113 -0.38581529531333669 0 -0.1768121502635504 -0.37234466383455289 0 -0.1790582241696729 -0.3968994767633594 0 -0.17013445205300351 -0.38687896130428961 0 -0.1836111253148113 -0.38581529531333669 0 -0.1836111253148113 -0.38581529531333669 0 -0.19713005456559751 -0.37735443053922191 0 -0.19492074552223221 -0.39559894412526009 0 -0.19713005456559751 -0.37735443053922191 0 -0.19492074552223221 -0.39559894412526009 0 -0.2099787131691884 -0.39028581381914978 0 -0.19492074552223221 -0.39559894412526009 0 -0.21222578686540389 -0.40269593668756781 0 -0.1997787672860549 -0.41006668874010987 0 -0.1854529017624624 -0.40765361436762781 0 -0.19492074552223221 -0.39559894412526009 0 -0.1997787672860549 -0.41006668874010987 0 -0.19492074552223221 -0.39559894412526009 0 -0.21222578686540389 -0.40269593668756781 0 -0.2099787131691884 -0.39028581381914978 0 -0.21222578686540389 -0.40269593668756781 0 -0.2099787131691884 -0.39028581381914978 0 -0.22898343898550161 -0.39823520818879321 0 -0.19713005456559751 -0.37735443053922191 0 -0.2166335399072068 -0.37754454955490591 0 -0.2099787131691884 -0.39028581381914978 0 -0.2166335399072068 -0.37754454955490591 0 -0.2099787131691884 -0.39028581381914978 0 -0.22898343898550161 -0.39823520818879321 0 -0.19027000707215741 -0.42494159398173009 0 -0.20355176007514389 -0.42273820904692849 0 -0.20842056453084651 -0.43142247520332222 0 -0.20411982043448279 -0.44040163639580149 0 -0.19027000707215741 -0.42494159398173009 0 -0.20842056453084651 -0.43142247520332222 0 -0.20411982043448279 -0.44040163639580149 0 -0.19027000707215741 -0.42494159398173009 0 -0.20411982043448279 -0.44040163639580149 0 -0.19297592367033831 -0.43764088968916509 0 -0.19027000707215741 -0.42494159398173009 0 -0.19297592367033831 -0.43764088968916509 0 -0.1863612536021684 -0.43650929036265079 0 -0.19027000707215741 -0.42494159398173009 0 -0.19027000707215741 -0.42494159398173009 0 -0.20355176007514389 -0.42273820904692849 0 -0.18874919288666481 -0.41690562506121892 0 -0.1997787672860549 -0.41006668874010987 0 -0.20355176007514389 -0.42273820904692849 0 -0.19027000707215741 -0.42494159398173009 0 -0.18874919288666481 -0.41690562506121892 0 -0.20355176007514389 -0.42273820904692849 0 -0.1854529017624624 -0.40765361436762781 0 -0.18874919288666481 -0.41690562506121892 0 -0.1997787672860549 -0.41006668874010987 0 -0.21397161747985771 -0.41263652449654492 0 -0.20355176007514389 -0.42273820904692849 0 -0.23002341239376761 -0.41834667730371322 0 -0.20355176007514389 -0.42273820904692849 0 -0.23002341239376761 -0.41834667730371322 0 -0.21222578686540389 -0.40269593668756781 0 -0.1997787672860549 -0.41006668874010987 0 -0.21397161747985771 -0.41263652449654492 0 -0.21222578686540389 -0.40269593668756781 0 -0.21397161747985771 -0.41263652449654492 0 -0.22513603636789639 -0.40912178526703741 0 -0.1997787672860549 -0.41006668874010987 0 -0.21397161747985771 -0.41263652449654492 0 -0.20355176007514389 -0.42273820904692849 0 -0.20355176007514389 -0.42273820904692849 0 -0.21929113914203929 -0.42781690405349138 0 -0.23002341239376761 -0.41834667730371322 0 -0.20355176007514389 -0.42273820904692849 0 -0.20842056453084651 -0.43142247520332222 0 -0.21929113914203929 -0.42781690405349138 0 -0.21834682565744801 -0.43219128958238129 0 -0.20842056453084651 -0.43142247520332222 0 -0.21929113914203929 -0.42781690405349138 0 -0.20411982043448279 -0.44040163639580149 0 -0.21834682565744801 -0.43219128958238129 0 -0.20411982043448279 -0.44040163639580149 0 -0.21834682565744801 -0.43219128958238129 0 -0.20842056453084651 -0.43142247520332222 0 -0.23393430339362931 -0.44129742504671271 0 -0.21834682565744801 -0.43219128958238129 0 -0.2413333380637965 -0.41892586682268063 0 -0.21834682565744801 -0.43219128958238129 0 -0.2413333380637965 -0.41892586682268063 0 -0.21834682565744801 -0.43219128958238129 0 -0.23002341239376761 -0.41834667730371322 0 -0.2413333380637965 -0.41892586682268063 0 -0.21834682565744801 -0.43219128958238129 0 -0.21929113914203929 -0.42781690405349138 0 -0.21834682565744801 -0.43219128958238129 0 -0.21929113914203929 -0.42781690405349138 0 -0.23002341239376761 -0.41834667730371322 0 -0.22513603636789639 -0.40912178526703741 0 -0.2413333380637965 -0.41892586682268063 0 -0.22898343898550161 -0.39823520818879321 0 -0.23002341239376761 -0.41834667730371322 0 -0.22513603636789639 -0.40912178526703741 0 -0.2413333380637965 -0.41892586682268063 0 -0.21397161747985771 -0.41263652449654492 0 -0.23002341239376761 -0.41834667730371322 0 -0.22513603636789639 -0.40912178526703741 0 -0.2413333380637965 -0.41892586682268063 0 -0.22898343898550161 -0.39823520818879321 0 -0.25690353100278662 -0.40994037184482018 0 -0.2413333380637965 -0.41892586682268063 0 -0.24565479124063039 -0.40032632956832132 0 -0.25690353100278662 -0.40994037184482018 0 -0.2413333380637965 -0.41892586682268063 0 -0.25071733893419812 -0.43464754660311072 0 -0.2413333380637965 -0.41892586682268063 0 -0.25071733893419812 -0.43464754660311072 0 -0.23393430339362931 -0.44129742504671271 0 -0.2413333380637965 -0.41892586682268063 0 -0.25659812686809991 -0.42146916323162958 0 -0.25071733893419812 -0.43464754660311072 0 -0.2413333380637965 -0.41892586682268063 0 -0.2166335399072068 -0.37754454955490591 0 -0.22898343898550161 -0.39823520818879321 0 -0.2166335399072068 -0.37754454955490591 0 -0.22898343898550161 -0.39823520818879321 0 -0.24250105838478911 -0.38115289479576248 0 -0.21222578686540389 -0.40269593668756781 0 -0.22513603636789639 -0.40912178526703741 0 -0.22898343898550161 -0.39823520818879321 0 -0.2413333380637965 -0.41892586682268063 0 -0.22898343898550161 -0.39823520818879321 0 -0.24565479124063039 -0.40032632956832132 0 -0.25855258976627737 -0.39337730618954853 0 -0.24565479124063039 -0.40032632956832132 0 -0.24250105838478911 -0.38115289479576248 0 -0.22898343898550161 -0.39823520818879321 0 -0.24565479124063039 -0.40032632956832132 0 -0.24250105838478911 -0.38115289479576248 0 -0.25834872008660098 -0.37065405534010792 0 -0.24250105838478911 -0.38115289479576248 0 -0.24710529353841509 -0.36027620493245538 0 -0.24250105838478911 -0.38115289479576248 0 -0.24710529353841509 -0.36027620493245538 0 -0.22830429489009779 -0.36088200932678732 0 -0.2166335399072068 -0.37754454955490591 0 -0.24250105838478911 -0.38115289479576248 0 -0.22830429489009779 -0.36088200932678732 0 -0.22830429489009779 -0.36088200932678732 0 -0.220875946589804 -0.34293248017840788 0 -0.2092898987376578 -0.36079708812048877 0 -0.22830429489009779 -0.36088200932678732 0 -0.24104659920294461 -0.34231976192871288 0 -0.220875946589804 -0.34293248017840788 0 -0.25986077693605891 -0.34801270071467438 0 -0.24710529353841509 -0.36027620493245538 0 -0.24104659920294461 -0.34231976192871288 0 -0.24710529353841509 -0.36027620493245538 0 -0.22830429489009779 -0.36088200932678732 0 -0.24104659920294461 -0.34231976192871288 0 -0.25195553216614702 -0.32530766683916101 0 -0.24104659920294461 -0.34231976192871288 0 -0.22906901919444919 -0.32856951188150202 0 -0.25195553216614702 -0.32530766683916101 0 -0.22906901919444919 -0.32856951188150202 0 -0.22834286033615209 -0.31074957273016518 0 -0.25195553216614702 -0.32530766683916101 0 -0.24582387398822261 -0.30528598035251803 0 -0.22834286033615209 -0.31074957273016518 0 -0.25195553216614702 -0.32530766683916101 0 -0.22834286033615209 -0.31074957273016518 0 -0.21914003880640079 -0.31965634825031458 0 -0.22906901919444919 -0.32856951188150202 0 -0.21216476802313841 -0.33034522971817321 0 -0.21914003880640079 -0.31965634825031458 0 -0.22834286033615209 -0.31074957273016518 0 -0.21242153552741591 -0.31014488027211751 0 -0.21914003880640079 -0.31965634825031458 0 -0.22906901919444919 -0.32856951188150202 0 -0.22834286033615209 -0.31074957273016518 0 -0.24104659920294461 -0.34231976192871288 0 -0.22906901919444919 -0.32856951188150202 0 -0.220875946589804 -0.34293248017840788 0 -0.22906901919444919 -0.32856951188150202 0 -0.220875946589804 -0.34293248017840788 0 -0.21216476802313841 -0.33034522971817321 0 -0.220875946589804 -0.34293248017840788 0 -0.21216476802313841 -0.33034522971817321 0 -0.20232465149994999 -0.34530997780236361 0 -0.21216476802313841 -0.33034522971817321 0 -0.20595542418366539 -0.31754812511325953 0 -0.19327857338150059 -0.32815220064946699 0 -0.21914003880640079 -0.31965634825031458 0 -0.20595542418366539 -0.31754812511325953 0 -0.21242153552741591 -0.31014488027211751 0 -0.21914003880640079 -0.31965634825031458 0 -0.21216476802313841 -0.33034522971817321 0 -0.20595542418366539 -0.31754812511325953 0 -0.20595542418366539 -0.31754812511325953 0 -0.19327857338150059 -0.32815220064946699 0 -0.19610205595485311 -0.31148715527487592 0 -0.19327857338150059 -0.32815220064946699 0 -0.19610205595485311 -0.31148715527487592 0 -0.18497795208367809 -0.31464065673597241 0 -0.19327857338150059 -0.32815220064946699 0 -0.18855499622360181 -0.34692711938134568 0 -0.20232465149994999 -0.34530997780236361 0 -0.21216476802313841 -0.33034522971817321 0 -0.19327857338150059 -0.32815220064946699 0 -0.20232465149994999 -0.34530997780236361 0 -0.20232465149994999 -0.34530997780236361 0 -0.19047090497329081 -0.36075908132124629 0 -0.2092898987376578 -0.36079708812048877 0 -0.18855499622360181 -0.34692711938134568 0 -0.20232465149994999 -0.34530997780236361 0 -0.19047090497329081 -0.36075908132124629 0 -0.19713005456559751 -0.37735443053922191 0 -0.19047090497329081 -0.36075908132124629 0 -0.1768121502635504 -0.37234466383455289 0 -0.19713005456559751 -0.37735443053922191 0 -0.19047090497329081 -0.36075908132124629 0 -0.2092898987376578 -0.36079708812048877 0 -0.2166335399072068 -0.37754454955490591 0 -0.22830429489009779 -0.36088200932678732 0 -0.2092898987376578 -0.36079708812048877 0 -0.19713005456559751 -0.37735443053922191 0 -0.2166335399072068 -0.37754454955490591 0 -0.2092898987376578 -0.36079708812048877 0 -0.220875946589804 -0.34293248017840788 0 -0.20232465149994999 -0.34530997780236361 0 -0.2092898987376578 -0.36079708812048877 0 -0.23073408690097341 -0.27538300979224001 0 -0.21305162517768289 -0.26258489122574968 0 -0.22908994334265659 -0.24776325145605699 0 -0.2513037376167887 -0.25422011069476208 0 -0.23073408690097341 -0.27538300979224001 0 -0.2513037376167887 -0.25422011069476208 0 -0.23073408690097341 -0.27538300979224001 0 -0.22908994334265659 -0.24776325145605699 0 -0.25800203222715262 -0.28272475300151512 0 -0.2513037376167887 -0.25422011069476208 0 -0.23073408690097341 -0.27538300979224001 0 -0.23073408690097341 -0.27538300979224001 0 -0.2140203610642239 -0.27838204442615577 0 -0.21305162517768289 -0.26258489122574968 0 -0.23073408690097341 -0.27538300979224001 0 -0.2305201791562585 -0.29474440044630601 0 -0.2101644361851582 -0.29654590888971771 0 -0.23073408690097341 -0.27538300979224001 0 -0.2101644361851582 -0.29654590888971771 0 -0.23073408690097341 -0.27538300979224001 0 -0.2305201791562585 -0.29474440044630601 0 -0.24127004306815181 -0.28953453589814482 0 -0.25800203222715262 -0.28272475300151512 0 -0.23073408690097341 -0.27538300979224001 0 -0.24127004306815181 -0.28953453589814482 0 -0.2305201791562585 -0.29474440044630601 0 -0.24127004306815181 -0.28953453589814482 0 -0.24582387398822261 -0.30528598035251803 0 -0.25800203222715262 -0.28272475300151512 0 -0.24127004306815181 -0.28953453589814482 0 -0.24582387398822261 -0.30528598035251803 0 -0.2305201791562585 -0.29474440044630601 0 -0.24582387398822261 -0.30528598035251803 0 -0.22834286033615209 -0.31074957273016518 0 -0.2305201791562585 -0.29474440044630601 0 -0.22834286033615209 -0.31074957273016518 0 -0.2101644361851582 -0.29654590888971771 0 -0.22834286033615209 -0.31074957273016518 0 -0.21242153552741591 -0.31014488027211751 0 -0.20473018850615721 -0.29619147862116951 0 -0.22834286033615209 -0.31074957273016518 0 -0.20473018850615721 -0.29619147862116951 0 -0.22834286033615209 -0.31074957273016518 0 -0.2101644361851582 -0.29654590888971771 0 -0.20473018850615721 -0.29619147862116951 0 -0.21242153552741591 -0.31014488027211751 0 -0.20173720336657561 -0.30539692487053111 0 -0.20473018850615721 -0.29619147862116951 0 -0.20595542418366539 -0.31754812511325953 0 -0.21242153552741591 -0.31014488027211751 0 -0.20173720336657561 -0.30539692487053111 0 -0.20595542418366539 -0.31754812511325953 0 -0.20173720336657561 -0.30539692487053111 0 -0.19610205595485311 -0.31148715527487592 0 -0.20173720336657561 -0.30539692487053111 0 -0.19610205595485311 -0.31148715527487592 0 -0.19389118267047581 -0.30121117946959081 0 -0.19610205595485311 -0.31148715527487592 0 -0.18886349304092789 -0.30678082238744908 0 -0.18497795208367809 -0.31464065673597241 0 -0.19610205595485311 -0.31148715527487592 0 -0.18886349304092789 -0.30678082238744908 0 -0.19389118267047581 -0.30121117946959081 0 -0.19389118267047581 -0.30121117946959081 0 -0.1902305730964792 -0.29211852938777078 0 -0.1868621433690435 -0.29955391389076408 0 -0.18886349304092789 -0.30678082238744908 0 -0.19389118267047581 -0.30121117946959081 0 -0.1868621433690435 -0.29955391389076408 0 -0.20173720336657561 -0.30539692487053111 0 -0.19796815402670831 -0.29621906512098872 0 -0.20473018850615721 -0.29619147862116951 0 -0.20173720336657561 -0.30539692487053111 0 -0.19389118267047581 -0.30121117946959081 0 -0.19796815402670831 -0.29621906512098872 0 -0.19796815402670831 -0.29621906512098872 0 -0.1986508150484767 -0.28850533701475273 0 -0.20473018850615721 -0.29619147862116951 0 -0.19796815402670831 -0.29621906512098872 0 -0.1902305730964792 -0.29211852938777078 0 -0.1986508150484767 -0.28850533701475273 0 -0.19389118267047581 -0.30121117946959081 0 -0.19796815402670831 -0.29621906512098872 0 -0.1902305730964792 -0.29211852938777078 0 -0.1902305730964792 -0.29211852938777078 0 -0.1919117602897106 -0.28044303430610812 0 -0.1805855225225115 -0.28406036359116338 0 -0.1902305730964792 -0.29211852938777078 0 -0.1986508150484767 -0.28850533701475273 0 -0.1919117602897106 -0.28044303430610812 0 -0.1986508150484767 -0.28850533701475273 0 -0.20418311425253691 -0.27675051466954992 0 -0.1919117602897106 -0.28044303430610812 0 -0.1986508150484767 -0.28850533701475273 0 -0.2068605793561703 -0.28667240589056492 0 -0.20418311425253691 -0.27675051466954992 0 -0.2068605793561703 -0.28667240589056492 0 -0.2101644361851582 -0.29654590888971771 0 -0.2140203610642239 -0.27838204442615577 0 -0.23073408690097341 -0.27538300979224001 0 -0.2101644361851582 -0.29654590888971771 0 -0.2140203610642239 -0.27838204442615577 0 -0.2068605793561703 -0.28667240589056492 0 -0.2101644361851582 -0.29654590888971771 0 -0.20473018850615721 -0.29619147862116951 0 -0.1986508150484767 -0.28850533701475273 0 -0.2068605793561703 -0.28667240589056492 0 -0.20473018850615721 -0.29619147862116951 0 -0.2140203610642239 -0.27838204442615577 0 -0.20418311425253691 -0.27675051466954992 0 -0.21305162517768289 -0.26258489122574968 0 -0.20418311425253691 -0.27675051466954992 0 -0.1951868476304271 -0.26871685497500042 0 -0.21305162517768289 -0.26258489122574968 0 -0.2068605793561703 -0.28667240589056492 0 -0.2140203610642239 -0.27838204442615577 0 -0.20418311425253691 -0.27675051466954992 0 -0.20418311425253691 -0.27675051466954992 0 -0.1919117602897106 -0.28044303430610812 0 -0.1951868476304271 -0.26871685497500042 0 -0.1919117602897106 -0.28044303430610812 0 -0.1951868476304271 -0.26871685497500042 0 -0.18242005613803311 -0.27086260704353993 0 -0.1951868476304271 -0.26871685497500042 0 -0.1905857482841215 -0.25475181717488998 0 -0.21305162517768289 -0.26258489122574968 0 -0.1951868476304271 -0.26871685497500042 0 -0.1905857482841215 -0.25475181717488998 0 -0.18242005613803311 -0.27086260704353993 0 -0.21305162517768289 -0.26258489122574968 0 -0.2077156385191524 -0.24492740173516231 0 -0.22908994334265659 -0.24776325145605699 0 -0.1905857482841215 -0.25475181717488998 0 -0.21305162517768289 -0.26258489122574968 0 -0.2077156385191524 -0.24492740173516231 0 -0.169875671899618 -0.25980476064229752 0 -0.15331468217961719 -0.2712331588268988 0 -0.14995745251178161 -0.24677829845294699 0 -0.1905857482841215 -0.25475181717488998 0 -0.169875671899618 -0.25980476064229752 0 -0.17341784158435231 -0.23999749683589741 0 -0.1905857482841215 -0.25475181717488998 0 -0.169875671899618 -0.25980476064229752 0 -0.18242005613803311 -0.27086260704353993 0 -0.169875671899618 -0.25980476064229752 0 -0.18242005613803311 -0.27086260704353993 0 -0.16848681279286171 -0.27603485729787269 0 -0.1919117602897106 -0.28044303430610812 0 -0.18242005613803311 -0.27086260704353993 0 -0.1805855225225115 -0.28406036359116338 0 -0.18242005613803311 -0.27086260704353993 0 -0.16848681279286171 -0.27603485729787269 0 -0.1805855225225115 -0.28406036359116338 0 -0.169875671899618 -0.25980476064229752 0 -0.16848681279286171 -0.27603485729787269 0 -0.15331468217961719 -0.2712331588268988 0 -0.16848681279286171 -0.27603485729787269 0 -0.16214928787740901 -0.28314357785487659 0 -0.15331468217961719 -0.2712331588268988 0 -0.16214928787740901 -0.28314357785487659 0 -0.1566719118474528 -0.29568801920085053 0 -0.15331468217961719 -0.2712331588268988 0 -0.1566719118474528 -0.29568801920085053 0 -0.1701237446897042 -0.28961827609388452 0 -0.17255441099913171 -0.29995727508233949 0 -0.16214928787740901 -0.28314357785487659 0 -0.1566719118474528 -0.29568801920085053 0 -0.1701237446897042 -0.28961827609388452 0 -0.16848681279286171 -0.27603485729787269 0 -0.16214928787740901 -0.28314357785487659 0 -0.1701237446897042 -0.28961827609388452 0 -0.16848681279286171 -0.27603485729787269 0 -0.1701237446897042 -0.28961827609388452 0 -0.1805855225225115 -0.28406036359116338 0 -0.1902305730964792 -0.29211852938777078 0 -0.1805855225225115 -0.28406036359116338 0 -0.18034018812828059 -0.29528487741780479 0 -0.1902305730964792 -0.29211852938777078 0 -0.18034018812828059 -0.29528487741780479 0 -0.1868621433690435 -0.29955391389076408 0 -0.1701237446897042 -0.28961827609388452 0 -0.1805855225225115 -0.28406036359116338 0 -0.18034018812828059 -0.29528487741780479 0 -0.1701237446897042 -0.28961827609388452 0 -0.18034018812828059 -0.29528487741780479 0 -0.17255441099913171 -0.29995727508233949 0 -0.18034018812828059 -0.29528487741780479 0 -0.17255441099913171 -0.29995727508233949 0 -0.18060760211035931 -0.30485993760788399 0 -0.18034018812828059 -0.29528487741780479 0 -0.1868621433690435 -0.29955391389076408 0 -0.18060760211035931 -0.30485993760788399 0 -0.18886349304092789 -0.30678082238744908 0 -0.1868621433690435 -0.29955391389076408 0 -0.18060760211035931 -0.30485993760788399 0 -0.18060760211035931 -0.30485993760788399 0 -0.1742494335330928 -0.31230422286367571 0 -0.18497795208367809 -0.31464065673597241 0 -0.18886349304092789 -0.30678082238744908 0 -0.18060760211035931 -0.30485993760788399 0 -0.18497795208367809 -0.31464065673597241 0 -0.17255441099913171 -0.29995727508233949 0 -0.18060760211035931 -0.30485993760788399 0 -0.1742494335330928 -0.31230422286367571 0 -0.17255441099913171 -0.29995727508233949 0 -0.1742494335330928 -0.31230422286367571 0 -0.16612035607287839 -0.3068487861009252 0 -0.1566719118474528 -0.29568801920085053 0 -0.16002914151528841 -0.32014287957480209 0 -0.1566719118474528 -0.29568801920085053 0 -0.17255441099913171 -0.29995727508233949 0 -0.16612035607287839 -0.3068487861009252 0 -0.1566719118474528 -0.29568801920085053 0 -0.16612035607287839 -0.3068487861009252 0 -0.16002914151528841 -0.32014287957480209 0 -0.14914563252517499 -0.31102755292656847 0 -0.14256367290087699 -0.29078979778482927 0 -0.1566719118474528 -0.29568801920085053 0 -0.14914563252517499 -0.31102755292656847 0 -0.14256367290087699 -0.29078979778482927 0 -0.14663767773019881 -0.31021916270186722 0 -0.14256367290087699 -0.29078979778482927 0 -0.14914563252517499 -0.31102755292656847 0 -0.14663767773019881 -0.31021916270186722 0 -0.14256367290087699 -0.29078979778482927 0 -0.14663767773019881 -0.31021916270186722 0 -0.137342146402397 -0.30437302604622912 0 -0.14256367290087699 -0.29078979778482927 0 -0.1566719118474528 -0.29568801920085053 0 -0.14914563252517499 -0.31102755292656847 0 -0.16002914151528841 -0.32014287957480209 0 -0.14663767773019881 -0.31021916270186722 0 -0.14136322718361141 -0.31226909671933439 0 -0.137342146402397 -0.30437302604622912 0 -0.1281089853481692 -0.30713053908469468 0 -0.137342146402397 -0.30437302604622912 0 -0.13678577215118631 -0.31286284697083661 0 -0.14136322718361141 -0.31226909671933439 0 -0.137342146402397 -0.30437302604622912 0 -0.13678577215118631 -0.31286284697083661 0 -0.1281089853481692 -0.30713053908469468 0 -0.137342146402397 -0.30437302604622912 0 -0.1286582307697246 -0.29272374524272798 0 -0.137342146402397 -0.30437302604622912 0 -0.1286582307697246 -0.29272374524272798 0 -0.14256367290087699 -0.29078979778482927 0 -0.1286582307697246 -0.29272374524272798 0 -0.13229153688531561 -0.28151466268037317 0 -0.1219566507103694 -0.28108658072336079 0 -0.1286582307697246 -0.29272374524272798 0 -0.13229153688531561 -0.28151466268037317 0 -0.14256367290087699 -0.29078979778482927 0 -0.1566719118474528 -0.29568801920085053 0 -0.15331468217961719 -0.2712331588268988 0 -0.1566719118474528 -0.29568801920085053 0 -0.14256367290087699 -0.29078979778482927 0 -0.15331468217961719 -0.2712331588268988 0 -0.14256367290087699 -0.29078979778482927 0 -0.15331468217961719 -0.2712331588268988 0 -0.1375232366456153 -0.26675141799703461 0 -0.13229153688531561 -0.28151466268037317 0 -0.14256367290087699 -0.29078979778482927 0 -0.13508105430034489 -0.26778275858975908 0 -0.14256367290087699 -0.29078979778482927 0 -0.1375232366456153 -0.26675141799703461 0 -0.13508105430034489 -0.26778275858975908 0 -0.14256367290087699 -0.29078979778482927 0 -0.1375232366456153 -0.26675141799703461 0 -0.14256367290087699 -0.29078979778482927 0 -0.13508105430034489 -0.26778275858975908 0 -0.13229153688531561 -0.28151466268037317 0 -0.1280280157178702 -0.27533468658836069 0 -0.1219566507103694 -0.28108658072336079 0 -0.13229153688531561 -0.28151466268037317 0 -0.1280280157178702 -0.27533468658836069 0 -0.13508105430034489 -0.26778275858975908 0 -0.12847794474672949 -0.26940919416367148 0 -0.12523501111598051 -0.26500304380035938 0 -0.1227427525944466 -0.27162082943518112 0 -0.12847794474672949 -0.26940919416367148 0 -0.12923837969407509 -0.26477452436512028 0 -0.12523501111598051 -0.26500304380035938 0 -0.1280280157178702 -0.27533468658836069 0 -0.12847794474672949 -0.26940919416367148 0 -0.1227427525944466 -0.27162082943518112 0 -0.1280280157178702 -0.27533468658836069 0 -0.12847794474672949 -0.26940919416367148 0 -0.13508105430034489 -0.26778275858975908 0 -0.12847794474672949 -0.26940919416367148 0 -0.13508105430034489 -0.26778275858975908 0 -0.12923837969407509 -0.26477452436512028 0 -0.1375232366456153 -0.26675141799703461 0 -0.13248280039035351 -0.24271303820923981 0 -0.13508105430034489 -0.26778275858975908 0 -0.12759843569981269 -0.2447757193946889 0 -0.1375232366456153 -0.26675141799703461 0 -0.14180034745397441 -0.25433598075321889 0 -0.13248280039035351 -0.24271303820923981 0 -0.1375232366456153 -0.26675141799703461 0 -0.13508105430034489 -0.26778275858975908 0 -0.12759843569981269 -0.2447757193946889 0 -0.1375232366456153 -0.26675141799703461 0 -0.13248280039035351 -0.24271303820923981 0 -0.12759843569981269 -0.2447757193946889 0 -0.13508105430034489 -0.26778275858975908 0 -0.12815950861324571 -0.25690310090669127 0 -0.12759843569981269 -0.2447757193946889 0 -0.13508105430034489 -0.26778275858975908 0 -0.12923837969407509 -0.26477452436512028 0 -0.12815950861324571 -0.25690310090669127 0 -0.12923837969407509 -0.26477452436512028 0 -0.12523501111598051 -0.26500304380035938 0 -0.12815950861324571 -0.25690310090669127 0 -0.12815950861324571 -0.25690310090669127 0 -0.1228168254553938 -0.25163544923687198 0 -0.12759843569981269 -0.2447757193946889 0 -0.15331468217961719 -0.2712331588268988 0 -0.14995745251178161 -0.24677829845294699 0 -0.15331468217961719 -0.2712331588268988 0 -0.14180034745397441 -0.25433598075321889 0 -0.14995745251178161 -0.24677829845294699 0 -0.15331468217961719 -0.2712331588268988 0 -0.1375232366456153 -0.26675141799703461 0 -0.14180034745397441 -0.25433598075321889 0 -0.16338637118312391 -0.34459773994875392 0 -0.17343729988417389 -0.35606007221568708 0 -0.15574070906480511 -0.35494651135343852 0 -0.16243222908647131 -0.36526535811499772 0 -0.17343729988417389 -0.35606007221568708 0 -0.15574070906480511 -0.35494651135343852 0 -0.16338637118312391 -0.34459773994875392 0 -0.17343729988417389 -0.35606007221568708 0 -0.1772895176016471 -0.33870044022589219 0 -0.16338637118312391 -0.34459773994875392 0 -0.15574070906480511 -0.35494651135343852 0 -0.15014569717165829 -0.3449764288800975 0 -0.16243222908647131 -0.36526535811499772 0 -0.1768121502635504 -0.37234466383455289 0 -0.17343729988417389 -0.35606007221568708 0 -0.15921303315353841 -0.37827831273683571 0 -0.16243222908647131 -0.36526535811499772 0 -0.1768121502635504 -0.37234466383455289 0 -0.19047090497329081 -0.36075908132124629 0 -0.1768121502635504 -0.37234466383455289 0 -0.17343729988417389 -0.35606007221568708 0 -0.18855499622360181 -0.34692711938134568 0 -0.19047090497329081 -0.36075908132124629 0 -0.17343729988417389 -0.35606007221568708 0 -0.18855499622360181 -0.34692711938134568 0 -0.17343729988417389 -0.35606007221568708 0 -0.1772895176016471 -0.33870044022589219 0 -0.19327857338150059 -0.32815220064946699 0 -0.1772895176016471 -0.33870044022589219 0 -0.1767665544813351 -0.32425960163248307 0 -0.19327857338150059 -0.32815220064946699 0 -0.18855499622360181 -0.34692711938134568 0 -0.1772895176016471 -0.33870044022589219 0 -0.1772895176016471 -0.33870044022589219 0 -0.1767665544813351 -0.32425960163248307 0 -0.16936789619534859 -0.33192516534548278 0 -0.19327857338150059 -0.32815220064946699 0 -0.18497795208367809 -0.31464065673597241 0 -0.1767665544813351 -0.32425960163248307 0 -0.1742494335330928 -0.31230422286367571 0 -0.18497795208367809 -0.31464065673597241 0 -0.1767665544813351 -0.32425960163248307 0 -0.1742494335330928 -0.31230422286367571 0 -0.1767665544813351 -0.32425960163248307 0 -0.16002914151528841 -0.32014287957480209 0 -0.1767665544813351 -0.32425960163248307 0 -0.16002914151528841 -0.32014287957480209 0 -0.16936789619534859 -0.33192516534548278 0 -0.1742494335330928 -0.31230422286367571 0 -0.16612035607287839 -0.3068487861009252 0 -0.16002914151528841 -0.32014287957480209 0 -0.16338637118312391 -0.34459773994875392 0 -0.16002914151528841 -0.32014287957480209 0 -0.16936789619534859 -0.33192516534548278 0 -0.16338637118312391 -0.34459773994875392 0 -0.16002914151528841 -0.32014287957480209 0 -0.16338637118312391 -0.34459773994875392 0 -0.16002914151528841 -0.32014287957480209 0 -0.15572759214947299 -0.33126530806830767 0 -0.16338637118312391 -0.34459773994875392 0 -0.1772895176016471 -0.33870044022589219 0 -0.16936789619534859 -0.33192516534548278 0 -0.16338637118312391 -0.34459773994875392 0 -0.15109552217236419 -0.3370467858223784 0 -0.15572759214947299 -0.33126530806830767 0 -0.16338637118312391 -0.34459773994875392 0 -0.15109552217236419 -0.3370467858223784 0 -0.15014569717165829 -0.3449764288800975 0 -0.15109552217236419 -0.3370467858223784 0 -0.15572759214947299 -0.33126530806830767 0 -0.15071168255952061 -0.32964852761890501 0 -0.15071168255952061 -0.32964852761890501 0 -0.14136361214042781 -0.32669385836724202 0 -0.13893561238015659 -0.33648939580559639 0 -0.15109552217236419 -0.3370467858223784 0 -0.15071168255952061 -0.32964852761890501 0 -0.13893561238015659 -0.33648939580559639 0 -0.15109552217236419 -0.3370467858223784 0 -0.13893561238015659 -0.33648939580559639 0 -0.15014569717165829 -0.3449764288800975 0 -0.14914563252517499 -0.31102755292656847 0 -0.15572759214947299 -0.33126530806830767 0 -0.14914563252517499 -0.31102755292656847 0 -0.15572759214947299 -0.33126530806830767 0 -0.15071168255952061 -0.32964852761890501 0 -0.14914563252517499 -0.31102755292656847 0 -0.14663767773019881 -0.31021916270186722 0 -0.15071168255952061 -0.32964852761890501 0 -0.14663767773019881 -0.31021916270186722 0 -0.15071168255952061 -0.32964852761890501 0 -0.14663767773019881 -0.31021916270186722 0 -0.15071168255952061 -0.32964852761890501 0 -0.1420831237948009 -0.3190213212950832 0 -0.14914563252517499 -0.31102755292656847 0 -0.16002914151528841 -0.32014287957480209 0 -0.15572759214947299 -0.33126530806830767 0 -0.15071168255952061 -0.32964852761890501 0 -0.14136361214042781 -0.32669385836724202 0 -0.1420831237948009 -0.3190213212950832 0 -0.14663767773019881 -0.31021916270186722 0 -0.14136322718361141 -0.31226909671933439 0 -0.1420831237948009 -0.3190213212950832 0 -0.1420831237948009 -0.3190213212950832 0 -0.13678577215118631 -0.31286284697083661 0 -0.13372402982723289 -0.32161618874938358 0 -0.1281089853481692 -0.30713053908469468 0 -0.13678577215118631 -0.31286284697083661 0 -0.13372402982723289 -0.32161618874938358 0 -0.14136322718361141 -0.31226909671933439 0 -0.1420831237948009 -0.3190213212950832 0 -0.13678577215118631 -0.31286284697083661 0 -0.14136361214042781 -0.32669385836724202 0 -0.1420831237948009 -0.3190213212950832 0 -0.13372402982723289 -0.32161618874938358 0 -0.13372402982723289 -0.32161618874938358 0 -0.12513160946969801 -0.33036800011053902 0 -0.1209041851430694 -0.31949975086525723 0 -0.1281089853481692 -0.30713053908469468 0 -0.13372402982723289 -0.32161618874938358 0 -0.1209041851430694 -0.31949975086525723 0 -0.13893561238015659 -0.33648939580559639 0 -0.12513160946969801 -0.33036800011053902 0 -0.12022245543534479 -0.34298758919099609 0 -0.14136361214042781 -0.32669385836724202 0 -0.13372402982723289 -0.32161618874938358 0 -0.13893561238015659 -0.33648939580559639 0 -0.13372402982723289 -0.32161618874938358 0 -0.13893561238015659 -0.33648939580559639 0 -0.12513160946969801 -0.33036800011053902 0 -0.13893561238015659 -0.33648939580559639 0 -0.1332207878268177 -0.35581669773745089 0 -0.12022245543534479 -0.34298758919099609 0 -0.13893561238015659 -0.33648939580559639 0 -0.1332207878268177 -0.35581669773745089 0 -0.14450967729109421 -0.35354779635748201 0 -0.13893561238015659 -0.33648939580559639 0 -0.14450967729109421 -0.35354779635748201 0 -0.15014569717165829 -0.3449764288800975 0 -0.1332207878268177 -0.35581669773745089 0 -0.14450967729109421 -0.35354779635748201 0 -0.14622505556956761 -0.36630079224826201 0 -0.14450967729109421 -0.35354779635748201 0 -0.15574070906480511 -0.35494651135343852 0 -0.14622505556956761 -0.36630079224826201 0 -0.14450967729109421 -0.35354779635748201 0 -0.15574070906480511 -0.35494651135343852 0 -0.15014569717165829 -0.3449764288800975 0 -0.15921303315353841 -0.37827831273683571 0 -0.16243222908647131 -0.36526535811499772 0 -0.14622505556956761 -0.36630079224826201 0 -0.16243222908647131 -0.36526535811499772 0 -0.15574070906480511 -0.35494651135343852 0 -0.14622505556956761 -0.36630079224826201 0 -0.14599536200912319 -0.38179457645334819 0 -0.14622505556956761 -0.36630079224826201 0 -0.13215769554713411 -0.37400980942088041 0 -0.1332207878268177 -0.35581669773745089 0 -0.13215769554713411 -0.37400980942088041 0 -0.1181872401217671 -0.3641127884755091 0 -0.1332207878268177 -0.35581669773745089 0 -0.14622505556956761 -0.36630079224826201 0 -0.13215769554713411 -0.37400980942088041 0 -0.13215769554713411 -0.37400980942088041 0 -0.1181872401217671 -0.3641127884755091 0 -0.11523576724205831 -0.38526707901903051 0 -0.1181872401217671 -0.3641127884755091 0 -0.1020317853128675 -0.36737267211120361 0 -0.11523576724205831 -0.38526707901903051 0 -0.1181872401217671 -0.3641127884755091 0 -0.1020317853128675 -0.36737267211120361 0 -0.1050202691516807 -0.34911329318711692 0 -0.1020317853128675 -0.36737267211120361 0 -0.1050202691516807 -0.34911329318711692 0 -0.088827803383676629 -0.3494782652033766 0 -0.1020317853128675 -0.36737267211120361 0 -0.088827803383676629 -0.3494782652033766 0 -0.1332207878268177 -0.35581669773745089 0 -0.1181872401217671 -0.3641127884755091 0 -0.12022245543534479 -0.34298758919099609 0 -0.1181872401217671 -0.3641127884755091 0 -0.1050202691516807 -0.34911329318711692 0 -0.12022245543534479 -0.34298758919099609 0 -0.1050202691516807 -0.34911329318711692 0 -0.12022245543534479 -0.34298758919099609 0 -0.1084816710874381 -0.32763862343298622 0 -0.12513160946969801 -0.33036800011053902 0 -0.12022245543534479 -0.34298758919099609 0 -0.1084816710874381 -0.32763862343298622 0 -0.12513160946969801 -0.33036800011053902 0 -0.1209041851430694 -0.31949975086525723 0 -0.1084816710874381 -0.32763862343298622 0 -0.1209041851430694 -0.31949975086525723 0 -0.1084816710874381 -0.32763862343298622 0 -0.1090437094181797 -0.30787520008329089 0 -0.1084816710874381 -0.32763862343298622 0 -0.1090437094181797 -0.30787520008329089 0 -0.088255947719254713 -0.31206142331680498 0 -0.1084816710874381 -0.32763862343298622 0 -0.090453024954085859 -0.33162818476942652 0 -0.088255947719254713 -0.31206142331680498 0 -0.1050202691516807 -0.34911329318711692 0 -0.090453024954085859 -0.33162818476942652 0 -0.088827803383676629 -0.3494782652033766 0 -0.1050202691516807 -0.34911329318711692 0 -0.1084816710874381 -0.32763862343298622 0 -0.090453024954085859 -0.33162818476942652 0 -0.090453024954085859 -0.33162818476942652 0 -0.072124002760585032 -0.33038974317071779 0 -0.088827803383676629 -0.3494782652033766 0 -0.090453024954085859 -0.33162818476942652 0 -0.072124002760585032 -0.33038974317071779 0 -0.088255947719254713 -0.31206142331680498 0 -0.072124002760585032 -0.33038974317071779 0 -0.062386103427082243 -0.31146126764656579 0 -0.058744074410599451 -0.32894675727612033 0 -0.072124002760585032 -0.33038974317071779 0 -0.088255947719254713 -0.31206142331680498 0 -0.062386103427082243 -0.31146126764656579 0 -0.072124002760585032 -0.33038974317071779 0 -0.06829187620423352 -0.35071159450276679 0 -0.088827803383676629 -0.3494782652033766 0 -0.072124002760585032 -0.33038974317071779 0 -0.06829187620423352 -0.35071159450276679 0 -0.061746932607644231 -0.33823372168558208 0 -0.072124002760585032 -0.33038974317071779 0 -0.061746932607644231 -0.33823372168558208 0 -0.058744074410599451 -0.32894675727612033 0 -0.06829187620423352 -0.35071159450276679 0 -0.063118313443178115 -0.3659058128136996 0 -0.079145735020929683 -0.36175488227068592 0 -0.063118313443178115 -0.3659058128136996 0 -0.079145735020929683 -0.36175488227068592 0 -0.073527136997389803 -0.37801103018480942 0 -0.1020317853128675 -0.36737267211120361 0 -0.079145735020929683 -0.36175488227068592 0 -0.073527136997389803 -0.37801103018480942 0 -0.1020317853128675 -0.36737267211120361 0 -0.079145735020929683 -0.36175488227068592 0 -0.088827803383676629 -0.3494782652033766 0 -0.06829187620423352 -0.35071159450276679 0 -0.079145735020929683 -0.36175488227068592 0 -0.088827803383676629 -0.3494782652033766 0 -0.1055459663924186 -0.25766206482139198 0 -0.092101721764862615 -0.2577648640710396 0 -0.1003875151077115 -0.24632638561907111 0 -0.1055459663924186 -0.25766206482139198 0 -0.094916745285405155 -0.27091149572595519 0 -0.1055459663924186 -0.25766206482139198 0 -0.094916745285405155 -0.27091149572595519 0 -0.092101721764862615 -0.2577648640710396 0 -0.1055459663924186 -0.25766206482139198 0 -0.113562218127123 -0.24918493350341381 0 -0.1003875151077115 -0.24632638561907111 0 -0.1055459663924186 -0.25766206482139198 0 -0.11390586481308761 -0.25958081185908338 0 -0.113562218127123 -0.24918493350341381 0 -0.1176378465645958 -0.25447632614749932 0 -0.11390586481308761 -0.25958081185908338 0 -0.113562218127123 -0.24918493350341381 0 -0.1176378465645958 -0.25447632614749932 0 -0.1228168254553938 -0.25163544923687198 0 -0.113562218127123 -0.24918493350341381 0 -0.1176378465645958 -0.25447632614749932 0 -0.1228168254553938 -0.25163544923687198 0 -0.1214151889593956 -0.25933073314898558 0 -0.1176378465645958 -0.25447632614749932 0 -0.1214151889593956 -0.25933073314898558 0 -0.11390586481308761 -0.25958081185908338 0 -0.12815950861324571 -0.25690310090669127 0 -0.1228168254553938 -0.25163544923687198 0 -0.1214151889593956 -0.25933073314898558 0 -0.12523501111598051 -0.26500304380035938 0 -0.12815950861324571 -0.25690310090669127 0 -0.1214151889593956 -0.25933073314898558 0 -0.12523501111598051 -0.26500304380035938 0 -0.1214151889593956 -0.25933073314898558 0 -0.1189686367710233 -0.26522428796859282 0 -0.1214151889593956 -0.25933073314898558 0 -0.1189686367710233 -0.26522428796859282 0 -0.11390586481308761 -0.25958081185908338 0 -0.1055459663924186 -0.25766206482139198 0 -0.11390586481308761 -0.25958081185908338 0 -0.1120979414259082 -0.27047819151004088 0 -0.1189686367710233 -0.26522428796859282 0 -0.11390586481308761 -0.25958081185908338 0 -0.1120979414259082 -0.27047819151004088 0 -0.1120979414259082 -0.27047819151004088 0 -0.1219566507103694 -0.28108658072336079 0 -0.1108860908478614 -0.28980229807821761 0 -0.1189686367710233 -0.26522428796859282 0 -0.1120979414259082 -0.27047819151004088 0 -0.1227427525944466 -0.27162082943518112 0 -0.12523501111598051 -0.26500304380035938 0 -0.1189686367710233 -0.26522428796859282 0 -0.1227427525944466 -0.27162082943518112 0 -0.1280280157178702 -0.27533468658836069 0 -0.1227427525944466 -0.27162082943518112 0 -0.1219566507103694 -0.28108658072336079 0 -0.1120979414259082 -0.27047819151004088 0 -0.1227427525944466 -0.27162082943518112 0 -0.1219566507103694 -0.28108658072336079 0 -0.094916745285405155 -0.27091149572595519 0 -0.1108860908478614 -0.28980229807821761 0 -0.09240297385385475 -0.27120612623164581 0 -0.1108860908478614 -0.28980229807821761 0 -0.09240297385385475 -0.27120612623164581 0 -0.1120979414259082 -0.27047819151004088 0 -0.097704535791000482 -0.270584748386832 0 -0.1108860908478614 -0.28980229807821761 0 -0.097704535791000482 -0.270584748386832 0 -0.094916745285405155 -0.27091149572595519 0 -0.1108860908478614 -0.28980229807821761 0 -0.1055459663924186 -0.25766206482139198 0 -0.1120979414259082 -0.27047819151004088 0 -0.097704535791000482 -0.270584748386832 0 -0.1055459663924186 -0.25766206482139198 0 -0.097704535791000482 -0.270584748386832 0 -0.094916745285405155 -0.27091149572595519 0 -0.097704535791000482 -0.270584748386832 0 -0.094916745285405155 -0.27091149572595519 0 -0.094333225448906835 -0.28903131611734689 0 -0.1108860908478614 -0.28980229807821761 0 -0.1090437094181797 -0.30787520008329089 0 -0.094333225448906835 -0.28903131611734689 0 -0.1108860908478614 -0.28980229807821761 0 -0.09240297385385475 -0.27120612623164581 0 -0.1281089853481692 -0.30713053908469468 0 -0.1286582307697246 -0.29272374524272798 0 -0.1108860908478614 -0.28980229807821761 0 -0.1286582307697246 -0.29272374524272798 0 -0.1219566507103694 -0.28108658072336079 0 -0.1108860908478614 -0.28980229807821761 0 -0.1281089853481692 -0.30713053908469468 0 -0.1108860908478614 -0.28980229807821761 0 -0.1090437094181797 -0.30787520008329089 0 -0.1281089853481692 -0.30713053908469468 0 -0.1108860908478614 -0.28980229807821761 0 -0.1281089853481692 -0.30713053908469468 0 -0.1209041851430694 -0.31949975086525723 0 -0.1090437094181797 -0.30787520008329089 0 -0.094333225448906835 -0.28903131611734689 0 -0.1090437094181797 -0.30787520008329089 0 -0.088255947719254713 -0.31206142331680498 0 -0.094333225448906835 -0.28903131611734689 0 -0.088255947719254713 -0.31206142331680498 0 -0.078024649887316069 -0.29196766235915461 0 -0.078024649887316069 -0.29196766235915461 0 -0.060457421617745838 -0.28945410623928958 0 -0.062386103427082243 -0.31146126764656579 0 -0.088255947719254713 -0.31206142331680498 0 -0.078024649887316069 -0.29196766235915461 0 -0.062386103427082243 -0.31146126764656579 0 -0.078024649887316069 -0.29196766235915461 0 -0.062386103427082243 -0.31146126764656579 0 -0.078024649887316069 -0.29196766235915461 0 -0.07259738226073173 -0.28351750455109459 0 -0.060457421617745838 -0.28945410623928958 0 -0.07259738226073173 -0.28351750455109459 0 -0.069190112028694406 -0.27392682594690942 0 -0.060457421617745838 -0.28945410623928958 0 -0.078024649887316069 -0.29196766235915461 0 -0.07259738226073173 -0.28351750455109459 0 -0.079185494614691279 -0.27785774413786662 0 -0.078024649887316069 -0.29196766235915461 0 -0.09240297385385475 -0.27120612623164581 0 -0.094333225448906835 -0.28903131611734689 0 -0.078024649887316069 -0.29196766235915461 0 -0.09240297385385475 -0.27120612623164581 0 -0.09240297385385475 -0.27120612623164581 0 -0.069190112028694406 -0.27392682594690942 0 -0.07377021273692469 -0.25245939494066177 0 -0.09240297385385475 -0.27120612623164581 0 -0.079185494614691279 -0.27785774413786662 0 -0.069190112028694406 -0.27392682594690942 0 -0.09240297385385475 -0.27120612623164581 0 -0.069190112028694406 -0.27392682594690942 0 -0.078024649887316069 -0.29196766235915461 0 -0.09240297385385475 -0.27120612623164581 0 -0.079185494614691279 -0.27785774413786662 0 -0.094916745285405155 -0.27091149572595519 0 -0.09240297385385475 -0.27120612623164581 0 -0.092101721764862615 -0.2577648640710396 0 -0.094916745285405155 -0.27091149572595519 0 -0.09240297385385475 -0.27120612623164581 0 -0.07259738226073173 -0.28351750455109459 0 -0.079185494614691279 -0.27785774413786662 0 -0.069190112028694406 -0.27392682594690942 0 -0.069190112028694406 -0.27392682594690942 0 -0.062163781824346578 -0.25381974479829261 0 -0.069190112028694406 -0.27392682594690942 0 -0.07377021273692469 -0.25245939494066177 0 -0.062163781824346578 -0.25381974479829261 0 -0.07377021273692469 -0.25245939494066177 0 -0.092101721764862615 -0.2577648640710396 0 -0.086965664530206391 -0.24116442962337209 0 -0.09240297385385475 -0.27120612623164581 0 -0.07377021273692469 -0.25245939494066177 0 -0.092101721764862615 -0.2577648640710396 0 -0.09240297385385475 -0.27120612623164581 0 -0.07377021273692469 -0.25245939494066177 0 -0.033063243492570261 -0.26224971223486909 0 -0.04704042380883422 -0.25004502284223018 0 -0.051007898288053813 -0.26339391573910709 0 -0.033063243492570261 -0.26224971223486909 0 -0.04704042380883422 -0.25004502284223018 0 -0.034091157639558403 -0.24620972889562989 0 -0.069190112028694406 -0.27392682594690942 0 -0.062163781824346578 -0.25381974479829261 0 -0.051007898288053813 -0.26339391573910709 0 -0.04704042380883422 -0.25004502284223018 0 -0.062163781824346578 -0.25381974479829261 0 -0.051007898288053813 -0.26339391573910709 0 -0.069190112028694406 -0.27392682594690942 0 -0.043581930285823509 -0.27692827287323329 0 -0.069190112028694406 -0.27392682594690942 0 -0.051007898288053813 -0.26339391573910709 0 -0.043581930285823509 -0.27692827287323329 0 -0.069190112028694406 -0.27392682594690942 0 -0.043581930285823509 -0.27692827287323329 0 -0.060457421617745838 -0.28945410623928958 0 -0.033063243492570261 -0.26224971223486909 0 -0.051007898288053813 -0.26339391573910709 0 -0.043581930285823509 -0.27692827287323329 0 -0.033063243492570261 -0.26224971223486909 0 -0.043581930285823509 -0.27692827287323329 0 -0.017973748542952559 -0.27992971979955661 0 -0.043581930285823509 -0.27692827287323329 0 -0.03177544192251458 -0.28981947509547329 0 -0.0430611681384548 -0.29404268638558689 0 -0.03177544192251458 -0.28981947509547329 0 -0.0430611681384548 -0.29404268638558689 0 -0.031443748932930192 -0.30160243011744808 0 -0.043581930285823509 -0.27692827287323329 0 -0.0430611681384548 -0.29404268638558689 0 -0.060457421617745838 -0.28945410623928958 0 -0.060457421617745838 -0.28945410623928958 0 -0.062386103427082243 -0.31146126764656579 0 -0.045334811899287279 -0.30944626860274033 0 -0.0430611681384548 -0.29404268638558689 0 -0.060457421617745838 -0.28945410623928958 0 -0.045334811899287279 -0.30944626860274033 0 -0.0430611681384548 -0.29404268638558689 0 -0.045334811899287279 -0.30944626860274033 0 -0.031443748932930192 -0.30160243011744808 0 -0.045334811899287279 -0.30944626860274033 0 -0.031443748932930192 -0.30160243011744808 0 -0.029930759289655221 -0.31314232487652532 0 -0.031443748932930192 -0.30160243011744808 0 -0.018726249268322521 -0.30733310629098359 0 -0.029930759289655221 -0.31314232487652532 0 -0.031443748932930192 -0.30160243011744808 0 -0.018726249268322521 -0.30733310629098359 0 -0.020200479456024691 -0.29443002566768622 0 -0.018726249268322521 -0.30733310629098359 0 -0.0094782771582197587 -0.29882320118071692 0 -0.020200479456024691 -0.29443002566768622 0 -0.018726249268322521 -0.30733310629098359 0 -0.0066984186948097248 -0.31022387640048898 0 -0.0094782771582197587 -0.29882320118071692 0 -0.0094782771582197587 -0.29882320118071692 0 -4.3688403679403157e-05 -0.29320417647180252 0 0.0033484972358136058 -0.30368005454958658 0 -0.0066984186948097248 -0.31022387640048898 0 -0.0094782771582197587 -0.29882320118071692 0 0.0033484972358136058 -0.30368005454958658 0 -0.0094782771582197587 -0.29882320118071692 0 -0.0080123520721915985 -0.28986365796912839 0 -0.020200479456024691 -0.29443002566768622 0 -0.0080123520721915985 -0.28986365796912839 0 -4.3688403679403157e-05 -0.29320417647180252 0 0.0076344331999184112 -0.28293116672587981 0 -0.0080123520721915985 -0.28986365796912839 0 -0.017973748542952559 -0.27992971979955661 0 0.0076344331999184112 -0.28293116672587981 0 -0.017973748542952559 -0.27992971979955661 0 0.0076344331999184112 -0.28293116672587981 0 -0.0094782771582197587 -0.29882320118071692 0 -0.0080123520721915985 -0.28986365796912839 0 -4.3688403679403157e-05 -0.29320417647180252 0 -0.0080123520721915985 -0.28986365796912839 0 -0.020200479456024691 -0.29443002566768622 0 -0.017973748542952559 -0.27992971979955661 0 -0.043581930285823509 -0.27692827287323329 0 -0.03177544192251458 -0.28981947509547329 0 -0.017973748542952559 -0.27992971979955661 0 -0.03177544192251458 -0.28981947509547329 0 -0.020200479456024691 -0.29443002566768622 0 -0.017973748542952559 -0.27992971979955661 0 -0.03177544192251458 -0.28981947509547329 0 -0.031443748932930192 -0.30160243011744808 0 -0.020200479456024691 -0.29443002566768622 0 -0.033063243492570261 -0.26224971223486909 0 -0.017973748542952559 -0.27992971979955661 0 -0.013277673419467201 -0.263818084547286 0 -0.043581930285823509 -0.27692827287323329 0 -0.017973748542952559 -0.27992971979955661 0 -0.017973748542952559 -0.27992971979955661 0 -0.0022049471877798048 -0.27243169119222183 0 -0.013277673419467201 -0.263818084547286 0 -0.0022049471877798048 -0.27243169119222183 0 -0.013277673419467201 -0.263818084547286 0 0.0069897799888501604 -0.26263972463889451 0 -0.017973748542952559 -0.27992971979955661 0 -0.0022049471877798048 -0.27243169119222183 0 0.0076344331999184112 -0.28293116672587981 0 -0.013277673419467201 -0.263818084547286 0 -0.0090156570986048169 -0.2405549759964698 0 -0.013277673419467201 -0.263818084547286 0 0.0069897799888501604 -0.26263972463889451 0 0.0045897711361613689 -0.24797064528740631 0 -0.013277673419467201 -0.263818084547286 0 -0.02164628741265838 -0.24970332402379461 0 -0.0090156570986048169 -0.2405549759964698 0 -0.013277673419467201 -0.263818084547286 0 -0.0090156570986048169 -0.2405549759964698 0 0.0045897711361613689 -0.24797064528740631 0 -0.033063243492570261 -0.26224971223486909 0 -0.013277673419467201 -0.263818084547286 0 -0.02164628741265838 -0.24970332402379461 0 -0.033063243492570261 -0.26224971223486909 0 -0.02164628741265838 -0.24970332402379461 0 -0.034091157639558403 -0.24620972889562989 0 -0.048556716140107148 -0.36190985422454702 0 -0.050715776290837372 -0.33369418094375869 0 -0.03110901050661441 -0.35044847822138842 0 -0.048556716140107148 -0.36190985422454702 0 -0.03110901050661441 -0.35044847822138842 0 -0.032631191186705467 -0.37594083669056072 0 -0.06829187620423352 -0.35071159450276679 0 -0.063118313443178115 -0.3659058128136996 0 -0.048556716140107148 -0.36190985422454702 0 -0.063118313443178115 -0.3659058128136996 0 -0.048556716140107148 -0.36190985422454702 0 -0.046397655989376951 -0.39012552750533519 0 -0.048556716140107148 -0.36190985422454702 0 -0.050715776290837372 -0.33369418094375869 0 -0.048556716140107148 -0.36190985422454702 0 -0.061746932607644231 -0.33823372168558208 0 -0.050715776290837372 -0.33369418094375869 0 -0.06829187620423352 -0.35071159450276679 0 -0.048556716140107148 -0.36190985422454702 0 -0.061746932607644231 -0.33823372168558208 0 -0.061746932607644231 -0.33823372168558208 0 -0.058744074410599451 -0.32894675727612033 0 -0.050715776290837372 -0.33369418094375869 0 -0.058744074410599451 -0.32894675727612033 0 -0.050715776290837372 -0.33369418094375869 0 -0.046747556966848347 -0.33095487293397707 0 -0.062386103427082243 -0.31146126764656579 0 -0.046747556966848347 -0.33095487293397707 0 -0.062386103427082243 -0.31146126764656579 0 -0.048230298995797491 -0.31925975467914608 0 -0.046747556966848347 -0.33095487293397707 0 -0.062386103427082243 -0.31146126764656579 0 -0.045334811899287279 -0.30944626860274033 0 -0.048230298995797491 -0.31925975467914608 0 -0.062386103427082243 -0.31146126764656579 0 -0.058744074410599451 -0.32894675727612033 0 -0.046747556966848347 -0.33095487293397707 0 -0.045334811899287279 -0.30944626860274033 0 -0.038452723689972101 -0.32517660953330141 0 -0.029930759289655221 -0.31314232487652532 0 -0.045334811899287279 -0.30944626860274033 0 -0.048230298995797491 -0.31925975467914608 0 -0.038452723689972101 -0.32517660953330141 0 -0.048230298995797491 -0.31925975467914608 0 -0.038452723689972101 -0.32517660953330141 0 -0.046747556966848347 -0.33095487293397707 0 -0.046747556966848347 -0.33095487293397707 0 -0.03110901050661441 -0.35044847822138842 0 -0.050715776290837372 -0.33369418094375869 0 -0.046747556966848347 -0.33095487293397707 0 -0.03110901050661441 -0.35044847822138842 0 -0.046747556966848347 -0.33095487293397707 0 -0.025551186107376798 -0.33513050517226389 0 -0.03110901050661441 -0.35044847822138842 0 -0.038452723689972101 -0.32517660953330141 0 -0.046747556966848347 -0.33095487293397707 0 -0.025551186107376798 -0.33513050517226389 0 -0.038452723689972101 -0.32517660953330141 0 -0.015696262657764019 -0.32215320983815299 0 -0.038452723689972101 -0.32517660953330141 0 -0.025551186107376798 -0.33513050517226389 0 -0.015696262657764019 -0.32215320983815299 0 -0.038452723689972101 -0.32517660953330141 0 -0.029930759289655221 -0.31314232487652532 0 -0.015696262657764019 -0.32215320983815299 0 -0.018726249268322521 -0.30733310629098359 0 -0.029930759289655221 -0.31314232487652532 0 -0.015696262657764019 -0.32215320983815299 0 -0.0066984186948097248 -0.31022387640048898 0 -0.015696262657764019 -0.32215320983815299 0 0.0070601983744440662 -0.31912981014300462 0 -0.015696262657764019 -0.32215320983815299 0 0.0070601983744440662 -0.31912981014300462 0 -0.015696262657764019 -0.32215320983815299 0 -0.0030021406375939528 -0.33184036807390832 0 0.0070601983744440662 -0.31912981014300462 0 -0.018726249268322521 -0.30733310629098359 0 -0.0066984186948097248 -0.31022387640048898 0 -0.015696262657764019 -0.32215320983815299 0 -0.025551186107376798 -0.33513050517226389 0 -0.015696262657764019 -0.32215320983815299 0 -0.0030021406375939528 -0.33184036807390832 0 -0.025551186107376798 -0.33513050517226389 0 -0.0030021406375939528 -0.33184036807390832 0 -0.010171301317657609 -0.34740907890948092 0 -0.0030021406375939528 -0.33184036807390832 0 -0.010171301317657609 -0.34740907890948092 0 0.0093317321774938674 -0.34169119552975691 0 -0.010171301317657609 -0.34740907890948092 0 -0.015470464046380481 -0.36994208350879981 0 0.00052524739885579535 -0.35716383243888389 0 -0.010171301317657609 -0.34740907890948092 0 0.00052524739885579535 -0.35716383243888389 0 0.0093317321774938674 -0.34169119552975691 0 -0.025551186107376798 -0.33513050517226389 0 -0.010171301317657609 -0.34740907890948092 0 -0.03110901050661441 -0.35044847822138842 0 -0.010171301317657609 -0.34740907890948092 0 -0.03110901050661441 -0.35044847822138842 0 -0.015470464046380481 -0.36994208350879981 0 -0.03110901050661441 -0.35044847822138842 0 -0.015470464046380481 -0.36994208350879981 0 -0.032631191186705467 -0.37594083669056072 0 -0.03110901050661441 -0.35044847822138842 0 -0.015470464046380481 -0.36994208350879981 0 -0.015470464046380481 -0.36994208350879981 0 0.00052524739885579535 -0.35716383243888389 0 0.0039640162820100012 -0.36973960499016112 0 -0.015470464046380481 -0.36994208350879981 0 0.0029197303170832118 -0.38670830969820291 0 0.0039640162820100012 -0.36973960499016112 0 -0.015470464046380481 -0.36994208350879981 0 -0.01585904297961381 -0.38718786758982537 0 0.0029197303170832118 -0.38670830969820291 0 -0.0066020569581639356 -0.40190470511633242 0 -0.01585904297961381 -0.38718786758982537 0 0.0029197303170832118 -0.38670830969820291 0 -0.0066020569581639356 -0.40190470511633242 0 -0.027511233023902359 -0.40144340293523112 0 -0.01585904297961381 -0.38718786758982537 0 -0.015470464046380481 -0.36994208350879981 0 -0.01585904297961381 -0.38718786758982537 0 -0.032631191186705467 -0.37594083669056072 0 -0.027511233023902359 -0.40144340293523112 0 -0.01585904297961381 -0.38718786758982537 0 -0.032631191186705467 -0.37594083669056072 0 -0.027511233023902359 -0.40144340293523112 0 -0.032631191186705467 -0.37594083669056072 0 -0.046397655989376951 -0.39012552750533519 0 -0.048556716140107148 -0.36190985422454702 0 -0.032631191186705467 -0.37594083669056072 0 -0.046397655989376951 -0.39012552750533519 0 -0.027511233023902359 -0.40144340293523112 0 -0.046397655989376951 -0.39012552750533519 0 -0.044238595838646727 -0.41834120078612358 0 -0.046397655989376951 -0.39012552750533519 0 -0.044238595838646727 -0.41834120078612358 0 -0.046397655989376951 -0.39012552750533519 0 -0.058375434379574542 -0.4052325079231342 0 -0.069632625016514793 -0.39486060017187519 0 -0.046397655989376951 -0.39012552750533519 0 -0.058375434379574542 -0.4052325079231342 0 -0.044238595838646727 -0.41834120078612358 0 -0.063118313443178115 -0.3659058128136996 0 -0.046397655989376951 -0.39012552750533519 0 -0.073527136997389803 -0.37801103018480942 0 -0.048556716140107148 -0.36190985422454702 0 -0.046397655989376951 -0.39012552750533519 0 -0.044238595838646727 -0.41834120078612358 0 -0.065414159998420943 -0.4185811750851694 0 -0.062549997753783948 -0.43543229152431051 0 -0.044238595838646727 -0.41834120078612358 0 -0.040411694098237042 -0.44627496247323051 0 -0.062549997753783948 -0.43543229152431051 0 -0.058375434379574542 -0.4052325079231342 0 -0.044238595838646727 -0.41834120078612358 0 -0.065414159998420943 -0.4185811750851694 0 -0.027511233023902359 -0.40144340293523112 0 -0.044238595838646727 -0.41834120078612358 0 -0.028848072866083541 -0.42486272853949231 0 -0.044238595838646727 -0.41834120078612358 0 -0.028848072866083541 -0.42486272853949231 0 -0.040411694098237042 -0.44627496247323051 0 -0.028848072866083541 -0.42486272853949231 0 -0.012941680418630429 -0.418644804850132 0 -0.01852934079594825 -0.43801272055742591 0 -0.028848072866083541 -0.42486272853949231 0 -0.01852934079594825 -0.43801272055742591 0 -0.040411694098237042 -0.44627496247323051 0 -0.027511233023902359 -0.40144340293523112 0 -0.028848072866083541 -0.42486272853949231 0 -0.012941680418630429 -0.418644804850132 0 -0.0066020569581639356 -0.40190470511633242 0 -0.027511233023902359 -0.40144340293523112 0 -0.012941680418630429 -0.418644804850132 0 -0.0066020569581639356 -0.40190470511633242 0 -0.012941680418630429 -0.418644804850132 0 0.0023434108972794272 -0.41569375300161748 0 -0.012941680418630429 -0.418644804850132 0 0.0023434108972794272 -0.41569375300161748 0 0.003353012506339272 -0.42975047864161797 0 -0.01852934079594825 -0.43801272055742591 0 0.003353012506339272 -0.42975047864161797 0 -0.012941680418630429 -0.418644804850132 0 -0.01852934079594825 -0.43801272055742591 0 0.003353012506339272 -0.42975047864161797 0 -0.0021495129678575681 -0.44621823914951758 0 -0.013223856274032639 -0.45959074239598219 0 -0.01852934079594825 -0.43801272055742591 0 -0.0021495129678575681 -0.44621823914951758 0 -0.01852934079594825 -0.43801272055742591 0 0.003353012506339272 -0.42975047864161797 0 -0.0021495129678575681 -0.44621823914951758 0 -0.013223856274032639 -0.45959074239598219 0 0.0097570125117890562 -0.4588554688199098 0 -0.013223856274032639 -0.45959074239598219 0 0.0097570125117890562 -0.4588554688199098 0 0.0008015759459086072 -0.47942773440995468 0 -0.013223856274032639 -0.45959074239598219 0 -0.040019474112018262 -0.4726361734422968 0 -0.040411694098237042 -0.44627496247323051 0 -0.01852934079594825 -0.43801272055742591 0 -0.040411694098237042 -0.44627496247323051 0 -0.013223856274032639 -0.45959074239598219 0 -0.040411694098237042 -0.44627496247323051 0 -0.013223856274032639 -0.45959074239598219 0 -0.01852934079594825 -0.43801272055742591 0 -0.040411694098237042 -0.44627496247323051 0 -0.0081538606199717031 -0.49999999999999972 0 0.0008015759459086072 -0.47942773440995468 0 -0.0081538606199717031 -0.49999999999999972 0 -0.01941996190682729 -0.48233093004964672 0 0.0008015759459086072 -0.47942773440995468 0 -0.013223856274032639 -0.45959074239598219 0 -0.01941996190682729 -0.48233093004964672 0 0.0008015759459086072 -0.47942773440995468 0 -0.013223856274032639 -0.45959074239598219 0 -0.01941996190682729 -0.48233093004964672 0 -0.040019474112018262 -0.4726361734422968 0 -0.0081538606199717031 -0.49999999999999972 0 -0.01941996190682729 -0.48233093004964672 0 -0.036504194474022478 -0.5 0 -0.01941996190682729 -0.48233093004964672 0 -0.036504194474022478 -0.5 0 -0.040019474112018262 -0.4726361734422968 0 -0.036504194474022478 -0.5 0 -0.040019474112018262 -0.4726361734422968 0 -0.051370701310671757 -0.48706213362237349 0 -0.040019474112018262 -0.4726361734422968 0 -0.051370701310671757 -0.48706213362237349 0 -0.065774318876974616 -0.47638906567542127 0 -0.051370701310671757 -0.48706213362237349 0 -0.064854528328073258 -0.5 0 -0.065774318876974616 -0.47638906567542127 0 -0.036504194474022478 -0.5 0 -0.051370701310671757 -0.48706213362237349 0 -0.064854528328073258 -0.5 0 -0.040019474112018262 -0.4726361734422968 0 -0.040411694098237042 -0.44627496247323051 0 -0.062845499226627799 -0.45474541912395872 0 -0.040019474112018262 -0.4726361734422968 0 -0.062845499226627799 -0.45474541912395872 0 -0.065774318876974616 -0.47638906567542127 0 -0.040411694098237042 -0.44627496247323051 0 -0.062845499226627799 -0.45474541912395872 0 -0.062549997753783948 -0.43543229152431051 0 -0.040411694098237042 -0.44627496247323051 0 -0.062845499226627799 -0.45474541912395872 0 -0.040411694098237042 -0.44627496247323051 0 -0.062549997753783948 -0.43543229152431051 0 -0.07793709867507502 -0.4479456351837573 0 -0.062845499226627799 -0.45474541912395872 0 -0.062549997753783948 -0.43543229152431051 0 -0.07793709867507502 -0.4479456351837573 0 -0.062549997753783948 -0.43543229152431051 0 -0.08188342145669443 -0.43630134545959509 0 -0.07793709867507502 -0.4479456351837573 0 -0.062845499226627799 -0.45474541912395872 0 -0.085279304355019958 -0.46321587577468343 0 -0.062845499226627799 -0.45474541912395872 0 -0.085279304355019958 -0.46321587577468343 0 -0.065774318876974616 -0.47638906567542127 0 -0.062845499226627799 -0.45474541912395872 0 -0.085279304355019958 -0.46321587577468343 0 -0.07793709867507502 -0.4479456351837573 0 -0.085279304355019958 -0.46321587577468343 0 -0.097127270583248923 -0.4500332440362389 0 -0.097127270583248923 -0.4500332440362389 0 -0.086541431683084327 -0.42838015564707199 0 -0.07793709867507502 -0.4479456351837573 0 -0.097127270583248923 -0.4500332440362389 0 -0.08188342145669443 -0.43630134545959509 0 -0.097127270583248923 -0.4500332440362389 0 -0.08188342145669443 -0.43630134545959509 0 -0.086541431683084327 -0.42838015564707199 0 -0.064854528328073258 -0.5 0 -0.065774318876974616 -0.47638906567542127 0 -0.088576712664233365 -0.48285574001470211 0 -0.085279304355019958 -0.46321587577468343 0 -0.065774318876974616 -0.47638906567542127 0 -0.088576712664233365 -0.48285574001470211 0 -0.064854528328073258 -0.5 0 -0.088576712664233365 -0.48285574001470211 0 -0.093204862182124038 -0.5 0 -0.088576712664233365 -0.48285574001470211 0 -0.093204862182124038 -0.5 0 -0.11463415275979461 -0.48584316621270213 0 -0.088576712664233365 -0.48285574001470211 0 -0.1077131094834126 -0.47168633242540658 0 -0.11463415275979461 -0.48584316621270213 0 -0.085279304355019958 -0.46321587577468343 0 -0.088576712664233365 -0.48285574001470211 0 -0.1077131094834126 -0.47168633242540658 0 -0.13086806156195749 -0.4631310388861663 0 -0.1320937753763024 -0.48089187612963552 0 -0.1077131094834126 -0.47168633242540658 0 -0.1320937753763024 -0.48089187612963552 0 -0.1077131094834126 -0.47168633242540658 0 -0.1320937753763024 -0.48089187612963552 0 -0.1077131094834126 -0.47168633242540658 0 -0.11463415275979461 -0.48584316621270213 0 -0.1077131094834126 -0.47168633242540658 0 -0.11463415275979461 -0.48584316621270213 0 -0.093204862182124038 -0.5 0 -0.11463415275979461 -0.48584316621270213 0 -0.1215551960361749 -0.49999999999999839 0 -0.1320937753763024 -0.48089187612963552 0 -0.11463415275979461 -0.48584316621270213 0 -0.1215551960361749 -0.49999999999999839 0 -0.11463415275979461 -0.48584316621270213 0 -0.1215551960361749 -0.49999999999999839 0 -0.097127270583248923 -0.4500332440362389 0 -0.1111846745698345 -0.43871870239327831 0 -0.086541431683084327 -0.42838015564707199 0 -0.097127270583248923 -0.4500332440362389 0 -0.11706670940628811 -0.45481574470285929 0 -0.1111846745698345 -0.43871870239327831 0 -0.085279304355019958 -0.46321587577468343 0 -0.1077131094834126 -0.47168633242540658 0 -0.1077131094834126 -0.47168633242540658 0 -0.097127270583248923 -0.4500332440362389 0 -0.11706670940628811 -0.45481574470285929 0 -0.085279304355019958 -0.46321587577468343 0 -0.1077131094834126 -0.47168633242540658 0 -0.097127270583248923 -0.4500332440362389 0 -0.1077131094834126 -0.47168633242540658 0 -0.097127270583248923 -0.4500332440362389 0 -0.13086806156195749 -0.4631310388861663 0 -0.1077131094834126 -0.47168633242540658 0 -0.11706670940628811 -0.45481574470285929 0 -0.13582791745658471 -0.4490572491394848 0 -0.1111846745698345 -0.43871870239327831 0 -0.13582791745658471 -0.4490572491394848 0 -0.11706670940628811 -0.45481574470285929 0 -0.1111846745698345 -0.43871870239327831 0 -0.12557010975260849 -0.42481284607756248 0 -0.1111846745698345 -0.43871870239327831 0 -0.1065640252902901 -0.41387555325112563 0 -0.13635799977779831 -0.44229196137578269 0 -0.12557010975260849 -0.42481284607756248 0 -0.1111846745698345 -0.43871870239327831 0 -0.1111846745698345 -0.43871870239327831 0 -0.086541431683084327 -0.42838015564707199 0 -0.1111846745698345 -0.43871870239327831 0 -0.1065640252902901 -0.41387555325112563 0 -0.086541431683084327 -0.42838015564707199 0 -0.1065640252902901 -0.41387555325112563 0 -0.084688301409331923 -0.42458962057539268 0 -0.091889615912743181 -0.41160339460677969 0 -0.1065640252902901 -0.41387555325112563 0 -0.1135068393776881 -0.40036152737677488 0 -0.091889615912743181 -0.41160339460677969 0 -0.1065640252902901 -0.41387555325112563 0 -0.084688301409331923 -0.42458962057539268 0 -0.12843974917124809 -0.40316148592685819 0 -0.1065640252902901 -0.41387555325112563 0 -0.12843974917124809 -0.40316148592685819 0 -0.12557010975260849 -0.42481284607756248 0 -0.1065640252902901 -0.41387555325112563 0 -0.12843974917124809 -0.40316148592685819 0 -0.1135068393776881 -0.40036152737677488 0 -0.11523576724205831 -0.38526707901903051 0 -0.12843974917124809 -0.40316148592685819 0 -0.1065640252902901 -0.41387555325112563 0 -0.1135068393776881 -0.40036152737677488 0 -0.12843974917124809 -0.40316148592685819 0 -0.11523576724205831 -0.38526707901903051 0 -0.1020317853128675 -0.36737267211120361 0 -0.11523576724205831 -0.38526707901903051 0 -0.092644427105465096 -0.39162368062921121 0 -0.1020317853128675 -0.36737267211120361 0 -0.11523576724205831 -0.38526707901903051 0 -0.1135068393776881 -0.40036152737677488 0 -0.092644427105465096 -0.39162368062921121 0 -0.091889615912743181 -0.41160339460677969 0 -0.1135068393776881 -0.40036152737677488 0 -0.11523576724205831 -0.38526707901903051 0 -0.092644427105465096 -0.39162368062921121 0 -0.092644427105465096 -0.39162368062921121 0 -0.077218470610767573 -0.40931025461688608 0 -0.091889615912743181 -0.41160339460677969 0 -0.092644427105465096 -0.39162368062921121 0 -0.069632625016514793 -0.39486060017187519 0 -0.077218470610767573 -0.40931025461688608 0 -0.092644427105465096 -0.39162368062921121 0 -0.073527136997389803 -0.37801103018480942 0 -0.069632625016514793 -0.39486060017187519 0 -0.1020317853128675 -0.36737267211120361 0 -0.092644427105465096 -0.39162368062921121 0 -0.073527136997389803 -0.37801103018480942 0 -0.046397655989376951 -0.39012552750533519 0 -0.073527136997389803 -0.37801103018480942 0 -0.069632625016514793 -0.39486060017187519 0 -0.058375434379574542 -0.4052325079231342 0 -0.069632625016514793 -0.39486060017187519 0 -0.077218470610767573 -0.40931025461688608 0 -0.058375434379574542 -0.4052325079231342 0 -0.065414159998420943 -0.4185811750851694 0 -0.077218470610767573 -0.40931025461688608 0 -0.065414159998420943 -0.4185811750851694 0 -0.077218470610767573 -0.40931025461688608 0 -0.084688301409331923 -0.42458962057539268 0 -0.062549997753783948 -0.43543229152431051 0 -0.084271297034977155 -0.42742776909277391 0 -0.08188342145669443 -0.43630134545959509 0 -0.062549997753783948 -0.43543229152431051 0 -0.084271297034977155 -0.42742776909277391 0 -0.084688301409331923 -0.42458962057539268 0 -0.065414159998420943 -0.4185811750851694 0 -0.062549997753783948 -0.43543229152431051 0 -0.084688301409331923 -0.42458962057539268 0 -0.062549997753783948 -0.43543229152431051 0 -0.084688301409331923 -0.42458962057539268 0 -0.1065640252902901 -0.41387555325112563 0 -0.084688301409331923 -0.42458962057539268 0 -0.086541431683084327 -0.42838015564707199 0 -0.084271297034977155 -0.42742776909277391 0 -0.086541431683084327 -0.42838015564707199 0 -0.084271297034977155 -0.42742776909277391 0 -0.084688301409331923 -0.42458962057539268 0 -0.086541431683084327 -0.42838015564707199 0 -0.084688301409331923 -0.42458962057539268 0 -0.086541431683084327 -0.42838015564707199 0 -0.084271297034977155 -0.42742776909277391 0 -0.08188342145669443 -0.43630134545959509 0 -0.086541431683084327 -0.42838015564707199 0 -0.077218470610767573 -0.40931025461688608 0 -0.084688301409331923 -0.42458962057539268 0 -0.091889615912743181 -0.41160339460677969 0 -0.077218470610767573 -0.40931025461688608 0 -0.084688301409331923 -0.42458962057539268 0 -0.089843632166454995 -0.089389749709562136 0 -0.079508418830487967 -0.075805448660681021 0 -0.078486339563202528 -0.095802938248891467 0 -0.089843632166454995 -0.089389749709562136 0 -0.092429443165642181 -0.079399754382666263 0 -0.097934990867120666 -0.087739095691467178 0 -0.089843632166454995 -0.089389749709562136 0 -0.092429443165642181 -0.079399754382666263 0 -0.079508418830487967 -0.075805448660681021 0 -0.092429443165642181 -0.079399754382666263 0 -0.079508418830487967 -0.075805448660681021 0 -0.100129083588739 -0.062505654610358397 0 -0.079508418830487967 -0.075805448660681021 0 -0.074981322672675765 -0.063180976241183059 0 -0.100129083588739 -0.062505654610358397 0 -0.074981322672675765 -0.063180976241183059 0 -0.100129083588739 -0.062505654610358397 0 -0.079508418830487967 -0.075805448660681021 0 -0.074981322672675765 -0.063180976241183059 0 -0.067019971700330916 -0.080782829894420566 0 -0.074981322672675765 -0.063180976241183059 0 -0.067019971700330916 -0.080782829894420566 0 -0.061145349833872181 -0.062154659892756398 0 -0.079508418830487967 -0.075805448660681021 0 -0.067019971700330916 -0.080782829894420566 0 -0.078486339563202528 -0.095802938248891467 0 -0.067019971700330916 -0.080782829894420566 0 -0.078486339563202528 -0.095802938248891467 0 -0.059715252918662212 -0.096317340180128802 0 -0.067006507660199666 -0.1131750457313726 0 -0.078486339563202528 -0.095802938248891467 0 -0.059715252918662212 -0.096317340180128802 0 -0.067006507660199666 -0.1131750457313726 0 -0.085622420812960731 -0.11173358033303001 0 -0.078486339563202528 -0.095802938248891467 0 -0.067006507660199666 -0.1131750457313726 0 -0.085622420812960731 -0.11173358033303001 0 -0.078233505592538083 -0.13117408596680971 0 -0.085622420812960731 -0.11173358033303001 0 -0.096932918452364125 -0.1210918630804262 0 -0.078233505592538083 -0.13117408596680971 0 -0.085622420812960731 -0.11173358033303001 0 -0.078486339563202528 -0.095802938248891467 0 -0.094012712229705211 -0.098660503367450914 0 -0.085622420812960731 -0.11173358033303001 0 -0.094012712229705211 -0.098660503367450914 0 -0.099931799522318024 -0.1100097910434481 0 -0.089843632166454995 -0.089389749709562136 0 -0.078486339563202528 -0.095802938248891467 0 -0.094012712229705211 -0.098660503367450914 0 -0.094012712229705211 -0.098660503367450914 0 -0.1031483600697298 -0.094558906409243373 0 -0.1031214426061498 -0.10138946213651399 0 -0.094012712229705211 -0.098660503367450914 0 -0.1031214426061498 -0.10138946213651399 0 -0.099931799522318024 -0.1100097910434481 0 -0.10603699681260929 -0.1063189885284657 0 -0.1031214426061498 -0.10138946213651399 0 -0.099931799522318024 -0.1100097910434481 0 -0.10603699681260929 -0.1063189885284657 0 -0.1031214426061498 -0.10138946213651399 0 -0.1112192079359802 -0.10288525704373069 0 -0.10603699681260929 -0.1063189885284657 0 -0.099931799522318024 -0.1100097910434481 0 -0.1068094545224537 -0.1109964756015023 0 -0.10603699681260929 -0.1063189885284657 0 -0.1068094545224537 -0.1109964756015023 0 -0.11056135068371491 -0.1085034057082564 0 -0.10603699681260929 -0.1063189885284657 0 -0.1112192079359802 -0.10288525704373069 0 -0.11056135068371491 -0.1085034057082564 0 -0.1031214426061498 -0.10138946213651399 0 -0.1103153891163417 -0.094774081953385256 0 -0.1112192079359802 -0.10288525704373069 0 -0.1031483600697298 -0.094558906409243373 0 -0.1031214426061498 -0.10138946213651399 0 -0.1103153891163417 -0.094774081953385256 0 -0.096932918452364125 -0.1210918630804262 0 -0.099931799522318024 -0.1100097910434481 0 -0.1054156594448615 -0.11582884667987201 0 -0.085622420812960731 -0.11173358033303001 0 -0.096932918452364125 -0.1210918630804262 0 -0.099931799522318024 -0.1100097910434481 0 -0.099931799522318024 -0.1100097910434481 0 -0.1068094545224537 -0.1109964756015023 0 -0.1054156594448615 -0.11582884667987201 0 -0.1068094545224537 -0.1109964756015023 0 -0.1093528178468899 -0.1114707687655936 0 -0.11056135068371491 -0.1085034057082564 0 -0.1068094545224537 -0.1109964756015023 0 -0.1093528178468899 -0.1114707687655936 0 -0.10891021962318061 -0.113481106993087 0 -0.1068094545224537 -0.1109964756015023 0 -0.10891021962318061 -0.113481106993087 0 -0.1054156594448615 -0.11582884667987201 0 -0.10891021962318061 -0.113481106993087 0 -0.1054156594448615 -0.11582884667987201 0 -0.1106680454798287 -0.1158755422723475 0 -0.096932918452364125 -0.1210918630804262 0 -0.1054156594448615 -0.11582884667987201 0 -0.10810511781642659 -0.12333705835132849 0 -0.096932918452364125 -0.1210918630804262 0 -0.10810511781642659 -0.12333705835132849 0 -0.10482975755112731 -0.1302229488636617 0 -0.1054156594448615 -0.11582884667987201 0 -0.10810511781642659 -0.12333705835132849 0 -0.1106680454798287 -0.1158755422723475 0 -0.11232433429653101 -0.1165926690041961 0 -0.1288761054788185 -0.1237591229792278 0 -0.11232433429653101 -0.1165926690041961 0 -0.12036912482817159 -0.13038721182553689 0 -0.1288761054788185 -0.1237591229792278 0 -0.11232433429653101 -0.1165926690041961 0 -0.122905012823018 -0.11485270471451051 0 -0.1288761054788185 -0.1237591229792278 0 -0.10810511781642659 -0.12333705835132849 0 -0.11232433429653101 -0.1165926690041961 0 -0.1106680454798287 -0.1158755422723475 0 -0.11232433429653101 -0.1165926690041961 0 -0.1123051208218694 -0.11323390164611941 0 -0.122905012823018 -0.11485270471451051 0 -0.11232433429653101 -0.1165926690041961 0 -0.1106680454798287 -0.1158755422723475 0 -0.10891021962318061 -0.113481106993087 0 -0.1106680454798287 -0.1158755422723475 0 -0.1123051208218694 -0.11323390164611941 0 -0.11232433429653101 -0.1165926690041961 0 -0.1106680454798287 -0.1158755422723475 0 -0.1123051208218694 -0.11323390164611941 0 -0.11232433429653101 -0.1165926690041961 0 -0.1123051208218694 -0.11323390164611941 0 -0.1093528178468899 -0.1114707687655936 0 -0.1123051208218694 -0.11323390164611941 0 -0.11056135068371491 -0.1085034057082564 0 -0.1093528178468899 -0.1114707687655936 0 -0.10891021962318061 -0.113481106993087 0 -0.1123051208218694 -0.11323390164611941 0 -0.1123051208218694 -0.11323390164611941 0 -0.11056135068371491 -0.1085034057082564 0 -0.1170394913183247 -0.1070349873068128 0 -0.1123051208218694 -0.11323390164611941 0 -0.122905012823018 -0.11485270471451051 0 -0.1170394913183247 -0.1070349873068128 0 -0.1103153891163417 -0.094774081953385256 0 -0.1112192079359802 -0.10288525704373069 0 -0.1193719830557147 -0.097240475536607432 0 -0.1112192079359802 -0.10288525704373069 0 -0.1170394913183247 -0.1070349873068128 0 -0.1193719830557147 -0.097240475536607432 0 -0.1112192079359802 -0.10288525704373069 0 -0.11056135068371491 -0.1085034057082564 0 -0.1170394913183247 -0.1070349873068128 0 -0.122905012823018 -0.11485270471451051 0 -0.1170394913183247 -0.1070349873068128 0 -0.1269879268556203 -0.10417887282269769 0 -0.1170394913183247 -0.1070349873068128 0 -0.1193719830557147 -0.097240475536607432 0 -0.1269879268556203 -0.10417887282269769 0 -0.1160639171111746 -0.085985193529648521 0 -0.1145441674478954 -0.073559914966220941 0 -0.13381212664491579 -0.088335620717983676 0 -0.1193719830557147 -0.097240475536607432 0 -0.1160639171111746 -0.085985193529648521 0 -0.13381212664491579 -0.088335620717983676 0 -0.1145441674478954 -0.073559914966220941 0 -0.13381212664491579 -0.088335620717983676 0 -0.1160639171111746 -0.085985193529648521 0 -0.1104903575973081 -0.075098773139548117 0 -0.1145441674478954 -0.073559914966220941 0 -0.1160639171111746 -0.085985193529648521 0 -0.10706220947466739 -0.085987981435641084 0 -0.1104903575973081 -0.075098773139548117 0 -0.1103153891163417 -0.094774081953385256 0 -0.1193719830557147 -0.097240475536607432 0 -0.1160639171111746 -0.085985193529648521 0 -0.1103153891163417 -0.094774081953385256 0 -0.1160639171111746 -0.085985193529648521 0 -0.10706220947466739 -0.085987981435641084 0 -0.1031483600697298 -0.094558906409243373 0 -0.10706220947466739 -0.085987981435641084 0 -0.097934990867120666 -0.087739095691467178 0 -0.1031483600697298 -0.094558906409243373 0 -0.1103153891163417 -0.094774081953385256 0 -0.10706220947466739 -0.085987981435641084 0 -0.10706220947466739 -0.085987981435641084 0 -0.1019828462390877 -0.077950424284458114 0 -0.1104903575973081 -0.075098773139548117 0 -0.10706220947466739 -0.085987981435641084 0 -0.097934990867120666 -0.087739095691467178 0 -0.1019828462390877 -0.077950424284458114 0 -0.092429443165642181 -0.079399754382666263 0 -0.097934990867120666 -0.087739095691467178 0 -0.1019828462390877 -0.077950424284458114 0 -0.089843632166454995 -0.089389749709562136 0 -0.094012712229705211 -0.098660503367450914 0 -0.097934990867120666 -0.087739095691467178 0 -0.094012712229705211 -0.098660503367450914 0 -0.1031483600697298 -0.094558906409243373 0 -0.097934990867120666 -0.087739095691467178 0 -0.092429443165642181 -0.079399754382666263 0 -0.100129083588739 -0.062505654610358397 0 -0.1019828462390877 -0.077950424284458114 0 -0.100129083588739 -0.062505654610358397 0 -0.1019828462390877 -0.077950424284458114 0 -0.1104903575973081 -0.075098773139548117 0 -0.100129083588739 -0.062505654610358397 0 -0.1104903575973081 -0.075098773139548117 0 -0.1145441674478954 -0.073559914966220941 0 -0.100129083588739 -0.062505654610358397 0 -0.1145441674478954 -0.073559914966220941 0 -0.100129083588739 -0.062505654610358397 0 -0.1145441674478954 -0.073559914966220941 0 -0.12231212192689191 -0.061909948071025372 0 -0.1104903575973081 -0.075098773139548117 0 -0.1145441674478954 -0.073559914966220941 0 -0.1145441674478954 -0.073559914966220941 0 -0.12977024242929161 -0.067779976884171991 0 -0.1145441674478954 -0.073559914966220941 0 -0.12231212192689191 -0.061909948071025372 0 -0.12977024242929161 -0.067779976884171991 0 -0.12231212192689191 -0.061909948071025372 0 -0.1081024783200033 -0.039960305984253132 0 -0.13043272904605591 -0.042070822517464898 0 -0.100129083588739 -0.062505654610358397 0 -0.12231212192689191 -0.061909948071025372 0 -0.1081024783200033 -0.039960305984253132 0 -0.100129083588739 -0.062505654610358397 0 -0.12231212192689191 -0.061909948071025372 0 -0.1081024783200033 -0.039960305984253132 0 -0.12780428474413069 -0.02738776142656232 0 -0.13043272904605591 -0.042070822517464898 0 -0.100129083588739 -0.062505654610358397 0 -0.1081024783200033 -0.039960305984253132 0 -0.077666554418604358 -0.045280181063080641 0 -0.1094259637898662 -0.0082475278394535945 0 -0.114912313709386 -0.020627864786497498 0 -0.1254749655893185 -0.0119770571382713 0 -0.1094259637898662 -0.0082475278394535945 0 -0.1254749655893185 -0.0119770571382713 0 -0.12462408747253829 0.005126321988230334 0 -0.1081024783200033 -0.039960305984253132 0 -0.114912313709386 -0.020627864786497498 0 -0.12780428474413069 -0.02738776142656232 0 -0.114912313709386 -0.020627864786497498 0 -0.1254749655893185 -0.0119770571382713 0 -0.12780428474413069 -0.02738776142656232 0 -0.1081024783200033 -0.039960305984253132 0 -0.10076617526610331 -0.018799483303561501 0 -0.091515817334527613 -0.029234917920502399 0 -0.10076617526610331 -0.018799483303561501 0 -0.08978310787018523 -0.0099356820237927052 0 -0.091515817334527613 -0.029234917920502399 0 -0.1081024783200033 -0.039960305984253132 0 -0.114912313709386 -0.020627864786497498 0 -0.10076617526610331 -0.018799483303561501 0 -0.1094259637898662 -0.0082475278394535945 0 -0.114912313709386 -0.020627864786497498 0 -0.10076617526610331 -0.018799483303561501 0 -0.1094259637898662 -0.0082475278394535945 0 -0.10076617526610331 -0.018799483303561501 0 -0.08978310787018523 -0.0099356820237927052 0 -0.1094259637898662 -0.0082475278394535945 0 -0.08978310787018523 -0.0099356820237927052 0 -0.1011580797549093 0.005539704174230514 0 -0.08978310787018523 -0.0099356820237927052 0 -0.07200458609491811 -0.0017846067387814839 0 -0.08978310787018523 -0.0099356820237927052 0 -0.07200458609491811 -0.0017846067387814839 0 -0.077692072037280277 0.0059530863602306932 0 -0.08978310787018523 -0.0099356820237927052 0 -0.091515817334527613 -0.029234917920502399 0 -0.076498384439154743 -0.025009987629962181 0 -0.076498384439154743 -0.025009987629962181 0 -0.067182442385394031 -0.013325182583036979 0 -0.05520402524846979 -0.028054707515802569 0 -0.08978310787018523 -0.0099356820237927052 0 -0.076498384439154743 -0.025009987629962181 0 -0.067182442385394031 -0.013325182583036979 0 -0.08978310787018523 -0.0099356820237927052 0 -0.067182442385394031 -0.013325182583036979 0 -0.07200458609491811 -0.0017846067387814839 0 -0.067182442385394031 -0.013325182583036979 0 -0.07200458609491811 -0.0017846067387814839 0 -0.060041826674512883 -0.0044127564848112861 0 -0.100129083588739 -0.062505654610358397 0 -0.077666554418604358 -0.045280181063080641 0 -0.074981322672675765 -0.063180976241183059 0 -0.100129083588739 -0.062505654610358397 0 -0.077666554418604358 -0.045280181063080641 0 -0.091515817334527613 -0.029234917920502399 0 -0.076498384439154743 -0.025009987629962181 0 -0.077666554418604358 -0.045280181063080641 0 -0.1081024783200033 -0.039960305984253132 0 -0.091515817334527613 -0.029234917920502399 0 -0.077666554418604358 -0.045280181063080641 0 -0.077666554418604358 -0.045280181063080641 0 -0.061675934118932768 -0.047903457105829453 0 -0.05520402524846979 -0.028054707515802569 0 -0.077666554418604358 -0.045280181063080641 0 -0.05520402524846979 -0.028054707515802569 0 -0.076498384439154743 -0.025009987629962181 0 -0.077666554418604358 -0.045280181063080641 0 -0.05520402524846979 -0.028054707515802569 0 -0.074981322672675765 -0.063180976241183059 0 -0.077666554418604358 -0.045280181063080641 0 -0.061675934118932768 -0.047903457105829453 0 -0.074981322672675765 -0.063180976241183059 0 -0.061145349833872181 -0.062154659892756398 0 -0.061675934118932768 -0.047903457105829453 0 -0.061145349833872181 -0.062154659892756398 0 -0.048171048189742799 -0.055427649048414233 0 -0.061675934118932768 -0.047903457105829453 0 -0.048171048189742799 -0.055427649048414233 0 -0.061675934118932768 -0.047903457105829453 0 -0.047018921684076703 -0.041040108378509577 0 -0.061675934118932768 -0.047903457105829453 0 -0.047018921684076703 -0.041040108378509577 0 -0.05520402524846979 -0.028054707515802569 0 -0.061675934118932768 -0.047903457105829453 0 -0.05520402524846979 -0.028054707515802569 0 -0.047018921684076703 -0.041040108378509577 0 -0.033512298659717651 -0.045819635758597453 0 -0.032358372092256477 -0.029326387029171029 0 -0.047018921684076703 -0.041040108378509577 0 -0.05520402524846979 -0.028054707515802569 0 -0.032358372092256477 -0.029326387029171029 0 -0.048171048189742799 -0.055427649048414233 0 -0.033512298659717651 -0.045819635758597453 0 -0.034416205450310003 -0.062348443006432691 0 -0.048171048189742799 -0.055427649048414233 0 -0.047018921684076703 -0.041040108378509577 0 -0.033512298659717651 -0.045819635758597453 0 -0.04956272398512257 -0.01075335510507288 0 -0.060041826674512883 -0.0044127564848112861 0 -0.054226064319651213 0.0063664685462303068 0 -0.067182442385394031 -0.013325182583036979 0 -0.04956272398512257 -0.01075335510507288 0 -0.060041826674512883 -0.0044127564848112861 0 -0.067182442385394031 -0.013325182583036979 0 -0.04956272398512257 -0.01075335510507288 0 -0.05520402524846979 -0.028054707515802569 0 -0.04956272398512257 -0.01075335510507288 0 -0.05520402524846979 -0.028054707515802569 0 -0.04956272398512257 -0.01075335510507288 0 -0.05520402524846979 -0.028054707515802569 0 -0.032244717417613242 -0.010448277415751951 0 -0.05520402524846979 -0.028054707515802569 0 -0.032244717417613242 -0.010448277415751951 0 -0.05520402524846979 -0.028054707515802569 0 -0.032358372092256477 -0.029326387029171029 0 -0.032244717417613242 -0.010448277415751951 0 -0.04956272398512257 -0.01075335510507288 0 -0.032244717417613242 -0.010448277415751951 0 -0.043921422721777167 0.0065479973056573968 0 -0.04956272398512257 -0.01075335510507288 0 -0.043921422721777167 0.0065479973056573968 0 -0.032244717417613242 -0.010448277415751951 0 -0.01391172072666008 -0.015396743917193549 0 -0.0092854095867553714 0.0071581526842969308 0 -0.032244717417613242 -0.010448277415751951 0 -0.0092854095867553714 0.0071581526842969308 0 -0.032358372092256477 -0.029326387029171029 0 -0.01391172072666008 -0.015396743917193549 0 -0.012258548817000531 -0.035198849189172293 0 -0.032358372092256477 -0.029326387029171029 0 -0.032244717417613242 -0.010448277415751951 0 -0.01391172072666008 -0.015396743917193549 0 -0.01391172072666008 -0.015396743917193549 0 -0.012258548817000531 -0.035198849189172293 0 0.0031266594148062592 -0.02045282401460909 0 -0.01391172072666008 -0.015396743917193549 0 0.0037229942501223771 -0.0054435731040199864 0 0.0031266594148062592 -0.02045282401460909 0 -0.01391172072666008 -0.015396743917193549 0 -0.0092854095867553714 0.0071581526842969308 0 0.0037229942501223771 -0.0054435731040199864 0 -0.034416205450310003 -0.062348443006432691 0 -0.018380991214417081 -0.05158233355328469 0 -0.016834295783871078 -0.069701941316043847 0 -0.033512298659717651 -0.045819635758597453 0 -0.034416205450310003 -0.062348443006432691 0 -0.018380991214417081 -0.05158233355328469 0 -0.033512298659717651 -0.045819635758597453 0 -0.018380991214417081 -0.05158233355328469 0 -0.012258548817000531 -0.035198849189172293 0 -0.033512298659717651 -0.045819635758597453 0 -0.032358372092256477 -0.029326387029171029 0 -0.012258548817000531 -0.035198849189172293 0 -0.018380991214417081 -0.05158233355328469 0 -0.012258548817000531 -0.035198849189172293 0 0.004632517862548236 -0.052891088833740857 0 -0.018380991214417081 -0.05158233355328469 0 -0.016834295783871078 -0.069701941316043847 0 0.004632517862548236 -0.052891088833740857 0 -0.016834295783871078 -0.069701941316043847 0 0.0089909008657989391 -0.078088127261437795 0 0.004632517862548236 -0.052891088833740857 0 -0.016834295783871078 -0.069701941316043847 0 -0.0070024162044401784 -0.094622532792259906 0 0.0089909008657989391 -0.078088127261437795 0 -0.02496990017842278 -0.08812531719684169 0 -0.016834295783871078 -0.069701941316043847 0 -0.0070024162044401784 -0.094622532792259906 0 -0.02496990017842278 -0.08812531719684169 0 -0.016834295783871078 -0.069701941316043847 0 -0.037382218882460183 -0.078424015383569967 0 -0.034416205450310003 -0.062348443006432691 0 -0.016834295783871078 -0.069701941316043847 0 -0.037382218882460183 -0.078424015383569967 0 -0.034416205450310003 -0.062348443006432691 0 -0.037382218882460183 -0.078424015383569967 0 -0.050902314700977641 -0.071134564693968935 0 -0.048171048189742799 -0.055427649048414233 0 -0.034416205450310003 -0.062348443006432691 0 -0.050902314700977641 -0.071134564693968935 0 -0.037382218882460183 -0.078424015383569967 0 -0.051548314575983717 -0.08446508434872016 0 -0.050902314700977641 -0.071134564693968935 0 -0.02496990017842278 -0.08812531719684169 0 -0.037382218882460183 -0.078424015383569967 0 -0.042721814677487598 -0.095666671591512514 0 -0.037382218882460183 -0.078424015383569967 0 -0.051548314575983717 -0.08446508434872016 0 -0.042721814677487598 -0.095666671591512514 0 -0.051548314575983717 -0.08446508434872016 0 -0.059715252918662212 -0.096317340180128802 0 -0.042721814677487598 -0.095666671591512514 0 -0.067019971700330916 -0.080782829894420566 0 -0.051548314575983717 -0.08446508434872016 0 -0.050902314700977641 -0.071134564693968935 0 -0.067019971700330916 -0.080782829894420566 0 -0.051548314575983717 -0.08446508434872016 0 -0.059715252918662212 -0.096317340180128802 0 -0.061145349833872181 -0.062154659892756398 0 -0.048171048189742799 -0.055427649048414233 0 -0.050902314700977641 -0.071134564693968935 0 -0.067019971700330916 -0.080782829894420566 0 -0.061145349833872181 -0.062154659892756398 0 -0.050902314700977641 -0.071134564693968935 0 -0.067006507660199666 -0.1131750457313726 0 -0.050350922413804552 -0.1100106901239236 0 -0.051637253633948783 -0.13212522306995769 0 -0.067006507660199666 -0.1131750457313726 0 -0.050350922413804552 -0.1100106901239236 0 -0.059715252918662212 -0.096317340180128802 0 -0.050350922413804552 -0.1100106901239236 0 -0.059715252918662212 -0.096317340180128802 0 -0.042721814677487598 -0.095666671591512514 0 -0.050350922413804552 -0.1100106901239236 0 -0.042721814677487598 -0.095666671591512514 0 -0.034159425192212517 -0.1149717480585823 0 -0.042721814677487598 -0.095666671591512514 0 -0.034159425192212517 -0.1149717480585823 0 -0.023561524212226261 -0.10328432717022699 0 -0.050350922413804552 -0.1100106901239236 0 -0.034159425192212517 -0.1149717480585823 0 -0.051637253633948783 -0.13212522306995769 0 -0.034159425192212517 -0.1149717480585823 0 -0.023561524212226261 -0.10328432717022699 0 -0.013722469624920059 -0.1162940305934229 0 -0.034159425192212517 -0.1149717480585823 0 -0.013722469624920059 -0.1162940305934229 0 -0.025041001675359369 -0.13307636017310581 0 -0.02496990017842278 -0.08812531719684169 0 -0.023561524212226261 -0.10328432717022699 0 -0.0070024162044401784 -0.094622532792259906 0 -0.02496990017842278 -0.08812531719684169 0 -0.042721814677487598 -0.095666671591512514 0 -0.023561524212226261 -0.10328432717022699 0 -0.023561524212226261 -0.10328432717022699 0 -0.0070024162044401784 -0.094622532792259906 0 -0.013722469624920059 -0.1162940305934229 0 -0.0070024162044401784 -0.094622532792259906 0 -0.013722469624920059 -0.1162940305934229 0 0.0081110093431909468 -0.1149990774907888 0 -0.013722469624920059 -0.1162940305934229 0 -0.00060019710931625701 -0.1280105309801354 0 0.0081110093431909468 -0.1149990774907888 0 -0.013722469624920059 -0.1162940305934229 0 0.0081110093431909468 -0.1149990774907888 0 -0.013722469624920059 -0.1162940305934229 0 -0.00060019710931625701 -0.1280105309801354 0 -0.01309357242380459 -0.13785037826263619 0 -0.00060019710931625701 -0.1280105309801354 0 -0.01309357242380459 -0.13785037826263619 0 0.0018587621706557061 -0.13941655462574831 0 -0.013722469624920059 -0.1162940305934229 0 -0.01309357242380459 -0.13785037826263619 0 -0.025041001675359369 -0.13307636017310581 0 -0.01309357242380459 -0.13785037826263619 0 -0.025041001675359369 -0.13307636017310581 0 -0.031376377985528829 -0.1476774128394007 0 -0.016064295310886201 -0.15603017495022961 0 -0.031804397745147359 -0.16364009819163999 0 -0.031376377985528829 -0.1476774128394007 0 -0.01309357242380459 -0.13785037826263619 0 -0.016064295310886201 -0.15603017495022961 0 -0.031376377985528829 -0.1476774128394007 0 -0.01309357242380459 -0.13785037826263619 0 -0.016064295310886201 -0.15603017495022961 0 -0.0035108828440678619 -0.1496249683051637 0 -0.01309357242380459 -0.13785037826263619 0 -0.0035108828440678619 -0.1496249683051637 0 0.0018587621706557061 -0.13941655462574831 0 -0.016064295310886201 -0.15603017495022961 0 -0.0035108828440678619 -0.1496249683051637 0 0.0045529290094580514 -0.16649437468720599 0 -0.016064295310886201 -0.15603017495022961 0 -0.018903565790344811 -0.16921854509451559 0 0.0045529290094580514 -0.16649437468720599 0 -0.016415233380939531 -0.18248388502184121 0 -0.018903565790344811 -0.16921854509451559 0 0.0045529290094580514 -0.16649437468720599 0 -0.016415233380939531 -0.18248388502184121 0 -0.00049162445687959901 -0.19402875889483709 0 0.0045529290094580514 -0.16649437468720599 0 -0.016415233380939531 -0.18248388502184121 0 -0.03074723840876022 -0.17716374200336479 0 -0.018903565790344811 -0.16921854509451559 0 -0.016415233380939531 -0.18248388502184121 0 -0.03074723840876022 -0.17716374200336479 0 -0.030848635750116239 -0.19061407580053341 0 -0.016064295310886201 -0.15603017495022961 0 -0.018903565790344811 -0.16921854509451559 0 -0.031804397745147359 -0.16364009819163999 0 -0.03074723840876022 -0.17716374200336479 0 -0.018903565790344811 -0.16921854509451559 0 -0.031804397745147359 -0.16364009819163999 0 -0.040045828382977322 -0.17212226505298639 0 -0.050537677103588433 -0.17630980837627391 0 -0.049648417332905911 -0.15879477940760231 0 -0.031804397745147359 -0.16364009819163999 0 -0.049648417332905911 -0.15879477940760231 0 -0.031376377985528829 -0.1476774128394007 0 -0.031804397745147359 -0.16364009819163999 0 -0.040045828382977322 -0.17212226505298639 0 -0.049648417332905911 -0.15879477940760231 0 -0.03074723840876022 -0.17716374200336479 0 -0.031804397745147359 -0.16364009819163999 0 -0.040045828382977322 -0.17212226505298639 0 -0.03074723840876022 -0.17716374200336479 0 -0.041928163487062908 -0.18397048025681301 0 -0.030848635750116239 -0.19061407580053341 0 -0.03074723840876022 -0.17716374200336479 0 -0.040045828382977322 -0.17212226505298639 0 -0.041928163487062908 -0.18397048025681301 0 -0.040045828382977322 -0.17212226505298639 0 -0.041928163487062908 -0.18397048025681301 0 -0.050537677103588433 -0.17630980837627391 0 -0.041928163487062908 -0.18397048025681301 0 -0.050537677103588433 -0.17630980837627391 0 -0.054701914927426099 -0.19321409530497419 0 -0.050537677103588433 -0.17630980837627391 0 -0.054701914927426099 -0.19321409530497419 0 -0.063068368552543608 -0.18076309353955899 0 -0.050537677103588433 -0.17630980837627391 0 -0.065560515070811703 -0.166018634810018 0 -0.063068368552543608 -0.18076309353955899 0 -0.050537677103588433 -0.17630980837627391 0 -0.049648417332905911 -0.15879477940760231 0 -0.065560515070811703 -0.166018634810018 0 -0.049648417332905911 -0.15879477940760231 0 -0.066263626155129263 -0.14736894338501069 0 -0.065560515070811703 -0.166018634810018 0 -0.049648417332905911 -0.15879477940760231 0 -0.051637253633948783 -0.13212522306995769 0 -0.066263626155129263 -0.14736894338501069 0 -0.034159425192212517 -0.1149717480585823 0 -0.025041001675359369 -0.13307636017310581 0 -0.051637253633948783 -0.13212522306995769 0 -0.025041001675359369 -0.13307636017310581 0 -0.051637253633948783 -0.13212522306995769 0 -0.031376377985528829 -0.1476774128394007 0 -0.025041001675359369 -0.13307636017310581 0 -0.051637253633948783 -0.13212522306995769 0 -0.049648417332905911 -0.15879477940760231 0 -0.051637253633948783 -0.13212522306995769 0 -0.031376377985528829 -0.1476774128394007 0 -0.02164628741265838 -0.24970332402379461 0 -0.0090156570986048169 -0.2405549759964698 0 -0.02866213818954123 -0.2311883215054151 0 -0.02164628741265838 -0.24970332402379461 0 -0.02866213818954123 -0.2311883215054151 0 -0.034091157639558403 -0.24620972889562989 0 -0.0090156570986048169 -0.2405549759964698 0 -0.019899722470528819 -0.21764399399605749 0 -0.0047536407777424208 -0.2172918674456534 0 -0.0090156570986048169 -0.2405549759964698 0 -0.0047536407777424208 -0.2172918674456534 0 -0.0090156570986048169 -0.2405549759964698 0 -0.0047536407777424208 -0.2172918674456534 0 0.010110570348942209 -0.2312605828640818 0 -0.02866213818954123 -0.2311883215054151 0 -0.019899722470528819 -0.21764399399605749 0 -0.032855430582182037 -0.21452507023606371 0 -0.0090156570986048169 -0.2405549759964698 0 -0.02866213818954123 -0.2311883215054151 0 -0.019899722470528819 -0.21764399399605749 0 -0.019899722470528819 -0.21764399399605749 0 -0.022053264888994371 -0.19738381365059021 0 -0.032855430582182037 -0.21452507023606371 0 -0.022053264888994371 -0.19738381365059021 0 -0.034845278209540767 -0.20591822291621681 0 -0.032855430582182037 -0.21452507023606371 0 -0.019899722470528819 -0.21764399399605749 0 -0.0047536407777424208 -0.2172918674456534 0 -0.022053264888994371 -0.19738381365059021 0 -0.0047536407777424208 -0.2172918674456534 0 -0.00049162445687959901 -0.19402875889483709 0 -0.016415233380939531 -0.18248388502184121 0 -0.00049162445687959901 -0.19402875889483709 0 -0.022053264888994371 -0.19738381365059021 0 -0.00049162445687959901 -0.19402875889483709 0 -0.022053264888994371 -0.19738381365059021 0 -0.0047536407777424208 -0.2172918674456534 0 -0.00049162445687959901 -0.19402875889483709 0 -0.022053264888994371 -0.19738381365059021 0 -0.016415233380939531 -0.18248388502184121 0 -0.022053264888994371 -0.19738381365059021 0 -0.030848635750116239 -0.19061407580053341 0 -0.022053264888994371 -0.19738381365059021 0 -0.043614905321109808 -0.200738868406339 0 -0.022053264888994371 -0.19738381365059021 0 -0.030848635750116239 -0.19061407580053341 0 -0.043614905321109808 -0.200738868406339 0 -0.022053264888994371 -0.19738381365059021 0 -0.043614905321109808 -0.200738868406339 0 -0.034845278209540767 -0.20591822291621681 0 -0.030848635750116239 -0.19061407580053341 0 -0.043614905321109808 -0.200738868406339 0 -0.041341265618203907 -0.19423244803048409 0 -0.041928163487062908 -0.18397048025681301 0 -0.030848635750116239 -0.19061407580053341 0 -0.041341265618203907 -0.19423244803048409 0 -0.043614905321109808 -0.200738868406339 0 -0.041341265618203907 -0.19423244803048409 0 -0.054701914927426099 -0.19321409530497419 0 -0.043614905321109808 -0.200738868406339 0 -0.041341265618203907 -0.19423244803048409 0 -0.041928163487062908 -0.18397048025681301 0 -0.041341265618203907 -0.19423244803048409 0 -0.054701914927426099 -0.19321409530497419 0 -0.043614905321109808 -0.200738868406339 0 -0.054701914927426099 -0.19321409530497419 0 -0.06297833803168483 -0.20375187556634161 0 -0.043614905321109808 -0.200738868406339 0 -0.06297833803168483 -0.20375187556634161 0 -0.043614905321109808 -0.200738868406339 0 -0.052560555348858333 -0.20812367395503339 0 -0.049376178470553388 -0.21722576602800761 0 -0.043614905321109808 -0.200738868406339 0 -0.052560555348858333 -0.20812367395503339 0 -0.06297833803168483 -0.20375187556634161 0 -0.052560555348858333 -0.20812367395503339 0 -0.058813452255313911 -0.21403275011384651 0 -0.06297833803168483 -0.20375187556634161 0 -0.058813452255313911 -0.21403275011384651 0 -0.049376178470553388 -0.21722576602800761 0 -0.060942594919118742 -0.2229382956223451 0 -0.052560555348858333 -0.20812367395503339 0 -0.058813452255313911 -0.21403275011384651 0 -0.049376178470553388 -0.21722576602800761 0 -0.043614905321109808 -0.200738868406339 0 -0.049376178470553388 -0.21722576602800761 0 -0.043614905321109808 -0.200738868406339 0 -0.049376178470553388 -0.21722576602800761 0 -0.040857512045876829 -0.2110251393718742 0 -0.049376178470553388 -0.21722576602800761 0 -0.040857512045876829 -0.2110251393718742 0 -0.041083431074363373 -0.21827222602029969 0 -0.043614905321109808 -0.200738868406339 0 -0.040857512045876829 -0.2110251393718742 0 -0.034845278209540767 -0.20591822291621681 0 -0.040857512045876829 -0.2110251393718742 0 -0.034845278209540767 -0.20591822291621681 0 -0.032855430582182037 -0.21452507023606371 0 -0.040857512045876829 -0.2110251393718742 0 -0.041083431074363373 -0.21827222602029969 0 -0.032855430582182037 -0.21452507023606371 0 -0.02866213818954123 -0.2311883215054151 0 -0.032855430582182037 -0.21452507023606371 0 -0.037575304750468982 -0.22460074049657999 0 -0.041083431074363373 -0.21827222602029969 0 -0.032855430582182037 -0.21452507023606371 0 -0.037575304750468982 -0.22460074049657999 0 -0.02866213818954123 -0.2311883215054151 0 -0.037575304750468982 -0.22460074049657999 0 -0.041283011260957181 -0.23507854543370449 0 -0.037575304750468982 -0.22460074049657999 0 -0.045512946400170007 -0.2240292886505289 0 -0.041283011260957181 -0.23507854543370449 0 -0.049376178470553388 -0.21722576602800761 0 -0.041083431074363373 -0.21827222602029969 0 -0.045512946400170007 -0.2240292886505289 0 -0.041083431074363373 -0.21827222602029969 0 -0.037575304750468982 -0.22460074049657999 0 -0.045512946400170007 -0.2240292886505289 0 -0.049376178470553388 -0.21722576602800761 0 -0.045512946400170007 -0.2240292886505289 0 -0.055137451619995732 -0.23371266364967669 0 -0.049376178470553388 -0.21722576602800761 0 -0.060942594919118742 -0.2229382956223451 0 -0.055137451619995732 -0.23371266364967669 0 -0.049376178470553388 -0.21722576602800761 0 -0.055137451619995732 -0.23371266364967669 0 -0.045512946400170007 -0.2240292886505289 0 -0.055137451619995732 -0.23371266364967669 0 -0.041283011260957181 -0.23507854543370449 0 -0.045512946400170007 -0.2240292886505289 0 -0.055137451619995732 -0.23371266364967669 0 -0.04704042380883422 -0.25004502284223018 0 -0.062163781824346578 -0.25381974479829261 0 -0.055137451619995732 -0.23371266364967669 0 -0.04704042380883422 -0.25004502284223018 0 -0.055137451619995732 -0.23371266364967669 0 -0.041283011260957181 -0.23507854543370449 0 -0.062163781824346578 -0.25381974479829261 0 -0.055137451619995732 -0.23371266364967669 0 -0.04704042380883422 -0.25004502284223018 0 -0.041283011260957181 -0.23507854543370449 0 -0.034091157639558403 -0.24620972889562989 0 -0.02866213818954123 -0.2311883215054151 0 -0.041283011260957181 -0.23507854543370449 0 -0.034091157639558403 -0.24620972889562989 0 -0.092101721764862615 -0.2577648640710396 0 -0.086965664530206391 -0.24116442962337209 0 -0.1003875151077115 -0.24632638561907111 0 -0.07377021273692469 -0.25245939494066177 0 -0.062163781824346578 -0.25381974479829261 0 -0.055137451619995732 -0.23371266364967669 0 -0.07377021273692469 -0.25245939494066177 0 -0.055137451619995732 -0.23371266364967669 0 -0.07377021273692469 -0.25245939494066177 0 -0.055137451619995732 -0.23371266364967669 0 -0.07160551180281613 -0.2317351552246972 0 -0.07377021273692469 -0.25245939494066177 0 -0.086965664530206391 -0.24116442962337209 0 -0.07160551180281613 -0.2317351552246972 0 -0.060942594919118742 -0.2229382956223451 0 -0.055137451619995732 -0.23371266364967669 0 -0.07160551180281613 -0.2317351552246972 0 -0.07160551180281613 -0.2317351552246972 0 -0.08735573731948984 -0.22272542274025711 0 -0.069882571053309889 -0.2177255275462851 0 -0.060942594919118742 -0.2229382956223451 0 -0.07160551180281613 -0.2317351552246972 0 -0.069882571053309889 -0.2177255275462851 0 -0.086965664530206391 -0.24116442962337209 0 -0.08735573731948984 -0.22272542274025711 0 -0.098706991899901855 -0.23267813688435851 0 -0.086965664530206391 -0.24116442962337209 0 -0.07160551180281613 -0.2317351552246972 0 -0.08735573731948984 -0.22272542274025711 0 -0.08735573731948984 -0.22272542274025711 0 -0.082341770742260317 -0.20676488272634111 0 -0.069882571053309889 -0.2177255275462851 0 -0.082341770742260317 -0.20676488272634111 0 -0.095378576740241069 -0.19914151403798641 0 -0.09986389659417251 -0.21029949216860461 0 -0.08735573731948984 -0.22272542274025711 0 -0.082341770742260317 -0.20676488272634111 0 -0.09986389659417251 -0.21029949216860461 0 -0.082341770742260317 -0.20676488272634111 0 -0.06297833803168483 -0.20375187556634161 0 -0.082341770742260317 -0.20676488272634111 0 -0.069882571053309889 -0.2177255275462851 0 -0.06297833803168483 -0.20375187556634161 0 -0.058813452255313911 -0.21403275011384651 0 -0.069882571053309889 -0.2177255275462851 0 -0.06297833803168483 -0.20375187556634161 0 -0.058813452255313911 -0.21403275011384651 0 -0.060942594919118742 -0.2229382956223451 0 -0.069882571053309889 -0.2177255275462851 0 -0.054701914927426099 -0.19321409530497419 0 -0.072742702395386896 -0.19013703714670291 0 -0.063068368552543608 -0.18076309353955899 0 -0.054701914927426099 -0.19321409530497419 0 -0.06297833803168483 -0.20375187556634161 0 -0.072742702395386896 -0.19013703714670291 0 -0.082341770742260317 -0.20676488272634111 0 -0.06297833803168483 -0.20375187556634161 0 -0.072742702395386896 -0.19013703714670291 0 -0.072742702395386896 -0.19013703714670291 0 -0.086819032115489234 -0.193315032720315 0 -0.088475866410738194 -0.18108807266954369 0 -0.082341770742260317 -0.20676488272634111 0 -0.072742702395386896 -0.19013703714670291 0 -0.086819032115489234 -0.193315032720315 0 -0.082341770742260317 -0.20676488272634111 0 -0.086819032115489234 -0.193315032720315 0 -0.095378576740241069 -0.19914151403798641 0 -0.086819032115489234 -0.193315032720315 0 -0.095378576740241069 -0.19914151403798641 0 -0.1001890287948464 -0.18609393965081661 0 -0.095378576740241069 -0.19914151403798641 0 -0.1059686839502996 -0.19893561289637601 0 -0.1001890287948464 -0.18609393965081661 0 -0.095378576740241069 -0.19914151403798641 0 -0.1059686839502996 -0.19893561289637601 0 -0.09986389659417251 -0.21029949216860461 0 -0.1059686839502996 -0.19893561289637601 0 -0.1127526019227226 -0.1914594668498866 0 -0.1001890287948464 -0.18609393965081661 0 -0.1127526019227226 -0.1914594668498866 0 -0.1224019278798302 -0.1946362786336506 0 -0.1148580262856102 -0.19934081357821809 0 -0.1127526019227226 -0.1914594668498866 0 -0.1224019278798302 -0.1946362786336506 0 -0.1215341742872456 -0.1810290592120874 0 -0.1224019278798302 -0.1946362786336506 0 -0.1148580262856102 -0.19934081357821809 0 -0.119187712414245 -0.20677948724268111 0 -0.1059686839502996 -0.19893561289637601 0 -0.1127526019227226 -0.1914594668498866 0 -0.1148580262856102 -0.19934081357821809 0 -0.1059686839502996 -0.19893561289637601 0 -0.1148580262856102 -0.19934081357821809 0 -0.1127699733642049 -0.20727845109274351 0 -0.1224019278798302 -0.1946362786336506 0 -0.12744236413509191 -0.21867465842144521 0 -0.1148580262856102 -0.19934081357821809 0 -0.1127699733642049 -0.20727845109274351 0 -0.119187712414245 -0.20677948724268111 0 -0.1224019278798302 -0.1946362786336506 0 -0.119187712414245 -0.20677948724268111 0 -0.12744236413509191 -0.21867465842144521 0 -0.1127699733642049 -0.20727845109274351 0 -0.119187712414245 -0.20677948724268111 0 -0.1184662704064879 -0.2139672344873482 0 -0.119187712414245 -0.20677948724268111 0 -0.1184662704064879 -0.2139672344873482 0 -0.12744236413509191 -0.21867465842144521 0 -0.1184662704064879 -0.2139672344873482 0 -0.12011581709928069 -0.22176868019961879 0 -0.12744236413509191 -0.21867465842144521 0 -0.1127699733642049 -0.20727845109274351 0 -0.1184662704064879 -0.2139672344873482 0 -0.11199290741837011 -0.2171991856603738 0 -0.1184662704064879 -0.2139672344873482 0 -0.11199290741837011 -0.2171991856603738 0 -0.12011581709928069 -0.22176868019961879 0 -0.11199290741837011 -0.2171991856603738 0 -0.09986389659417251 -0.21029949216860461 0 -0.10286603857830511 -0.22224626315321261 0 -0.1127699733642049 -0.20727845109274351 0 -0.11199290741837011 -0.2171991856603738 0 -0.09986389659417251 -0.21029949216860461 0 -0.1059686839502996 -0.19893561289637601 0 -0.1127699733642049 -0.20727845109274351 0 -0.09986389659417251 -0.21029949216860461 0 -0.08735573731948984 -0.22272542274025711 0 -0.09986389659417251 -0.21029949216860461 0 -0.10286603857830511 -0.22224626315321261 0 -0.08735573731948984 -0.22272542274025711 0 -0.098706991899901855 -0.23267813688435851 0 -0.10286603857830511 -0.22224626315321261 0 -0.098706991899901855 -0.23267813688435851 0 -0.10286603857830511 -0.22224626315321261 0 -0.1114110636784655 -0.2289962210188432 0 -0.098706991899901855 -0.23267813688435851 0 -0.1114110636784655 -0.2289962210188432 0 -0.10940246853722729 -0.23926369465538039 0 -0.11199290741837011 -0.2171991856603738 0 -0.10286603857830511 -0.22224626315321261 0 -0.1114110636784655 -0.2289962210188432 0 -0.11199290741837011 -0.2171991856603738 0 -0.12011581709928069 -0.22176868019961879 0 -0.1114110636784655 -0.2289962210188432 0 -0.12011581709928069 -0.22176868019961879 0 -0.12759843569981269 -0.2447757193946889 0 -0.12011581709928069 -0.22176868019961879 0 -0.1114110636784655 -0.2289962210188432 0 -0.1177705971504777 -0.2384313939547979 0 -0.1114110636784655 -0.2289962210188432 0 -0.10940246853722729 -0.23926369465538039 0 -0.1177705971504777 -0.2384313939547979 0 -0.12011581709928069 -0.22176868019961879 0 -0.1177705971504777 -0.2384313939547979 0 -0.12759843569981269 -0.2447757193946889 0 -0.1177705971504777 -0.2384313939547979 0 -0.1204370191082018 -0.24600687402244309 0 -0.12759843569981269 -0.2447757193946889 0 -0.1177705971504777 -0.2384313939547979 0 -0.1204370191082018 -0.24600687402244309 0 -0.113562218127123 -0.24918493350341381 0 -0.1228168254553938 -0.25163544923687198 0 -0.1204370191082018 -0.24600687402244309 0 -0.113562218127123 -0.24918493350341381 0 -0.1228168254553938 -0.25163544923687198 0 -0.1204370191082018 -0.24600687402244309 0 -0.12759843569981269 -0.2447757193946889 0 -0.10940246853722729 -0.23926369465538039 0 -0.1177705971504777 -0.2384313939547979 0 -0.113562218127123 -0.24918493350341381 0 -0.10940246853722729 -0.23926369465538039 0 -0.113562218127123 -0.24918493350341381 0 -0.1003875151077115 -0.24632638561907111 0 -0.098706991899901855 -0.23267813688435851 0 -0.10940246853722729 -0.23926369465538039 0 -0.1003875151077115 -0.24632638561907111 0 -0.086965664530206391 -0.24116442962337209 0 -0.098706991899901855 -0.23267813688435851 0 -0.1003875151077115 -0.24632638561907111 0 -0.078233505592538083 -0.13117408596680971 0 -0.088481031902983259 -0.15677384024966851 0 -0.097757923185681134 -0.14322971720140809 0 -0.078233505592538083 -0.13117408596680971 0 -0.097757923185681134 -0.14322971720140809 0 -0.10482975755112731 -0.1302229488636617 0 -0.078233505592538083 -0.13117408596680971 0 -0.10482975755112731 -0.1302229488636617 0 -0.096932918452364125 -0.1210918630804262 0 -0.078233505592538083 -0.13117408596680971 0 -0.10482975755112731 -0.1302229488636617 0 -0.051637253633948783 -0.13212522306995769 0 -0.078233505592538083 -0.13117408596680971 0 -0.066263626155129263 -0.14736894338501069 0 -0.067006507660199666 -0.1131750457313726 0 -0.051637253633948783 -0.13212522306995769 0 -0.078233505592538083 -0.13117408596680971 0 -0.051637253633948783 -0.13212522306995769 0 -0.078233505592538083 -0.13117408596680971 0 -0.078233505592538083 -0.13117408596680971 0 -0.066263626155129263 -0.14736894338501069 0 -0.088481031902983259 -0.15677384024966851 0 -0.066263626155129263 -0.14736894338501069 0 -0.065560515070811703 -0.166018634810018 0 -0.088481031902983259 -0.15677384024966851 0 -0.065560515070811703 -0.166018634810018 0 -0.0759851807213585 -0.17524829980981391 0 -0.088481031902983259 -0.15677384024966851 0 -0.065560515070811703 -0.166018634810018 0 -0.063068368552543608 -0.18076309353955899 0 -0.0759851807213585 -0.17524829980981391 0 -0.072742702395386896 -0.19013703714670291 0 -0.063068368552543608 -0.18076309353955899 0 -0.0759851807213585 -0.17524829980981391 0 -0.072742702395386896 -0.19013703714670291 0 -0.0759851807213585 -0.17524829980981391 0 -0.088475866410738194 -0.18108807266954369 0 -0.086819032115489234 -0.193315032720315 0 -0.088475866410738194 -0.18108807266954369 0 -0.1001890287948464 -0.18609393965081661 0 -0.0759851807213585 -0.17524829980981391 0 -0.088475866410738194 -0.18108807266954369 0 -0.088481031902983259 -0.15677384024966851 0 -0.088475866410738194 -0.18108807266954369 0 -0.088481031902983259 -0.15677384024966851 0 -0.099132436881370065 -0.17249160761269419 0 -0.088481031902983259 -0.15677384024966851 0 -0.099132436881370065 -0.17249160761269419 0 -0.1126098460473253 -0.16650386756798979 0 -0.1127526019227226 -0.1914594668498866 0 -0.1001890287948464 -0.18609393965081661 0 -0.1126098460473253 -0.16650386756798979 0 -0.1001890287948464 -0.18609393965081661 0 -0.099132436881370065 -0.17249160761269419 0 -0.1126098460473253 -0.16650386756798979 0 -0.088475866410738194 -0.18108807266954369 0 -0.1001890287948464 -0.18609393965081661 0 -0.099132436881370065 -0.17249160761269419 0 -0.1127526019227226 -0.1914594668498866 0 -0.1215341742872456 -0.1810290592120874 0 -0.1126098460473253 -0.16650386756798979 0 -0.1127526019227226 -0.1914594668498866 0 -0.1126098460473253 -0.16650386756798979 0 -0.1215341742872456 -0.1810290592120874 0 -0.1126098460473253 -0.16650386756798979 0 -0.13176019469248351 -0.17189992923223349 0 -0.1224019278798302 -0.1946362786336506 0 -0.1215341742872456 -0.1810290592120874 0 -0.1298844252837858 -0.18507853733090501 0 -0.1126098460473253 -0.16650386756798979 0 -0.12113473616265159 -0.15039397647504779 0 -0.13165303906594419 -0.15387498301347749 0 -0.1126098460473253 -0.16650386756798979 0 -0.11246709017192801 -0.1415482682860929 0 -0.1126098460473253 -0.16650386756798979 0 -0.12113473616265159 -0.15039397647504779 0 -0.11246709017192801 -0.1415482682860929 0 -0.12113473616265159 -0.15039397647504779 0 -0.11246709017192801 -0.1415482682860929 0 -0.127808969365409 -0.13964878703263089 0 -0.1126098460473253 -0.16650386756798979 0 -0.11246709017192801 -0.1415482682860929 0 -0.097757923185681134 -0.14322971720140809 0 -0.088481031902983259 -0.15677384024966851 0 -0.1126098460473253 -0.16650386756798979 0 -0.097757923185681134 -0.14322971720140809 0 -0.10810511781642659 -0.12333705835132849 0 -0.11246709017192801 -0.1415482682860929 0 -0.10482975755112731 -0.1302229488636617 0 -0.11246709017192801 -0.1415482682860929 0 -0.097757923185681134 -0.14322971720140809 0 -0.10482975755112731 -0.1302229488636617 0 -0.11232433429653101 -0.1165926690041961 0 -0.11246709017192801 -0.1415482682860929 0 -0.12036912482817159 -0.13038721182553689 0 -0.11232433429653101 -0.1165926690041961 0 -0.11246709017192801 -0.1415482682860929 0 -0.10810511781642659 -0.12333705835132849 0 -0.11232433429653101 -0.1165926690041961 0 -0.11246709017192801 -0.1415482682860929 0 -0.11246709017192801 -0.1415482682860929 0 -0.12036912482817159 -0.13038721182553689 0 -0.127808969365409 -0.13964878703263089 0 -0.14542787666110629 -0.13092557695425891 0 -0.1288761054788185 -0.1237591229792278 0 -0.12036912482817159 -0.13038721182553689 0 -0.127808969365409 -0.13964878703263089 0 -0.1288761054788185 -0.1237591229792278 0 -0.13827198352156761 -0.13616036314716551 0 -0.14542787666110629 -0.13092557695425891 0 -0.1288761054788185 -0.1237591229792278 0 -0.127808969365409 -0.13964878703263089 0 -0.13827198352156761 -0.13616036314716551 0 -0.1288761054788185 -0.1237591229792278 0 -0.14542787666110629 -0.13092557695425891 0 -0.1486892417555237 -0.14300081509469259 0 -0.1582438929994443 -0.14668979133820551 0 -0.14542787666110629 -0.13092557695425891 0 -0.14432942042075389 -0.13491824577624281 0 -0.1486892417555237 -0.14300081509469259 0 -0.13827198352156761 -0.13616036314716551 0 -0.14542787666110629 -0.13092557695425891 0 -0.14432942042075389 -0.13491824577624281 0 -0.14432942042075389 -0.13491824577624281 0 -0.1486892417555237 -0.14300081509469259 0 -0.14320210995220711 -0.1407434796599209 0 -0.13827198352156761 -0.13616036314716551 0 -0.14432942042075389 -0.13491824577624281 0 -0.14320210995220711 -0.1407434796599209 0 -0.14542787666110629 -0.13092557695425891 0 -0.14432942042075389 -0.13491824577624281 0 -0.14981188296188619 -0.15279323115454899 0 -0.1486892417555237 -0.14300081509469259 0 -0.1582438929994443 -0.14668979133820551 0 -0.14981188296188619 -0.15279323115454899 0 -0.1486892417555237 -0.14300081509469259 0 -0.13998741925110539 -0.14696696648071 0 -0.1486892417555237 -0.14300081509469259 0 -0.14320210995220711 -0.1407434796599209 0 -0.13998741925110539 -0.14696696648071 0 -0.14981188296188619 -0.15279323115454899 0 -0.13998741925110539 -0.14696696648071 0 -0.14132247579541601 -0.16034094104913729 0 -0.13998741925110539 -0.14696696648071 0 -0.13165303906594419 -0.15387498301347749 0 -0.14132247579541601 -0.16034094104913729 0 -0.127808969365409 -0.13964878703263089 0 -0.13827198352156761 -0.13616036314716551 0 -0.13998741925110539 -0.14696696648071 0 -0.13827198352156761 -0.13616036314716551 0 -0.14320210995220711 -0.1407434796599209 0 -0.13998741925110539 -0.14696696648071 0 -0.127808969365409 -0.13964878703263089 0 -0.13998741925110539 -0.14696696648071 0 -0.13165303906594419 -0.15387498301347749 0 -0.12113473616265159 -0.15039397647504779 0 -0.127808969365409 -0.13964878703263089 0 -0.13165303906594419 -0.15387498301347749 0 -0.13176019469248351 -0.17189992923223349 0 -0.14132247579541601 -0.16034094104913729 0 -0.1481229006939474 -0.16961879356400469 0 -0.13165303906594419 -0.15387498301347749 0 -0.13176019469248351 -0.17189992923223349 0 -0.14132247579541601 -0.16034094104913729 0 -0.1126098460473253 -0.16650386756798979 0 -0.13165303906594419 -0.15387498301347749 0 -0.13176019469248351 -0.17189992923223349 0 -0.13176019469248351 -0.17189992923223349 0 -0.13955958186893541 -0.18445320596777481 0 -0.1481229006939474 -0.16961879356400469 0 -0.1215341742872456 -0.1810290592120874 0 -0.1298844252837858 -0.18507853733090501 0 -0.13176019469248351 -0.17189992923223349 0 -0.1298844252837858 -0.18507853733090501 0 -0.13176019469248351 -0.17189992923223349 0 -0.13955958186893541 -0.18445320596777481 0 -0.13955958186893541 -0.18445320596777481 0 -0.15606866631456431 -0.1845027434142632 0 -0.1481229006939474 -0.16961879356400469 0 -0.15606866631456431 -0.1845027434142632 0 -0.1481229006939474 -0.16961879356400469 0 -0.16330705511950261 -0.17058362237776811 0 -0.14981188296188619 -0.15279323115454899 0 -0.1481229006939474 -0.16961879356400469 0 -0.1622274027612024 -0.15628909401497029 0 -0.14981188296188619 -0.15279323115454899 0 -0.14132247579541601 -0.16034094104913729 0 -0.1481229006939474 -0.16961879356400469 0 -0.16330705511950261 -0.17058362237776811 0 -0.17427459469629761 -0.1806793587072692 0 -0.17410660306239581 -0.16293052447597439 0 -0.1481229006939474 -0.16961879356400469 0 -0.1622274027612024 -0.15628909401497029 0 -0.16330705511950261 -0.17058362237776811 0 -0.1622274027612024 -0.15628909401497029 0 -0.16330705511950261 -0.17058362237776811 0 -0.17410660306239581 -0.16293052447597439 0 -0.15606866631456431 -0.1845027434142632 0 -0.16330705511950261 -0.17058362237776811 0 -0.17427459469629761 -0.1806793587072692 0 -0.15606866631456431 -0.1845027434142632 0 -0.17427459469629761 -0.1806793587072692 0 -0.16731459183634451 -0.19149070524819831 0 -0.17427459469629761 -0.1806793587072692 0 -0.1829644827589198 -0.191877135947432 0 -0.19069573032632989 -0.18236030139286019 0 -0.17427459469629761 -0.1806793587072692 0 -0.18604772489310409 -0.17062931382730431 0 -0.19069573032632989 -0.18236030139286019 0 -0.17427459469629761 -0.1806793587072692 0 -0.17410660306239581 -0.16293052447597439 0 -0.18604772489310409 -0.17062931382730431 0 -0.17410660306239581 -0.16293052447597439 0 -0.18604772489310409 -0.17062931382730431 0 -0.1841465811956588 -0.15820231564730719 0 -0.1841465811956588 -0.15820231564730719 0 -0.1697778592519899 -0.14146843835613401 0 -0.19412784184287379 -0.15201129975800839 0 -0.18638077221285371 -0.12864808093955141 0 -0.1697778592519899 -0.14146843835613401 0 -0.19412784184287379 -0.15201129975800839 0 -0.1697778592519899 -0.14146843835613401 0 -0.19412784184287379 -0.15201129975800839 0 -0.17410660306239581 -0.16293052447597439 0 -0.1841465811956588 -0.15820231564730719 0 -0.1697778592519899 -0.14146843835613401 0 -0.18638077221285371 -0.12864808093955141 0 -0.1697778592519899 -0.14146843835613401 0 -0.1697304290273943 -0.11587970370464951 0 -0.14542787666110629 -0.13092557695425891 0 -0.1697778592519899 -0.14146843835613401 0 -0.14542787666110629 -0.13092557695425891 0 -0.1582438929994443 -0.14668979133820551 0 -0.1697778592519899 -0.14146843835613401 0 -0.14542787666110629 -0.13092557695425891 0 -0.1697778592519899 -0.14146843835613401 0 -0.1697304290273943 -0.11587970370464951 0 -0.1622274027612024 -0.15628909401497029 0 -0.17410660306239581 -0.16293052447597439 0 -0.1697778592519899 -0.14146843835613401 0 -0.1622274027612024 -0.15628909401497029 0 -0.1582438929994443 -0.14668979133820551 0 -0.1697778592519899 -0.14146843835613401 0 -0.14981188296188619 -0.15279323115454899 0 -0.1622274027612024 -0.15628909401497029 0 -0.1582438929994443 -0.14668979133820551 0 -0.14995745251178161 -0.24677829845294699 0 -0.14595080157874649 -0.22879015683951431 0 -0.15857664984743419 -0.23258804050425519 0 -0.14995745251178161 -0.24677829845294699 0 -0.1408405467980802 -0.23779215720692551 0 -0.14595080157874649 -0.22879015683951431 0 -0.14995745251178161 -0.24677829845294699 0 -0.1408405467980802 -0.23779215720692551 0 -0.14085805510510829 -0.2448022004613665 0 -0.14180034745397441 -0.25433598075321889 0 -0.14995745251178161 -0.24677829845294699 0 -0.14085805510510829 -0.2448022004613665 0 -0.14180034745397441 -0.25433598075321889 0 -0.14085805510510829 -0.2448022004613665 0 -0.13248280039035351 -0.24271303820923981 0 -0.12011581709928069 -0.22176868019961879 0 -0.13248280039035351 -0.24271303820923981 0 -0.12759843569981269 -0.2447757193946889 0 -0.1408405467980802 -0.23779215720692551 0 -0.13248280039035351 -0.24271303820923981 0 -0.13728402647674051 -0.2288524376517633 0 -0.1408405467980802 -0.23779215720692551 0 -0.14085805510510829 -0.2448022004613665 0 -0.13248280039035351 -0.24271303820923981 0 -0.13248280039035351 -0.24271303820923981 0 -0.12744236413509191 -0.21867465842144521 0 -0.13248280039035351 -0.24271303820923981 0 -0.13728402647674051 -0.2288524376517633 0 -0.12744236413509191 -0.21867465842144521 0 -0.12011581709928069 -0.22176868019961879 0 -0.13248280039035351 -0.24271303820923981 0 -0.12744236413509191 -0.21867465842144521 0 -0.13728402647674051 -0.2288524376517633 0 -0.1397036194814304 -0.21629217758169181 0 -0.12744236413509191 -0.21867465842144521 0 -0.13728402647674051 -0.2288524376517633 0 -0.14595080157874649 -0.22879015683951431 0 -0.1397036194814304 -0.21629217758169181 0 -0.14595080157874649 -0.22879015683951431 0 -0.15160131810568589 -0.2154768288018413 0 -0.1397036194814304 -0.21629217758169181 0 -0.14595080157874649 -0.22879015683951431 0 -0.15160131810568589 -0.2154768288018413 0 -0.15857664984743419 -0.23258804050425519 0 -0.1408405467980802 -0.23779215720692551 0 -0.13728402647674051 -0.2288524376517633 0 -0.14595080157874649 -0.22879015683951431 0 -0.15160131810568589 -0.2154768288018413 0 -0.13802436818329761 -0.2041568014554053 0 -0.15383395821158929 -0.20090290852947881 0 -0.15160131810568589 -0.2154768288018413 0 -0.1397036194814304 -0.21629217758169181 0 -0.13802436818329761 -0.2041568014554053 0 -0.1397036194814304 -0.21629217758169181 0 -0.12744236413509191 -0.21867465842144521 0 -0.13189306991991251 -0.2084399790230482 0 -0.1224019278798302 -0.1946362786336506 0 -0.12744236413509191 -0.21867465842144521 0 -0.13189306991991251 -0.2084399790230482 0 -0.1397036194814304 -0.21629217758169181 0 -0.13189306991991251 -0.2084399790230482 0 -0.13802436818329761 -0.2041568014554053 0 -0.13802436818329761 -0.2041568014554053 0 -0.13416624769043431 -0.1933742136087786 0 -0.14369210472535199 -0.19517376871958769 0 -0.1224019278798302 -0.1946362786336506 0 -0.13802436818329761 -0.2041568014554053 0 -0.13416624769043431 -0.1933742136087786 0 -0.1224019278798302 -0.1946362786336506 0 -0.13189306991991251 -0.2084399790230482 0 -0.13802436818329761 -0.2041568014554053 0 -0.1224019278798302 -0.1946362786336506 0 -0.1298844252837858 -0.18507853733090501 0 -0.13416624769043431 -0.1933742136087786 0 -0.1298844252837858 -0.18507853733090501 0 -0.13955958186893541 -0.18445320596777481 0 -0.13416624769043431 -0.1933742136087786 0 -0.13955958186893541 -0.18445320596777481 0 -0.13416624769043431 -0.1933742136087786 0 -0.14369210472535199 -0.19517376871958769 0 -0.13955958186893541 -0.18445320596777481 0 -0.15606866631456431 -0.1845027434142632 0 -0.14369210472535199 -0.19517376871958769 0 -0.15606866631456431 -0.1845027434142632 0 -0.14369210472535199 -0.19517376871958769 0 -0.15383395821158929 -0.20090290852947881 0 -0.13802436818329761 -0.2041568014554053 0 -0.14369210472535199 -0.19517376871958769 0 -0.15383395821158929 -0.20090290852947881 0 -0.15383395821158929 -0.20090290852947881 0 -0.16731459183634451 -0.19149070524819831 0 -0.17144902671828441 -0.20404807408319819 0 -0.15606866631456431 -0.1845027434142632 0 -0.15383395821158929 -0.20090290852947881 0 -0.16731459183634451 -0.19149070524819831 0 -0.16731459183634451 -0.19149070524819831 0 -0.1829644827589198 -0.191877135947432 0 -0.17144902671828441 -0.20404807408319819 0 -0.17427459469629761 -0.1806793587072692 0 -0.16731459183634451 -0.19149070524819831 0 -0.1829644827589198 -0.191877135947432 0 -0.1664400121325274 -0.21813870923297041 0 -0.17144902671828441 -0.20404807408319819 0 -0.18711245730161 -0.21878022279971379 0 -0.1829644827589198 -0.191877135947432 0 -0.17144902671828441 -0.20404807408319819 0 -0.18711245730161 -0.21878022279971379 0 -0.15383395821158929 -0.20090290852947881 0 -0.1664400121325274 -0.21813870923297041 0 -0.17144902671828441 -0.20404807408319819 0 -0.15160131810568589 -0.2154768288018413 0 -0.15383395821158929 -0.20090290852947881 0 -0.1664400121325274 -0.21813870923297041 0 -0.1664400121325274 -0.21813870923297041 0 -0.15857664984743419 -0.23258804050425519 0 -0.17341784158435231 -0.23999749683589741 0 -0.15160131810568589 -0.2154768288018413 0 -0.1664400121325274 -0.21813870923297041 0 -0.15857664984743419 -0.23258804050425519 0 -0.18711245730161 -0.21878022279971379 0 -0.17341784158435231 -0.23999749683589741 0 -0.19282302521672981 -0.23715218346018799 0 -0.1664400121325274 -0.21813870923297041 0 -0.18711245730161 -0.21878022279971379 0 -0.17341784158435231 -0.23999749683589741 0 -0.18711245730161 -0.21878022279971379 0 -0.17341784158435231 -0.23999749683589741 0 -0.1905857482841215 -0.25475181717488998 0 -0.17341784158435231 -0.23999749683589741 0 -0.19282302521672981 -0.23715218346018799 0 -0.169875671899618 -0.25980476064229752 0 -0.14995745251178161 -0.24677829845294699 0 -0.17341784158435231 -0.23999749683589741 0 -0.14995745251178161 -0.24677829845294699 0 -0.15857664984743419 -0.23258804050425519 0 -0.17341784158435231 -0.23999749683589741 0 -0.2077156385191524 -0.24492740173516231 0 -0.19282302521672981 -0.23715218346018799 0 -0.2142161108975893 -0.22554849254561599 0 -0.2077156385191524 -0.24492740173516231 0 -0.2142161108975893 -0.22554849254561599 0 -0.22908994334265659 -0.24776325145605699 0 -0.1905857482841215 -0.25475181717488998 0 -0.2077156385191524 -0.24492740173516231 0 -0.19282302521672981 -0.23715218346018799 0 -0.18711245730161 -0.21878022279971379 0 -0.19282302521672981 -0.23715218346018799 0 -0.2142161108975893 -0.22554849254561599 0 -0.18711245730161 -0.21878022279971379 0 -0.2142161108975893 -0.22554849254561599 0 -0.20932781800391609 -0.20990200621126839 0 -0.2142161108975893 -0.22554849254561599 0 -0.20932781800391609 -0.20990200621126839 0 -0.22426770067912299 -0.2071266191799514 0 -0.18711245730161 -0.21878022279971379 0 -0.2008070730188676 -0.19756294876353009 0 -0.18711245730161 -0.21878022279971379 0 -0.20932781800391609 -0.20990200621126839 0 -0.2008070730188676 -0.19756294876353009 0 -0.1829644827589198 -0.191877135947432 0 -0.2008070730188676 -0.19756294876353009 0 -0.19069573032632989 -0.18236030139286019 0 -0.1829644827589198 -0.191877135947432 0 -0.18711245730161 -0.21878022279971379 0 -0.2008070730188676 -0.19756294876353009 0 -0.2008070730188676 -0.19756294876353009 0 -0.22221405368371419 -0.19124976147474521 0 -0.21450168873612541 -0.17634567472734641 0 -0.20932781800391609 -0.20990200621126839 0 -0.2008070730188676 -0.19756294876353009 0 -0.22221405368371419 -0.19124976147474521 0 -0.20932781800391609 -0.20990200621126839 0 -0.22221405368371419 -0.19124976147474521 0 -0.22426770067912299 -0.2071266191799514 0 -0.22221405368371419 -0.19124976147474521 0 -0.2315762684082886 -0.19914106372908499 0 -0.22426770067912299 -0.2071266191799514 0 -0.22221405368371419 -0.19124976147474521 0 -0.2315762684082886 -0.19914106372908499 0 -0.23887440550560221 -0.19326099294568441 0 -0.23887440550560221 -0.19326099294568441 0 -0.24787204785012509 -0.19605476068974309 0 -0.2632471222750789 -0.21017631116402241 0 -0.2381004586332203 -0.18940631539857539 0 -0.23887440550560221 -0.19326099294568441 0 -0.24326951615188289 -0.1898849342227657 0 -0.23887440550560221 -0.19326099294568441 0 -0.24326951615188289 -0.1898849342227657 0 -0.24787204785012509 -0.19605476068974309 0 -0.24326951615188289 -0.1898849342227657 0 -0.24975075141363859 -0.1878229649227425 0 -0.24787204785012509 -0.19605476068974309 0 -0.23887440550560221 -0.19326099294568441 0 -0.2444671805055936 -0.20112577170238741 0 -0.25181413244388717 -0.2057188049242071 0 -0.2444671805055936 -0.20112577170238741 0 -0.23794667307778289 -0.2008778139022239 0 -0.24048629854821379 -0.20673288534106229 0 -0.23887440550560221 -0.19326099294568441 0 -0.2444671805055936 -0.20112577170238741 0 -0.23794667307778289 -0.2008778139022239 0 -0.2315762684082886 -0.19914106372908499 0 -0.23887440550560221 -0.19326099294568441 0 -0.23794667307778289 -0.2008778139022239 0 -0.2315762684082886 -0.19914106372908499 0 -0.23794667307778289 -0.2008778139022239 0 -0.2337755865421195 -0.20479725067540031 0 -0.23794667307778289 -0.2008778139022239 0 -0.24048629854821379 -0.20673288534106229 0 -0.2337755865421195 -0.20479725067540031 0 -0.24048629854821379 -0.20673288534106229 0 -0.23478217725012501 -0.21508056925394001 0 -0.2337755865421195 -0.20479725067540031 0 -0.2444671805055936 -0.20112577170238741 0 -0.24048629854821379 -0.20673288534106229 0 -0.2464256062630539 -0.20674375014070959 0 -0.24048629854821379 -0.20673288534106229 0 -0.2464256062630539 -0.20674375014070959 0 -0.2455205676506079 -0.21177215637171251 0 -0.2492862262878705 -0.20903802724667889 0 -0.2464256062630539 -0.20674375014070959 0 -0.25181413244388717 -0.2057188049242071 0 -0.2492862262878705 -0.20903802724667889 0 -0.2464256062630539 -0.20674375014070959 0 -0.2455205676506079 -0.21177215637171251 0 -0.2444671805055936 -0.20112577170238741 0 -0.2464256062630539 -0.20674375014070959 0 -0.25181413244388717 -0.2057188049242071 0 -0.2455205676506079 -0.21177215637171251 0 -0.2444410553328128 -0.22291988098547891 0 -0.25415998060614797 -0.2150503390504751 0 -0.2492862262878705 -0.20903802724667889 0 -0.2455205676506079 -0.21177215637171251 0 -0.25415998060614797 -0.2150503390504751 0 -0.24048629854821379 -0.20673288534106229 0 -0.2455205676506079 -0.21177215637171251 0 -0.23478217725012501 -0.21508056925394001 0 -0.2455205676506079 -0.21177215637171251 0 -0.23478217725012501 -0.21508056925394001 0 -0.2444410553328128 -0.22291988098547891 0 -0.2142161108975893 -0.22554849254561599 0 -0.23478217725012501 -0.21508056925394001 0 -0.22426770067912299 -0.2071266191799514 0 -0.23478217725012501 -0.21508056925394001 0 -0.2337755865421195 -0.20479725067540031 0 -0.22426770067912299 -0.2071266191799514 0 -0.2315762684082886 -0.19914106372908499 0 -0.2337755865421195 -0.20479725067540031 0 -0.22426770067912299 -0.2071266191799514 0 -0.2142161108975893 -0.22554849254561599 0 -0.23478217725012501 -0.21508056925394001 0 -0.23364042593435441 -0.22974944657220581 0 -0.2142161108975893 -0.22554849254561599 0 -0.23364042593435441 -0.22974944657220581 0 -0.22908994334265659 -0.24776325145605699 0 -0.23478217725012501 -0.21508056925394001 0 -0.23364042593435441 -0.22974944657220581 0 -0.2444410553328128 -0.22291988098547891 0 -0.23364042593435441 -0.22974944657220581 0 -0.2444410553328128 -0.22291988098547891 0 -0.24401336650464689 -0.23933744205786109 0 -0.2444410553328128 -0.22291988098547891 0 -0.24401336650464689 -0.23933744205786109 0 -0.25452981405099478 -0.22652933260667929 0 -0.2513037376167887 -0.25422011069476208 0 -0.24401336650464689 -0.23933744205786109 0 -0.22908994334265659 -0.24776325145605699 0 -0.23364042593435441 -0.22974944657220581 0 -0.24401336650464689 -0.23933744205786109 0 -0.22908994334265659 -0.24776325145605699 0 -0.20303111539831051 -0.14141645817445639 0 -0.19412784184287379 -0.15201129975800839 0 -0.21276693246004039 -0.15887770459994319 0 -0.20303111539831051 -0.14141645817445639 0 -0.21652213733101169 -0.1598779449499961 0 -0.20303111539831051 -0.14141645817445639 0 -0.21276693246004039 -0.15887770459994319 0 -0.21652213733101169 -0.1598779449499961 0 -0.2178844846211945 -0.15280681928200401 0 -0.20303111539831051 -0.14141645817445639 0 -0.21652213733101169 -0.1598779449499961 0 -0.2178844846211945 -0.15280681928200401 0 -0.20303111539831051 -0.14141645817445639 0 -0.2178844846211945 -0.15280681928200401 0 -0.2169189064784029 -0.13929889440882359 0 -0.20303111539831051 -0.14141645817445639 0 -0.2169189064784029 -0.13929889440882359 0 -0.20303111539831051 -0.14141645817445639 0 -0.2115919162606521 -0.1226052269274109 0 -0.18638077221285371 -0.12864808093955141 0 -0.20303111539831051 -0.14141645817445639 0 -0.1883827622474703 -0.1213712474167839 0 -0.18638077221285371 -0.12864808093955141 0 -0.20303111539831051 -0.14141645817445639 0 -0.20303111539831051 -0.14141645817445639 0 -0.1883827622474703 -0.1213712474167839 0 -0.20303111539831051 -0.14141645817445639 0 -0.2115919162606521 -0.1226052269274109 0 -0.1883827622474703 -0.1213712474167839 0 -0.18638077221285371 -0.12864808093955141 0 -0.20303111539831051 -0.14141645817445639 0 -0.19412784184287379 -0.15201129975800839 0 -0.1841465811956588 -0.15820231564730719 0 -0.19412784184287379 -0.15201129975800839 0 -0.19667287692793051 -0.1639720018191147 0 -0.19412784184287379 -0.15201129975800839 0 -0.19667287692793051 -0.1639720018191147 0 -0.2184778244337568 -0.16255416115988491 0 -0.18604772489310409 -0.17062931382730431 0 -0.1841465811956588 -0.15820231564730719 0 -0.19667287692793051 -0.1639720018191147 0 -0.18604772489310409 -0.17062931382730431 0 -0.19667287692793051 -0.1639720018191147 0 -0.20067730753576249 -0.1760365019262182 0 -0.2008070730188676 -0.19756294876353009 0 -0.19069573032632989 -0.18236030139286019 0 -0.20067730753576249 -0.1760365019262182 0 -0.18604772489310409 -0.17062931382730431 0 -0.19069573032632989 -0.18236030139286019 0 -0.20067730753576249 -0.1760365019262182 0 -0.2008070730188676 -0.19756294876353009 0 -0.21450168873612541 -0.17634567472734641 0 -0.2008070730188676 -0.19756294876353009 0 -0.20067730753576249 -0.1760365019262182 0 -0.21450168873612541 -0.17634567472734641 0 -0.19667287692793051 -0.1639720018191147 0 -0.20067730753576249 -0.1760365019262182 0 -0.21450168873612541 -0.17634567472734641 0 -0.19412784184287379 -0.15201129975800839 0 -0.2184778244337568 -0.16255416115988491 0 -0.19667287692793051 -0.1639720018191147 0 -0.2138424659630826 -0.1686866959308824 0 -0.2184778244337568 -0.16255416115988491 0 -0.19667287692793051 -0.1639720018191147 0 -0.21450168873612541 -0.17634567472734641 0 -0.19412784184287379 -0.15201129975800839 0 -0.2184778244337568 -0.16255416115988491 0 -0.21276693246004039 -0.15887770459994319 0 -0.19667287692793051 -0.1639720018191147 0 -0.21450168873612541 -0.17634567472734641 0 -0.2138424659630826 -0.1686866959308824 0 -0.21450168873612541 -0.17634567472734641 0 -0.2138424659630826 -0.1686866959308824 0 -0.22109328018129421 -0.16613322299345681 0 -0.21450168873612541 -0.17634567472734641 0 -0.22109328018129421 -0.16613322299345681 0 -0.2138424659630826 -0.1686866959308824 0 -0.2184778244337568 -0.16255416115988491 0 -0.22109328018129421 -0.16613322299345681 0 -0.2184778244337568 -0.16255416115988491 0 -0.21276693246004039 -0.15887770459994319 0 -0.21652213733101169 -0.1598779449499961 0 -0.2184778244337568 -0.16255416115988491 0 -0.21652213733101169 -0.1598779449499961 0 -0.21276693246004039 -0.15887770459994319 0 -0.21652213733101169 -0.1598779449499961 0 -0.2184778244337568 -0.16255416115988491 0 -0.21652213733101169 -0.1598779449499961 0 -0.232737853844078 -0.16419718038955231 0 -0.21652213733101169 -0.1598779449499961 0 -0.232737853844078 -0.16419718038955231 0 -0.2178844846211945 -0.15280681928200401 0 -0.21652213733101169 -0.1598779449499961 0 -0.232737853844078 -0.16419718038955231 0 -0.2178844846211945 -0.15280681928200401 0 -0.232737853844078 -0.16419718038955231 0 -0.2184778244337568 -0.16255416115988491 0 -0.22109328018129421 -0.16613322299345681 0 -0.2323934388058084 -0.16857923296840999 0 -0.2184778244337568 -0.16255416115988491 0 -0.2323934388058084 -0.16857923296840999 0 -0.2184778244337568 -0.16255416115988491 0 -0.22109328018129421 -0.16613322299345681 0 -0.22109328018129421 -0.16613322299345681 0 -0.2323934388058084 -0.16857923296840999 0 -0.236090266049445 -0.17527173031205329 0 -0.2184778244337568 -0.16255416115988491 0 -0.232737853844078 -0.16419718038955231 0 -0.2323934388058084 -0.16857923296840999 0 -0.2381004586332203 -0.18940631539857539 0 -0.22109328018129421 -0.16613322299345681 0 -0.2381004586332203 -0.18940631539857539 0 -0.22109328018129421 -0.16613322299345681 0 -0.23457375094963021 -0.17846809812786929 0 -0.22221405368371419 -0.19124976147474521 0 -0.23887440550560221 -0.19326099294568441 0 -0.21450168873612541 -0.17634567472734641 0 -0.2381004586332203 -0.18940631539857539 0 -0.23887440550560221 -0.19326099294568441 0 -0.21450168873612541 -0.17634567472734641 0 -0.2381004586332203 -0.18940631539857539 0 -0.21450168873612541 -0.17634567472734641 0 -0.22109328018129421 -0.16613322299345681 0 -0.23887440550560221 -0.19326099294568441 0 -0.21450168873612541 -0.17634567472734641 0 -0.22109328018129421 -0.16613322299345681 0 -0.23457375094963021 -0.17846809812786929 0 -0.236090266049445 -0.17527173031205329 0 -0.2381004586332203 -0.18940631539857539 0 -0.23457375094963021 -0.17846809812786929 0 -0.24301099893456149 -0.18306112380739159 0 -0.2381004586332203 -0.18940631539857539 0 -0.24326951615188289 -0.1898849342227657 0 -0.24301099893456149 -0.18306112380739159 0 -0.236090266049445 -0.17527173031205329 0 -0.2463090531778579 -0.17460430477693969 0 -0.24301099893456149 -0.18306112380739159 0 -0.23457375094963021 -0.17846809812786929 0 -0.236090266049445 -0.17527173031205329 0 -0.24301099893456149 -0.18306112380739159 0 -0.2323934388058084 -0.16857923296840999 0 -0.236090266049445 -0.17527173031205329 0 -0.2463090531778579 -0.17460430477693969 0 -0.24975075141363859 -0.1878229649227425 0 -0.2463090531778579 -0.17460430477693969 0 -0.24301099893456149 -0.18306112380739159 0 -0.24326951615188289 -0.1898849342227657 0 -0.24975075141363859 -0.1878229649227425 0 -0.24301099893456149 -0.18306112380739159 0 -0.232737853844078 -0.16419718038955231 0 -0.25064724413798678 -0.16896754457270469 0 -0.232737853844078 -0.16419718038955231 0 -0.2415492606411801 -0.15336314856746711 0 -0.25064724413798678 -0.16896754457270469 0 -0.232737853844078 -0.16419718038955231 0 -0.2463090531778579 -0.17460430477693969 0 -0.25064724413798678 -0.16896754457270469 0 -0.2323934388058084 -0.16857923296840999 0 -0.2463090531778579 -0.17460430477693969 0 -0.232737853844078 -0.16419718038955231 0 -0.2323934388058084 -0.16857923296840999 0 -0.2463090531778579 -0.17460430477693969 0 -0.232737853844078 -0.16419718038955231 0 -0.2463090531778579 -0.17460430477693969 0 -0.2415492606411801 -0.15336314856746711 0 -0.25064724413798678 -0.16896754457270469 0 -0.25160325676148348 -0.15351523439905521 0 -0.2467587579232759 -0.14527012187518071 0 -0.2415492606411801 -0.15336314856746711 0 -0.25160325676148348 -0.15351523439905521 0 -0.232737853844078 -0.16419718038955231 0 -0.2415492606411801 -0.15336314856746711 0 -0.22940414364587261 -0.1471105467848145 0 -0.2467587579232759 -0.14527012187518071 0 -0.2415492606411801 -0.15336314856746711 0 -0.23854842318960801 -0.14030744593887121 0 -0.2467587579232759 -0.14527012187518071 0 -0.23854842318960801 -0.14030744593887121 0 -0.24900325838152149 -0.1374629258461946 0 -0.2415492606411801 -0.15336314856746711 0 -0.22940414364587261 -0.1471105467848145 0 -0.23854842318960801 -0.14030744593887121 0 -0.2178844846211945 -0.15280681928200401 0 -0.232737853844078 -0.16419718038955231 0 -0.22940414364587261 -0.1471105467848145 0 -0.2178844846211945 -0.15280681928200401 0 -0.2169189064784029 -0.13929889440882359 0 -0.22940414364587261 -0.1471105467848145 0 -0.2169189064784029 -0.13929889440882359 0 -0.22924800613490109 -0.13269996559633529 0 -0.2115919162606521 -0.1226052269274109 0 -0.2169189064784029 -0.13929889440882359 0 -0.22940414364587261 -0.1471105467848145 0 -0.22924800613490109 -0.13269996559633529 0 -0.22940414364587261 -0.1471105467848145 0 -0.22924800613490109 -0.13269996559633529 0 -0.23854842318960801 -0.14030744593887121 0 -0.22924800613490109 -0.13269996559633529 0 -0.241834459286355 -0.12964029292369611 0 -0.23877135263969931 -0.1172109420146107 0 -0.241834459286355 -0.12964029292369611 0 -0.24900325838152149 -0.1374629258461946 0 -0.25747702370013342 -0.1246397914740016 0 -0.22924800613490109 -0.13269996559633529 0 -0.241834459286355 -0.12964029292369611 0 -0.23854842318960801 -0.14030744593887121 0 -0.241834459286355 -0.12964029292369611 0 -0.23854842318960801 -0.14030744593887121 0 -0.24900325838152149 -0.1374629258461946 0 -0.241834459286355 -0.12964029292369611 0 -0.23877135263969931 -0.1172109420146107 0 -0.25747702370013342 -0.1246397914740016 0 -0.23877135263969931 -0.1172109420146107 0 -0.24683033879896449 -0.1030916860115632 0 -0.22545384914503569 -0.099171396186501101 0 -0.24683033879896449 -0.1030916860115632 0 -0.22545384914503569 -0.099171396186501101 0 -0.24475148776074529 -0.088602467865348047 0 -0.22924800613490109 -0.13269996559633529 0 -0.23877135263969931 -0.1172109420146107 0 -0.2115919162606521 -0.1226052269274109 0 -0.23877135263969931 -0.1172109420146107 0 -0.2115919162606521 -0.1226052269274109 0 -0.23877135263969931 -0.1172109420146107 0 -0.22545384914503569 -0.099171396186501101 0 -0.2115919162606521 -0.1226052269274109 0 -0.24840234445316431 -0.068700814856515219 0 -0.24475148776074529 -0.088602467865348047 0 -0.22971397791614279 -0.076649836026758872 0 -0.24840234445316431 -0.068700814856515219 0 -0.22971397791614279 -0.076649836026758872 0 -0.2340675501775985 -0.059627210477885911 0 -0.22545384914503569 -0.099171396186501101 0 -0.22971397791614279 -0.076649836026758872 0 -0.20602523674888101 -0.080618961455887803 0 -0.22545384914503569 -0.099171396186501101 0 -0.24475148776074529 -0.088602467865348047 0 -0.22971397791614279 -0.076649836026758872 0 -0.22971397791614279 -0.076649836026758872 0 -0.21877160585790689 -0.061498885312411378 0 -0.2340675501775985 -0.059627210477885911 0 -0.20602523674888101 -0.080618961455887803 0 -0.1980122614168858 -0.059594391647828593 0 -0.21877160585790689 -0.061498885312411378 0 -0.22971397791614279 -0.076649836026758872 0 -0.20602523674888101 -0.080618961455887803 0 -0.21877160585790689 -0.061498885312411378 0 -0.20602523674888101 -0.080618961455887803 0 -0.19026337855207451 -0.090144796417793105 0 -0.19881046332008789 -0.1028235343378231 0 -0.20602523674888101 -0.080618961455887803 0 -0.19026337855207451 -0.090144796417793105 0 -0.18248340504269531 -0.075810653218352841 0 -0.20602523674888101 -0.080618961455887803 0 -0.18248340504269531 -0.075810653218352841 0 -0.1980122614168858 -0.059594391647828593 0 -0.18388688061645889 -0.062640750366582273 0 -0.18248340504269531 -0.075810653218352841 0 -0.1980122614168858 -0.059594391647828593 0 -0.22545384914503569 -0.099171396186501101 0 -0.2115919162606521 -0.1226052269274109 0 -0.19881046332008789 -0.1028235343378231 0 -0.22545384914503569 -0.099171396186501101 0 -0.20602523674888101 -0.080618961455887803 0 -0.19881046332008789 -0.1028235343378231 0 -0.19026337855207451 -0.090144796417793105 0 -0.19881046332008789 -0.1028235343378231 0 -0.1737344090966336 -0.10132603665910871 0 -0.2115919162606521 -0.1226052269274109 0 -0.19881046332008789 -0.1028235343378231 0 -0.1883827622474703 -0.1213712474167839 0 -0.18638077221285371 -0.12864808093955141 0 -0.1697304290273943 -0.11587970370464951 0 -0.18638077221285371 -0.12864808093955141 0 -0.1883827622474703 -0.1213712474167839 0 -0.1697304290273943 -0.11587970370464951 0 -0.1883827622474703 -0.1213712474167839 0 -0.1697304290273943 -0.11587970370464951 0 -0.1737344090966336 -0.10132603665910871 0 -0.1883827622474703 -0.1213712474167839 0 -0.1737344090966336 -0.10132603665910871 0 -0.1697304290273943 -0.11587970370464951 0 -0.15308008584193661 -0.10311132646974561 0 -0.1697304290273943 -0.11587970370464951 0 -0.1737344090966336 -0.10132603665910871 0 -0.15308008584193661 -0.10311132646974561 0 -0.1737344090966336 -0.10132603665910871 0 -0.15908605594579589 -0.081280825901434331 0 -0.15308008584193661 -0.10311132646974561 0 -0.19881046332008789 -0.1028235343378231 0 -0.1883827622474703 -0.1213712474167839 0 -0.1737344090966336 -0.10132603665910871 0 -0.19026337855207451 -0.090144796417793105 0 -0.1737344090966336 -0.10132603665910871 0 -0.18248340504269531 -0.075810653218352841 0 -0.18248340504269531 -0.075810653218352841 0 -0.17438891635375031 -0.064894396110640143 0 -0.15908605594579589 -0.081280825901434331 0 -0.18388688061645889 -0.062640750366582273 0 -0.18248340504269531 -0.075810653218352841 0 -0.17438891635375031 -0.064894396110640143 0 -0.15908605594579589 -0.081280825901434331 0 -0.1583955734032293 -0.060940957814667983 0 -0.16665223375409599 -0.05377928225600858 0 -0.17438891635375031 -0.064894396110640143 0 -0.15908605594579589 -0.081280825901434331 0 -0.16665223375409599 -0.05377928225600858 0 -0.15908605594579589 -0.081280825901434331 0 -0.16665223375409599 -0.05377928225600858 0 -0.1737344090966336 -0.10132603665910871 0 -0.15908605594579589 -0.081280825901434331 0 -0.1737344090966336 -0.10132603665910871 0 -0.18248340504269531 -0.075810653218352841 0 -0.15908605594579589 -0.081280825901434331 0 -0.15908605594579589 -0.081280825901434331 0 -0.13381212664491579 -0.088335620717983676 0 -0.15308008584193661 -0.10311132646974561 0 -0.15908605594579589 -0.081280825901434331 0 -0.14183906575844579 -0.075212219896680019 0 -0.13381212664491579 -0.088335620717983676 0 -0.15908605594579589 -0.081280825901434331 0 -0.15308008584193661 -0.10311132646974561 0 -0.15908605594579589 -0.081280825901434331 0 -0.14183906575844579 -0.075212219896680019 0 -0.14499631741068739 -0.062000038802122168 0 -0.15908605594579589 -0.081280825901434331 0 -0.14499631741068739 -0.062000038802122168 0 -0.15908605594579589 -0.081280825901434331 0 -0.1469785938377399 -0.061247551045174903 0 -0.1583955734032293 -0.060940957814667983 0 -0.15908605594579589 -0.081280825901434331 0 -0.1469785938377399 -0.061247551045174903 0 -0.14499631741068739 -0.062000038802122168 0 -0.12231212192689191 -0.061909948071025372 0 -0.12977024242929161 -0.067779976884171991 0 -0.14499631741068739 -0.062000038802122168 0 -0.14183906575844579 -0.075212219896680019 0 -0.12977024242929161 -0.067779976884171991 0 -0.13381212664491579 -0.088335620717983676 0 -0.1145441674478954 -0.073559914966220941 0 -0.12977024242929161 -0.067779976884171991 0 -0.13381212664491579 -0.088335620717983676 0 -0.12977024242929161 -0.067779976884171991 0 -0.14499631741068739 -0.062000038802122168 0 -0.14183906575844579 -0.075212219896680019 0 -0.12977024242929161 -0.067779976884171991 0 -0.14499631741068739 -0.062000038802122168 0 -0.1193719830557147 -0.097240475536607432 0 -0.13381212664491579 -0.088335620717983676 0 -0.1269879268556203 -0.10417887282269769 0 -0.13381212664491579 -0.088335620717983676 0 -0.1269879268556203 -0.10417887282269769 0 -0.13850278726278589 -0.1120715783426549 0 -0.122905012823018 -0.11485270471451051 0 -0.1269879268556203 -0.10417887282269769 0 -0.13850278726278589 -0.1120715783426549 0 -0.14542787666110629 -0.13092557695425891 0 -0.1288761054788185 -0.1237591229792278 0 -0.13850278726278589 -0.1120715783426549 0 -0.122905012823018 -0.11485270471451051 0 -0.1288761054788185 -0.1237591229792278 0 -0.13850278726278589 -0.1120715783426549 0 -0.14542787666110629 -0.13092557695425891 0 -0.13850278726278589 -0.1120715783426549 0 -0.15308008584193661 -0.10311132646974561 0 -0.14542787666110629 -0.13092557695425891 0 -0.1697304290273943 -0.11587970370464951 0 -0.15308008584193661 -0.10311132646974561 0 -0.14542787666110629 -0.13092557695425891 0 -0.15308008584193661 -0.10311132646974561 0 -0.13381212664491579 -0.088335620717983676 0 -0.13850278726278589 -0.1120715783426549 0 -0.15308008584193661 -0.10311132646974561 0 -0.13381212664491579 -0.088335620717983676 0 -0.15308008584193661 -0.10311132646974561 0 -0.15575520360580991 -0.02520083360744459 0 -0.1483779153373315 -0.0088024403098311173 0 -0.13912861921295799 -0.01767897925341463 0 -0.15575520360580991 -0.02520083360744459 0 -0.13912861921295799 -0.01767897925341463 0 -0.14054746806044871 -0.030848710711973201 0 -0.15575520360580991 -0.02520083360744459 0 -0.1483779153373315 -0.0088024403098311173 0 -0.1611968816541014 -0.0072298905557722244 0 -0.1483779153373315 -0.0088024403098311173 0 -0.1611968816541014 -0.0072298905557722244 0 -0.14691254456249311 0.0032821267856216162 0 -0.1483779153373315 -0.0088024403098311173 0 -0.1369545246070322 -0.003046531511930108 0 -0.14691254456249311 0.0032821267856216162 0 -0.1483779153373315 -0.0088024403098311173 0 -0.1369545246070322 -0.003046531511930108 0 -0.13912861921295799 -0.01767897925341463 0 -0.1369545246070322 -0.003046531511930108 0 -0.1254749655893185 -0.0119770571382713 0 -0.13912861921295799 -0.01767897925341463 0 -0.1369545246070322 -0.003046531511930108 0 -0.1254749655893185 -0.0119770571382713 0 -0.12462408747253829 0.005126321988230334 0 -0.1254749655893185 -0.0119770571382713 0 -0.13912861921295799 -0.01767897925341463 0 -0.12780428474413069 -0.02738776142656232 0 -0.13912861921295799 -0.01767897925341463 0 -0.14054746806044871 -0.030848710711973201 0 -0.12780428474413069 -0.02738776142656232 0 -0.14054746806044871 -0.030848710711973201 0 -0.13043272904605591 -0.042070822517464898 0 -0.1486031675078443 -0.040835270753317651 0 -0.14054746806044871 -0.030848710711973201 0 -0.12780428474413069 -0.02738776142656232 0 -0.13043272904605591 -0.042070822517464898 0 -0.12231212192689191 -0.061909948071025372 0 -0.13043272904605591 -0.042070822517464898 0 -0.14499631741068739 -0.062000038802122168 0 -0.13043272904605591 -0.042070822517464898 0 -0.14499631741068739 -0.062000038802122168 0 -0.13043272904605591 -0.042070822517464898 0 -0.14499631741068739 -0.062000038802122168 0 -0.14548665385172191 -0.051963035118867663 0 -0.12231212192689191 -0.061909948071025372 0 -0.14499631741068739 -0.062000038802122168 0 -0.1469785938377399 -0.061247551045174903 0 -0.15406191800316199 -0.050068160574540901 0 -0.16665223375409599 -0.05377928225600858 0 -0.1469785938377399 -0.061247551045174903 0 -0.14499631741068739 -0.062000038802122168 0 -0.14548665385172191 -0.051963035118867663 0 -0.1469785938377399 -0.061247551045174903 0 -0.14499631741068739 -0.062000038802122168 0 -0.1469785938377399 -0.061247551045174903 0 -0.14548665385172191 -0.051963035118867663 0 -0.15406191800316199 -0.050068160574540901 0 -0.14548665385172191 -0.051963035118867663 0 -0.15406191800316199 -0.050068160574540901 0 -0.1486031675078443 -0.040835270753317651 0 -0.1469785938377399 -0.061247551045174903 0 -0.1583955734032293 -0.060940957814667983 0 -0.15575520360580991 -0.02520083360744459 0 -0.1486031675078443 -0.040835270753317651 0 -0.16095320561477769 -0.041721871753581177 0 -0.15575520360580991 -0.02520083360744459 0 -0.14054746806044871 -0.030848710711973201 0 -0.1486031675078443 -0.040835270753317651 0 -0.13043272904605591 -0.042070822517464898 0 -0.14548665385172191 -0.051963035118867663 0 -0.1486031675078443 -0.040835270753317651 0 -0.15406191800316199 -0.050068160574540901 0 -0.1486031675078443 -0.040835270753317651 0 -0.16095320561477769 -0.041721871753581177 0 -0.16095320561477769 -0.041721871753581177 0 -0.17184197504475879 -0.034915610236972407 0 -0.16665223375409599 -0.05377928225600858 0 -0.17184197504475879 -0.034915610236972407 0 -0.16665223375409599 -0.05377928225600858 0 -0.15575520360580991 -0.02520083360744459 0 -0.16095320561477769 -0.041721871753581177 0 -0.17184197504475879 -0.034915610236972407 0 -0.1469785938377399 -0.061247551045174903 0 -0.16665223375409599 -0.05377928225600858 0 -0.1469785938377399 -0.061247551045174903 0 -0.1583955734032293 -0.060940957814667983 0 -0.16665223375409599 -0.05377928225600858 0 -0.15406191800316199 -0.050068160574540901 0 -0.16095320561477769 -0.041721871753581177 0 -0.16665223375409599 -0.05377928225600858 0 -0.18388688061645889 -0.062640750366582273 0 -0.17845778433836421 -0.052121982679681447 0 -0.1980122614168858 -0.059594391647828593 0 -0.17845778433836421 -0.052121982679681447 0 -0.17751020129470049 -0.049657512189966717 0 -0.20032524381412031 -0.040996742210657681 0 -0.17438891635375031 -0.064894396110640143 0 -0.16665223375409599 -0.05377928225600858 0 -0.17845778433836421 -0.052121982679681447 0 -0.18388688061645889 -0.062640750366582273 0 -0.17438891635375031 -0.064894396110640143 0 -0.17845778433836421 -0.052121982679681447 0 -0.16665223375409599 -0.05377928225600858 0 -0.17845778433836421 -0.052121982679681447 0 -0.17751020129470049 -0.049657512189966717 0 -0.16665223375409599 -0.05377928225600858 0 -0.17751020129470049 -0.049657512189966717 0 -0.17845778433836421 -0.052121982679681447 0 -0.17751020129470049 -0.049657512189966717 0 -0.17184197504475879 -0.034915610236972407 0 -0.16665223375409599 -0.05377928225600858 0 -0.17751020129470049 -0.049657512189966717 0 -0.17184197504475879 -0.034915610236972407 0 -0.18512213833496161 -0.037222116271687138 0 -0.19112389809929839 -0.023013518137048439 0 -0.17184197504475879 -0.034915610236972407 0 -0.17751020129470049 -0.049657512189966717 0 -0.17184197504475879 -0.034915610236972407 0 -0.17751020129470049 -0.049657512189966717 0 -0.18512213833496161 -0.037222116271687138 0 -0.17184197504475879 -0.034915610236972407 0 -0.1766220113289228 -0.01754113400521783 0 -0.19112389809929839 -0.023013518137048439 0 -0.17184197504475879 -0.034915610236972407 0 -0.1766220113289228 -0.01754113400521783 0 -0.17184197504475879 -0.034915610236972407 0 -0.1611968816541014 -0.0072298905557722244 0 -0.15575520360580991 -0.02520083360744459 0 -0.17184197504475879 -0.034915610236972407 0 -0.1611968816541014 -0.0072298905557722244 0 -0.17184197504475879 -0.034915610236972407 0 -0.1766220113289228 -0.01754113400521783 0 -0.1611968816541014 -0.0072298905557722244 0 -0.1766220113289228 -0.01754113400521783 0 -0.1611968816541014 -0.0072298905557722244 0 -0.16988817359510119 0.0045850682390851209 0 -0.1766220113289228 -0.01754113400521783 0 -0.18547397911861879 -0.001124054316855833 0 -0.16988817359510119 0.0045850682390851209 0 -0.1766220113289228 -0.01754113400521783 0 -0.18547397911861879 -0.001124054316855833 0 -0.19112389809929839 -0.023013518137048439 0 -0.18547397911861879 -0.001124054316855833 0 -0.20023443871805741 -0.0023012416293297618 0 -0.19112389809929839 -0.023013518137048439 0 -0.20023443871805741 -0.0023012416293297618 0 -0.19112389809929839 -0.023013518137048439 0 -0.20451810531882411 -0.016475413139819671 0 -0.19112389809929839 -0.023013518137048439 0 -0.2078435358364179 -0.025970551402580911 0 -0.20032524381412031 -0.040996742210657681 0 -0.19112389809929839 -0.023013518137048439 0 -0.20451810531882411 -0.016475413139819671 0 -0.2078435358364179 -0.025970551402580911 0 -0.20451810531882411 -0.016475413139819671 0 -0.2078435358364179 -0.025970551402580911 0 -0.22011014561630629 -0.017031111294030048 0 -0.2078435358364179 -0.025970551402580911 0 -0.22314028633354019 -0.032335972231348688 0 -0.22011014561630629 -0.017031111294030048 0 -0.20451810531882411 -0.016475413139819671 0 -0.22374629085002579 -0.00135523319319138 0 -0.22011014561630629 -0.017031111294030048 0 -0.20023443871805741 -0.0023012416293297618 0 -0.20451810531882411 -0.016475413139819671 0 -0.22374629085002579 -0.00135523319319138 0 -0.17845778433836421 -0.052121982679681447 0 -0.1980122614168858 -0.059594391647828593 0 -0.20032524381412031 -0.040996742210657681 0 -0.18512213833496161 -0.037222116271687138 0 -0.19112389809929839 -0.023013518137048439 0 -0.20032524381412031 -0.040996742210657681 0 -0.17751020129470049 -0.049657512189966717 0 -0.18512213833496161 -0.037222116271687138 0 -0.20032524381412031 -0.040996742210657681 0 -0.17751020129470049 -0.049657512189966717 0 -0.20032524381412031 -0.040996742210657681 0 -0.20032524381412031 -0.040996742210657681 0 -0.22314028633354019 -0.032335972231348688 0 -0.20032524381412031 -0.040996742210657681 0 -0.21382842175670541 -0.047880655401242617 0 -0.22314028633354019 -0.032335972231348688 0 -0.2078435358364179 -0.025970551402580911 0 -0.20032524381412031 -0.040996742210657681 0 -0.22314028633354019 -0.032335972231348688 0 -0.1980122614168858 -0.059594391647828593 0 -0.20032524381412031 -0.040996742210657681 0 -0.21382842175670541 -0.047880655401242617 0 -0.1980122614168858 -0.059594391647828593 0 -0.21382842175670541 -0.047880655401242617 0 -0.21877160585790689 -0.061498885312411378 0 -0.21382842175670541 -0.047880655401242617 0 -0.21877160585790689 -0.061498885312411378 0 -0.22889271136107389 -0.044977285603966723 0 -0.21877160585790689 -0.061498885312411378 0 -0.2340675501775985 -0.059627210477885911 0 -0.22889271136107389 -0.044977285603966723 0 -0.22889271136107389 -0.044977285603966723 0 -0.22314028633354019 -0.032335972231348688 0 -0.23415170107486519 -0.02383223189148435 0 -0.21382842175670541 -0.047880655401242617 0 -0.22889271136107389 -0.044977285603966723 0 -0.22314028633354019 -0.032335972231348688 0 -0.22889271136107389 -0.044977285603966723 0 -0.24455711129970459 -0.046309230589777352 0 -0.23415170107486519 -0.02383223189148435 0 -0.24455711129970459 -0.046309230589777352 0 -0.23415170107486519 -0.02383223189148435 0 -0.2340675501775985 -0.059627210477885911 0 -0.22889271136107389 -0.044977285603966723 0 -0.24455711129970459 -0.046309230589777352 0 -0.24840234445316431 -0.068700814856515219 0 -0.2340675501775985 -0.059627210477885911 0 -0.24455711129970459 -0.046309230589777352 0 -0.22374629085002579 -0.00135523319319138 0 -0.23415170107486519 -0.02383223189148435 0 -0.24515485499866729 -0.0027749487305340739 0 -0.22374629085002579 -0.00135523319319138 0 -0.23415170107486519 -0.02383223189148435 0 -0.22374629085002579 -0.00135523319319138 0 -0.22011014561630629 -0.017031111294030048 0 -0.23415170107486519 -0.02383223189148435 0 -0.22314028633354019 -0.032335972231348688 0 -0.22011014561630629 -0.017031111294030048 0 -0.23415170107486519 -0.02383223189148435 0 -0.24455711129970459 -0.046309230589777352 0 -0.23415170107486519 -0.02383223189148435 0 -0.25542545571586239 -0.022905727970881029 0 -0.23415170107486519 -0.02383223189148435 0 -0.24515485499866729 -0.0027749487305340739 0 -0.25542545571586239 -0.022905727970881029 0 -0.24515485499866729 -0.0027749487305340739 0 -0.25542545571586239 -0.022905727970881029 0 -0.26589010801216828 -0.00086410655635342742 0 -0.25542545571586239 -0.022905727970881029 0 -0.27703334423545689 -0.019362643739171379 0 -0.26691884025891438 -0.040113195161350562 0 -0.25542545571586239 -0.022905727970881029 0 -0.27703334423545689 -0.019362643739171379 0 -0.26589010801216828 -0.00086410655635342742 0 -0.27703334423545689 -0.019362643739171379 0 -0.26589010801216828 -0.00086410655635342742 0 -0.28338472513160562 -0.0026069285523867558 0 -0.27703334423545689 -0.019362643739171379 0 -0.28338472513160562 -0.0026069285523867558 0 -0.29654947336098991 -0.01162801947164172 0 -0.28338472513160562 -0.0026069285523867558 0 -0.29654947336098991 -0.01162801947164172 0 -0.29767081851185972 0.0087763125949969108 0 -0.27703334423545689 -0.019362643739171379 0 -0.29654947336098991 -0.01162801947164172 0 -0.29603931300574893 -0.037052827335019772 0 -0.29654947336098991 -0.01162801947164172 0 -0.29603931300574893 -0.037052827335019772 0 -0.31367933965988049 -0.018215242769696539 0 -0.29603931300574893 -0.037052827335019772 0 -0.31367933965988049 -0.018215242769696539 0 -0.32034278747304668 -0.035554206826259163 0 -0.29654947336098991 -0.01162801947164172 0 -0.30940863170084509 -0.0032780389657020709 0 -0.29767081851185972 0.0087763125949969108 0 -0.29654947336098991 -0.01162801947164172 0 -0.30940863170084509 -0.0032780389657020709 0 -0.31367933965988049 -0.018215242769696539 0 -0.29763856481888251 -0.063864348799311077 0 -0.31379425430604202 -0.068681984435263535 0 -0.31341034273310808 -0.052491582071369149 0 -0.29603931300574893 -0.037052827335019772 0 -0.29763856481888251 -0.063864348799311077 0 -0.31341034273310808 -0.052491582071369149 0 -0.29603931300574893 -0.037052827335019772 0 -0.32034278747304668 -0.035554206826259163 0 -0.31341034273310808 -0.052491582071369149 0 -0.29603931300574893 -0.037052827335019772 0 -0.28273480949995677 -0.052770466508338269 0 -0.26691884025891438 -0.040113195161350562 0 -0.29603931300574893 -0.037052827335019772 0 -0.28273480949995677 -0.052770466508338269 0 -0.29763856481888251 -0.063864348799311077 0 -0.28273480949995677 -0.052770466508338269 0 -0.27034251991628161 -0.070051494737671666 0 -0.29763856481888251 -0.063864348799311077 0 -0.26691884025891438 -0.040113195161350562 0 -0.27034251991628161 -0.070051494737671666 0 -0.28273480949995677 -0.052770466508338269 0 -0.26691884025891438 -0.040113195161350562 0 -0.27034251991628161 -0.070051494737671666 0 -0.27703334423545689 -0.019362643739171379 0 -0.29603931300574893 -0.037052827335019772 0 -0.26691884025891438 -0.040113195161350562 0 -0.24455711129970459 -0.046309230589777352 0 -0.25542545571586239 -0.022905727970881029 0 -0.26691884025891438 -0.040113195161350562 0 -0.24455711129970459 -0.046309230589777352 0 -0.26691884025891438 -0.040113195161350562 0 -0.2575552039820162 -0.056293683836328698 0 -0.24840234445316431 -0.068700814856515219 0 -0.24455711129970459 -0.046309230589777352 0 -0.2575552039820162 -0.056293683836328698 0 -0.26691884025891438 -0.040113195161350562 0 -0.2575552039820162 -0.056293683836328698 0 -0.27034251991628161 -0.070051494737671666 0 -0.24840234445316431 -0.068700814856515219 0 -0.25929735342688731 -0.085200307732615069 0 -0.27034251991628161 -0.070051494737671666 0 -0.24840234445316431 -0.068700814856515219 0 -0.2575552039820162 -0.056293683836328698 0 -0.27034251991628161 -0.070051494737671666 0 -0.24840234445316431 -0.068700814856515219 0 -0.24475148776074529 -0.088602467865348047 0 -0.25929735342688731 -0.085200307732615069 0 -0.24475148776074529 -0.088602467865348047 0 -0.25929735342688731 -0.085200307732615069 0 -0.25922421543059693 -0.09865696688954774 0 -0.25929735342688731 -0.085200307732615069 0 -0.27034251991628161 -0.070051494737671666 0 -0.27376619957364828 -0.09998979431399288 0 -0.27034251991628161 -0.070051494737671666 0 -0.27376619957364828 -0.09998979431399288 0 -0.28570238219626531 -0.081927071556651881 0 -0.27034251991628161 -0.070051494737671666 0 -0.27376619957364828 -0.09998979431399288 0 -0.27376619957364828 -0.09998979431399288 0 -0.28570238219626531 -0.081927071556651881 0 -0.23877135263969931 -0.1172109420146107 0 -0.24683033879896449 -0.1030916860115632 0 -0.26595078901874608 -0.1118166571018091 0 -0.23877135263969931 -0.1172109420146107 0 -0.25747702370013342 -0.1246397914740016 0 -0.26595078901874608 -0.1118166571018091 0 -0.23877135263969931 -0.1172109420146107 0 -0.26595078901874608 -0.1118166571018091 0 -0.25747702370013342 -0.1246397914740016 0 -0.26595078901874608 -0.1118166571018091 0 -0.25747702370013342 -0.1246397914740016 0 -0.26595078901874608 -0.1118166571018091 0 -0.26822615213189738 -0.12263707084849459 0 -0.24683033879896449 -0.1030916860115632 0 -0.25922421543059693 -0.09865696688954774 0 -0.26595078901874608 -0.1118166571018091 0 -0.24683033879896449 -0.1030916860115632 0 -0.24475148776074529 -0.088602467865348047 0 -0.25922421543059693 -0.09865696688954774 0 -0.25929735342688731 -0.085200307732615069 0 -0.25922421543059693 -0.09865696688954774 0 -0.27376619957364828 -0.09998979431399288 0 -0.27376619957364828 -0.09998979431399288 0 -0.27491523246576832 -0.1100374898901169 0 -0.27376619957364828 -0.09998979431399288 0 -0.27491523246576832 -0.1100374898901169 0 -0.28721737913644968 -0.09665128699113755 0 -0.27376619957364828 -0.09998979431399288 0 -0.26595078901874608 -0.1118166571018091 0 -0.27491523246576832 -0.1100374898901169 0 -0.25922421543059693 -0.09865696688954774 0 -0.27376619957364828 -0.09998979431399288 0 -0.26595078901874608 -0.1118166571018091 0 -0.27376619957364828 -0.09998979431399288 0 -0.26595078901874608 -0.1118166571018091 0 -0.27491523246576832 -0.1100374898901169 0 -0.26822615213189738 -0.12263707084849459 0 -0.2774863255484053 -0.13252036289515551 0 -0.27491523246576832 -0.1100374898901169 0 -0.2774863255484053 -0.13252036289515551 0 -0.27491523246576832 -0.1100374898901169 0 -0.28886673655729572 -0.12085604388236321 0 -0.2774863255484053 -0.13252036289515551 0 -0.26595078901874608 -0.1118166571018091 0 -0.27491523246576832 -0.1100374898901169 0 -0.26822615213189738 -0.12263707084849459 0 -0.26595078901874608 -0.1118166571018091 0 -0.27491523246576832 -0.1100374898901169 0 -0.27491523246576832 -0.1100374898901169 0 -0.28886673655729572 -0.12085604388236321 0 -0.29752021638233511 -0.10555109355743809 0 -0.28721737913644968 -0.09665128699113755 0 -0.29752021638233511 -0.10555109355743809 0 -0.30418286506423198 -0.085750985637488397 0 -0.27491523246576832 -0.1100374898901169 0 -0.29752021638233511 -0.10555109355743809 0 -0.27491523246576832 -0.1100374898901169 0 -0.28721737913644968 -0.09665128699113755 0 -0.29752021638233511 -0.10555109355743809 0 -0.29752021638233511 -0.10555109355743809 0 -0.30418286506423198 -0.085750985637488397 0 -0.3201252002989019 -0.10106469722475959 0 -0.29752021638233511 -0.10555109355743809 0 -0.3122688679725657 -0.1137974600644929 0 -0.3201252002989019 -0.10106469722475959 0 -0.29752021638233511 -0.10555109355743809 0 -0.3201252002989019 -0.10106469722475959 0 -0.28886673655729572 -0.12085604388236321 0 -0.29752021638233511 -0.10555109355743809 0 -0.3064908388146208 -0.12802704343609389 0 -0.29752021638233511 -0.10555109355743809 0 -0.3122688679725657 -0.1137974600644929 0 -0.3064908388146208 -0.12802704343609389 0 -0.27034251991628161 -0.070051494737671666 0 -0.28570238219626531 -0.081927071556651881 0 -0.29763856481888251 -0.063864348799311077 0 -0.28570238219626531 -0.081927071556651881 0 -0.30418286506423198 -0.085750985637488397 0 -0.29763856481888251 -0.063864348799311077 0 -0.28570238219626531 -0.081927071556651881 0 -0.29763856481888251 -0.063864348799311077 0 -0.27376619957364828 -0.09998979431399288 0 -0.28721737913644968 -0.09665128699113755 0 -0.28570238219626531 -0.081927071556651881 0 -0.28721737913644968 -0.09665128699113755 0 -0.28570238219626531 -0.081927071556651881 0 -0.30418286506423198 -0.085750985637488397 0 -0.30418286506423198 -0.085750985637488397 0 -0.29763856481888251 -0.063864348799311077 0 -0.31379425430604202 -0.068681984435263535 0 -0.30418286506423198 -0.085750985637488397 0 -0.31379425430604202 -0.068681984435263535 0 -0.32737354785936568 -0.07931605368545426 0 -0.31379425430604202 -0.068681984435263535 0 -0.32737354785936568 -0.07931605368545426 0 -0.32636595105462202 -0.061986951982694813 0 -0.30418286506423198 -0.085750985637488397 0 -0.32737354785936568 -0.07931605368545426 0 -0.3201252002989019 -0.10106469722475959 0 -0.32737354785936568 -0.07931605368545426 0 -0.33767921074406959 -0.096496321763860166 0 -0.34781493352986959 -0.0840313472121412 0 -0.32737354785936568 -0.07931605368545426 0 -0.3201252002989019 -0.10106469722475959 0 -0.33767921074406959 -0.096496321763860166 0 -0.32737354785936568 -0.07931605368545426 0 -0.34037444625853303 -0.063904611645408477 0 -0.34781493352986959 -0.0840313472121412 0 -0.32737354785936568 -0.07931605368545426 0 -0.34037444625853303 -0.063904611645408477 0 -0.32636595105462202 -0.061986951982694813 0 -0.3122688679725657 -0.1137974600644929 0 -0.32493921639440521 -0.1205470060396799 0 -0.3201252002989019 -0.10106469722475959 0 -0.32493921639440521 -0.1205470060396799 0 -0.3201252002989019 -0.10106469722475959 0 -0.33515782854877979 -0.11078965695055951 0 -0.3122688679725657 -0.1137974600644929 0 -0.32493921639440521 -0.1205470060396799 0 -0.3064908388146208 -0.12802704343609389 0 -0.3201252002989019 -0.10106469722475959 0 -0.33767921074406959 -0.096496321763860166 0 -0.33515782854877979 -0.11078965695055951 0 -0.33767921074406959 -0.096496321763860166 0 -0.33515782854877979 -0.11078965695055951 0 -0.34523465363160849 -0.106423117817027 0 -0.33515782854877979 -0.11078965695055951 0 -0.34620028680824322 -0.1176759232222343 0 -0.34523465363160849 -0.106423117817027 0 -0.33760971541300278 -0.1245016878619358 0 -0.34476203176841003 -0.1243411123146706 0 -0.34620028680824322 -0.1176759232222343 0 -0.33515782854877979 -0.11078965695055951 0 -0.33760971541300278 -0.1245016878619358 0 -0.34620028680824322 -0.1176759232222343 0 -0.32493921639440521 -0.1205470060396799 0 -0.33515782854877979 -0.11078965695055951 0 -0.33760971541300278 -0.1245016878619358 0 -0.35775473167951849 -0.1197053317501308 0 -0.34899037896186308 -0.12497698397748901 0 -0.34620028680824322 -0.1176759232222343 0 -0.34899037896186308 -0.12497698397748901 0 -0.34476203176841003 -0.1243411123146706 0 -0.34620028680824322 -0.1176759232222343 0 -0.35775473167951849 -0.1197053317501308 0 -0.34620028680824322 -0.1176759232222343 0 -0.35026532020072992 -0.1112056101010872 0 -0.34620028680824322 -0.1176759232222343 0 -0.35026532020072992 -0.1112056101010872 0 -0.34523465363160849 -0.106423117817027 0 -0.35775473167951849 -0.1197053317501308 0 -0.35026532020072992 -0.1112056101010872 0 -0.35646740340111671 -0.10566215915406479 0 -0.35646740340111671 -0.10566215915406479 0 -0.34523465363160849 -0.106423117817027 0 -0.35036910059589238 -0.097353057693219641 0 -0.35026532020072992 -0.1112056101010872 0 -0.35646740340111671 -0.10566215915406479 0 -0.34523465363160849 -0.106423117817027 0 -0.33767921074406959 -0.096496321763860166 0 -0.34523465363160849 -0.106423117817027 0 -0.35036910059589238 -0.097353057693219641 0 -0.35646740340111671 -0.10566215915406479 0 -0.35036910059589238 -0.097353057693219641 0 -0.36549061367034957 -0.096123154745144837 0 -0.36549061367034957 -0.096123154745144837 0 -0.37270595989878241 -0.1009059678272784 0 -0.37238229752391738 -0.093521787417941121 0 -0.36549061367034957 -0.096123154745144837 0 -0.37270595989878241 -0.1009059678272784 0 -0.36578658404670827 -0.10502980317578189 0 -0.37270595989878241 -0.1009059678272784 0 -0.36578658404670827 -0.10502980317578189 0 -0.37478081018170961 -0.1102435659632672 0 -0.35646740340111671 -0.10566215915406479 0 -0.36549061367034957 -0.096123154745144837 0 -0.36578658404670827 -0.10502980317578189 0 -0.35775473167951849 -0.1197053317501308 0 -0.36578658404670827 -0.10502980317578189 0 -0.37478081018170961 -0.1102435659632672 0 -0.35775473167951849 -0.1197053317501308 0 -0.3729233332471541 -0.1232647193754889 0 -0.37478081018170961 -0.1102435659632672 0 -0.35775473167951849 -0.1197053317501308 0 -0.35646740340111671 -0.10566215915406479 0 -0.36578658404670827 -0.10502980317578189 0 -0.34037444625853303 -0.063904611645408477 0 -0.35815968048943592 -0.068996317648508151 0 -0.34781493352986959 -0.0840313472121412 0 -0.35036910059589238 -0.097353057693219641 0 -0.36549061367034957 -0.096123154745144837 0 -0.34781493352986959 -0.0840313472121412 0 -0.36549061367034957 -0.096123154745144837 0 -0.35815968048943592 -0.068996317648508151 0 -0.34781493352986959 -0.0840313472121412 0 -0.33767921074406959 -0.096496321763860166 0 -0.35036910059589238 -0.097353057693219641 0 -0.34781493352986959 -0.0840313472121412 0 -0.36549061367034957 -0.096123154745144837 0 -0.37003940622229903 -0.07849378962262564 0 -0.37238229752391738 -0.093521787417941121 0 -0.36549061367034957 -0.096123154745144837 0 -0.35815968048943592 -0.068996317648508151 0 -0.36549061367034957 -0.096123154745144837 0 -0.35815968048943592 -0.068996317648508151 0 -0.37003940622229903 -0.07849378962262564 0 -0.35815968048943592 -0.068996317648508151 0 -0.37003940622229903 -0.07849378962262564 0 -0.37143707925838337 -0.054045996913777018 0 -0.37003940622229903 -0.07849378962262564 0 -0.37143707925838337 -0.054045996913777018 0 -0.3829241277523297 -0.07041209373124431 0 -0.35815968048943592 -0.068996317648508151 0 -0.37143707925838337 -0.054045996913777018 0 -0.35082874730852209 -0.041869480551871389 0 -0.34037444625853303 -0.063904611645408477 0 -0.35815968048943592 -0.068996317648508151 0 -0.35082874730852209 -0.041869480551871389 0 -0.35815968048943592 -0.068996317648508151 0 -0.35082874730852209 -0.041869480551871389 0 -0.35082874730852209 -0.041869480551871389 0 -0.3669060680745968 -0.036215440111507277 0 -0.35903398233550649 -0.02778263478593971 0 -0.37143707925838337 -0.054045996913777018 0 -0.3669060680745968 -0.036215440111507277 0 -0.38451565969430218 -0.033762290754434182 0 -0.3669060680745968 -0.036215440111507277 0 -0.37014126306894879 -0.025198802937951251 0 -0.38451565969430218 -0.033762290754434182 0 -0.37143707925838337 -0.054045996913777018 0 -0.35082874730852209 -0.041869480551871389 0 -0.3669060680745968 -0.036215440111507277 0 -0.37014126306894879 -0.025198802937951251 0 -0.36271490715898719 -0.01610060174420597 0 -0.3789387001305804 -0.01851959017254615 0 -0.37014126306894879 -0.025198802937951251 0 -0.36271490715898719 -0.01610060174420597 0 -0.35903398233550649 -0.02778263478593971 0 -0.3669060680745968 -0.036215440111507277 0 -0.37014126306894879 -0.025198802937951251 0 -0.35903398233550649 -0.02778263478593971 0 -0.36271490715898719 -0.01610060174420597 0 -0.37829039775972773 -0.01083887389780739 0 -0.3789387001305804 -0.01851959017254615 0 -0.36405253737196008 -0.0035712873924979732 0 -0.37829039775972773 -0.01083887389780739 0 -0.3773564386252769 0.0002261405867970603 0 -0.36271490715898719 -0.01610060174420597 0 -0.36405253737196008 -0.0035712873924979732 0 -0.37829039775972773 -0.01083887389780739 0 -0.36271490715898719 -0.01610060174420597 0 -0.37829039775972773 -0.01083887389780739 0 -0.36271490715898719 -0.01610060174420597 0 -0.36405253737196008 -0.0035712873924979732 0 -0.3532279153870489 -0.01370144544992574 0 -0.36405253737196008 -0.0035712873924979732 0 -0.3532279153870489 -0.01370144544992574 0 -0.35220590029562848 0.0033345073516840001 0 -0.3532279153870489 -0.01370144544992574 0 -0.346274627689245 -0.003181346978018551 0 -0.35220590029562848 0.0033345073516840001 0 -0.3532279153870489 -0.01370144544992574 0 -0.346274627689245 -0.003181346978018551 0 -0.34349781412760833 -0.014742643455234621 0 -0.35082874730852209 -0.041869480551871389 0 -0.35903398233550649 -0.02778263478593971 0 -0.34713941655824648 -0.021362329590604291 0 -0.35082874730852209 -0.041869480551871389 0 -0.34713941655824648 -0.021362329590604291 0 -0.34349781412760833 -0.014742643455234621 0 -0.35082874730852209 -0.041869480551871389 0 -0.34349781412760833 -0.014742643455234621 0 -0.36271490715898719 -0.01610060174420597 0 -0.3532279153870489 -0.01370144544992574 0 -0.34713941655824648 -0.021362329590604291 0 -0.36271490715898719 -0.01610060174420597 0 -0.34713941655824648 -0.021362329590604291 0 -0.36271490715898719 -0.01610060174420597 0 -0.35903398233550649 -0.02778263478593971 0 -0.34713941655824648 -0.021362329590604291 0 -0.3532279153870489 -0.01370144544992574 0 -0.34713941655824648 -0.021362329590604291 0 -0.34349781412760833 -0.014742643455234621 0 -0.35082874730852209 -0.041869480551871389 0 -0.34349781412760833 -0.014742643455234621 0 -0.33544051731200392 -0.031789404628462518 0 -0.32837058424234877 -0.021198996640311791 0 -0.34349781412760833 -0.014742643455234621 0 -0.33544051731200392 -0.031789404628462518 0 -0.34349781412760833 -0.014742643455234621 0 -0.33616688094669461 0.01238419364140216 0 -0.346274627689245 -0.003181346978018551 0 -0.34349781412760833 -0.014742643455234621 0 -0.33616688094669461 0.01238419364140216 0 -0.34349781412760833 -0.014742643455234621 0 -0.33056872009283023 -0.0011461246091495291 0 -0.33616688094669461 0.01238419364140216 0 -0.32837058424234877 -0.021198996640311791 0 -0.34349781412760833 -0.014742643455234621 0 -0.33144552808893779 -0.010393173027330021 0 -0.34349781412760833 -0.014742643455234621 0 -0.33144552808893779 -0.010393173027330021 0 -0.33056872009283023 -0.0011461246091495291 0 -0.30940863170084509 -0.0032780389657020709 0 -0.32216129791980902 -0.0069344387365319659 0 -0.31720468743479141 0.0090564158681312023 0 -0.33144552808893779 -0.010393173027330021 0 -0.33056872009283023 -0.0011461246091495291 0 -0.32216129791980902 -0.0069344387365319659 0 -0.32837058424234877 -0.021198996640311791 0 -0.32216129791980902 -0.0069344387365319659 0 -0.31367933965988049 -0.018215242769696539 0 -0.32837058424234877 -0.021198996640311791 0 -0.33144552808893779 -0.010393173027330021 0 -0.32216129791980902 -0.0069344387365319659 0 -0.30940863170084509 -0.0032780389657020709 0 -0.32216129791980902 -0.0069344387365319659 0 -0.31367933965988049 -0.018215242769696539 0 -0.32837058424234877 -0.021198996640311791 0 -0.31367933965988049 -0.018215242769696539 0 -0.32034278747304668 -0.035554206826259163 0 -0.32837058424234877 -0.021198996640311791 0 -0.32034278747304668 -0.035554206826259163 0 -0.33544051731200392 -0.031789404628462518 0 -0.32034278747304668 -0.035554206826259163 0 -0.31341034273310808 -0.052491582071369149 0 -0.33170381730938292 -0.04722751879178104 0 -0.31379425430604202 -0.068681984435263535 0 -0.31341034273310808 -0.052491582071369149 0 -0.32636595105462202 -0.061986951982694813 0 -0.31341034273310808 -0.052491582071369149 0 -0.32636595105462202 -0.061986951982694813 0 -0.33170381730938292 -0.04722751879178104 0 -0.34037444625853303 -0.063904611645408477 0 -0.35082874730852209 -0.041869480551871389 0 -0.33170381730938292 -0.04722751879178104 0 -0.34037444625853303 -0.063904611645408477 0 -0.32636595105462202 -0.061986951982694813 0 -0.33170381730938292 -0.04722751879178104 0 -0.35082874730852209 -0.041869480551871389 0 -0.33170381730938292 -0.04722751879178104 0 -0.33544051731200392 -0.031789404628462518 0 -0.32034278747304668 -0.035554206826259163 0 -0.33170381730938292 -0.04722751879178104 0 -0.33544051731200392 -0.031789404628462518 0 -0.31481979503186752 -0.25530384662369959 0 -0.29830836222957913 -0.25480462323278891 0 -0.30937804741887132 -0.23849672079600909 0 -0.29830836222957913 -0.25480462323278891 0 -0.30937804741887132 -0.23849672079600909 0 -0.2923427945344117 -0.23944445734902181 0 -0.30170609914229329 -0.21708573430031861 0 -0.32216203040443309 -0.2327724408226392 0 -0.30937804741887132 -0.23849672079600909 0 -0.29813438643617218 -0.2247800214283058 0 -0.28623551373560929 -0.22344776779967651 0 -0.30603464445857942 -0.22809495369386679 0 -0.30170609914229329 -0.21708573430031861 0 -0.32216203040443309 -0.2327724408226392 0 -0.30937804741887132 -0.23849672079600909 0 -0.28623551373560929 -0.22344776779967651 0 -0.30603464445857942 -0.22809495369386679 0 -0.29813438643617218 -0.2247800214283058 0 -0.30170609914229329 -0.21708573430031861 0 -0.30937804741887132 -0.23849672079600909 0 -0.30603464445857942 -0.22809495369386679 0 -0.29813438643617218 -0.2247800214283058 0 -0.28623551373560929 -0.22344776779967651 0 -0.28292596711372869 -0.23403879748136411 0 -0.2923427945344117 -0.23944445734902181 0 -0.30937804741887132 -0.23849672079600909 0 -0.28623551373560929 -0.22344776779967651 0 -0.2923427945344117 -0.23944445734902181 0 -0.29813438643617218 -0.2247800214283058 0 -0.28835575609056707 -0.21688317346619429 0 -0.30170609914229329 -0.21708573430031861 0 -0.29813438643617218 -0.2247800214283058 0 -0.28623551373560929 -0.22344776779967651 0 -0.28835575609056707 -0.21688317346619429 0 -0.28623551373560929 -0.22344776779967651 0 -0.28292596711372869 -0.23403879748136411 0 -0.27855711684324291 -0.22750918174363641 0 -0.29830836222957913 -0.25480462323278891 0 -0.2923427945344117 -0.23944445734902181 0 -0.28239031025003042 -0.24949188983366319 0 -0.28292596711372869 -0.23403879748136411 0 -0.2923427945344117 -0.23944445734902181 0 -0.28239031025003042 -0.24949188983366319 0 -0.28292596711372869 -0.23403879748136411 0 -0.28239031025003042 -0.24949188983366319 0 -0.27187338833260388 -0.23305721159728429 0 -0.2513037376167887 -0.25422011069476208 0 -0.28239031025003042 -0.24949188983366319 0 -0.27187338833260388 -0.23305721159728429 0 -0.2513037376167887 -0.25422011069476208 0 -0.27187338833260388 -0.23305721159728429 0 -0.2513037376167887 -0.25422011069476208 0 -0.24401336650464689 -0.23933744205786109 0 -0.27187338833260388 -0.23305721159728429 0 -0.25452981405099478 -0.22652933260667929 0 -0.26291462864114928 -0.22049904801062131 0 -0.27187338833260388 -0.23305721159728429 0 -0.24401336650464689 -0.23933744205786109 0 -0.25452981405099478 -0.22652933260667929 0 -0.27187338833260388 -0.23305721159728429 0 -0.2444410553328128 -0.22291988098547891 0 -0.25452981405099478 -0.22652933260667929 0 -0.25415998060614797 -0.2150503390504751 0 -0.25452981405099478 -0.22652933260667929 0 -0.26291462864114928 -0.22049904801062131 0 -0.25415998060614797 -0.2150503390504751 0 -0.26291462864114928 -0.22049904801062131 0 -0.27319359819102951 -0.21949295009622041 0 -0.27187338833260388 -0.23305721159728429 0 -0.27319359819102951 -0.21949295009622041 0 -0.27187338833260388 -0.23305721159728429 0 -0.27855711684324291 -0.22750918174363641 0 -0.28292596711372869 -0.23403879748136411 0 -0.27187338833260388 -0.23305721159728429 0 -0.27855711684324291 -0.22750918174363641 0 -0.28623551373560929 -0.22344776779967651 0 -0.27319359819102951 -0.21949295009622041 0 -0.27855711684324291 -0.22750918174363641 0 -0.28623551373560929 -0.22344776779967651 0 -0.27985302964471082 -0.21220576591016771 0 -0.27231219689108688 -0.21029724441992659 0 -0.28623551373560929 -0.22344776779967651 0 -0.26309298005234721 -0.2083988148033438 0 -0.28623551373560929 -0.22344776779967651 0 -0.27231219689108688 -0.21029724441992659 0 -0.26309298005234721 -0.2083988148033438 0 -0.28623551373560929 -0.22344776779967651 0 -0.27319359819102951 -0.21949295009622041 0 -0.26309298005234721 -0.2083988148033438 0 -0.27595510766068099 -0.2066587893094422 0 -0.27040503622677292 -0.20273311912967651 0 -0.28125016788015161 -0.2013990277780007 0 -0.27985302964471082 -0.21220576591016771 0 -0.27595510766068099 -0.2066587893094422 0 -0.28125016788015161 -0.2013990277780007 0 -0.27985302964471082 -0.21220576591016771 0 -0.27595510766068099 -0.2066587893094422 0 -0.27231219689108688 -0.21029724441992659 0 -0.27231219689108688 -0.21029724441992659 0 -0.26626564295611321 -0.2047266001185245 0 -0.26309298005234721 -0.2083988148033438 0 -0.27231219689108688 -0.21029724441992659 0 -0.26626564295611321 -0.2047266001185245 0 -0.27040503622677292 -0.20273311912967651 0 -0.27595510766068099 -0.2066587893094422 0 -0.27231219689108688 -0.21029724441992659 0 -0.27040503622677292 -0.20273311912967651 0 -0.27319359819102951 -0.21949295009622041 0 -0.26761244713329019 -0.2154836407559621 0 -0.26309298005234721 -0.2083988148033438 0 -0.26291462864114928 -0.22049904801062131 0 -0.27319359819102951 -0.21949295009622041 0 -0.26761244713329019 -0.2154836407559621 0 -0.26291462864114928 -0.22049904801062131 0 -0.26761244713329019 -0.2154836407559621 0 -0.26214875071744592 -0.21484392940481209 0 -0.26214875071744592 -0.21484392940481209 0 -0.25838551986051772 -0.21202038676326579 0 -0.25415998060614797 -0.2150503390504751 0 -0.26291462864114928 -0.22049904801062131 0 -0.26214875071744592 -0.21484392940481209 0 -0.25415998060614797 -0.2150503390504751 0 -0.26214875071744592 -0.21484392940481209 0 -0.25838551986051772 -0.21202038676326579 0 -0.2632471222750789 -0.21017631116402241 0 -0.26761244713329019 -0.2154836407559621 0 -0.26508348007574661 -0.21311481453593711 0 -0.26309298005234721 -0.2083988148033438 0 -0.26761244713329019 -0.2154836407559621 0 -0.26214875071744592 -0.21484392940481209 0 -0.26508348007574661 -0.21311481453593711 0 -0.26214875071744592 -0.21484392940481209 0 -0.26508348007574661 -0.21311481453593711 0 -0.2632471222750789 -0.21017631116402241 0 -0.26508348007574661 -0.21311481453593711 0 -0.26309298005234721 -0.2083988148033438 0 -0.2632471222750789 -0.21017631116402241 0 -0.25838551986051772 -0.21202038676326579 0 -0.2632471222750789 -0.21017631116402241 0 -0.25181413244388717 -0.2057188049242071 0 -0.26309298005234721 -0.2083988148033438 0 -0.2632471222750789 -0.21017631116402241 0 -0.26164424075322651 -0.20647598680357701 0 -0.26626564295611321 -0.2047266001185245 0 -0.26309298005234721 -0.2083988148033438 0 -0.26246222211992148 -0.2040163910262669 0 -0.26309298005234721 -0.2083988148033438 0 -0.26246222211992148 -0.2040163910262669 0 -0.26164424075322651 -0.20647598680357701 0 -0.2632471222750789 -0.21017631116402241 0 -0.26164424075322651 -0.20647598680357701 0 -0.25777463856555821 -0.20331243022067469 0 -0.26246222211992148 -0.2040163910262669 0 -0.26164424075322651 -0.20647598680357701 0 -0.25777463856555821 -0.20331243022067469 0 -0.24787204785012509 -0.19605476068974309 0 -0.2632471222750789 -0.21017631116402241 0 -0.25777463856555821 -0.20331243022067469 0 -0.25838551986051772 -0.21202038676326579 0 -0.25181413244388717 -0.2057188049242071 0 -0.25341146479960591 -0.21045688949615671 0 -0.2492862262878705 -0.20903802724667889 0 -0.25181413244388717 -0.2057188049242071 0 -0.25341146479960591 -0.21045688949615671 0 -0.2492862262878705 -0.20903802724667889 0 -0.25341146479960591 -0.21045688949615671 0 -0.25415998060614797 -0.2150503390504751 0 -0.25838551986051772 -0.21202038676326579 0 -0.25341146479960591 -0.21045688949615671 0 -0.25415998060614797 -0.2150503390504751 0 -0.23887440550560221 -0.19326099294568441 0 -0.2632471222750789 -0.21017631116402241 0 -0.25181413244388717 -0.2057188049242071 0 -0.23887440550560221 -0.19326099294568441 0 -0.2632471222750789 -0.21017631116402241 0 -0.24975075141363859 -0.1878229649227425 0 -0.24787204785012509 -0.19605476068974309 0 -0.25581678965670379 -0.1949652054556722 0 -0.24975075141363859 -0.1878229649227425 0 -0.25581678965670379 -0.1949652054556722 0 -0.263779610529005 -0.18800166627746989 0 -0.24787204785012509 -0.19605476068974309 0 -0.25777463856555821 -0.20331243022067469 0 -0.25581678965670379 -0.1949652054556722 0 -0.25777463856555821 -0.20331243022067469 0 -0.25581678965670379 -0.1949652054556722 0 -0.26305577949043718 -0.1981874312134089 0 -0.26246222211992148 -0.2040163910262669 0 -0.25777463856555821 -0.20331243022067469 0 -0.26305577949043718 -0.1981874312134089 0 -0.26626564295611321 -0.2047266001185245 0 -0.26246222211992148 -0.2040163910262669 0 -0.26305577949043718 -0.1981874312134089 0 -0.25581678965670379 -0.1949652054556722 0 -0.26305577949043718 -0.1981874312134089 0 -0.263779610529005 -0.18800166627746989 0 -0.263779610529005 -0.18800166627746989 0 -0.28125016788015161 -0.2013990277780007 0 -0.263779610529005 -0.18800166627746989 0 -0.28125016788015161 -0.2013990277780007 0 -0.27456917952956672 -0.1868401490619776 0 -0.263779610529005 -0.18800166627746989 0 -0.27040503622677292 -0.20273311912967651 0 -0.28125016788015161 -0.2013990277780007 0 -0.26305577949043718 -0.1981874312134089 0 -0.263779610529005 -0.18800166627746989 0 -0.27040503622677292 -0.20273311912967651 0 -0.26626564295611321 -0.2047266001185245 0 -0.26305577949043718 -0.1981874312134089 0 -0.27040503622677292 -0.20273311912967651 0 -0.28125016788015161 -0.2013990277780007 0 -0.27456917952956672 -0.1868401490619776 0 -0.2932960306470801 -0.194948351812784 0 -0.28125016788015161 -0.2013990277780007 0 -0.27456917952956672 -0.1868401490619776 0 -0.2932960306470801 -0.194948351812784 0 -0.27456917952956672 -0.1868401490619776 0 -0.2932960306470801 -0.194948351812784 0 -0.28125016788015161 -0.2013990277780007 0 -0.29943249376480457 -0.20528328652049849 0 -0.2932960306470801 -0.194948351812784 0 -0.28377391390633888 -0.187502055901201 0 -0.30580523938886028 -0.18365948665679441 0 -0.2932960306470801 -0.194948351812784 0 -0.28377391390633888 -0.187502055901201 0 -0.27456917952956672 -0.1868401490619776 0 -0.27985302964471082 -0.21220576591016771 0 -0.28125016788015161 -0.2013990277780007 0 -0.28835575609056707 -0.21688317346619429 0 -0.28125016788015161 -0.2013990277780007 0 -0.30170609914229329 -0.21708573430031861 0 -0.28125016788015161 -0.2013990277780007 0 -0.29943249376480457 -0.20528328652049849 0 -0.30170609914229329 -0.21708573430031861 0 -0.28125016788015161 -0.2013990277780007 0 -0.28835575609056707 -0.21688317346619429 0 -0.30170609914229329 -0.21708573430031861 0 -0.28125016788015161 -0.2013990277780007 0 -0.28835575609056707 -0.21688317346619429 0 -0.28623551373560929 -0.22344776779967651 0 -0.27985302964471082 -0.21220576591016771 0 -0.28835575609056707 -0.21688317346619429 0 -0.29943249376480457 -0.20528328652049849 0 -0.30170609914229329 -0.21708573430031861 0 -0.30618623841932868 -0.210102471354046 0 -0.30170609914229329 -0.21708573430031861 0 -0.30618623841932868 -0.210102471354046 0 -0.31704426333126162 -0.21743579992059009 0 -0.30618623841932868 -0.210102471354046 0 -0.31202288176459397 -0.2030565545635889 0 -0.31525508362092958 -0.2089790274711181 0 -0.29943249376480457 -0.20528328652049849 0 -0.30618623841932868 -0.210102471354046 0 -0.31202288176459397 -0.2030565545635889 0 -0.2932960306470801 -0.194948351812784 0 -0.29943249376480457 -0.20528328652049849 0 -0.31202288176459397 -0.2030565545635889 0 -0.2932960306470801 -0.194948351812784 0 -0.31202288176459397 -0.2030565545635889 0 -0.30580523938886028 -0.18365948665679441 0 -0.2932960306470801 -0.194948351812784 0 -0.31202288176459397 -0.2030565545635889 0 -0.30580523938886028 -0.18365948665679441 0 -0.30075814266915663 -0.16798770305957789 0 -0.32405739725924071 -0.16617253768418019 0 -0.30075814266915663 -0.16798770305957789 0 -0.30586880357555529 -0.1516639149810301 0 -0.32405739725924071 -0.16617253768418019 0 -0.28392491546972548 -0.16095767595013469 0 -0.30586880357555529 -0.1516639149810301 0 -0.30075814266915663 -0.16798770305957789 0 -0.28392491546972548 -0.16095767595013469 0 -0.30586880357555529 -0.1516639149810301 0 -0.28262851171367498 -0.17748610890523309 0 -0.28005741863103989 -0.1550032359001943 0 -0.30075814266915663 -0.16798770305957789 0 -0.28392491546972548 -0.16095767595013469 0 -0.28262851171367498 -0.17748610890523309 0 -0.28392491546972548 -0.16095767595013469 0 -0.28262851171367498 -0.17748610890523309 0 -0.28005741863103989 -0.1550032359001943 0 -0.28377391390633888 -0.187502055901201 0 -0.30580523938886028 -0.18365948665679441 0 -0.28262851171367498 -0.17748610890523309 0 -0.30580523938886028 -0.18365948665679441 0 -0.30075814266915663 -0.16798770305957789 0 -0.28262851171367498 -0.17748610890523309 0 -0.30580523938886028 -0.18365948665679441 0 -0.28262851171367498 -0.17748610890523309 0 -0.28377391390633888 -0.187502055901201 0 -0.28262851171367498 -0.17748610890523309 0 -0.28377391390633888 -0.187502055901201 0 -0.28262851171367498 -0.17748610890523309 0 -0.27456917952956672 -0.1868401490619776 0 -0.28262851171367498 -0.17748610890523309 0 -0.26855663443189443 -0.17373790875586209 0 -0.28262851171367498 -0.17748610890523309 0 -0.27456917952956672 -0.1868401490619776 0 -0.26855663443189443 -0.17373790875586209 0 -0.263779610529005 -0.18800166627746989 0 -0.27456917952956672 -0.1868401490619776 0 -0.26043911635371281 -0.18072222691945761 0 -0.27456917952956672 -0.1868401490619776 0 -0.26043911635371281 -0.18072222691945761 0 -0.27456917952956672 -0.1868401490619776 0 -0.26855663443189443 -0.17373790875586209 0 -0.26043911635371281 -0.18072222691945761 0 -0.27456917952956672 -0.1868401490619776 0 -0.26855663443189443 -0.17373790875586209 0 -0.26855663443189443 -0.17373790875586209 0 -0.26043911635371281 -0.18072222691945761 0 -0.25064724413798678 -0.16896754457270469 0 -0.24975075141363859 -0.1878229649227425 0 -0.2463090531778579 -0.17460430477693969 0 -0.263779610529005 -0.18800166627746989 0 -0.2463090531778579 -0.17460430477693969 0 -0.263779610529005 -0.18800166627746989 0 -0.26043911635371281 -0.18072222691945761 0 -0.2463090531778579 -0.17460430477693969 0 -0.263779610529005 -0.18800166627746989 0 -0.2463090531778579 -0.17460430477693969 0 -0.26043911635371281 -0.18072222691945761 0 -0.25064724413798678 -0.16896754457270469 0 -0.2463090531778579 -0.17460430477693969 0 -0.26043911635371281 -0.18072222691945761 0 -0.26855663443189443 -0.17373790875586209 0 -0.25064724413798678 -0.16896754457270469 0 -0.26855663443189443 -0.17373790875586209 0 -0.25064724413798678 -0.16896754457270469 0 -0.261480059089096 -0.15831698647096651 0 -0.25064724413798678 -0.16896754457270469 0 -0.261480059089096 -0.15831698647096651 0 -0.25160325676148348 -0.15351523439905521 0 -0.26855663443189443 -0.17373790875586209 0 -0.261480059089096 -0.15831698647096651 0 -0.261480059089096 -0.15831698647096651 0 -0.2718781324307436 -0.1628795301779879 0 -0.27067107368596222 -0.1556074111002233 0 -0.28262851171367498 -0.17748610890523309 0 -0.2718781324307436 -0.1628795301779879 0 -0.28005741863103989 -0.1550032359001943 0 -0.26855663443189443 -0.17373790875586209 0 -0.261480059089096 -0.15831698647096651 0 -0.2718781324307436 -0.1628795301779879 0 -0.28262851171367498 -0.17748610890523309 0 -0.26855663443189443 -0.17373790875586209 0 -0.2718781324307436 -0.1628795301779879 0 -0.2718781324307436 -0.1628795301779879 0 -0.28005741863103989 -0.1550032359001943 0 -0.27067107368596222 -0.1556074111002233 0 -0.28005741863103989 -0.1550032359001943 0 -0.2774863255484053 -0.13252036289515551 0 -0.28005741863103989 -0.1550032359001943 0 -0.26926868459296938 -0.14622989185174459 0 -0.2774863255484053 -0.13252036289515551 0 -0.261480059089096 -0.15831698647096651 0 -0.26926868459296938 -0.14622989185174459 0 -0.27067107368596222 -0.1556074111002233 0 -0.28005741863103989 -0.1550032359001943 0 -0.26926868459296938 -0.14622989185174459 0 -0.27067107368596222 -0.1556074111002233 0 -0.261480059089096 -0.15831698647096651 0 -0.26926868459296938 -0.14622989185174459 0 -0.26194648496724421 -0.1424405901519217 0 -0.261480059089096 -0.15831698647096651 0 -0.26194648496724421 -0.1424405901519217 0 -0.2544034837462984 -0.14289606418607029 0 -0.261480059089096 -0.15831698647096651 0 -0.2544034837462984 -0.14289606418607029 0 -0.26926868459296938 -0.14622989185174459 0 -0.26194648496724421 -0.1424405901519217 0 -0.26530138992643498 -0.1341710528813905 0 -0.2467587579232759 -0.14527012187518071 0 -0.2544034837462984 -0.14289606418607029 0 -0.25160325676148348 -0.15351523439905521 0 -0.2467587579232759 -0.14527012187518071 0 -0.24900325838152149 -0.1374629258461946 0 -0.2544034837462984 -0.14289606418607029 0 -0.261480059089096 -0.15831698647096651 0 -0.2544034837462984 -0.14289606418607029 0 -0.25160325676148348 -0.15351523439905521 0 -0.24900325838152149 -0.1374629258461946 0 -0.25747702370013342 -0.1246397914740016 0 -0.24900325838152149 -0.1374629258461946 0 -0.25747702370013342 -0.1246397914740016 0 -0.25762632814432651 -0.13632208490791581 0 -0.24900325838152149 -0.1374629258461946 0 -0.2544034837462984 -0.14289606418607029 0 -0.25762632814432651 -0.13632208490791581 0 -0.26194648496724421 -0.1424405901519217 0 -0.25762632814432651 -0.13632208490791581 0 -0.26530138992643498 -0.1341710528813905 0 -0.26194648496724421 -0.1424405901519217 0 -0.2544034837462984 -0.14289606418607029 0 -0.25762632814432651 -0.13632208490791581 0 -0.25747702370013342 -0.1246397914740016 0 -0.26822615213189738 -0.12263707084849459 0 -0.26530138992643498 -0.1341710528813905 0 -0.25747702370013342 -0.1246397914740016 0 -0.25762632814432651 -0.13632208490791581 0 -0.26530138992643498 -0.1341710528813905 0 -0.26822615213189738 -0.12263707084849459 0 -0.26530138992643498 -0.1341710528813905 0 -0.2774863255484053 -0.13252036289515551 0 -0.26926868459296938 -0.14622989185174459 0 -0.26530138992643498 -0.1341710528813905 0 -0.2774863255484053 -0.13252036289515551 0 -0.28886673655729572 -0.12085604388236321 0 -0.2774863255484053 -0.13252036289515551 0 -0.29153592929170302 -0.1423021292224706 0 -0.28886673655729572 -0.12085604388236321 0 -0.29153592929170302 -0.1423021292224706 0 -0.3064908388146208 -0.12802704343609389 0 -0.28005741863103989 -0.1550032359001943 0 -0.2774863255484053 -0.13252036289515551 0 -0.29153592929170302 -0.1423021292224706 0 -0.28392491546972548 -0.16095767595013469 0 -0.29153592929170302 -0.1423021292224706 0 -0.30586880357555529 -0.1516639149810301 0 -0.28392491546972548 -0.16095767595013469 0 -0.28005741863103989 -0.1550032359001943 0 -0.29153592929170302 -0.1423021292224706 0 -0.29153592929170302 -0.1423021292224706 0 -0.30586880357555529 -0.1516639149810301 0 -0.3064908388146208 -0.12802704343609389 0 -0.32493921639440521 -0.1205470060396799 0 -0.3064908388146208 -0.12802704343609389 0 -0.32781269168138499 -0.1423701540119256 0 -0.30586880357555529 -0.1516639149810301 0 -0.32781269168138499 -0.1423701540119256 0 -0.30586880357555529 -0.1516639149810301 0 -0.3064908388146208 -0.12802704343609389 0 -0.32781269168138499 -0.1423701540119256 0 -0.30586880357555529 -0.1516639149810301 0 -0.32781269168138499 -0.1423701540119256 0 -0.32405739725924071 -0.16617253768418019 0 -0.32781269168138499 -0.1423701540119256 0 -0.34288875099171862 -0.15586669876700471 0 -0.32405739725924071 -0.16617253768418019 0 -0.32781269168138499 -0.1423701540119256 0 -0.34288875099171862 -0.15586669876700471 0 -0.34804789329545383 -0.1460072571573256 0 -0.32781269168138499 -0.1423701540119256 0 -0.34975657978721469 -0.13307639304282079 0 -0.32493921639440521 -0.1205470060396799 0 -0.33760971541300278 -0.1245016878619358 0 -0.32781269168138499 -0.1423701540119256 0 -0.33760971541300278 -0.1245016878619358 0 -0.32781269168138499 -0.1423701540119256 0 -0.34624774589053092 -0.13020985419702311 0 -0.32781269168138499 -0.1423701540119256 0 -0.34975657978721469 -0.13307639304282079 0 -0.34804789329545383 -0.1460072571573256 0 -0.32781269168138499 -0.1423701540119256 0 -0.34624774589053092 -0.13020985419702311 0 -0.34975657978721469 -0.13307639304282079 0 -0.33760971541300278 -0.1245016878619358 0 -0.34476203176841003 -0.1243411123146706 0 -0.34624774589053092 -0.13020985419702311 0 -0.34899037896186308 -0.12497698397748901 0 -0.34476203176841003 -0.1243411123146706 0 -0.34624774589053092 -0.13020985419702311 0 -0.34899037896186308 -0.12497698397748901 0 -0.34624774589053092 -0.13020985419702311 0 -0.34975657978721469 -0.13307639304282079 0 -0.34624774589053092 -0.13020985419702311 0 -0.34975657978721469 -0.13307639304282079 0 -0.34975657978721469 -0.13307639304282079 0 -0.36245712317711692 -0.14345209108435469 0 -0.35775473167951849 -0.1197053317501308 0 -0.34899037896186308 -0.12497698397748901 0 -0.34975657978721469 -0.13307639304282079 0 -0.35775473167951849 -0.1197053317501308 0 -0.3729233332471541 -0.1232647193754889 0 -0.34975657978721469 -0.13307639304282079 0 -0.3729233332471541 -0.1232647193754889 0 -0.34975657978721469 -0.13307639304282079 0 -0.36245712317711692 -0.14345209108435469 0 -0.3729233332471541 -0.1232647193754889 0 -0.36245712317711692 -0.14345209108435469 0 -0.37678234027220509 -0.13905134328502641 0 -0.3729233332471541 -0.1232647193754889 0 -0.34975657978721469 -0.13307639304282079 0 -0.36245712317711692 -0.14345209108435469 0 -0.35612425016936788 -0.15419683258033881 0 -0.3751576665670191 -0.15382778912588829 0 -0.36245712317711692 -0.14345209108435469 0 -0.3751576665670191 -0.15382778912588829 0 -0.36245712317711692 -0.14345209108435469 0 -0.3751576665670191 -0.15382778912588829 0 -0.37678234027220509 -0.13905134328502641 0 -0.36245712317711692 -0.14345209108435469 0 -0.35612425016936788 -0.15419683258033881 0 -0.34804789329545383 -0.1460072571573256 0 -0.34975657978721469 -0.13307639304282079 0 -0.36245712317711692 -0.14345209108435469 0 -0.34804789329545383 -0.1460072571573256 0 -0.34288875099171862 -0.15586669876700471 0 -0.35612425016936788 -0.15419683258033881 0 -0.34804789329545383 -0.1460072571573256 0 -0.34288875099171862 -0.15586669876700471 0 -0.35612425016936788 -0.15419683258033881 0 -0.35206981681553168 -0.17183032676712051 0 -0.35612425016936788 -0.15419683258033881 0 -0.35206981681553168 -0.17183032676712051 0 -0.3751576665670191 -0.15382778912588829 0 -0.35206981681553168 -0.17183032676712051 0 -0.36725463210208942 -0.16182488929798869 0 -0.3751576665670191 -0.15382778912588829 0 -0.35206981681553168 -0.17183032676712051 0 -0.3751576665670191 -0.15382778912588829 0 -0.36725463210208942 -0.16182488929798869 0 -0.37971220738364442 -0.16623234494851569 0 -0.3751576665670191 -0.15382778912588829 0 -0.35206981681553168 -0.17183032676712051 0 -0.36725463210208942 -0.16182488929798869 0 -0.36418091050463208 -0.18297452128874619 0 -0.36725463210208942 -0.16182488929798869 0 -0.36418091050463208 -0.18297452128874619 0 -0.38297856165354599 -0.18540016406431881 0 -0.35206981681553168 -0.17183032676712051 0 -0.36418091050463208 -0.18297452128874619 0 -0.34919450300534621 -0.19521669690755339 0 -0.35206981681553168 -0.17183032676712051 0 -0.32898196706404598 -0.18983286440835501 0 -0.34919450300534621 -0.19521669690755339 0 -0.35206981681553168 -0.17183032676712051 0 -0.32898196706404598 -0.18983286440835501 0 -0.35206981681553168 -0.17183032676712051 0 -0.32405739725924071 -0.16617253768418019 0 -0.32898196706404598 -0.18983286440835501 0 -0.34288875099171862 -0.15586669876700471 0 -0.35206981681553168 -0.17183032676712051 0 -0.32405739725924071 -0.16617253768418019 0 -0.30580523938886028 -0.18365948665679441 0 -0.32405739725924071 -0.16617253768418019 0 -0.32898196706404598 -0.18983286440835501 0 -0.30580523938886028 -0.18365948665679441 0 -0.32898196706404598 -0.18983286440835501 0 -0.31202288176459397 -0.2030565545635889 0 -0.30580523938886028 -0.18365948665679441 0 -0.32898196706404598 -0.18983286440835501 0 -0.31202288176459397 -0.2030565545635889 0 -0.32968930126221829 -0.210705620082863 0 -0.32898196706404598 -0.18983286440835501 0 -0.31202288176459397 -0.2030565545635889 0 -0.32898196706404598 -0.18983286440835501 0 -0.31202288176459397 -0.2030565545635889 0 -0.31525508362092958 -0.2089790274711181 0 -0.32968930126221829 -0.210705620082863 0 -0.31202288176459397 -0.2030565545635889 0 -0.32968930126221829 -0.210705620082863 0 -0.30618623841932868 -0.210102471354046 0 -0.31525508362092958 -0.2089790274711181 0 -0.31704426333126162 -0.21743579992059009 0 -0.31525508362092958 -0.2089790274711181 0 -0.31704426333126162 -0.21743579992059009 0 -0.32968930126221829 -0.210705620082863 0 -0.31704426333126162 -0.21743579992059009 0 -0.32968930126221829 -0.210705620082863 0 -0.33021706860112598 -0.22320288205937869 0 -0.32968930126221829 -0.210705620082863 0 -0.34735572075984311 -0.21835468560213611 0 -0.32968930126221829 -0.210705620082863 0 -0.34919450300534621 -0.19521669690755339 0 -0.34735572075984311 -0.21835468560213611 0 -0.32968930126221829 -0.210705620082863 0 -0.34735572075984311 -0.21835468560213611 0 -0.33021706860112598 -0.22320288205937869 0 -0.32968930126221829 -0.210705620082863 0 -0.32898196706404598 -0.18983286440835501 0 -0.34919450300534621 -0.19521669690755339 0 -0.32898196706404598 -0.18983286440835501 0 -0.34919450300534621 -0.19521669690755339 0 -0.34919450300534621 -0.19521669690755339 0 -0.36940703894664678 -0.20060052940674969 0 -0.36418091050463208 -0.18297452128874619 0 -0.34919450300534621 -0.19521669690755339 0 -0.36940703894664678 -0.20060052940674969 0 -0.34919450300534621 -0.19521669690755339 0 -0.36940703894664678 -0.20060052940674969 0 -0.36043602474627229 -0.2119298960966074 0 -0.36418091050463208 -0.18297452128874619 0 -0.36940703894664678 -0.20060052940674969 0 -0.38297856165354599 -0.18540016406431881 0 -0.36940703894664678 -0.20060052940674969 0 -0.36043602474627229 -0.2119298960966074 0 -0.37521437823897608 -0.2194319244444814 0 -0.34919450300534621 -0.19521669690755339 0 -0.36043602474627229 -0.2119298960966074 0 -0.34735572075984311 -0.21835468560213611 0 -0.34735572075984311 -0.21835468560213611 0 -0.35133294536815712 -0.23599570298161601 0 -0.33863249796753742 -0.23214631918970491 0 -0.34735572075984311 -0.21835468560213611 0 -0.36100848278054942 -0.22604564412211611 0 -0.35133294536815712 -0.23599570298161601 0 -0.36043602474627229 -0.2119298960966074 0 -0.34735572075984311 -0.21835468560213611 0 -0.36100848278054942 -0.22604564412211611 0 -0.36043602474627229 -0.2119298960966074 0 -0.36100848278054942 -0.22604564412211611 0 -0.37521437823897608 -0.2194319244444814 0 -0.36100848278054942 -0.22604564412211611 0 -0.3645847252244297 -0.24224935978507889 0 -0.37626191552572408 -0.2346949410915399 0 -0.36100848278054942 -0.22604564412211611 0 -0.37626191552572408 -0.2346949410915399 0 -0.37521437823897608 -0.2194319244444814 0 -0.38222351593722831 -0.25265012121307601 0 -0.3645847252244297 -0.24224935978507889 0 -0.37626191552572408 -0.2346949410915399 0 -0.38222351593722831 -0.25265012121307601 0 -0.36498091681668993 -0.25268992103884491 0 -0.3645847252244297 -0.24224935978507889 0 -0.36498091681668993 -0.25268992103884491 0 -0.3645847252244297 -0.24224935978507889 0 -0.35608750538503531 -0.2488188768555667 0 -0.35133294536815712 -0.23599570298161601 0 -0.34261796166657288 -0.24845914734495991 0 -0.33863249796753742 -0.23214631918970491 0 -0.3645847252244297 -0.24224935978507889 0 -0.35608750538503531 -0.2488188768555667 0 -0.35133294536815712 -0.23599570298161601 0 -0.36100848278054942 -0.22604564412211611 0 -0.3645847252244297 -0.24224935978507889 0 -0.35133294536815712 -0.23599570298161601 0 -0.35608750538503531 -0.2488188768555667 0 -0.35133294536815712 -0.23599570298161601 0 -0.34261796166657288 -0.24845914734495991 0 -0.34261796166657288 -0.24845914734495991 0 -0.33863249796753742 -0.23214631918970491 0 -0.32216203040443309 -0.2327724408226392 0 -0.33252058110213362 -0.25354567379234189 0 -0.34261796166657288 -0.24845914734495991 0 -0.32216203040443309 -0.2327724408226392 0 -0.34261796166657288 -0.24845914734495991 0 -0.32216203040443309 -0.2327724408226392 0 -0.33863249796753742 -0.23214631918970491 0 -0.33021706860112598 -0.22320288205937869 0 -0.32216203040443309 -0.2327724408226392 0 -0.34735572075984311 -0.21835468560213611 0 -0.33863249796753742 -0.23214631918970491 0 -0.33021706860112598 -0.22320288205937869 0 -0.30937804741887132 -0.23849672079600909 0 -0.30603464445857942 -0.22809495369386679 0 -0.32216203040443309 -0.2327724408226392 0 -0.30170609914229329 -0.21708573430031861 0 -0.31704426333126162 -0.21743579992059009 0 -0.32216203040443309 -0.2327724408226392 0 -0.31704426333126162 -0.21743579992059009 0 -0.33021706860112598 -0.22320288205937869 0 -0.32216203040443309 -0.2327724408226392 0 -0.33252058110213362 -0.25354567379234189 0 -0.30937804741887132 -0.23849672079600909 0 -0.32216203040443309 -0.2327724408226392 0 -0.31481979503186752 -0.25530384662369959 0 -0.33252058110213362 -0.25354567379234189 0 -0.30937804741887132 -0.23849672079600909 0 -0.33252058110213362 -0.25354567379234189 0 -0.30937804741887132 -0.23849672079600909 0 -0.41494086172556349 -0.25651364564443319 0 -0.43087007348020911 -0.2482678335700837 0 -0.42117130678586617 -0.24409101702994271 0 -0.42411149186023689 -0.2370637001771943 0 -0.43178705104435849 -0.2375776874511534 0 -0.42117130678586617 -0.24409101702994271 0 -0.42411149186023689 -0.2370637001771943 0 -0.43178705104435849 -0.2375776874511534 0 -0.42591593664752908 -0.2323638437162274 0 -0.42411149186023689 -0.2370637001771943 0 -0.42591593664752908 -0.2323638437162274 0 -0.42191459003937798 -0.23378906929451751 0 -0.43087007348020911 -0.2482678335700837 0 -0.43178705104435849 -0.2375776874511534 0 -0.42117130678586617 -0.24409101702994271 0 -0.43087007348020911 -0.2482678335700837 0 -0.43178705104435849 -0.2375776874511534 0 -0.44455293825259162 -0.24420180263955019 0 -0.43178705104435849 -0.2375776874511534 0 -0.4315884928413285 -0.22729241798499811 0 -0.43967963074996902 -0.23046143713775019 0 -0.43178705104435849 -0.2375776874511534 0 -0.4315884928413285 -0.22729241798499811 0 -0.42591593664752908 -0.2323638437162274 0 -0.4315884928413285 -0.22729241798499811 0 -0.43700132568055328 -0.21924999923518829 0 -0.43967963074996902 -0.23046143713775019 0 -0.4315884928413285 -0.22729241798499811 0 -0.43700132568055328 -0.21924999923518829 0 -0.42801891508526879 -0.2195528815477665 0 -0.4315884928413285 -0.22729241798499811 0 -0.42801891508526879 -0.2195528815477665 0 -0.42452236823221379 -0.22647776751538401 0 -0.42801891508526879 -0.2195528815477665 0 -0.42452236823221379 -0.22647776751538401 0 -0.42088622925481239 -0.22207936646759399 0 -0.42801891508526879 -0.2195528815477665 0 -0.42088622925481239 -0.22207936646759399 0 -0.42295563082973692 -0.21582408086047131 0 -0.4315884928413285 -0.22729241798499811 0 -0.42452236823221379 -0.22647776751538401 0 -0.42591593664752908 -0.2323638437162274 0 -0.42452236823221379 -0.22647776751538401 0 -0.42591593664752908 -0.2323638437162274 0 -0.4206951530895694 -0.23072857110909911 0 -0.42591593664752908 -0.2323638437162274 0 -0.42191459003937798 -0.23378906929451751 0 -0.4206951530895694 -0.23072857110909911 0 -0.42191459003937798 -0.23378906929451751 0 -0.41906527032843882 -0.23241752726370571 0 -0.41914060917691098 -0.2351945046966179 0 -0.41464562946236477 -0.23258395318274599 0 -0.39870249120500278 -0.20897543883064901 0 -0.40819741800702658 -0.21766143796168499 0 -0.41464562946236477 -0.23258395318274599 0 -0.39870249120500278 -0.20897543883064901 0 -0.41906527032843882 -0.23241752726370571 0 -0.41684586871205331 -0.2321718169670193 0 -0.41914060917691098 -0.2351945046966179 0 -0.41906527032843882 -0.23241752726370571 0 -0.4206951530895694 -0.23072857110909911 0 -0.4174258654785229 -0.230221765069545 0 -0.42191459003937798 -0.23378906929451751 0 -0.41906527032843882 -0.23241752726370571 0 -0.4206951530895694 -0.23072857110909911 0 -0.42452236823221379 -0.22647776751538401 0 -0.4206951530895694 -0.23072857110909911 0 -0.41978046397247359 -0.22703388098426749 0 -0.41978046397247359 -0.22703388098426749 0 -0.4174258654785229 -0.230221765069545 0 -0.4172676227103751 -0.22759855969852399 0 -0.41978046397247359 -0.22703388098426749 0 -0.4172676227103751 -0.22759855969852399 0 -0.41698355181746538 -0.22550746151379439 0 -0.4206951530895694 -0.23072857110909911 0 -0.41978046397247359 -0.22703388098426749 0 -0.4174258654785229 -0.230221765069545 0 -0.41476547920735057 -0.2311452086990918 0 -0.41464562946236477 -0.23258395318274599 0 -0.41421449881091371 -0.2258350065191454 0 -0.41581732933944232 -0.2275918640264184 0 -0.41476547920735057 -0.2311452086990918 0 -0.41421449881091371 -0.2258350065191454 0 -0.4174258654785229 -0.230221765069545 0 -0.4172676227103751 -0.22759855969852399 0 -0.41581732933944232 -0.2275918640264184 0 -0.4172676227103751 -0.22759855969852399 0 -0.41581732933944232 -0.2275918640264184 0 -0.41698355181746538 -0.22550746151379439 0 -0.4174258654785229 -0.230221765069545 0 -0.41581732933944232 -0.2275918640264184 0 -0.41476547920735057 -0.2311452086990918 0 -0.41464562946236477 -0.23258395318274599 0 -0.41684586871205331 -0.2321718169670193 0 -0.41914060917691098 -0.2351945046966179 0 -0.41476547920735057 -0.2311452086990918 0 -0.41464562946236477 -0.23258395318274599 0 -0.41684586871205331 -0.2321718169670193 0 -0.4174258654785229 -0.230221765069545 0 -0.41476547920735057 -0.2311452086990918 0 -0.41684586871205331 -0.2321718169670193 0 -0.41906527032843882 -0.23241752726370571 0 -0.4174258654785229 -0.230221765069545 0 -0.41684586871205331 -0.2321718169670193 0 -0.42088622925481239 -0.22207936646759399 0 -0.41594674334178272 -0.2217102814365477 0 -0.41799067569682702 -0.21782713477664181 0 -0.41978046397247359 -0.22703388098426749 0 -0.42088622925481239 -0.22207936646759399 0 -0.41698355181746538 -0.22550746151379439 0 -0.42452236823221379 -0.22647776751538401 0 -0.41978046397247359 -0.22703388098426749 0 -0.42088622925481239 -0.22207936646759399 0 -0.41421449881091371 -0.2258350065191454 0 -0.41594674334178272 -0.2217102814365477 0 -0.41280189233180969 -0.22072609620267161 0 -0.42088622925481239 -0.22207936646759399 0 -0.41698355181746538 -0.22550746151379439 0 -0.41594674334178272 -0.2217102814365477 0 -0.41698355181746538 -0.22550746151379439 0 -0.41421449881091371 -0.2258350065191454 0 -0.41594674334178272 -0.2217102814365477 0 -0.41581732933944232 -0.2275918640264184 0 -0.41698355181746538 -0.22550746151379439 0 -0.41421449881091371 -0.2258350065191454 0 -0.41594674334178272 -0.2217102814365477 0 -0.41284890916751582 -0.21769765889330861 0 -0.41799067569682702 -0.21782713477664181 0 -0.41421449881091371 -0.2258350065191454 0 -0.41280189233180969 -0.22072609620267161 0 -0.40819741800702658 -0.21766143796168499 0 -0.41464562946236477 -0.23258395318274599 0 -0.41421449881091371 -0.2258350065191454 0 -0.40819741800702658 -0.21766143796168499 0 -0.41594674334178272 -0.2217102814365477 0 -0.41280189233180969 -0.22072609620267161 0 -0.41284890916751582 -0.21769765889330861 0 -0.41464562946236477 -0.23258395318274599 0 -0.40249618410967891 -0.23265436990861399 0 -0.40288754012878458 -0.22305028928846199 0 -0.41494086172556349 -0.25651364564443319 0 -0.41464562946236477 -0.23258395318274599 0 -0.40267907743116871 -0.24399032946339719 0 -0.41494086172556349 -0.25651364564443319 0 -0.41464562946236477 -0.23258395318274599 0 -0.42117130678586617 -0.24409101702994271 0 -0.41464562946236477 -0.23258395318274599 0 -0.40267907743116871 -0.24399032946339719 0 -0.40249618410967891 -0.23265436990861399 0 -0.41494086172556349 -0.25651364564443319 0 -0.41464562946236477 -0.23258395318274599 0 -0.42411149186023689 -0.2370637001771943 0 -0.41914060917691098 -0.2351945046966179 0 -0.42117130678586617 -0.24409101702994271 0 -0.41464562946236477 -0.23258395318274599 0 -0.41914060917691098 -0.2351945046966179 0 -0.42117130678586617 -0.24409101702994271 0 -0.42411149186023689 -0.2370637001771943 0 -0.42191459003937798 -0.23378906929451751 0 -0.41914060917691098 -0.2351945046966179 0 -0.38222351593722831 -0.25265012121307601 0 -0.40267907743116871 -0.24399032946339719 0 -0.39068134056046011 -0.23147740605194261 0 -0.40267907743116871 -0.24399032946339719 0 -0.39068134056046011 -0.23147740605194261 0 -0.40249618410967891 -0.23265436990861399 0 -0.38222351593722831 -0.25265012121307601 0 -0.37626191552572408 -0.2346949410915399 0 -0.39068134056046011 -0.23147740605194261 0 -0.37626191552572408 -0.2346949410915399 0 -0.37521437823897608 -0.2194319244444814 0 -0.39068134056046011 -0.23147740605194261 0 -0.37521437823897608 -0.2194319244444814 0 -0.39068134056046011 -0.23147740605194261 0 -0.39052749433519029 -0.2185137617099468 0 -0.41464562946236477 -0.23258395318274599 0 -0.40288754012878458 -0.22305028928846199 0 -0.39870249120500278 -0.20897543883064901 0 -0.39673027754657381 -0.22503421672031959 0 -0.39068134056046011 -0.23147740605194261 0 -0.39052749433519029 -0.2185137617099468 0 -0.39673027754657381 -0.22503421672031959 0 -0.39721195080388788 -0.21889342663734429 0 -0.39052749433519029 -0.2185137617099468 0 -0.39673027754657381 -0.22503421672031959 0 -0.39068134056046011 -0.23147740605194261 0 -0.40249618410967891 -0.23265436990861399 0 -0.39673027754657381 -0.22503421672031959 0 -0.40249618410967891 -0.23265436990861399 0 -0.40288754012878458 -0.22305028928846199 0 -0.39673027754657381 -0.22503421672031959 0 -0.39721195080388788 -0.21889342663734429 0 -0.40288754012878458 -0.22305028928846199 0 -0.39870249120500278 -0.20897543883064901 0 -0.40819741800702658 -0.21766143796168499 0 -0.40675660722568652 -0.2116903852163963 0 -0.39721195080388788 -0.21889342663734429 0 -0.40288754012878458 -0.22305028928846199 0 -0.39870249120500278 -0.20897543883064901 0 -0.39870249120500278 -0.20897543883064901 0 -0.40962329408017628 -0.2070731086235319 0 -0.40675660722568652 -0.2116903852163963 0 -0.39870249120500278 -0.20897543883064901 0 -0.40798980644186711 -0.1970635903519152 0 -0.40962329408017628 -0.2070731086235319 0 -0.39870249120500278 -0.20897543883064901 0 -0.39052749433519029 -0.2185137617099468 0 -0.38961957488794757 -0.2059843619059461 0 -0.39721195080388788 -0.21889342663734429 0 -0.39870249120500278 -0.20897543883064901 0 -0.39052749433519029 -0.2185137617099468 0 -0.36940703894664678 -0.20060052940674969 0 -0.37521437823897608 -0.2194319244444814 0 -0.38250068626753941 -0.2127978140538741 0 -0.36940703894664678 -0.20060052940674969 0 -0.38961957488794757 -0.2059843619059461 0 -0.38250068626753941 -0.2127978140538741 0 -0.39052749433519029 -0.2185137617099468 0 -0.38961957488794757 -0.2059843619059461 0 -0.38250068626753941 -0.2127978140538741 0 -0.36940703894664678 -0.20060052940674969 0 -0.38961957488794757 -0.2059843619059461 0 -0.37521437823897608 -0.2194319244444814 0 -0.39052749433519029 -0.2185137617099468 0 -0.38250068626753941 -0.2127978140538741 0 -0.36940703894664678 -0.20060052940674969 0 -0.38961957488794757 -0.2059843619059461 0 -0.38297856165354599 -0.18540016406431881 0 -0.39870249120500278 -0.20897543883064901 0 -0.38961957488794757 -0.2059843619059461 0 -0.38297856165354599 -0.18540016406431881 0 -0.39870249120500278 -0.20897543883064901 0 -0.39661455820125879 -0.1897997915240647 0 -0.40798980644186711 -0.1970635903519152 0 -0.39870249120500278 -0.20897543883064901 0 -0.38297856165354599 -0.18540016406431881 0 -0.39870249120500278 -0.20897543883064901 0 -0.39661455820125879 -0.1897997915240647 0 -0.38297856165354599 -0.18540016406431881 0 -0.39661455820125879 -0.1897997915240647 0 -0.40506223617013498 -0.18851111139260071 0 -0.40798980644186711 -0.1970635903519152 0 -0.40798980644186711 -0.1970635903519152 0 -0.42588635918637241 -0.19527055110083669 0 -0.41039427462953831 -0.1826143058945556 0 -0.40798980644186711 -0.1970635903519152 0 -0.41807322217042092 -0.20412336450538529 0 -0.42588635918637241 -0.19527055110083669 0 -0.40506223617013498 -0.18851111139260071 0 -0.40798980644186711 -0.1970635903519152 0 -0.41039427462953831 -0.1826143058945556 0 -0.42588635918637241 -0.19527055110083669 0 -0.41039427462953831 -0.1826143058945556 0 -0.40798980644186711 -0.1970635903519152 0 -0.40962329408017628 -0.2070731086235319 0 -0.41807322217042092 -0.20412336450538529 0 -0.40962329408017628 -0.2070731086235319 0 -0.40675660722568652 -0.2116903852163963 0 -0.41050322561054009 -0.21305155544971921 0 -0.40962329408017628 -0.2070731086235319 0 -0.41050322561054009 -0.21305155544971921 0 -0.41731586589028719 -0.2118242862252871 0 -0.40819741800702658 -0.21766143796168499 0 -0.40675660722568652 -0.2116903852163963 0 -0.41050322561054009 -0.21305155544971921 0 -0.41050322561054009 -0.21305155544971921 0 -0.41284890916751582 -0.21769765889330861 0 -0.41731586589028719 -0.2118242862252871 0 -0.41280189233180969 -0.22072609620267161 0 -0.40819741800702658 -0.21766143796168499 0 -0.41284890916751582 -0.21769765889330861 0 -0.40819741800702658 -0.21766143796168499 0 -0.41050322561054009 -0.21305155544971921 0 -0.41284890916751582 -0.21769765889330861 0 -0.41284890916751582 -0.21769765889330861 0 -0.41731586589028719 -0.2118242862252871 0 -0.41799067569682702 -0.21782713477664181 0 -0.42088622925481239 -0.22207936646759399 0 -0.41799067569682702 -0.21782713477664181 0 -0.42295563082973692 -0.21582408086047131 0 -0.41731586589028719 -0.2118242862252871 0 -0.41799067569682702 -0.21782713477664181 0 -0.42295563082973692 -0.21582408086047131 0 -0.41731586589028719 -0.2118242862252871 0 -0.41807322217042092 -0.20412336450538529 0 -0.42759925589780667 -0.21041048470258919 0 -0.40962329408017628 -0.2070731086235319 0 -0.41731586589028719 -0.2118242862252871 0 -0.41807322217042092 -0.20412336450538529 0 -0.41807322217042092 -0.20412336450538529 0 -0.42759925589780667 -0.21041048470258919 0 -0.42588635918637241 -0.19527055110083669 0 -0.41731586589028719 -0.2118242862252871 0 -0.42759925589780667 -0.21041048470258919 0 -0.42295563082973692 -0.21582408086047131 0 -0.42801891508526879 -0.2195528815477665 0 -0.42759925589780667 -0.21041048470258919 0 -0.42295563082973692 -0.21582408086047131 0 -0.43700132568055328 -0.21924999923518829 0 -0.42759925589780667 -0.21041048470258919 0 -0.44137844374320617 -0.2079267963071183 0 -0.43700132568055328 -0.21924999923518829 0 -0.42801891508526879 -0.2195528815477665 0 -0.42759925589780667 -0.21041048470258919 0 -0.42759925589780667 -0.21041048470258919 0 -0.42588635918637241 -0.19527055110083669 0 -0.44137844374320617 -0.2079267963071183 0 -0.42588635918637241 -0.19527055110083669 0 -0.41039427462953831 -0.1826143058945556 0 -0.44004034233488659 -0.18484613727081661 0 -0.42588635918637241 -0.19527055110083669 0 -0.44137844374320617 -0.2079267963071183 0 -0.42588635918637241 -0.19527055110083669 0 -0.43940146071204872 -0.19792733204336241 0 -0.44137844374320617 -0.2079267963071183 0 -0.42588635918637241 -0.19527055110083669 0 -0.44004034233488659 -0.18484613727081661 0 -0.43940146071204872 -0.19792733204336241 0 -0.43176501685423929 -0.1713700780042243 0 -0.41039427462953831 -0.1826143058945556 0 -0.44004034233488659 -0.18484613727081661 0 -0.41039427462953831 -0.1826143058945556 0 -0.44004034233488659 -0.18484613727081661 0 -0.43176501685423929 -0.1713700780042243 0 -0.44004034233488659 -0.18484613727081661 0 -0.43176501685423929 -0.1713700780042243 0 -0.42348969137359149 -0.1578940187376322 0 -0.41276604374876003 -0.16720197761393929 0 -0.43176501685423929 -0.1713700780042243 0 -0.42348969137359149 -0.1578940187376322 0 -0.43906838229839129 -0.1590392991022859 0 -0.43176501685423929 -0.1713700780042243 0 -0.42348969137359149 -0.1578940187376322 0 -0.42348969137359149 -0.1578940187376322 0 -0.41276604374876003 -0.16720197761393929 0 -0.40540526528815141 -0.15591043792306319 0 -0.43176501685423929 -0.1713700780042243 0 -0.41276604374876003 -0.16720197761393929 0 -0.41039427462953831 -0.1826143058945556 0 -0.41039427462953831 -0.1826143058945556 0 -0.4070417103847172 -0.18236191633156659 0 -0.40506223617013498 -0.18851111139260071 0 -0.41039427462953831 -0.1826143058945556 0 -0.4070417103847172 -0.18236191633156659 0 -0.39661455820125879 -0.1897997915240647 0 -0.40506223617013498 -0.18851111139260071 0 -0.4070417103847172 -0.18236191633156659 0 -0.41276604374876003 -0.16720197761393929 0 -0.41039427462953831 -0.1826143058945556 0 -0.39277597059827868 -0.1682210475102219 0 -0.39661455820125879 -0.1897997915240647 0 -0.38297856165354599 -0.18540016406431881 0 -0.39277597059827868 -0.1682210475102219 0 -0.41039427462953831 -0.1826143058945556 0 -0.39277597059827868 -0.1682210475102219 0 -0.41039427462953831 -0.1826143058945556 0 -0.4070417103847172 -0.18236191633156659 0 -0.39277597059827868 -0.1682210475102219 0 -0.39661455820125879 -0.1897997915240647 0 -0.4070417103847172 -0.18236191633156659 0 -0.39277597059827868 -0.1682210475102219 0 -0.36725463210208942 -0.16182488929798869 0 -0.38297856165354599 -0.18540016406431881 0 -0.38297856165354599 -0.18540016406431881 0 -0.37971220738364442 -0.16623234494851569 0 -0.39277597059827868 -0.1682210475102219 0 -0.39277597059827868 -0.1682210475102219 0 -0.3751576665670191 -0.15382778912588829 0 -0.37971220738364442 -0.16623234494851569 0 -0.39277597059827868 -0.1682210475102219 0 -0.3751576665670191 -0.15382778912588829 0 -0.39277597059827868 -0.1682210475102219 0 -0.39203857866406749 -0.15411477951326771 0 -0.3751576665670191 -0.15382778912588829 0 -0.36725463210208942 -0.16182488929798869 0 -0.38297856165354599 -0.18540016406431881 0 -0.37971220738364442 -0.16623234494851569 0 -0.41276604374876003 -0.16720197761393929 0 -0.39277597059827868 -0.1682210475102219 0 -0.40540526528815141 -0.15591043792306319 0 -0.39277597059827868 -0.1682210475102219 0 -0.40540526528815141 -0.15591043792306319 0 -0.39203857866406749 -0.15411477951326771 0 -0.40540526528815141 -0.15591043792306319 0 -0.39481541220282113 -0.13849984349389699 0 -0.41293869958841811 -0.14259911333590661 0 -0.40540526528815141 -0.15591043792306319 0 -0.39203857866406749 -0.15411477951326771 0 -0.39481541220282113 -0.13849984349389699 0 -0.3751576665670191 -0.15382778912588829 0 -0.39481541220282113 -0.13849984349389699 0 -0.39203857866406749 -0.15411477951326771 0 -0.3751576665670191 -0.15382778912588829 0 -0.39481541220282113 -0.13849984349389699 0 -0.3751576665670191 -0.15382778912588829 0 -0.37678234027220509 -0.13905134328502641 0 -0.39481541220282113 -0.13849984349389699 0 -0.3729233332471541 -0.1232647193754889 0 -0.39481541220282113 -0.13849984349389699 0 -0.39609008670709328 -0.1134530457081568 0 -0.3729233332471541 -0.1232647193754889 0 -0.37678234027220509 -0.13905134328502641 0 -0.39481541220282113 -0.13849984349389699 0 -0.39481541220282113 -0.13849984349389699 0 -0.39609008670709328 -0.1134530457081568 0 -0.4144731578386241 -0.1231718978619071 0 -0.39481541220282113 -0.13849984349389699 0 -0.4144731578386241 -0.1231718978619071 0 -0.39481541220282113 -0.13849984349389699 0 -0.41293869958841811 -0.14259911333590661 0 -0.4144731578386241 -0.1231718978619071 0 -0.41293869958841811 -0.14259911333590661 0 -0.43109938397774111 -0.13866883326828611 0 -0.4144731578386241 -0.1231718978619071 0 -0.42348969137359149 -0.1578940187376322 0 -0.40540526528815141 -0.15591043792306319 0 -0.41293869958841811 -0.14259911333590661 0 -0.42348969137359149 -0.1578940187376322 0 -0.43109938397774111 -0.13866883326828611 0 -0.43906838229839129 -0.1590392991022859 0 -0.42348969137359149 -0.1578940187376322 0 -0.41293869958841811 -0.14259911333590661 0 -0.43109938397774111 -0.13866883326828611 0 -0.43109938397774111 -0.13866883326828611 0 -0.4144731578386241 -0.1231718978619071 0 -0.44110938222238999 -0.1240917714673194 0 -0.43109938397774111 -0.13866883326828611 0 -0.45283672842131428 -0.13646758335978429 0 -0.44110938222238999 -0.1240917714673194 0 -0.45283672842131428 -0.13646758335978429 0 -0.44110938222238999 -0.1240917714673194 0 -0.46255851256865638 -0.1234751822923775 0 -0.43109938397774111 -0.13866883326828611 0 -0.45406625598515998 -0.15431806376122861 0 -0.43906838229839129 -0.1590392991022859 0 -0.43109938397774111 -0.13866883326828611 0 -0.45406625598515998 -0.15431806376122861 0 -0.43109938397774111 -0.13866883326828611 0 -0.45283672842131428 -0.13646758335978429 0 -0.45406625598515998 -0.15431806376122861 0 -0.45283672842131428 -0.13646758335978429 0 -0.45406625598515998 -0.15431806376122861 0 -0.47535010735262417 -0.14178406600971019 0 -0.45283672842131428 -0.13646758335978429 0 -0.47535010735262417 -0.14178406600971019 0 -0.46255851256865638 -0.1234751822923775 0 -0.47535010735262417 -0.14178406600971019 0 -0.46255851256865638 -0.1234751822923775 0 -0.48175251203909808 -0.1212037662768955 0 -0.5 -0.12894640322849679 0 -0.47535010735262417 -0.14178406600971019 0 -0.48175251203909808 -0.1212037662768955 0 -0.5 -0.12894640322849679 0 -0.47535010735262417 -0.14178406600971019 0 -0.5 -0.15728146398780499 0 -0.45406625598515998 -0.15431806376122861 0 -0.47535010735262417 -0.14178406600971019 0 -0.47703312799257891 -0.16996729425417131 0 -0.47535010735262417 -0.14178406600971019 0 -0.47703312799257891 -0.16996729425417131 0 -0.5 -0.15728146398780499 0 -0.47703312799257891 -0.16996729425417131 0 -0.5 -0.15728146398780499 0 -0.49999999999999839 -0.1856165247471131 0 -0.49999999999999839 -0.1856165247471131 0 -0.47002017116744099 -0.18710309503359451 0 -0.49999999999999561 -0.18936005279637169 0 -0.47703312799257891 -0.16996729425417131 0 -0.49999999999999839 -0.1856165247471131 0 -0.47703312799257891 -0.16996729425417131 0 -0.49999999999999839 -0.1856165247471131 0 -0.47002017116744099 -0.18710309503359451 0 -0.47002017116744099 -0.18710309503359451 0 -0.44004034233488659 -0.18484613727081661 0 -0.47002017116744099 -0.18710309503359451 0 -0.45492156330122452 -0.17294550174005821 0 -0.44004034233488659 -0.18484613727081661 0 -0.47703312799257891 -0.16996729425417131 0 -0.47002017116744099 -0.18710309503359451 0 -0.45492156330122452 -0.17294550174005821 0 -0.45406625598515998 -0.15431806376122861 0 -0.47703312799257891 -0.16996729425417131 0 -0.45406625598515998 -0.15431806376122861 0 -0.47703312799257891 -0.16996729425417131 0 -0.45492156330122452 -0.17294550174005821 0 -0.45406625598515998 -0.15431806376122861 0 -0.45492156330122452 -0.17294550174005821 0 -0.43906838229839129 -0.1590392991022859 0 -0.43176501685423929 -0.1713700780042243 0 -0.45492156330122452 -0.17294550174005821 0 -0.43906838229839129 -0.1590392991022859 0 -0.43176501685423929 -0.1713700780042243 0 -0.45492156330122452 -0.17294550174005821 0 -0.44004034233488659 -0.18484613727081661 0 -0.44004034233488659 -0.18484613727081661 0 -0.45294245563146462 -0.20585674813507349 0 -0.44004034233488659 -0.18484613727081661 0 -0.43940146071204872 -0.19792733204336241 0 -0.45294245563146462 -0.20585674813507349 0 -0.43940146071204872 -0.19792733204336241 0 -0.44137844374320617 -0.2079267963071183 0 -0.45294245563146462 -0.20585674813507349 0 -0.43700132568055328 -0.21924999923518829 0 -0.44137844374320617 -0.2079267963071183 0 -0.44967996361302981 -0.22096665674930699 0 -0.44137844374320617 -0.2079267963071183 0 -0.45294245563146462 -0.20585674813507349 0 -0.44967996361302981 -0.22096665674930699 0 -0.45294245563146462 -0.20585674813507349 0 -0.48023967719137778 -0.207685409397005 0 -0.46584456892804199 -0.2268673589993305 0 -0.45294245563146462 -0.20585674813507349 0 -0.46584456892804199 -0.2268673589993305 0 -0.45294245563146462 -0.20585674813507349 0 -0.46584456892804199 -0.2268673589993305 0 -0.44967996361302981 -0.22096665674930699 0 -0.47002017116744099 -0.18710309503359451 0 -0.44004034233488659 -0.18484613727081661 0 -0.45294245563146462 -0.20585674813507349 0 -0.47002017116744099 -0.18710309503359451 0 -0.45294245563146462 -0.20585674813507349 0 -0.48023967719137778 -0.207685409397005 0 -0.47002017116744099 -0.18710309503359451 0 -0.49999999999999561 -0.18936005279637169 0 -0.48023967719137778 -0.207685409397005 0 -0.47002017116744099 -0.18710309503359451 0 -0.49999999999999561 -0.18936005279637169 0 -0.49999999999999561 -0.18936005279637169 0 -0.5 -0.21264209112633839 0 -0.48023967719137778 -0.207685409397005 0 -0.5 -0.21264209112633839 0 -0.48023967719137778 -0.207685409397005 0 -0.48648998778120289 -0.2239345187025833 0 -0.48648998778120289 -0.2239345187025833 0 -0.48636569278659458 -0.23655360453393759 0 -0.46584456892804199 -0.2268673589993305 0 -0.48023967719137778 -0.207685409397005 0 -0.48648998778120289 -0.2239345187025833 0 -0.46584456892804199 -0.2268673589993305 0 -0.5 -0.21264209112633839 0 -0.48648998778120289 -0.2239345187025833 0 -0.5 -0.23592412945630489 0 -0.48648998778120289 -0.2239345187025833 0 -0.5 -0.23592412945630489 0 -0.48636569278659458 -0.23655360453393759 0 -0.49537896685928201 -0.2468030661077717 0 -0.48636569278659458 -0.23655360453393759 0 -0.47874668222461941 -0.24787796986358751 0 -0.5 -0.25920616778627159 0 -0.49537896685928201 -0.2468030661077717 0 -0.5 -0.23592412945630489 0 -0.49537896685928201 -0.2468030661077717 0 -0.5 -0.23592412945630489 0 -0.48636569278659458 -0.23655360453393759 0 -0.47874668222461941 -0.24787796986358751 0 -0.46584456892804199 -0.2268673589993305 0 -0.48636569278659458 -0.23655360453393759 0 -0.47874668222461941 -0.24787796986358751 0 -0.46584456892804199 -0.2268673589993305 0 -0.47874668222461941 -0.24787796986358751 0 -0.45960163186968561 -0.24483046644316611 0 -0.46584456892804199 -0.2268673589993305 0 -0.45960163186968561 -0.24483046644316611 0 -0.46584456892804199 -0.2268673589993305 0 -0.45187174668266372 -0.23346554439382081 0 -0.46584456892804199 -0.2268673589993305 0 -0.45187174668266372 -0.23346554439382081 0 -0.44967996361302981 -0.22096665674930699 0 -0.45187174668266372 -0.23346554439382081 0 -0.44967996361302981 -0.22096665674930699 0 -0.43967963074996902 -0.23046143713775019 0 -0.43700132568055328 -0.21924999923518829 0 -0.44967996361302981 -0.22096665674930699 0 -0.43967963074996902 -0.23046143713775019 0 -0.43178705104435849 -0.2375776874511534 0 -0.43967963074996902 -0.23046143713775019 0 -0.44455293825259162 -0.24420180263955019 0 -0.45360333466393149 -0.25675680710036891 0 -0.45960163186968561 -0.24483046644316611 0 -0.44455293825259162 -0.24420180263955019 0 -0.45187174668266372 -0.23346554439382081 0 -0.43967963074996902 -0.23046143713775019 0 -0.44455293825259162 -0.24420180263955019 0 -0.45960163186968561 -0.24483046644316611 0 -0.45187174668266372 -0.23346554439382081 0 -0.44455293825259162 -0.24420180263955019 0 -0.42316853157290529 -0.041748412423408432 0 -0.40400778820915462 -0.024192706357851139 0 -0.42316853157290529 -0.041748412423408432 0 -0.40400778820915462 -0.024192706357851139 0 -0.39346595798074191 -0.047302400044547589 0 -0.42316853157290529 -0.041748412423408432 0 -0.39346595798074191 -0.047302400044547589 0 -0.40826278525939691 -0.067700019299826567 0 -0.42316853157290529 -0.041748412423408432 0 -0.40826278525939691 -0.067700019299826567 0 -0.42860833359041273 -0.063756405431180191 0 -0.42316853157290529 -0.041748412423408432 0 -0.42860833359041273 -0.063756405431180191 0 -0.44016371382736408 -0.048924911591365888 0 -0.42316853157290529 -0.041748412423408432 0 -0.44016371382736408 -0.048924911591365888 0 -0.43919291981986402 -0.030336707361723621 0 -0.42613020912589189 -0.016512152233259692 0 -0.44126211137753352 -0.01296971077723684 0 -0.43919291981986402 -0.030336707361723621 0 -0.42316853157290529 -0.041748412423408432 0 -0.42613020912589189 -0.016512152233259692 0 -0.43919291981986402 -0.030336707361723621 0 -0.42613020912589189 -0.016512152233259692 0 -0.43289881026830418 0.0076089947510501951 0 -0.41589415406792968 0.001864464749301288 0 -0.42613020912589189 -0.016512152233259692 0 -0.44126211137753352 -0.01296971077723684 0 -0.43289881026830418 0.0076089947510501951 0 -0.40400778820915462 -0.024192706357851139 0 -0.41589415406792968 0.001864464749301288 0 -0.42613020912589189 -0.016512152233259692 0 -0.40400778820915462 -0.024192706357851139 0 -0.41589415406792968 0.001864464749301288 0 -0.40400778820915462 -0.024192706357851139 0 -0.40116279040471869 -0.0031120992889756352 0 -0.41589415406792968 0.001864464749301288 0 -0.40116279040471869 -0.0031120992889756352 0 -0.41589415406792968 0.001864464749301288 0 -0.42316853157290529 -0.041748412423408432 0 -0.42613020912589189 -0.016512152233259692 0 -0.40400778820915462 -0.024192706357851139 0 -0.40400778820915462 -0.024192706357851139 0 -0.38643142674150738 -0.0080886633272518535 0 -0.38757273410064841 -0.019758087938582591 0 -0.40400778820915462 -0.024192706357851139 0 -0.38643142674150738 -0.0080886633272518535 0 -0.40400778820915462 -0.024192706357851139 0 -0.38757273410064841 -0.019758087938582591 0 -0.38451565969430218 -0.033762290754434182 0 -0.40400778820915462 -0.024192706357851139 0 -0.40116279040471869 -0.0031120992889756352 0 -0.38643142674150738 -0.0080886633272518535 0 -0.40116279040471869 -0.0031120992889756352 0 -0.38643142674150738 -0.0080886633272518535 0 -0.39015820461518952 0.0034639321021737069 0 -0.40116279040471869 -0.0031120992889756352 0 -0.38643142674150738 -0.0080886633272518535 0 -0.38643142674150738 -0.0080886633272518535 0 -0.3773564386252769 0.0002261405867970603 0 -0.39015820461518952 0.0034639321021737069 0 -0.38643142674150738 -0.0080886633272518535 0 -0.3828083146831156 -0.0143013038340471 0 -0.38757273410064841 -0.019758087938582591 0 -0.38643142674150738 -0.0080886633272518535 0 -0.3828083146831156 -0.0143013038340471 0 -0.37829039775972773 -0.01083887389780739 0 -0.38643142674150738 -0.0080886633272518535 0 -0.37829039775972773 -0.01083887389780739 0 -0.3828083146831156 -0.0143013038340471 0 -0.37829039775972773 -0.01083887389780739 0 -0.3789387001305804 -0.01851959017254615 0 -0.37829039775972773 -0.01083887389780739 0 -0.3789387001305804 -0.01851959017254615 0 -0.37829039775972773 -0.01083887389780739 0 -0.3773564386252769 0.0002261405867970603 0 -0.38643142674150738 -0.0080886633272518535 0 -0.37829039775972773 -0.01083887389780739 0 -0.3773564386252769 0.0002261405867970603 0 -0.38643142674150738 -0.0080886633272518535 0 -0.3773564386252769 0.0002261405867970603 0 -0.38757273410064841 -0.019758087938582591 0 -0.3789387001305804 -0.01851959017254615 0 -0.38451565969430218 -0.033762290754434182 0 -0.3828083146831156 -0.0143013038340471 0 -0.38757273410064841 -0.019758087938582591 0 -0.3789387001305804 -0.01851959017254615 0 -0.37014126306894879 -0.025198802937951251 0 -0.3789387001305804 -0.01851959017254615 0 -0.38451565969430218 -0.033762290754434182 0 -0.37143707925838337 -0.054045996913777018 0 -0.38451565969430218 -0.033762290754434182 0 -0.39346595798074191 -0.047302400044547589 0 -0.40400778820915462 -0.024192706357851139 0 -0.38451565969430218 -0.033762290754434182 0 -0.39346595798074191 -0.047302400044547589 0 -0.40400778820915462 -0.024192706357851139 0 -0.39346595798074191 -0.047302400044547589 0 -0.39346595798074191 -0.047302400044547589 0 -0.3829241277523297 -0.07041209373124431 0 -0.40826278525939691 -0.067700019299826567 0 -0.39346595798074191 -0.047302400044547589 0 -0.3829241277523297 -0.07041209373124431 0 -0.37143707925838337 -0.054045996913777018 0 -0.39346595798074191 -0.047302400044547589 0 -0.3829241277523297 -0.07041209373124431 0 -0.37238229752391738 -0.093521787417941121 0 -0.3829241277523297 -0.07041209373124431 0 -0.3829241277523297 -0.07041209373124431 0 -0.38404594996906932 -0.087344744239439942 0 -0.39578788052880298 -0.085833567974317293 0 -0.37003940622229903 -0.07849378962262564 0 -0.37238229752391738 -0.093521787417941121 0 -0.3829241277523297 -0.07041209373124431 0 -0.37238229752391738 -0.093521787417941121 0 -0.3829241277523297 -0.07041209373124431 0 -0.38404594996906932 -0.087344744239439942 0 -0.37238229752391738 -0.093521787417941121 0 -0.38404594996906932 -0.087344744239439942 0 -0.385089494071227 -0.099611527834257044 0 -0.38404594996906932 -0.087344744239439942 0 -0.39578788052880298 -0.085833567974317293 0 -0.385089494071227 -0.099611527834257044 0 -0.39578788052880298 -0.085833567974317293 0 -0.40180115439445901 -0.0980240719386722 0 -0.41278147049813868 -0.087580846135805163 0 -0.39578788052880298 -0.085833567974317293 0 -0.40826278525939691 -0.067700019299826567 0 -0.41278147049813868 -0.087580846135805163 0 -0.3829241277523297 -0.07041209373124431 0 -0.39578788052880298 -0.085833567974317293 0 -0.40826278525939691 -0.067700019299826567 0 -0.3729233332471541 -0.1232647193754889 0 -0.39609008670709328 -0.1134530457081568 0 -0.3729233332471541 -0.1232647193754889 0 -0.37478081018170961 -0.1102435659632672 0 -0.39609008670709328 -0.1134530457081568 0 -0.37478081018170961 -0.1102435659632672 0 -0.385089494071227 -0.099611527834257044 0 -0.39609008670709328 -0.1134530457081568 0 -0.37270595989878241 -0.1009059678272784 0 -0.37478081018170961 -0.1102435659632672 0 -0.385089494071227 -0.099611527834257044 0 -0.37270595989878241 -0.1009059678272784 0 -0.37238229752391738 -0.093521787417941121 0 -0.385089494071227 -0.099611527834257044 0 -0.40180115439445901 -0.0980240719386722 0 -0.39609008670709328 -0.1134530457081568 0 -0.41925684016703257 -0.1036413720408247 0 -0.39578788052880298 -0.085833567974317293 0 -0.385089494071227 -0.099611527834257044 0 -0.40180115439445901 -0.0980240719386722 0 -0.385089494071227 -0.099611527834257044 0 -0.40180115439445901 -0.0980240719386722 0 -0.39609008670709328 -0.1134530457081568 0 -0.39609008670709328 -0.1134530457081568 0 -0.4144731578386241 -0.1231718978619071 0 -0.41925684016703257 -0.1036413720408247 0 -0.39609008670709328 -0.1134530457081568 0 -0.41925684016703257 -0.1036413720408247 0 -0.40180115439445901 -0.0980240719386722 0 -0.41925684016703257 -0.1036413720408247 0 -0.41278147049813868 -0.087580846135805163 0 -0.41925684016703257 -0.1036413720408247 0 -0.44242359362697198 -0.093829698373492643 0 -0.41925684016703257 -0.1036413720408247 0 -0.42667868529434783 -0.088830680457503239 0 -0.44242359362697198 -0.093829698373492643 0 -0.41925684016703257 -0.1036413720408247 0 -0.43413090347442718 -0.10784395222991711 0 -0.44242359362697198 -0.093829698373492643 0 -0.4144731578386241 -0.1231718978619071 0 -0.43413090347442718 -0.10784395222991711 0 -0.4144731578386241 -0.1231718978619071 0 -0.41925684016703257 -0.1036413720408247 0 -0.43413090347442718 -0.10784395222991711 0 -0.4144731578386241 -0.1231718978619071 0 -0.43413090347442718 -0.10784395222991711 0 -0.44110938222238999 -0.1240917714673194 0 -0.40826278525939691 -0.067700019299826567 0 -0.42187895759126059 -0.078132174667029292 0 -0.42860833359041273 -0.063756405431180191 0 -0.40826278525939691 -0.067700019299826567 0 -0.41278147049813868 -0.087580846135805163 0 -0.42187895759126059 -0.078132174667029292 0 -0.41925684016703257 -0.1036413720408247 0 -0.41278147049813868 -0.087580846135805163 0 -0.42667868529434783 -0.088830680457503239 0 -0.41278147049813868 -0.087580846135805163 0 -0.42187895759126059 -0.078132174667029292 0 -0.42667868529434783 -0.088830680457503239 0 -0.42187895759126059 -0.078132174667029292 0 -0.42667868529434783 -0.088830680457503239 0 -0.43545863599148449 -0.07826380668418241 0 -0.42667868529434783 -0.088830680457503239 0 -0.43545863599148449 -0.07826380668418241 0 -0.44242359362697198 -0.093829698373492643 0 -0.42187895759126059 -0.078132174667029292 0 -0.43545863599148449 -0.07826380668418241 0 -0.42860833359041273 -0.063756405431180191 0 -0.43545863599148449 -0.07826380668418241 0 -0.42860833359041273 -0.063756405431180191 0 -0.44412812785629813 -0.065598512935545139 0 -0.44412812785629813 -0.065598512935545139 0 -0.45921910147797368 -0.068446743821956355 0 -0.45399768991877493 -0.053708531106184017 0 -0.44412812785629813 -0.065598512935545139 0 -0.44972517778992033 -0.078964262575129951 0 -0.45921910147797368 -0.068446743821956355 0 -0.43545863599148449 -0.07826380668418241 0 -0.44412812785629813 -0.065598512935545139 0 -0.44972517778992033 -0.078964262575129951 0 -0.44972517778992033 -0.078964262575129951 0 -0.46559034708691133 -0.08401802470616053 0 -0.44242359362697198 -0.093829698373492643 0 -0.43545863599148449 -0.07826380668418241 0 -0.44972517778992033 -0.078964262575129951 0 -0.44242359362697198 -0.093829698373492643 0 -0.46559034708691133 -0.08401802470616053 0 -0.44242359362697198 -0.093829698373492643 0 -0.4537886491102302 -0.092516006597927108 0 -0.46559034708691133 -0.08401802470616053 0 -0.44242359362697198 -0.093829698373492643 0 -0.4537886491102302 -0.092516006597927108 0 -0.46559034708691133 -0.08401802470616053 0 -0.46509525678762409 -0.095839662855152524 0 -0.44972517778992033 -0.078964262575129951 0 -0.46559034708691133 -0.08401802470616053 0 -0.45921910147797368 -0.068446743821956355 0 -0.46559034708691133 -0.08401802470616053 0 -0.45921910147797368 -0.068446743821956355 0 -0.47329332422405951 -0.069570081780410173 0 -0.45921910147797368 -0.068446743821956355 0 -0.47329332422405951 -0.069570081780410173 0 -0.4685799419918783 -0.058821049828308367 0 -0.44110938222238999 -0.1240917714673194 0 -0.45388586103200618 -0.1086341677551893 0 -0.46255851256865638 -0.1234751822923775 0 -0.43413090347442718 -0.10784395222991711 0 -0.44110938222238999 -0.1240917714673194 0 -0.45388586103200618 -0.1086341677551893 0 -0.43413090347442718 -0.10784395222991711 0 -0.4537886491102302 -0.092516006597927108 0 -0.43413090347442718 -0.10784395222991711 0 -0.4537886491102302 -0.092516006597927108 0 -0.44242359362697198 -0.093829698373492643 0 -0.43413090347442718 -0.10784395222991711 0 -0.4537886491102302 -0.092516006597927108 0 -0.45388586103200618 -0.1086341677551893 0 -0.45388586103200618 -0.1086341677551893 0 -0.46509525678762409 -0.095839662855152524 0 -0.47302914964666731 -0.1060865281858165 0 -0.4537886491102302 -0.092516006597927108 0 -0.45388586103200618 -0.1086341677551893 0 -0.46509525678762409 -0.095839662855152524 0 -0.45388586103200618 -0.1086341677551893 0 -0.46255851256865638 -0.1234751822923775 0 -0.47302914964666731 -0.1060865281858165 0 -0.46255851256865638 -0.1234751822923775 0 -0.48175251203909808 -0.1212037662768955 0 -0.47302914964666731 -0.1060865281858165 0 -0.46509525678762409 -0.095839662855152524 0 -0.47302914964666731 -0.1060865281858165 0 -0.48103703849401491 -0.090832949960934661 0 -0.48175251203909808 -0.1212037662768955 0 -0.47302914964666731 -0.1060865281858165 0 -0.5 -0.1006113424691889 0 -0.47302914964666731 -0.1060865281858165 0 -0.5 -0.1006113424691889 0 -0.48103703849401491 -0.090832949960934661 0 -0.5 -0.12894640322849679 0 -0.48175251203909808 -0.1212037662768955 0 -0.5 -0.1006113424691889 0 -0.47329332422405951 -0.069570081780410173 0 -0.48460939260059571 -0.061495673715812119 0 -0.4685799419918783 -0.058821049828308367 0 -0.46559034708691133 -0.08401802470616053 0 -0.47329332422405951 -0.069570081780410173 0 -0.4887571005468504 -0.074206351038828527 0 -0.47329332422405951 -0.069570081780410173 0 -0.4887571005468504 -0.074206351038828527 0 -0.48460939260059571 -0.061495673715812119 0 -0.46559034708691133 -0.08401802470616053 0 -0.4887571005468504 -0.074206351038828527 0 -0.46559034708691133 -0.08401802470616053 0 -0.48103703849401491 -0.090832949960934661 0 -0.4887571005468504 -0.074206351038828527 0 -0.46559034708691133 -0.08401802470616053 0 -0.46509525678762409 -0.095839662855152524 0 -0.48103703849401491 -0.090832949960934661 0 -0.5 -0.1006113424691889 0 -0.48103703849401491 -0.090832949960934661 0 -0.4887571005468504 -0.074206351038828527 0 -0.5 -0.1006113424691889 0 -0.5 -0.072276281709880985 0 -0.4887571005468504 -0.074206351038828527 0 -0.5 -0.072276281709880985 0 -0.4887571005468504 -0.074206351038828527 0 -0.48460939260059571 -0.061495673715812119 0 -0.5 -0.072276281709880985 0 -0.48460939260059571 -0.061495673715812119 0 -0.5 -0.043941220950573179 0 -0.48460939260059571 -0.061495673715812119 0 -0.5 -0.043941220950573179 0 -0.47904645244433119 -0.047466845847315649 0 -0.5 -0.043941220950573179 0 -0.48587500693018498 -0.034284934361655063 0 -0.5 -0.015606160191265371 0 -0.5 -0.043941220950573179 0 -0.48587500693018498 -0.034284934361655063 0 -0.47904645244433119 -0.047466845847315649 0 -0.48587500693018498 -0.034284934361655063 0 -0.4711015396201701 -0.038048248836919832 0 -0.47948446557423741 -0.021428485468384429 0 -0.48587500693018498 -0.034284934361655063 0 -0.4711015396201701 -0.038048248836919832 0 -0.47904645244433119 -0.047466845847315649 0 -0.4711015396201701 -0.038048248836919832 0 -0.47904645244433119 -0.047466845847315649 0 -0.46411283352315869 -0.048209947390625361 0 -0.48460939260059571 -0.061495673715812119 0 -0.47904645244433119 -0.047466845847315649 0 -0.4685799419918783 -0.058821049828308367 0 -0.47904645244433119 -0.047466845847315649 0 -0.4685799419918783 -0.058821049828308367 0 -0.46411283352315869 -0.048209947390625361 0 -0.45921910147797368 -0.068446743821956355 0 -0.4685799419918783 -0.058821049828308367 0 -0.45399768991877493 -0.053708531106184017 0 -0.4685799419918783 -0.058821049828308367 0 -0.45399768991877493 -0.053708531106184017 0 -0.46411283352315869 -0.048209947390625361 0 -0.4711015396201701 -0.038048248836919832 0 -0.46411283352315869 -0.048209947390625361 0 -0.45188668020592992 -0.038400900290153937 0 -0.4711015396201701 -0.038048248836919832 0 -0.45188668020592992 -0.038400900290153937 0 -0.4640788160760792 -0.02644727167452187 0 -0.45399768991877493 -0.053708531106184017 0 -0.46411283352315869 -0.048209947390625361 0 -0.45188668020592992 -0.038400900290153937 0 -0.45188668020592992 -0.038400900290153937 0 -0.44016371382736408 -0.048924911591365888 0 -0.43919291981986402 -0.030336707361723621 0 -0.42860833359041273 -0.063756405431180191 0 -0.44412812785629813 -0.065598512935545139 0 -0.44016371382736408 -0.048924911591365888 0 -0.44412812785629813 -0.065598512935545139 0 -0.45399768991877493 -0.053708531106184017 0 -0.44016371382736408 -0.048924911591365888 0 -0.45399768991877493 -0.053708531106184017 0 -0.45188668020592992 -0.038400900290153937 0 -0.44016371382736408 -0.048924911591365888 0 -0.4522358220899747 -0.0044440308978818868 0 -0.45206125114795248 -0.021422465594017889 0 -0.44126211137753352 -0.01296971077723684 0 -0.4522358220899747 -0.0044440308978818868 0 -0.43289881026830418 0.0076089947510501951 0 -0.44126211137753352 -0.01296971077723684 0 -0.4522358220899747 -0.0044440308978818868 0 -0.45206125114795248 -0.021422465594017889 0 -0.45188668020592992 -0.038400900290153937 0 -0.45206125114795248 -0.021422465594017889 0 -0.44126211137753352 -0.01296971077723684 0 -0.43919291981986402 -0.030336707361723621 0 -0.45206125114795248 -0.021422465594017889 0 -0.45188668020592992 -0.038400900290153937 0 -0.43919291981986402 -0.030336707361723621 0 -0.45206125114795248 -0.021422465594017889 0 -0.45206125114795248 -0.021422465594017889 0 -0.4640788160760792 -0.02644727167452187 0 -0.46586014383210589 -0.012936258183133219 0 -0.45188668020592992 -0.038400900290153937 0 -0.45206125114795248 -0.021422465594017889 0 -0.4640788160760792 -0.02644727167452187 0 -0.4522358220899747 -0.0044440308978818868 0 -0.46586014383210589 -0.012936258183133219 0 -0.46735206408486102 0.0055223027340548844 0 -0.4522358220899747 -0.0044440308978818868 0 -0.45206125114795248 -0.021422465594017889 0 -0.46586014383210589 -0.012936258183133219 0 -0.4522358220899747 -0.0044440308978818868 0 -0.46586014383210589 -0.012936258183133219 0 -0.46586014383210589 -0.012936258183133219 0 -0.47948446557423741 -0.021428485468384429 0 -0.48534300538250541 -0.0030162133983785201 0 -0.46586014383210589 -0.012936258183133219 0 -0.48534300538250541 -0.0030162133983785201 0 -0.46735206408486102 0.0055223027340548844 0 -0.4711015396201701 -0.038048248836919832 0 -0.4640788160760792 -0.02644727167452187 0 -0.47948446557423741 -0.021428485468384429 0 -0.46586014383210589 -0.012936258183133219 0 -0.47948446557423741 -0.021428485468384429 0 -0.4640788160760792 -0.02644727167452187 0 -0.46586014383210589 -0.012936258183133219 0 -0.47948446557423741 -0.021428485468384429 0 -0.48587500693018498 -0.034284934361655063 0 -0.47948446557423741 -0.021428485468384429 0 -0.5 -0.015606160191265371 0 -0.47948446557423741 -0.021428485468384429 0 -0.48534300538250541 -0.0030162133983785201 0 -0.5 -0.015606160191265371 0 -0.48534300538250541 -0.0030162133983785201 0 -0.5 -0.015606160191265371 0 -0.5 0.012728900568042489 0 -0.48534300538250541 -0.0030162133983785201 0 -0.5 0.012728900568042489 0 -0.47988849774772258 0.025080078061597458 0 -0.5 0.012728900568042489 0 -0.47988849774772258 0.025080078061597458 0 -0.5 0.041063961327350351 0 -0.48534300538250541 -0.0030162133983785201 0 -0.47988849774772258 0.025080078061597458 0 -0.46735206408486102 0.0055223027340548844 0 -0.5 0.041063961327350351 0 -0.48224334582027878 0.051093623309512087 0 -0.5 0.069399022086658158 0 -0.47988849774772258 0.025080078061597458 0 -0.5 0.041063961327350351 0 -0.48224334582027878 0.051093623309512087 0 -0.47988849774772258 0.025080078061597458 0 -0.46914864456725808 0.040230667677046618 0 -0.48224334582027878 0.051093623309512087 0 -0.48224334582027878 0.051093623309512087 0 -0.46515369279640018 0.055271827411603233 0 -0.46864071913540128 0.07097796884157942 0 -0.46914864456725808 0.040230667677046618 0 -0.48224334582027878 0.051093623309512087 0 -0.46515369279640018 0.055271827411603233 0 -0.48224334582027878 0.051093623309512087 0 -0.46864071913540128 0.07097796884157942 0 -0.46515369279640018 0.055271827411603233 0 -0.45274146620161959 0.044733944712374893 0 -0.45299428825744331 0.069322932517503294 0 -0.46914864456725808 0.040230667677046618 0 -0.45274146620161959 0.044733944712374893 0 -0.45248864414579731 0.020144956907246499 0 -0.46914864456725808 0.040230667677046618 0 -0.46515369279640018 0.055271827411603233 0 -0.45274146620161959 0.044733944712374893 0 -0.45274146620161959 0.044733944712374893 0 -0.45248864414579731 0.020144956907246499 0 -0.43979809270222209 0.029220302434853171 0 -0.45274146620161959 0.044733944712374893 0 -0.43979809270222209 0.029220302434853171 0 -0.43445569936285611 0.043750848210076979 0 -0.45274146620161959 0.044733944712374893 0 -0.45248864414579731 0.020144956907246499 0 -0.45274146620161959 0.044733944712374893 0 -0.43445569936285611 0.043750848210076979 0 -0.43225890156243979 0.067129600476370135 0 -0.45274146620161959 0.044733944712374893 0 -0.43225890156243979 0.067129600476370135 0 -0.45299428825744331 0.069322932517503294 0 -0.45274146620161959 0.044733944712374893 0 -0.45299428825744331 0.069322932517503294 0 -0.4522358220899747 -0.0044440308978818868 0 -0.46735206408486102 0.0055223027340548844 0 -0.45248864414579731 0.020144956907246499 0 -0.47988849774772258 0.025080078061597458 0 -0.46914864456725808 0.040230667677046618 0 -0.45248864414579731 0.020144956907246499 0 -0.47988849774772258 0.025080078061597458 0 -0.46735206408486102 0.0055223027340548844 0 -0.45248864414579731 0.020144956907246499 0 -0.45248864414579731 0.020144956907246499 0 -0.44227883716658201 0.019530526433069129 0 -0.44377371193316117 0.011282764931624769 0 -0.44227883716658201 0.019530526433069129 0 -0.44377371193316117 0.011282764931624769 0 -0.43305489988514773 0.017474081458552091 0 -0.45248864414579731 0.020144956907246499 0 -0.43979809270222209 0.029220302434853171 0 -0.44227883716658201 0.019530526433069129 0 -0.43979809270222209 0.029220302434853171 0 -0.44227883716658201 0.019530526433069129 0 -0.43305489988514773 0.017474081458552091 0 -0.4522358220899747 -0.0044440308978818868 0 -0.45248864414579731 0.020144956907246499 0 -0.44377371193316117 0.011282764931624769 0 -0.4522358220899747 -0.0044440308978818868 0 -0.43289881026830418 0.0076089947510501951 0 -0.44377371193316117 0.011282764931624769 0 -0.43289881026830418 0.0076089947510501951 0 -0.4522358220899747 -0.0044440308978818868 0 -0.44377371193316117 0.011282764931624769 0 -0.43289881026830418 0.0076089947510501951 0 -0.4522358220899747 -0.0044440308978818868 0 -0.45248864414579731 0.020144956907246499 0 -0.43289881026830418 0.0076089947510501951 0 -0.41589415406792968 0.001864464749301288 0 -0.43289881026830418 0.0076089947510501951 0 -0.41589415406792968 0.001864464749301288 0 -0.42169907150585378 0.014589946089864509 0 -0.44377371193316117 0.011282764931624769 0 -0.43289881026830418 0.0076089947510501951 0 -0.43305489988514773 0.017474081458552091 0 -0.43289881026830418 0.0076089947510501951 0 -0.42169907150585378 0.014589946089864509 0 -0.43289881026830418 0.0076089947510501951 0 -0.42169907150585378 0.014589946089864509 0 -0.43305489988514773 0.017474081458552091 0 -0.42169907150585378 0.014589946089864509 0 -0.40983613943778241 0.0097051915940604798 0 -0.41145636911960698 0.020974363481462571 0 -0.41589415406792968 0.001864464749301288 0 -0.42169907150585378 0.014589946089864509 0 -0.40983613943778241 0.0097051915940604798 0 -0.41589415406792968 0.001864464749301288 0 -0.42169907150585378 0.014589946089864509 0 -0.40983613943778241 0.0097051915940604798 0 -0.41145636911960698 0.020974363481462571 0 -0.39896831209080369 0.014209282938649259 0 -0.40116279040471869 -0.0031120992889756352 0 -0.41589415406792968 0.001864464749301288 0 -0.40983613943778241 0.0097051915940604798 0 -0.41145636911960698 0.020974363481462571 0 -0.41256693301741398 0.031886341539526762 0 -0.40267739764470017 0.028253621242833801 0 -0.42169907150585378 0.014589946089864509 0 -0.41145636911960698 0.020974363481462571 0 -0.42169907150585378 0.014589946089864509 0 -0.41145636911960698 0.020974363481462571 0 -0.42319664250233707 0.017872906093290591 0 -0.41145636911960698 0.020974363481462571 0 -0.41914523053947589 0.02630824510057974 0 -0.42319664250233707 0.017872906093290591 0 -0.41145636911960698 0.020974363481462571 0 -0.41914523053947589 0.02630824510057974 0 -0.41256693301741398 0.031886341539526762 0 -0.41914523053947589 0.02630824510057974 0 -0.42831654877529668 0.026118013921600951 0 -0.42245521152721838 0.037300533033722168 0 -0.42831654877529668 0.026118013921600951 0 -0.42319664250233707 0.017872906093290591 0 -0.43305489988514773 0.017474081458552091 0 -0.42169907150585378 0.014589946089864509 0 -0.42319664250233707 0.017872906093290591 0 -0.43305489988514773 0.017474081458552091 0 -0.41914523053947589 0.02630824510057974 0 -0.42831654877529668 0.026118013921600951 0 -0.42319664250233707 0.017872906093290591 0 -0.42169907150585378 0.014589946089864509 0 -0.42319664250233707 0.017872906093290591 0 -0.43979809270222209 0.029220302434853171 0 -0.42831654877529668 0.026118013921600951 0 -0.43125638809189831 0.034097424400063317 0 -0.43979809270222209 0.029220302434853171 0 -0.42831654877529668 0.026118013921600951 0 -0.43305489988514773 0.017474081458552091 0 -0.43979809270222209 0.029220302434853171 0 -0.43125638809189831 0.034097424400063317 0 -0.43445569936285611 0.043750848210076979 0 -0.43445569936285611 0.043750848210076979 0 -0.42245521152721838 0.037300533033722168 0 -0.42155875671520382 0.051942438998888382 0 -0.43125638809189831 0.034097424400063317 0 -0.43445569936285611 0.043750848210076979 0 -0.42245521152721838 0.037300533033722168 0 -0.42831654877529668 0.026118013921600951 0 -0.43125638809189831 0.034097424400063317 0 -0.42245521152721838 0.037300533033722168 0 -0.43445569936285611 0.043750848210076979 0 -0.42155875671520382 0.051942438998888382 0 -0.43225890156243979 0.067129600476370135 0 -0.42155875671520382 0.051942438998888382 0 -0.41152351486743638 0.064936268435237171 0 -0.43225890156243979 0.067129600476370135 0 -0.42155875671520382 0.051942438998888382 0 -0.40710045625606822 0.046594944839035479 0 -0.41152351486743638 0.064936268435237171 0 -0.40710045625606822 0.046594944839035479 0 -0.41152351486743638 0.064936268435237171 0 -0.40710045625606822 0.046594944839035479 0 -0.41256693301741398 0.031886341539526762 0 -0.40267739764470017 0.028253621242833801 0 -0.41914523053947589 0.02630824510057974 0 -0.42245521152721838 0.037300533033722168 0 -0.41256693301741398 0.031886341539526762 0 -0.42245521152721838 0.037300533033722168 0 -0.42155875671520382 0.051942438998888382 0 -0.40710045625606822 0.046594944839035479 0 -0.42245521152721838 0.037300533033722168 0 -0.40710045625606822 0.046594944839035479 0 -0.41256693301741398 0.031886341539526762 0 -0.39131231153374552 0.042456790908943637 0 -0.38823861445038121 0.026668724807580192 0 -0.40267739764470017 0.028253621242833801 0 -0.40710045625606822 0.046594944839035479 0 -0.40267739764470017 0.028253621242833801 0 -0.40710045625606822 0.046594944839035479 0 -0.39131231153374552 0.042456790908943637 0 -0.40267739764470017 0.028253621242833801 0 -0.40710045625606822 0.046594944839035479 0 -0.39188434323077798 0.062858891000922235 0 -0.41152351486743638 0.064936268435237171 0 -0.40710045625606822 0.046594944839035479 0 -0.39131231153374552 0.042456790908943637 0 -0.39188434323077798 0.062858891000922235 0 -0.39188434323077798 0.062858891000922235 0 -0.37224517159411952 0.060781513566607312 0 -0.3823476884074542 0.051673396179119313 0 -0.37394892727117302 0.040596389240003979 0 -0.37224517159411952 0.060781513566607312 0 -0.3823476884074542 0.051673396179119313 0 -0.39188434323077798 0.062858891000922235 0 -0.37224517159411952 0.060781513566607312 0 -0.39131231153374552 0.042456790908943637 0 -0.3823476884074542 0.051673396179119313 0 -0.39188434323077798 0.062858891000922235 0 -0.39131231153374552 0.042456790908943637 0 -0.38823861445038121 0.026668724807580192 0 -0.37394892727117302 0.040596389240003979 0 -0.39131231153374552 0.042456790908943637 0 -0.3823476884074542 0.051673396179119313 0 -0.37394892727117302 0.040596389240003979 0 -0.38823861445038121 0.026668724807580192 0 -0.37565268294822551 0.020411264913400569 0 -0.37394892727117302 0.040596389240003979 0 -0.38823861445038121 0.026668724807580192 0 -0.37565268294822551 0.020411264913400569 0 -0.3868720552136396 0.014084999601649949 0 -0.37565268294822551 0.020411264913400569 0 -0.3773564386252769 0.0002261405867970603 0 -0.3868720552136396 0.014084999601649949 0 -0.37565268294822551 0.020411264913400569 0 -0.3773564386252769 0.0002261405867970603 0 -0.3773564386252769 0.0002261405867970603 0 -0.39015820461518952 0.0034639321021737069 0 -0.3868720552136396 0.014084999601649949 0 -0.40116279040471869 -0.0031120992889756352 0 -0.39015820461518952 0.0034639321021737069 0 -0.39896831209080369 0.014209282938649259 0 -0.39015820461518952 0.0034639321021737069 0 -0.3868720552136396 0.014084999601649949 0 -0.39896831209080369 0.014209282938649259 0 -0.40116279040471869 -0.0031120992889756352 0 -0.40983613943778241 0.0097051915940604798 0 -0.39896831209080369 0.014209282938649259 0 -0.41145636911960698 0.020974363481462571 0 -0.39896831209080369 0.014209282938649259 0 -0.40267739764470017 0.028253621242833801 0 -0.38823861445038121 0.026668724807580192 0 -0.3868720552136396 0.014084999601649949 0 -0.39896831209080369 0.014209282938649259 0 -0.38823861445038121 0.026668724807580192 0 -0.39896831209080369 0.014209282938649259 0 -0.40267739764470017 0.028253621242833801 0 -0.39909211010484341 0.1094667366606065 0 -0.39746155353099871 0.083835072952101797 0 -0.40893870946506972 0.094252886902164323 0 -0.39909211010484341 0.1094667366606065 0 -0.41757272322391181 0.13113683881604371 0 -0.401881088927103 0.13147482389873741 0 -0.39909211010484341 0.1094667366606065 0 -0.401881088927103 0.13147482389873741 0 -0.38936729559860372 0.12545459930975131 0 -0.39909211010484341 0.1094667366606065 0 -0.37704360043719409 0.1171158391467417 0 -0.38936729559860372 0.12545459930975131 0 -0.39909211010484341 0.1094667366606065 0 -0.37704360043719409 0.1171158391467417 0 -0.38022180878003597 0.10358493795450149 0 -0.39909211010484341 0.1094667366606065 0 -0.38022180878003597 0.10358493795450149 0 -0.3806114969857749 0.087796634505169363 0 -0.39909211010484341 0.1094667366606065 0 -0.3806114969857749 0.087796634505169363 0 -0.3806114969857749 0.087796634505169363 0 -0.38434883475008541 0.07227954162420426 0 -0.39746155353099871 0.083835072952101797 0 -0.38434883475008541 0.07227954162420426 0 -0.39188434323077798 0.062858891000922235 0 -0.37224517159411952 0.060781513566607312 0 -0.3806114969857749 0.087796634505169363 0 -0.38434883475008541 0.07227954162420426 0 -0.37174830621872118 0.066668090797781271 0 -0.38434883475008541 0.07227954162420426 0 -0.37224517159411952 0.060781513566607312 0 -0.37174830621872118 0.066668090797781271 0 -0.38434883475008541 0.07227954162420426 0 -0.39188434323077798 0.062858891000922235 0 -0.39359071665613071 0.072055370832682347 0 -0.39188434323077798 0.062858891000922235 0 -0.41152351486743638 0.064936268435237171 0 -0.40066813511266069 0.069247977753501125 0 -0.39746155353099871 0.083835072952101797 0 -0.4152960364754103 0.080579976933170802 0 -0.39188434323077798 0.062858891000922235 0 -0.40066813511266069 0.069247977753501125 0 -0.41152351486743638 0.064936268435237171 0 -0.39188434323077798 0.062858891000922235 0 -0.39359071665613071 0.072055370832682347 0 -0.40066813511266069 0.069247977753501125 0 -0.39359071665613071 0.072055370832682347 0 -0.40066813511266069 0.069247977753501125 0 -0.39746155353099871 0.083835072952101797 0 -0.38434883475008541 0.07227954162420426 0 -0.39359071665613071 0.072055370832682347 0 -0.39746155353099871 0.083835072952101797 0 -0.39909211010484341 0.1094667366606065 0 -0.3806114969857749 0.087796634505169363 0 -0.39746155353099871 0.083835072952101797 0 -0.39746155353099871 0.083835072952101797 0 -0.4152960364754103 0.080579976933170802 0 -0.40893870946506972 0.094252886902164323 0 -0.4152960364754103 0.080579976933170802 0 -0.40893870946506972 0.094252886902164323 0 -0.42087318818037539 0.1037070374480288 0 -0.4152960364754103 0.080579976933170802 0 -0.42934982153933338 0.091305304538305071 0 -0.42087318818037539 0.1037070374480288 0 -0.4152960364754103 0.080579976933170802 0 -0.42087318818037539 0.1037070374480288 0 -0.4152960364754103 0.080579976933170802 0 -0.41152351486743638 0.064936268435237171 0 -0.4152960364754103 0.080579976933170802 0 -0.41152351486743638 0.064936268435237171 0 -0.43225890156243979 0.067129600476370135 0 -0.40066813511266069 0.069247977753501125 0 -0.4152960364754103 0.080579976933170802 0 -0.41152351486743638 0.064936268435237171 0 -0.40066813511266069 0.069247977753501125 0 -0.4152960364754103 0.080579976933170802 0 -0.41152351486743638 0.064936268435237171 0 -0.43225890156243979 0.067129600476370135 0 -0.4152960364754103 0.080579976933170802 0 -0.43225890156243979 0.067129600476370135 0 -0.42639124616437069 0.081693242606670435 0 -0.43225890156243979 0.067129600476370135 0 -0.42639124616437069 0.081693242606670435 0 -0.4348177047389592 0.079700381007139956 0 -0.4152960364754103 0.080579976933170802 0 -0.42934982153933338 0.091305304538305071 0 -0.42934982153933338 0.091305304538305071 0 -0.42639124616437069 0.081693242606670435 0 -0.43126293121663339 0.085292619698016922 0 -0.4152960364754103 0.080579976933170802 0 -0.42934982153933338 0.091305304538305071 0 -0.42639124616437069 0.081693242606670435 0 -0.43126293121663339 0.085292619698016922 0 -0.4348177047389592 0.079700381007139956 0 -0.43754391372519452 0.08893440485098883 0 -0.42639124616437069 0.081693242606670435 0 -0.43126293121663339 0.085292619698016922 0 -0.4348177047389592 0.079700381007139956 0 -0.42934982153933338 0.091305304538305071 0 -0.43126293121663339 0.085292619698016922 0 -0.43754391372519452 0.08893440485098883 0 -0.43360896987348091 0.10436587794947939 0 -0.42087318818037539 0.1037070374480288 0 -0.43711026587626189 0.1170692453216165 0 -0.42934982153933338 0.091305304538305071 0 -0.43360896987348091 0.10436587794947939 0 -0.44586960479972038 0.10426482704112471 0 -0.42934982153933338 0.091305304538305071 0 -0.43360896987348091 0.10436587794947939 0 -0.42087318818037539 0.1037070374480288 0 -0.39909211010484341 0.1094667366606065 0 -0.40893870946506972 0.094252886902164323 0 -0.42087318818037539 0.1037070374480288 0 -0.42087318818037539 0.1037070374480288 0 -0.41623261057333122 0.1170621276772332 0 -0.42645033988534059 0.12683409796288689 0 -0.39909211010484341 0.1094667366606065 0 -0.41757272322391181 0.13113683881604371 0 -0.39909211010484341 0.1094667366606065 0 -0.41623261057333122 0.1170621276772332 0 -0.41757272322391181 0.13113683881604371 0 -0.39909211010484341 0.1094667366606065 0 -0.42087318818037539 0.1037070374480288 0 -0.41623261057333122 0.1170621276772332 0 -0.41623261057333122 0.1170621276772332 0 -0.41952252598690781 0.1238500354055902 0 -0.41757272322391181 0.13113683881604371 0 -0.41623261057333122 0.1170621276772332 0 -0.41952252598690781 0.1238500354055902 0 -0.42645033988534059 0.12683409796288689 0 -0.42087318818037539 0.1037070374480288 0 -0.42645033988534059 0.12683409796288689 0 -0.42087318818037539 0.1037070374480288 0 -0.43711026587626189 0.1170692453216165 0 -0.42645033988534059 0.12683409796288689 0 -0.43711026587626189 0.1170692453216165 0 -0.42835092695280302 0.12987366360210781 0 -0.42645033988534059 0.12683409796288689 0 -0.43711026587626189 0.1170692453216165 0 -0.42835092695280302 0.12987366360210781 0 -0.44621962580713559 0.1223813667816861 0 -0.44586960479972038 0.10426482704112471 0 -0.45341364820274771 0.11010907575011419 0 -0.43711026587626189 0.1170692453216165 0 -0.44621962580713559 0.1223813667816861 0 -0.44586960479972038 0.10426482704112471 0 -0.43711026587626189 0.1170692453216165 0 -0.44621962580713559 0.1223813667816861 0 -0.441182024379419 0.12792122111012441 0 -0.44621962580713559 0.1223813667816861 0 -0.45341364820274771 0.11010907575011419 0 -0.45370642348500312 0.13858383765946339 0 -0.43711026587626189 0.1170692453216165 0 -0.44586960479972038 0.10426482704112471 0 -0.43360896987348091 0.10436587794947939 0 -0.43711026587626189 0.1170692453216165 0 -0.44586960479972038 0.10426482704112471 0 -0.42934982153933338 0.091305304538305071 0 -0.44834208010832682 0.1006505579374639 0 -0.44586960479972038 0.10426482704112471 0 -0.42934982153933338 0.091305304538305071 0 -0.44586960479972038 0.10426482704112471 0 -0.42934982153933338 0.091305304538305071 0 -0.44834208010832682 0.1006505579374639 0 -0.44834208010832682 0.1006505579374639 0 -0.45334169089420651 0.10311064605818331 0 -0.45324273890551442 0.093486765596798624 0 -0.44834208010832682 0.1006505579374639 0 -0.44394703102272121 0.087723161074018979 0 -0.45324273890551442 0.093486765596798624 0 -0.44834208010832682 0.1006505579374639 0 -0.45324273890551442 0.093486765596798624 0 -0.44834208010832682 0.1006505579374639 0 -0.44586960479972038 0.10426482704112471 0 -0.45024175600124999 0.1045337766967219 0 -0.44834208010832682 0.1006505579374639 0 -0.44586960479972038 0.10426482704112471 0 -0.44834208010832682 0.1006505579374639 0 -0.45024175600124999 0.1045337766967219 0 -0.45334169089420651 0.10311064605818331 0 -0.44834208010832682 0.1006505579374639 0 -0.45334169089420651 0.10311064605818331 0 -0.44586960479972038 0.10426482704112471 0 -0.45341364820274771 0.11010907575011419 0 -0.44586960479972038 0.10426482704112471 0 -0.45024175600124999 0.1045337766967219 0 -0.45341364820274771 0.11010907575011419 0 -0.45024175600124999 0.1045337766967219 0 -0.45334169089420651 0.10311064605818331 0 -0.45341364820274771 0.11010907575011419 0 -0.45334169089420651 0.10311064605818331 0 -0.46673134045776449 0.098647798084262273 0 -0.47277226583114951 0.1126715756241661 0 -0.45334169089420651 0.10311064605818331 0 -0.47277226583114951 0.1126715756241661 0 -0.45334169089420651 0.10311064605818331 0 -0.45341364820274771 0.11010907575011419 0 -0.47277226583114951 0.1126715756241661 0 -0.45334169089420651 0.10311064605818331 0 -0.45341364820274771 0.11010907575011419 0 -0.45334169089420651 0.10311064605818331 0 -0.46673134045776449 0.098647798084262273 0 -0.45324273890551442 0.093486765596798624 0 -0.45334169089420651 0.10311064605818331 0 -0.45324273890551442 0.093486765596798624 0 -0.45341364820274771 0.11010907575011419 0 -0.45370642348500312 0.13858383765946339 0 -0.46822287354434372 0.12158154369072929 0 -0.45341364820274771 0.11010907575011419 0 -0.46098012556850948 0.13576643897135449 0 -0.46822287354434372 0.12158154369072929 0 -0.45341364820274771 0.11010907575011419 0 -0.47277226583114951 0.1126715756241661 0 -0.46822287354434372 0.12158154369072929 0 -0.45341364820274771 0.11010907575011419 0 -0.43225890156243979 0.067129600476370135 0 -0.4348177047389592 0.079700381007139956 0 -0.45299428825744331 0.069322932517503294 0 -0.43225890156243979 0.067129600476370135 0 -0.45299428825744331 0.069322932517503294 0 -0.45299428825744331 0.069322932517503294 0 -0.44394703102272121 0.087723161074018979 0 -0.45324273890551442 0.093486765596798624 0 -0.4348177047389592 0.079700381007139956 0 -0.45299428825744331 0.069322932517503294 0 -0.44394703102272121 0.087723161074018979 0 -0.42934982153933338 0.091305304538305071 0 -0.44834208010832682 0.1006505579374639 0 -0.43754391372519452 0.08893440485098883 0 -0.45299428825744331 0.069322932517503294 0 -0.45324273890551442 0.093486765596798624 0 -0.4348177047389592 0.079700381007139956 0 -0.43754391372519452 0.08893440485098883 0 -0.44394703102272121 0.087723161074018979 0 -0.44834208010832682 0.1006505579374639 0 -0.43754391372519452 0.08893440485098883 0 -0.44394703102272121 0.087723161074018979 0 -0.45324273890551442 0.093486765596798624 0 -0.46864071913540128 0.07097796884157942 0 -0.46902047542425412 0.087213605778696426 0 -0.46673134045776449 0.098647798084262273 0 -0.45324273890551442 0.093486765596798624 0 -0.46902047542425412 0.087213605778696426 0 -0.45324273890551442 0.093486765596798624 0 -0.46864071913540128 0.07097796884157942 0 -0.45299428825744331 0.069322932517503294 0 -0.46864071913540128 0.07097796884157942 0 -0.45299428825744331 0.069322932517503294 0 -0.45324273890551442 0.093486765596798624 0 -0.46864071913540128 0.07097796884157942 0 -0.46515369279640018 0.055271827411603233 0 -0.45299428825744331 0.069322932517503294 0 -0.46864071913540128 0.07097796884157942 0 -0.48224334582027878 0.051093623309512087 0 -0.46864071913540128 0.07097796884157942 0 -0.47194405521018001 0.071327386624908645 0 -0.48224334582027878 0.051093623309512087 0 -0.47194405521018001 0.071327386624908645 0 -0.47888418716162789 0.073707828585064999 0 -0.48224334582027878 0.051093623309512087 0 -0.47888418716162789 0.073707828585064999 0 -0.48611736812396839 0.072477776311701561 0 -0.46864071913540128 0.07097796884157942 0 -0.47194405521018001 0.071327386624908645 0 -0.47684729005191151 0.078135608430947134 0 -0.46864071913540128 0.07097796884157942 0 -0.47194405521018001 0.071327386624908645 0 -0.47194405521018001 0.071327386624908645 0 -0.47888418716162789 0.073707828585064999 0 -0.47684729005191151 0.078135608430947134 0 -0.47888418716162789 0.073707828585064999 0 -0.47684729005191151 0.078135608430947134 0 -0.48611736812396839 0.072477776311701561 0 -0.46864071913540128 0.07097796884157942 0 -0.46902047542425412 0.087213605778696426 0 -0.47684729005191151 0.078135608430947134 0 -0.46902047542425412 0.087213605778696426 0 -0.47684729005191151 0.078135608430947134 0 -0.4860345414580815 0.086697457571386916 0 -0.46673134045776449 0.098647798084262273 0 -0.46902047542425412 0.087213605778696426 0 -0.4860345414580815 0.086697457571386916 0 -0.47684729005191151 0.078135608430947134 0 -0.4860345414580815 0.086697457571386916 0 -0.48611736812396839 0.072477776311701561 0 -0.4860345414580815 0.086697457571386916 0 -0.5 0.069399022086658158 0 -0.5 0.097734082845966019 0 -0.48224334582027878 0.051093623309512087 0 -0.5 0.069399022086658158 0 -0.48611736812396839 0.072477776311701561 0 -0.4860345414580815 0.086697457571386916 0 -0.5 0.069399022086658158 0 -0.48611736812396839 0.072477776311701561 0 -0.47622423258709301 0.1143701363268116 0 -0.47277226583114951 0.1126715756241661 0 -0.48257093742556417 0.1043276754719549 0 -0.47732098008245 0.1228128290705538 0 -0.47622423258709301 0.1143701363268116 0 -0.48434638160089988 0.12718466997223121 0 -0.47732098008245 0.1228128290705538 0 -0.47053481368501382 0.1233725664169382 0 -0.47622423258709301 0.1143701363268116 0 -0.47053481368501382 0.1233725664169382 0 -0.47622423258709301 0.1143701363268116 0 -0.46822287354434372 0.12158154369072929 0 -0.47053481368501382 0.1233725664169382 0 -0.47622423258709301 0.1143701363268116 0 -0.47732098008245 0.1228128290705538 0 -0.47053481368501382 0.1233725664169382 0 -0.47570825568896968 0.12738034846926949 0 -0.46822287354434372 0.12158154369072929 0 -0.47053481368501382 0.1233725664169382 0 -0.46822287354434372 0.12158154369072929 0 -0.47622423258709301 0.1143701363268116 0 -0.47277226583114951 0.1126715756241661 0 -0.46822287354434372 0.12158154369072929 0 -0.47277226583114951 0.1126715756241661 0 -0.47622423258709301 0.1143701363268116 0 -0.47277226583114951 0.1126715756241661 0 -0.4860345414580815 0.086697457571386916 0 -0.47277226583114951 0.1126715756241661 0 -0.48257093742556417 0.1043276754719549 0 -0.46673134045776449 0.098647798084262273 0 -0.4860345414580815 0.086697457571386916 0 -0.47277226583114951 0.1126715756241661 0 -0.4860345414580815 0.086697457571386916 0 -0.47277226583114951 0.1126715756241661 0 -0.47622423258709301 0.1143701363268116 0 -0.48257093742556417 0.1043276754719549 0 -0.4860345414580815 0.086697457571386916 0 -0.48257093742556417 0.1043276754719549 0 -0.5 0.097734082845966019 0 -0.48257093742556417 0.1043276754719549 0 -0.5 0.097734082845966019 0 -0.50000000000000044 0.12606914360527391 0 -0.47622423258709301 0.1143701363268116 0 -0.50000000000000044 0.12606914360527391 0 -0.48434638160089988 0.12718466997223121 0 -0.47622423258709301 0.1143701363268116 0 -0.48257093742556417 0.1043276754719549 0 -0.50000000000000044 0.12606914360527391 0 -0.47622423258709301 0.1143701363268116 0 -0.50000000000000044 0.12606914360527391 0 -0.50000000000000044 0.12606914360527391 0 -0.5 0.14929340138999289 0 -0.48519693419904042 0.14128251052196761 0 -0.50000000000000044 0.12606914360527391 0 -0.48434638160089988 0.12718466997223121 0 -0.48519693419904042 0.14128251052196761 0 -0.47732098008245 0.1228128290705538 0 -0.48434638160089988 0.12718466997223121 0 -0.47570825568896968 0.12738034846926949 0 -0.48434638160089988 0.12718466997223121 0 -0.47570825568896968 0.12738034846926949 0 -0.48519693419904042 0.14128251052196761 0 -0.47366862249168729 0.13896171170476021 0 -0.47570825568896968 0.12738034846926949 0 -0.48519693419904042 0.14128251052196761 0 -0.47366862249168729 0.13896171170476021 0 -0.47570825568896968 0.12738034846926949 0 -0.46098012556850948 0.13576643897135449 0 -0.47053481368501382 0.1233725664169382 0 -0.47570825568896968 0.12738034846926949 0 -0.46098012556850948 0.13576643897135449 0 -0.47053481368501382 0.1233725664169382 0 -0.47570825568896968 0.12738034846926949 0 -0.47322632622601729 0.15214179802946981 0 -0.48519693419904042 0.14128251052196761 0 -0.48742925874346849 0.15882492766573439 0 -0.47366862249168729 0.13896171170476021 0 -0.47322632622601729 0.15214179802946981 0 -0.46504075277908158 0.1468939390757362 0 -0.47366862249168729 0.13896171170476021 0 -0.47322632622601729 0.15214179802946981 0 -0.48519693419904042 0.14128251052196761 0 -0.5 0.14929340138999289 0 -0.48519693419904042 0.14128251052196761 0 -0.48742925874346849 0.15882492766573439 0 -0.48742925874346849 0.15882492766573439 0 -0.49999999999999772 0.1725176591747121 0 -0.48382985352447427 0.17418454390290919 0 -0.5 0.14929340138999289 0 -0.48742925874346849 0.15882492766573439 0 -0.49999999999999772 0.1725176591747121 0 -0.49999999999999772 0.1725176591747121 0 -0.48660020024355788 0.18264533178254841 0 -0.48813663874875451 0.19654048307542979 0 -0.49999999999999772 0.1725176591747121 0 -0.48813663874875451 0.19654048307542979 0 -0.49999999999999772 0.1725176591747121 0 -0.48660020024355788 0.18264533178254841 0 -0.48382985352447427 0.17418454390290919 0 -0.48382985352447427 0.17418454390290919 0 -0.47443430870100312 0.18733864097714251 0 -0.46722688150221758 0.1702646618225746 0 -0.48660020024355788 0.18264533178254841 0 -0.48382985352447427 0.17418454390290919 0 -0.47443430870100312 0.18733864097714251 0 -0.47322632622601729 0.15214179802946981 0 -0.48742925874346849 0.15882492766573439 0 -0.46722688150221758 0.1702646618225746 0 -0.48742925874346849 0.15882492766573439 0 -0.48382985352447427 0.17418454390290919 0 -0.46722688150221758 0.1702646618225746 0 -0.47322632622601729 0.15214179802946981 0 -0.46243534194618052 0.15675290105801079 0 -0.46722688150221758 0.1702646618225746 0 -0.46243534194618052 0.15675290105801079 0 -0.46722688150221758 0.1702646618225746 0 -0.45465801439657411 0.16469279092344991 0 -0.46722688150221758 0.1702646618225746 0 -0.45465801439657411 0.16469279092344991 0 -0.45163927280476363 0.1728311218837798 0 -0.46243534194618052 0.15675290105801079 0 -0.45465801439657411 0.16469279092344991 0 -0.45373737759267663 0.14995133425198029 0 -0.46722688150221758 0.1702646618225746 0 -0.46360749635205351 0.18604799464882721 0 -0.45515901686383908 0.18121692477668469 0 -0.47443430870100312 0.18733864097714251 0 -0.46722688150221758 0.1702646618225746 0 -0.46360749635205351 0.18604799464882721 0 -0.46722688150221758 0.1702646618225746 0 -0.45515901686383908 0.18121692477668469 0 -0.45163927280476363 0.1728311218837798 0 -0.44217735256042878 0.1725916007738825 0 -0.44285364931177201 0.18720829844036471 0 -0.4306173275281816 0.19523186729578479 0 -0.45515901686383908 0.18121692477668469 0 -0.4479573228852009 0.17846198646867789 0 -0.44285364931177201 0.18720829844036471 0 -0.45163927280476363 0.1728311218837798 0 -0.4479573228852009 0.17846198646867789 0 -0.44217735256042878 0.1725916007738825 0 -0.45515901686383908 0.18121692477668469 0 -0.45163927280476363 0.1728311218837798 0 -0.4479573228852009 0.17846198646867789 0 -0.4479573228852009 0.17846198646867789 0 -0.44217735256042878 0.1725916007738825 0 -0.44285364931177201 0.18720829844036471 0 -0.45465801439657411 0.16469279092344991 0 -0.44217735256042878 0.1725916007738825 0 -0.45373737759267663 0.14995133425198029 0 -0.44217735256042878 0.1725916007738825 0 -0.4446738184111107 0.1642927036086948 0 -0.45373737759267663 0.14995133425198029 0 -0.44217735256042878 0.1725916007738825 0 -0.45373737759267663 0.14995133425198029 0 -0.4446738184111107 0.1642927036086948 0 -0.45373737759267663 0.14995133425198029 0 -0.45465801439657411 0.16469279092344991 0 -0.45163927280476363 0.1728311218837798 0 -0.44217735256042878 0.1725916007738825 0 -0.4446738184111107 0.1642927036086948 0 -0.43688499823724503 0.16343794230340139 0 -0.43561025922954433 0.17863407296540901 0 -0.44217735256042878 0.1725916007738825 0 -0.4446738184111107 0.1642927036086948 0 -0.43561025922954433 0.17863407296540901 0 -0.4446738184111107 0.1642927036086948 0 -0.43561025922954433 0.17863407296540901 0 -0.4446738184111107 0.1642927036086948 0 -0.44116592709323982 0.15875738247764251 0 -0.44569500425324382 0.15270106864519581 0 -0.44116592709323982 0.15875738247764251 0 -0.43740988747135962 0.15459781535327791 0 -0.43688499823724503 0.16343794230340139 0 -0.4446738184111107 0.1642927036086948 0 -0.44116592709323982 0.15875738247764251 0 -0.43688499823724503 0.16343794230340139 0 -0.44116592709323982 0.15875738247764251 0 -0.44569500425324382 0.15270106864519581 0 -0.43740988747135962 0.15459781535327791 0 -0.44003179554432248 0.1485247820188991 0 -0.44569500425324382 0.15270106864519581 0 -0.44629721585266852 0.14480099273378241 0 -0.44003179554432248 0.1485247820188991 0 -0.44569500425324382 0.15270106864519581 0 -0.43740988747135962 0.15459781535327791 0 -0.4446738184111107 0.1642927036086948 0 -0.44569500425324382 0.15270106864519581 0 -0.45373737759267663 0.14995133425198029 0 -0.44569500425324382 0.15270106864519581 0 -0.44629721585266852 0.14480099273378241 0 -0.45373737759267663 0.14995133425198029 0 -0.44629721585266852 0.14480099273378241 0 -0.45370642348500312 0.13858383765946339 0 -0.45373737759267663 0.14995133425198029 0 -0.44629721585266852 0.14480099273378241 0 -0.4381844556507114 0.14250833252240189 0 -0.44473066940114742 0.13568092912995841 0 -0.44003179554432248 0.1485247820188991 0 -0.44629721585266852 0.14480099273378241 0 -0.4381844556507114 0.14250833252240189 0 -0.4381844556507114 0.14250833252240189 0 -0.43860914523379058 0.13451824792047551 0 -0.44473066940114742 0.13568092912995841 0 -0.44621962580713559 0.1223813667816861 0 -0.44473066940114742 0.13568092912995841 0 -0.45370642348500312 0.13858383765946339 0 -0.43711026587626189 0.1170692453216165 0 -0.441182024379419 0.12792122111012441 0 -0.43515498333367952 0.13009546625507501 0 -0.44621962580713559 0.1223813667816861 0 -0.44473066940114742 0.13568092912995841 0 -0.441182024379419 0.12792122111012441 0 -0.43860914523379058 0.13451824792047551 0 -0.441182024379419 0.12792122111012441 0 -0.43515498333367952 0.13009546625507501 0 -0.43860914523379058 0.13451824792047551 0 -0.44473066940114742 0.13568092912995841 0 -0.441182024379419 0.12792122111012441 0 -0.44629721585266852 0.14480099273378241 0 -0.44473066940114742 0.13568092912995841 0 -0.45370642348500312 0.13858383765946339 0 -0.45341364820274771 0.11010907575011419 0 -0.45370642348500312 0.13858383765946339 0 -0.46098012556850948 0.13576643897135449 0 -0.47053481368501382 0.1233725664169382 0 -0.46098012556850948 0.13576643897135449 0 -0.46822287354434372 0.12158154369072929 0 -0.47053481368501382 0.1233725664169382 0 -0.46098012556850948 0.13576643897135449 0 -0.46822287354434372 0.12158154369072929 0 -0.46098012556850948 0.13576643897135449 0 -0.47366862249168729 0.13896171170476021 0 -0.46098012556850948 0.13576643897135449 0 -0.46504075277908158 0.1468939390757362 0 -0.47322632622601729 0.15214179802946981 0 -0.46243534194618052 0.15675290105801079 0 -0.46504075277908158 0.1468939390757362 0 -0.46243534194618052 0.15675290105801079 0 -0.46504075277908158 0.1468939390757362 0 -0.45373737759267663 0.14995133425198029 0 -0.46098012556850948 0.13576643897135449 0 -0.46504075277908158 0.1468939390757362 0 -0.45373737759267663 0.14995133425198029 0 -0.45370642348500312 0.13858383765946339 0 -0.46098012556850948 0.13576643897135449 0 -0.45373737759267663 0.14995133425198029 0 -0.46098012556850948 0.13576643897135449 0 -0.45373737759267663 0.14995133425198029 0 -0.48490729924198572 0.23868410195594519 0 -0.4644099162462717 0.24458613087686731 0 -0.48196211933701277 0.26331588837661452 0 -0.48490729924198572 0.23868410195594519 0 -0.47627327749751308 0.22056330697614851 0 -0.4644099162462717 0.24458613087686731 0 -0.48490729924198572 0.23868410195594519 0 -0.5 0.22545081339969861 0 -0.5 0.25191739051219192 0 -0.48490729924198572 0.23868410195594519 0 -0.5 0.22545081339969861 0 -0.47627327749751308 0.22056330697614851 0 -0.5 0.22545081339969861 0 -0.47627327749751308 0.22056330697614851 0 -0.49109067623061792 0.21221752484345199 0 -0.47627327749751308 0.22056330697614851 0 -0.4644099162462717 0.24458613087686731 0 -0.47627327749751308 0.22056330697614851 0 -0.47163082563106112 0.2023534526617517 0 -0.45861289328806382 0.21118860522329319 0 -0.47627327749751308 0.22056330697614851 0 -0.48813663874875451 0.19654048307542979 0 -0.47163082563106112 0.2023534526617517 0 -0.47627327749751308 0.22056330697614851 0 -0.48813663874875451 0.19654048307542979 0 -0.47627327749751308 0.22056330697614851 0 -0.49109067623061792 0.21221752484345199 0 -0.48813663874875451 0.19654048307542979 0 -0.5 0.22545081339969861 0 -0.49109067623061792 0.21221752484345199 0 -0.5 0.19898423628720541 0 -0.49109067623061792 0.21221752484345199 0 -0.48813663874875451 0.19654048307542979 0 -0.5 0.19898423628720541 0 -0.49999999999999772 0.1725176591747121 0 -0.48813663874875451 0.19654048307542979 0 -0.5 0.19898423628720541 0 -0.48660020024355788 0.18264533178254841 0 -0.47443430870100312 0.18733864097714251 0 -0.48813663874875451 0.19654048307542979 0 -0.47443430870100312 0.18733864097714251 0 -0.48813663874875451 0.19654048307542979 0 -0.47163082563106112 0.2023534526617517 0 -0.47443430870100312 0.18733864097714251 0 -0.47163082563106112 0.2023534526617517 0 -0.45938240610810832 0.19564781226555439 0 -0.47443430870100312 0.18733864097714251 0 -0.46360749635205351 0.18604799464882721 0 -0.45938240610810832 0.19564781226555439 0 -0.47163082563106112 0.2023534526617517 0 -0.45938240610810832 0.19564781226555439 0 -0.45861289328806382 0.21118860522329319 0 -0.45938240610810832 0.19564781226555439 0 -0.44485672924343961 0.20237862899489761 0 -0.45861289328806382 0.21118860522329319 0 -0.46360749635205351 0.18604799464882721 0 -0.45515901686383908 0.18121692477668469 0 -0.45938240610810832 0.19564781226555439 0 -0.45515901686383908 0.18121692477668469 0 -0.44285364931177201 0.18720829844036471 0 -0.45938240610810832 0.19564781226555439 0 -0.44285364931177201 0.18720829844036471 0 -0.45938240610810832 0.19564781226555439 0 -0.44485672924343961 0.20237862899489761 0 -0.44285364931177201 0.18720829844036471 0 -0.44485672924343961 0.20237862899489761 0 -0.4306173275281816 0.19523186729578479 0 -0.44145432526184158 0.21792653491693009 0 -0.45861289328806382 0.21118860522329319 0 -0.45514383710133682 0.22650818760014349 0 -0.44485672924343961 0.20237862899489761 0 -0.44145432526184158 0.21792653491693009 0 -0.45861289328806382 0.21118860522329319 0 -0.44485672924343961 0.20237862899489761 0 -0.44145432526184158 0.21792653491693009 0 -0.43392977144526801 0.2084044420181618 0 -0.47627327749751308 0.22056330697614851 0 -0.45514383710133682 0.22650818760014349 0 -0.4644099162462717 0.24458613087686731 0 -0.47627327749751308 0.22056330697614851 0 -0.45861289328806382 0.21118860522329319 0 -0.45514383710133682 0.22650818760014349 0 -0.44145432526184158 0.21792653491693009 0 -0.45514383710133682 0.22650818760014349 0 -0.43496877321299349 0.23827636000747851 0 -0.4644099162462717 0.24458613087686731 0 -0.43496877321299349 0.23827636000747851 0 -0.43765962649067502 0.26204987574680472 0 -0.45514383710133682 0.22650818760014349 0 -0.4644099162462717 0.24458613087686731 0 -0.43496877321299349 0.23827636000747851 0 -0.40749727746368719 0.24051240033958959 0 -0.43496877321299349 0.23827636000747851 0 -0.4182676279250796 0.25580819642353902 0 -0.44145432526184158 0.21792653491693009 0 -0.43496877321299349 0.23827636000747851 0 -0.41905730249593443 0.21787213381768719 0 -0.40749727746368719 0.24051240033958959 0 -0.43496877321299349 0.23827636000747851 0 -0.41905730249593443 0.21787213381768719 0 -0.40749727746368719 0.24051240033958959 0 -0.41905730249593443 0.21787213381768719 0 -0.39323239464714299 0.2240286834820748 0 -0.40749727746368719 0.24051240033958959 0 -0.41905730249593443 0.21787213381768719 0 -0.41905730249593443 0.21787213381768719 0 -0.40936539043127962 0.19607825498015191 0 -0.40315013962245611 0.2105141342573966 0 -0.41905730249593443 0.21787213381768719 0 -0.43392977144526801 0.2084044420181618 0 -0.4306173275281816 0.19523186729578479 0 -0.41905730249593443 0.21787213381768719 0 -0.4306173275281816 0.19523186729578479 0 -0.44145432526184158 0.21792653491693009 0 -0.41905730249593443 0.21787213381768719 0 -0.43392977144526801 0.2084044420181618 0 -0.44485672924343961 0.20237862899489761 0 -0.43392977144526801 0.2084044420181618 0 -0.4306173275281816 0.19523186729578479 0 -0.4306173275281816 0.19523186729578479 0 -0.40936539043127962 0.19607825498015191 0 -0.4220989680860448 0.18361950152779391 0 -0.41905730249593443 0.21787213381768719 0 -0.4306173275281816 0.19523186729578479 0 -0.40936539043127962 0.19607825498015191 0 -0.40936539043127962 0.19607825498015191 0 -0.38753643520643061 0.2025523365570284 0 -0.40315013962245611 0.2105141342573966 0 -0.38753643520643061 0.2025523365570284 0 -0.40088299664481208 0.1808098492518016 0 -0.38384282655941859 0.18232548120939901 0 -0.40936539043127962 0.19607825498015191 0 -0.38753643520643061 0.2025523365570284 0 -0.40088299664481208 0.1808098492518016 0 -0.38753643520643061 0.2025523365570284 0 -0.38384282655941859 0.18232548120939901 0 -0.36776373692429648 0.18938548218817469 0 -0.38753643520643061 0.2025523365570284 0 -0.39323239464714299 0.2240286834820748 0 -0.37095164988493529 0.2246950265524027 0 -0.38753643520643061 0.2025523365570284 0 -0.40315013962245611 0.2105141342573966 0 -0.39323239464714299 0.2240286834820748 0 -0.41905730249593443 0.21787213381768719 0 -0.40315013962245611 0.2105141342573966 0 -0.39323239464714299 0.2240286834820748 0 -0.39323239464714299 0.2240286834820748 0 -0.38610430073764168 0.2450654417194186 0 -0.37095164988493529 0.2246950265524027 0 -0.38610430073764168 0.2450654417194186 0 -0.36885577837193079 0.24818085992020131 0 -0.37095164988493529 0.2246950265524027 0 -0.40749727746368719 0.24051240033958959 0 -0.39323239464714299 0.2240286834820748 0 -0.38610430073764168 0.2450654417194186 0 -0.40749727746368719 0.24051240033958959 0 -0.38610430073764168 0.2450654417194186 0 -0.39593725243144001 0.26315266686149202 0 -0.41499369110810402 0.14349840276657311 0 -0.42078794379298973 0.13771302943042019 0 -0.42198145110546381 0.1459619870437138 0 -0.41499369110810402 0.14349840276657311 0 -0.41504504078078652 0.1501318671720516 0 -0.42198145110546381 0.1459619870437138 0 -0.41504504078078652 0.1501318671720516 0 -0.42198145110546381 0.1459619870437138 0 -0.42443385364947273 0.15275369843400091 0 -0.41504504078078652 0.1501318671720516 0 -0.42443385364947273 0.15275369843400091 0 -0.41315108943690099 0.15859555085696669 0 -0.41504504078078652 0.1501318671720516 0 -0.40666994511268378 0.1478873232831259 0 -0.41315108943690099 0.15859555085696669 0 -0.40666994511268378 0.1478873232831259 0 -0.41315108943690099 0.15859555085696669 0 -0.40143357620758002 0.1590058441435018 0 -0.41499369110810402 0.14349840276657311 0 -0.41504504078078652 0.1501318671720516 0 -0.40666994511268378 0.1478873232831259 0 -0.41499369110810402 0.14349840276657311 0 -0.40666994511268378 0.1478873232831259 0 -0.4102004372965169 0.13799632861078689 0 -0.4102004372965169 0.13799632861078689 0 -0.41757272322391181 0.13113683881604371 0 -0.401881088927103 0.13147482389873741 0 -0.41952252598690781 0.1238500354055902 0 -0.41757272322391181 0.13113683881604371 0 -0.42335051956496372 0.1312109447243468 0 -0.41499369110810402 0.14349840276657311 0 -0.4102004372965169 0.13799632861078689 0 -0.42078794379298973 0.13771302943042019 0 -0.4102004372965169 0.13799632861078689 0 -0.41757272322391181 0.13113683881604371 0 -0.42078794379298973 0.13771302943042019 0 -0.41757272322391181 0.13113683881604371 0 -0.42078794379298973 0.13771302943042019 0 -0.42335051956496372 0.1312109447243468 0 -0.42078794379298973 0.13771302943042019 0 -0.4279035526374419 0.13572929225232441 0 -0.42697214239162401 0.1410908067764704 0 -0.42078794379298973 0.13771302943042019 0 -0.4279035526374419 0.13572929225232441 0 -0.42335051956496372 0.1312109447243468 0 -0.4279035526374419 0.13572929225232441 0 -0.42835092695280302 0.12987366360210781 0 -0.43130076408197993 0.13302092817358119 0 -0.4279035526374419 0.13572929225232441 0 -0.43258074744388342 0.1417802031705101 0 -0.42697214239162401 0.1410908067764704 0 -0.41952252598690781 0.1238500354055902 0 -0.42335051956496372 0.1312109447243468 0 -0.42645033988534059 0.12683409796288689 0 -0.42335051956496372 0.1312109447243468 0 -0.42835092695280302 0.12987366360210781 0 -0.42645033988534059 0.12683409796288689 0 -0.4279035526374419 0.13572929225232441 0 -0.42335051956496372 0.1312109447243468 0 -0.42835092695280302 0.12987366360210781 0 -0.43711026587626189 0.1170692453216165 0 -0.42835092695280302 0.12987366360210781 0 -0.43515498333367952 0.13009546625507501 0 -0.42835092695280302 0.12987366360210781 0 -0.43515498333367952 0.13009546625507501 0 -0.43130076408197993 0.13302092817358119 0 -0.4381844556507114 0.14250833252240189 0 -0.43860914523379058 0.13451824792047551 0 -0.43379359340399543 0.1363852905848178 0 -0.4279035526374419 0.13572929225232441 0 -0.43379359340399543 0.1363852905848178 0 -0.43258074744388342 0.1417802031705101 0 -0.4279035526374419 0.13572929225232441 0 -0.43130076408197993 0.13302092817358119 0 -0.43379359340399543 0.1363852905848178 0 -0.43515498333367952 0.13009546625507501 0 -0.43130076408197993 0.13302092817358119 0 -0.43379359340399543 0.1363852905848178 0 -0.43860914523379058 0.13451824792047551 0 -0.43515498333367952 0.13009546625507501 0 -0.43379359340399543 0.1363852905848178 0 -0.4381844556507114 0.14250833252240189 0 -0.43379359340399543 0.1363852905848178 0 -0.43258074744388342 0.1417802031705101 0 -0.44003179554432248 0.1485247820188991 0 -0.4381844556507114 0.14250833252240189 0 -0.43178751351284789 0.1476224858456758 0 -0.4381844556507114 0.14250833252240189 0 -0.43178751351284789 0.1476224858456758 0 -0.43258074744388342 0.1417802031705101 0 -0.43178751351284789 0.1476224858456758 0 -0.43258074744388342 0.1417802031705101 0 -0.42697214239162401 0.1410908067764704 0 -0.43178751351284789 0.1476224858456758 0 -0.42697214239162401 0.1410908067764704 0 -0.42198145110546381 0.1459619870437138 0 -0.42078794379298973 0.13771302943042019 0 -0.42697214239162401 0.1410908067764704 0 -0.42198145110546381 0.1459619870437138 0 -0.43178751351284789 0.1476224858456758 0 -0.42443385364947273 0.15275369843400091 0 -0.43060470349746188 0.15788658520834381 0 -0.43178751351284789 0.1476224858456758 0 -0.42198145110546381 0.1459619870437138 0 -0.42443385364947273 0.15275369843400091 0 -0.44003179554432248 0.1485247820188991 0 -0.43178751351284789 0.1476224858456758 0 -0.43740988747135962 0.15459781535327791 0 -0.43178751351284789 0.1476224858456758 0 -0.43740988747135962 0.15459781535327791 0 -0.43060470349746188 0.15788658520834381 0 -0.43060470349746188 0.15788658520834381 0 -0.43688499823724503 0.16343794230340139 0 -0.43053104503154432 0.16684896084606321 0 -0.43740988747135962 0.15459781535327791 0 -0.43060470349746188 0.15788658520834381 0 -0.43688499823724503 0.16343794230340139 0 -0.43688499823724503 0.16343794230340139 0 -0.43053104503154432 0.16684896084606321 0 -0.43561025922954433 0.17863407296540901 0 -0.43053104503154432 0.16684896084606321 0 -0.42304062938709142 0.16278665569676901 0 -0.42594794726873481 0.1737264801362691 0 -0.42443385364947273 0.15275369843400091 0 -0.43060470349746188 0.15788658520834381 0 -0.42304062938709142 0.16278665569676901 0 -0.43060470349746188 0.15788658520834381 0 -0.43053104503154432 0.16684896084606321 0 -0.42304062938709142 0.16278665569676901 0 -0.44217735256042878 0.1725916007738825 0 -0.4306173275281816 0.19523186729578479 0 -0.4306173275281816 0.19523186729578479 0 -0.43561025922954433 0.17863407296540901 0 -0.4220989680860448 0.18361950152779391 0 -0.44217735256042878 0.1725916007738825 0 -0.4306173275281816 0.19523186729578479 0 -0.43561025922954433 0.17863407296540901 0 -0.43053104503154432 0.16684896084606321 0 -0.43561025922954433 0.17863407296540901 0 -0.42594794726873481 0.1737264801362691 0 -0.43561025922954433 0.17863407296540901 0 -0.42594794726873481 0.1737264801362691 0 -0.4220989680860448 0.18361950152779391 0 -0.40936539043127962 0.19607825498015191 0 -0.4220989680860448 0.18361950152779391 0 -0.40088299664481208 0.1808098492518016 0 -0.4220989680860448 0.18361950152779391 0 -0.4146758989144062 0.1711952123776681 0 -0.40088299664481208 0.1808098492518016 0 -0.42594794726873481 0.1737264801362691 0 -0.4220989680860448 0.18361950152779391 0 -0.4146758989144062 0.1711952123776681 0 -0.42443385364947273 0.15275369843400091 0 -0.42304062938709142 0.16278665569676901 0 -0.41315108943690099 0.15859555085696669 0 -0.42304062938709142 0.16278665569676901 0 -0.4146758989144062 0.1711952123776681 0 -0.41315108943690099 0.15859555085696669 0 -0.42304062938709142 0.16278665569676901 0 -0.42594794726873481 0.1737264801362691 0 -0.4146758989144062 0.1711952123776681 0 -0.4146758989144062 0.1711952123776681 0 -0.41315108943690099 0.15859555085696669 0 -0.40277119893990498 0.16920398794753561 0 -0.40143357620758002 0.1590058441435018 0 -0.39113395480901109 0.16769090922682209 0 -0.39344169273939911 0.1516514494030588 0 -0.41315108943690099 0.15859555085696669 0 -0.40143357620758002 0.1590058441435018 0 -0.40277119893990498 0.16920398794753561 0 -0.40143357620758002 0.1590058441435018 0 -0.40277119893990498 0.16920398794753561 0 -0.39113395480901109 0.16769090922682209 0 -0.39113395480901109 0.16769090922682209 0 -0.40088299664481208 0.1808098492518016 0 -0.38384282655941859 0.18232548120939901 0 -0.4146758989144062 0.1711952123776681 0 -0.40277119893990498 0.16920398794753561 0 -0.40088299664481208 0.1808098492518016 0 -0.40277119893990498 0.16920398794753561 0 -0.39113395480901109 0.16769090922682209 0 -0.40088299664481208 0.1808098492518016 0 -0.39113395480901109 0.16769090922682209 0 -0.38384282655941859 0.18232548120939901 0 -0.37189700921254271 0.17118882882316799 0 -0.39113395480901109 0.16769090922682209 0 -0.37239862684434888 0.15981475898228031 0 -0.37189700921254271 0.17118882882316799 0 -0.39113395480901109 0.16769090922682209 0 -0.38014973535637292 0.15095927764436329 0 -0.37239862684434888 0.15981475898228031 0 -0.39113395480901109 0.16769090922682209 0 -0.37189700921254271 0.17118882882316799 0 -0.39113395480901109 0.16769090922682209 0 -0.38014973535637292 0.15095927764436329 0 -0.39344169273939911 0.1516514494030588 0 -0.38014973535637292 0.15095927764436329 0 -0.38892613724633929 0.13825571269201961 0 -0.37580156881662619 0.13410525862106609 0 -0.38014973535637292 0.15095927764436329 0 -0.39344169273939911 0.1516514494030588 0 -0.38892613724633929 0.13825571269201961 0 -0.39344169273939911 0.1516514494030588 0 -0.39873884797909392 0.1416921582358977 0 -0.38892613724633929 0.13825571269201961 0 -0.40666994511268378 0.1478873232831259 0 -0.39344169273939911 0.1516514494030588 0 -0.39873884797909392 0.1416921582358977 0 -0.40666994511268378 0.1478873232831259 0 -0.4102004372965169 0.13799632861078689 0 -0.39873884797909392 0.1416921582358977 0 -0.40666994511268378 0.1478873232831259 0 -0.40143357620758002 0.1590058441435018 0 -0.39344169273939911 0.1516514494030588 0 -0.4102004372965169 0.13799632861078689 0 -0.39873884797909392 0.1416921582358977 0 -0.401881088927103 0.13147482389873741 0 -0.39873884797909392 0.1416921582358977 0 -0.401881088927103 0.13147482389873741 0 -0.38892613724633929 0.13825571269201961 0 -0.401881088927103 0.13147482389873741 0 -0.38936729559860372 0.12545459930975131 0 -0.38892613724633929 0.13825571269201961 0 -0.37704360043719409 0.1171158391467417 0 -0.38936729559860372 0.12545459930975131 0 -0.37580156881662619 0.13410525862106609 0 -0.38936729559860372 0.12545459930975131 0 -0.38892613724633929 0.13825571269201961 0 -0.37580156881662619 0.13410525862106609 0 -0.37704360043719409 0.1171158391467417 0 -0.37580156881662619 0.13410525862106609 0 -0.36401968028201059 0.1255018374607936 0 -0.37580156881662619 0.13410525862106609 0 -0.35940818160952143 0.13731891161171891 0 -0.36401968028201059 0.1255018374607936 0 -0.37580156881662619 0.13410525862106609 0 -0.35940818160952143 0.13731891161171891 0 -0.36848953243744698 0.14771309195520849 0 -0.35940818160952143 0.13731891161171891 0 -0.33478173544873391 0.1344686833164371 0 -0.34272855673150338 0.1471398374223204 0 -0.35940818160952143 0.13731891161171891 0 -0.34057173396463508 0.13226024499801331 0 -0.35236213654664672 0.12471454939567821 0 -0.35940818160952143 0.13731891161171891 0 -0.33028834121935657 0.13249412952330639 0 -0.35940818160952143 0.13731891161171891 0 -0.36401968028201059 0.1255018374607936 0 -0.35236213654664672 0.12471454939567821 0 -0.35940818160952143 0.13731891161171891 0 -0.36015728179463991 0.1575351679073648 0 -0.35560044227407722 0.15837806883872951 0 -0.35940818160952143 0.13731891161171891 0 -0.35560044227407722 0.15837806883872951 0 -0.35940818160952143 0.13731891161171891 0 -0.35560044227407722 0.15837806883872951 0 -0.34272855673150338 0.1471398374223204 0 -0.35940818160952143 0.13731891161171891 0 -0.36848953243744698 0.14771309195520849 0 -0.36015728179463991 0.1575351679073648 0 -0.38014973535637292 0.15095927764436329 0 -0.37580156881662619 0.13410525862106609 0 -0.36848953243744698 0.14771309195520849 0 -0.36848953243744698 0.14771309195520849 0 -0.37239862684434888 0.15981475898228031 0 -0.36015728179463991 0.1575351679073648 0 -0.38014973535637292 0.15095927764436329 0 -0.36848953243744698 0.14771309195520849 0 -0.37239862684434888 0.15981475898228031 0 -0.37239862684434888 0.15981475898228031 0 -0.37189700921254271 0.17118882882316799 0 -0.36015728179463991 0.1575351679073648 0 -0.37189700921254271 0.17118882882316799 0 -0.36015728179463991 0.1575351679073648 0 -0.3526600636160741 0.1746867484195134 0 -0.37189700921254271 0.17118882882316799 0 -0.3526600636160741 0.1746867484195134 0 -0.37189700921254271 0.17118882882316799 0 -0.3526600636160741 0.1746867484195134 0 -0.36776373692429648 0.18938548218817469 0 -0.38384282655941859 0.18232548120939901 0 -0.37189700921254271 0.17118882882316799 0 -0.36776373692429648 0.18938548218817469 0 -0.3526600636160741 0.1746867484195134 0 -0.36776373692429648 0.18938548218817469 0 -0.34847436981644198 0.19790251310200391 0 -0.3526600636160741 0.1746867484195134 0 -0.34847436981644198 0.19790251310200391 0 -0.3526600636160741 0.1746867484195134 0 -0.33507917480289939 0.1870248173839307 0 -0.34847436981644198 0.19790251310200391 0 -0.36015728179463991 0.1575351679073648 0 -0.3526600636160741 0.1746867484195134 0 -0.35560044227407722 0.15837806883872951 0 -0.3526600636160741 0.1746867484195134 0 -0.35560044227407722 0.15837806883872951 0 -0.3419102543678964 0.16877583822491959 0 -0.3526600636160741 0.1746867484195134 0 -0.35560044227407722 0.15837806883872951 0 -0.36015728179463991 0.1575351679073648 0 -0.35560044227407722 0.15837806883872951 0 -0.35560044227407722 0.15837806883872951 0 -0.32831970795140852 0.16342431992245149 0 -0.34272855673150338 0.1471398374223204 0 -0.35560044227407722 0.15837806883872951 0 -0.3419102543678964 0.16877583822491959 0 -0.32831970795140852 0.16342431992245149 0 -0.35560044227407722 0.15837806883872951 0 -0.32831970795140852 0.16342431992245149 0 -0.3419102543678964 0.16877583822491959 0 -0.32831970795140852 0.16342431992245149 0 -0.33106080363002688 0.17861421571898131 0 -0.3526600636160741 0.1746867484195134 0 -0.3419102543678964 0.16877583822491959 0 -0.33106080363002688 0.17861421571898131 0 -0.3526600636160741 0.1746867484195134 0 -0.33106080363002688 0.17861421571898131 0 -0.3526600636160741 0.1746867484195134 0 -0.33106080363002688 0.17861421571898131 0 -0.33507917480289939 0.1870248173839307 0 -0.33106080363002688 0.17861421571898131 0 -0.33507917480289939 0.1870248173839307 0 -0.32214130986981859 0.18804096107987031 0 -0.33106080363002688 0.17861421571898131 0 -0.3094615436439796 0.18254168301844881 0 -0.33106080363002688 0.17861421571898131 0 -0.31747025721353861 0.1732626974165131 0 -0.3094615436439796 0.18254168301844881 0 -0.33106080363002688 0.17861421571898131 0 -0.32214130986981859 0.18804096107987031 0 -0.3094615436439796 0.18254168301844881 0 -0.32831970795140852 0.16342431992245149 0 -0.31747025721353861 0.1732626974165131 0 -0.30103897362873933 0.16847057100617061 0 -0.32831970795140852 0.16342431992245149 0 -0.30103897362873933 0.16847057100617061 0 -0.32831970795140852 0.16342431992245149 0 -0.3125668186437166 0.14758398963195421 0 -0.30103897362873933 0.16847057100617061 0 -0.32831970795140852 0.16342431992245149 0 -0.33106080363002688 0.17861421571898131 0 -0.31747025721353861 0.1732626974165131 0 -0.32831970795140852 0.16342431992245149 0 -0.3125668186437166 0.14758398963195421 0 -0.32902767658553939 0.14493158485714869 0 -0.3125668186437166 0.14758398963195421 0 -0.33028834121935657 0.13249412952330639 0 -0.32902767658553939 0.14493158485714869 0 -0.33028834121935657 0.13249412952330639 0 -0.30763960513629951 0.1225414867193392 0 -0.3125668186437166 0.14758398963195421 0 -0.33028834121935657 0.13249412952330639 0 -0.30261657298217193 0.12793788883747501 0 -0.33028834121935657 0.13249412952330639 0 -0.30261657298217193 0.12793788883747501 0 -0.30763960513629951 0.1225414867193392 0 -0.33028834121935657 0.13249412952330639 0 -0.30261657298217193 0.12793788883747501 0 -0.35940818160952143 0.13731891161171891 0 -0.33478173544873391 0.1344686833164371 0 -0.33028834121935657 0.13249412952330639 0 -0.33478173544873391 0.1344686833164371 0 -0.33028834121935657 0.13249412952330639 0 -0.32902767658553939 0.14493158485714869 0 -0.34057173396463508 0.13226024499801331 0 -0.33028834121935657 0.13249412952330639 0 -0.32621280789440099 0.1120378334700065 0 -0.35940818160952143 0.13731891161171891 0 -0.34057173396463508 0.13226024499801331 0 -0.33028834121935657 0.13249412952330639 0 -0.33478173544873391 0.1344686833164371 0 -0.33028834121935657 0.13249412952330639 0 -0.32831970795140852 0.16342431992245149 0 -0.34272855673150338 0.1471398374223204 0 -0.32902767658553939 0.14493158485714869 0 -0.33478173544873391 0.1344686833164371 0 -0.34272855673150338 0.1471398374223204 0 -0.32902767658553939 0.14493158485714869 0 -0.35561028900614222 0.2371709330865604 0 -0.3401029822171806 0.2443340424669852 0 -0.35424593444847002 0.25164983576020972 0 -0.35561028900614222 0.2371709330865604 0 -0.36885577837193079 0.24818085992020131 0 -0.35424593444847002 0.25164983576020972 0 -0.35561028900614222 0.2371709330865604 0 -0.36885577837193079 0.24818085992020131 0 -0.37095164988493529 0.2246950265524027 0 -0.35561028900614222 0.2371709330865604 0 -0.34428867601681129 0.2211182777844945 0 -0.3401029822171806 0.2443340424669852 0 -0.35561028900614222 0.2371709330865604 0 -0.37095164988493529 0.2246950265524027 0 -0.34428867601681129 0.2211182777844945 0 -0.34428867601681129 0.2211182777844945 0 -0.34847436981644198 0.19790251310200391 0 -0.37095164988493529 0.2246950265524027 0 -0.34428867601681129 0.2211182777844945 0 -0.36270519059569639 0.2071845287228643 0 -0.34428867601681129 0.2211182777844945 0 -0.36270519059569639 0.2071845287228643 0 -0.34847436981644198 0.19790251310200391 0 -0.38753643520643061 0.2025523365570284 0 -0.37095164988493529 0.2246950265524027 0 -0.36270519059569639 0.2071845287228643 0 -0.38753643520643061 0.2025523365570284 0 -0.36270519059569639 0.2071845287228643 0 -0.36776373692429648 0.18938548218817469 0 -0.36270519059569639 0.2071845287228643 0 -0.36776373692429648 0.18938548218817469 0 -0.34847436981644198 0.19790251310200391 0 -0.33507917480289939 0.1870248173839307 0 -0.31740086044967097 0.20012189797782909 0 -0.33335882889647972 0.20438935419487361 0 -0.33507917480289939 0.1870248173839307 0 -0.34847436981644198 0.19790251310200391 0 -0.33335882889647972 0.20438935419487361 0 -0.33507917480289939 0.1870248173839307 0 -0.31740086044967097 0.20012189797782909 0 -0.31740086044967097 0.20012189797782909 0 -0.32214130986981859 0.18804096107987031 0 -0.3094615436439796 0.18254168301844881 0 -0.33507917480289939 0.1870248173839307 0 -0.31740086044967097 0.20012189797782909 0 -0.32214130986981859 0.18804096107987031 0 -0.31740086044967097 0.20012189797782909 0 -0.32189809870808173 0.2159835197494821 0 -0.29972254609644178 0.2132189785717262 0 -0.31740086044967097 0.20012189797782909 0 -0.32189809870808173 0.2159835197494821 0 -0.33335882889647972 0.20438935419487361 0 -0.34428867601681129 0.2211182777844945 0 -0.32189809870808173 0.2159835197494821 0 -0.33335882889647972 0.20438935419487361 0 -0.34428867601681129 0.2211182777844945 0 -0.34847436981644198 0.19790251310200391 0 -0.33335882889647972 0.20438935419487361 0 -0.34428867601681129 0.2211182777844945 0 -0.3401029822171806 0.2443340424669852 0 -0.34428867601681129 0.2211182777844945 0 -0.32189809870808173 0.2159835197494821 0 -0.32936279923279499 0.23089350668630049 0 -0.34428867601681129 0.2211182777844945 0 -0.32936279923279499 0.23089350668630049 0 -0.3401029822171806 0.2443340424669852 0 -0.32189809870808173 0.2159835197494821 0 -0.32936279923279499 0.23089350668630049 0 -0.31317169480335522 0.22964156972815139 0 -0.31317169480335522 0.22964156972815139 0 -0.32662084351026838 0.24606416088457669 0 -0.31317169480335522 0.22964156972815139 0 -0.31261733674505238 0.243813888356921 0 -0.32662084351026838 0.24606416088457669 0 -0.32936279923279499 0.23089350668630049 0 -0.31317169480335522 0.22964156972815139 0 -0.32662084351026838 0.24606416088457669 0 -0.31261733674505238 0.243813888356921 0 -0.32662084351026838 0.24606416088457669 0 -0.31815796724145412 0.25928273397210527 0 -0.32936279923279499 0.23089350668630049 0 -0.32662084351026838 0.24606416088457669 0 -0.3401029822171806 0.2443340424669852 0 -0.28899768938219622 0.23804007423708951 0 -0.29015399615612231 0.24624671328619471 0 -0.28305974052834593 0.25432035902133598 0 -0.28899768938219622 0.23804007423708951 0 -0.28243286003848961 0.2260281416638425 0 -0.28305974052834593 0.25432035902133598 0 -0.28899768938219622 0.23804007423708951 0 -0.29015399615612231 0.24624671328619471 0 -0.29975357958271509 0.23048719076806529 0 -0.28243286003848961 0.2260281416638425 0 -0.28305974052834593 0.25432035902133598 0 -0.29015399615612231 0.24624671328619471 0 -0.29975357958271509 0.23048719076806529 0 -0.30039864606535688 0.25101566079473597 0 -0.29015399615612231 0.24624671328619471 0 -0.30039864606535688 0.25101566079473597 0 -0.31261733674505238 0.243813888356921 0 -0.29975357958271509 0.23048719076806529 0 -0.30039864606535688 0.25101566079473597 0 -0.29975357958271509 0.23048719076806529 0 -0.30039864606535688 0.25101566079473597 0 -0.31317169480335522 0.22964156972815139 0 -0.31261733674505238 0.243813888356921 0 -0.29975357958271509 0.23048719076806529 0 -0.32189809870808173 0.2159835197494821 0 -0.31317169480335522 0.22964156972815139 0 -0.29972254609644178 0.2132189785717262 0 -0.31317169480335522 0.22964156972815139 0 -0.29975357958271509 0.23048719076806529 0 -0.29972254609644178 0.2132189785717262 0 -0.31317169480335522 0.22964156972815139 0 -0.29972254609644178 0.2132189785717262 0 -0.29975357958271509 0.23048719076806529 0 -0.28243286003848961 0.2260281416638425 0 -0.29972254609644178 0.2132189785717262 0 -0.28899768938219622 0.23804007423708951 0 -0.29975357958271509 0.23048719076806529 0 -0.28243286003848961 0.2260281416638425 0 -0.28243286003848961 0.2260281416638425 0 -0.29972254609644178 0.2132189785717262 0 -0.28243286003848961 0.2260281416638425 0 -0.28202534032531867 0.20763606137279769 0 -0.29160252807400983 0.21546881584915589 0 -0.28243286003848961 0.2260281416638425 0 -0.28202534032531867 0.20763606137279769 0 -0.28243286003848961 0.2260281416638425 0 -0.29160252807400983 0.21546881584915589 0 -0.29972254609644178 0.2132189785717262 0 -0.28202534032531867 0.20763606137279769 0 -0.29972254609644178 0.2132189785717262 0 -0.28166035101507803 0.19116345285235889 0 -0.28202534032531867 0.20763606137279769 0 -0.29160252807400983 0.21546881584915589 0 -0.29972254609644178 0.2132189785717262 0 -0.28202534032531867 0.20763606137279769 0 -0.29160252807400983 0.21546881584915589 0 -0.31740086044967097 0.20012189797782909 0 -0.29972254609644178 0.2132189785717262 0 -0.31740086044967097 0.20012189797782909 0 -0.29972254609644178 0.2132189785717262 0 -0.30109370458464252 0.19524888993235109 0 -0.31740086044967097 0.20012189797782909 0 -0.30109370458464252 0.19524888993235109 0 -0.3094615436439796 0.18254168301844881 0 -0.29972254609644178 0.2132189785717262 0 -0.30109370458464252 0.19524888993235109 0 -0.28166035101507803 0.19116345285235889 0 -0.30109370458464252 0.19524888993235109 0 -0.28166035101507803 0.19116345285235889 0 -0.29513485888254298 0.18369695500937319 0 -0.28202534032531867 0.20763606137279769 0 -0.28166035101507803 0.19116345285235889 0 -0.29972254609644178 0.2132189785717262 0 -0.28166035101507803 0.19116345285235889 0 -0.28166035101507803 0.19116345285235889 0 -0.26425142265435869 0.19309956727320571 0 -0.27809972868031368 0.1868156204251567 0 -0.28202534032531867 0.20763606137279769 0 -0.26425142265435869 0.19309956727320571 0 -0.26937352152481409 0.20857536893756429 0 -0.28202534032531867 0.20763606137279769 0 -0.26425142265435869 0.19309956727320571 0 -0.28202534032531867 0.20763606137279769 0 -0.28166035101507803 0.19116345285235889 0 -0.26425142265435869 0.19309956727320571 0 -0.28166035101507803 0.19116345285235889 0 -0.27809972868031368 0.1868156204251567 0 -0.26425142265435869 0.19309956727320571 0 -0.27809972868031368 0.1868156204251567 0 -0.26791910025547339 0.18278110602075859 0 -0.26425142265435869 0.19309956727320571 0 -0.24647750498340151 0.17856307317361059 0 -0.2493898144878188 0.1931365841058523 0 -0.26425142265435869 0.19309956727320571 0 -0.24821946419808 0.20639881122062559 0 -0.2493898144878188 0.1931365841058523 0 -0.26425142265435869 0.19309956727320571 0 -0.25858965183042859 0.2152581058077771 0 -0.26937352152481409 0.20857536893756429 0 -0.26425142265435869 0.19309956727320571 0 -0.25858965183042859 0.2152581058077771 0 -0.24821946419808 0.20639881122062559 0 -0.25858965183042859 0.2152581058077771 0 -0.2490341611817905 0.22096027876345231 0 -0.24821946419808 0.20639881122062559 0 -0.28243286003848961 0.2260281416638425 0 -0.28202534032531867 0.20763606137279769 0 -0.27044413390256461 0.2204465688023195 0 -0.25858965183042859 0.2152581058077771 0 -0.26937352152481409 0.20857536893756429 0 -0.27044413390256461 0.2204465688023195 0 -0.28202534032531867 0.20763606137279769 0 -0.26937352152481409 0.20857536893756429 0 -0.27044413390256461 0.2204465688023195 0 -0.28243286003848961 0.2260281416638425 0 -0.27136635030919082 0.23422682887585899 0 -0.28243286003848961 0.2260281416638425 0 -0.27136635030919082 0.23422682887585899 0 -0.27044413390256461 0.2204465688023195 0 -0.27136635030919082 0.23422682887585899 0 -0.27044413390256461 0.2204465688023195 0 -0.25950223954808871 0.22905999359031501 0 -0.25858965183042859 0.2152581058077771 0 -0.27044413390256461 0.2204465688023195 0 -0.25950223954808871 0.22905999359031501 0 -0.25858965183042859 0.2152581058077771 0 -0.25950223954808871 0.22905999359031501 0 -0.2490341611817905 0.22096027876345231 0 -0.25950223954808871 0.22905999359031501 0 -0.24810858494271151 0.23558551872103251 0 -0.2490341611817905 0.22096027876345231 0 -0.26334133594650633 0.25465547566955482 0 -0.24620958009132571 0.24452997611265531 0 -0.24810858494271151 0.23558551872103251 0 -0.25950223954808871 0.22905999359031501 0 -0.26334133594650633 0.25465547566955482 0 -0.24810858494271151 0.23558551872103251 0 -0.27136635030919082 0.23422682887585899 0 -0.25950223954808871 0.22905999359031501 0 -0.26334133594650633 0.25465547566955482 0 -0.26334133594650633 0.25465547566955482 0 -0.24810858494271151 0.23558551872103251 0 -0.28243286003848961 0.2260281416638425 0 -0.27136635030919082 0.23422682887585899 0 -0.28305974052834593 0.25432035902133598 0 -0.27136635030919082 0.23422682887585899 0 -0.28305974052834593 0.25432035902133598 0 -0.26334133594650633 0.25465547566955482 0 -0.28410963949508411 0.14824544364517381 0 -0.30261657298217193 0.12793788883747501 0 -0.27494480474498739 0.12338164815164319 0 -0.30261657298217193 0.12793788883747501 0 -0.27494480474498739 0.12338164815164319 0 -0.3125668186437166 0.14758398963195421 0 -0.28410963949508411 0.14824544364517381 0 -0.30103897362873933 0.16847057100617061 0 -0.3125668186437166 0.14758398963195421 0 -0.28410963949508411 0.14824544364517381 0 -0.30261657298217193 0.12793788883747501 0 -0.31747025721353861 0.1732626974165131 0 -0.30103897362873933 0.16847057100617061 0 -0.3094615436439796 0.18254168301844881 0 -0.30103897362873933 0.16847057100617061 0 -0.3094615436439796 0.18254168301844881 0 -0.29513485888254298 0.18369695500937319 0 -0.30109370458464252 0.19524888993235109 0 -0.3094615436439796 0.18254168301844881 0 -0.29513485888254298 0.18369695500937319 0 -0.30103897362873933 0.16847057100617061 0 -0.28137554012252519 0.17830943712152711 0 -0.27375823930607018 0.17351682208988969 0 -0.30103897362873933 0.16847057100617061 0 -0.29513485888254298 0.18369695500937319 0 -0.28137554012252519 0.17830943712152711 0 -0.28166035101507803 0.19116345285235889 0 -0.29513485888254298 0.18369695500937319 0 -0.28137554012252519 0.17830943712152711 0 -0.28166035101507803 0.19116345285235889 0 -0.28137554012252519 0.17830943712152711 0 -0.30103897362873933 0.16847057100617061 0 -0.27375823930607018 0.17351682208988969 0 -0.28410963949508411 0.14824544364517381 0 -0.30103897362873933 0.16847057100617061 0 -0.27375823930607018 0.17351682208988969 0 -0.28410963949508411 0.14824544364517381 0 -0.26808191176562768 0.15648251610711911 0 -0.27375823930607018 0.17351682208988969 0 -0.28137554012252519 0.17830943712152711 0 -0.27809972868031368 0.1868156204251567 0 -0.27511125562690708 0.1804285489863087 0 -0.28166035101507803 0.19116345285235889 0 -0.28137554012252519 0.17830943712152711 0 -0.27809972868031368 0.1868156204251567 0 -0.27809972868031368 0.1868156204251567 0 -0.27511125562690708 0.1804285489863087 0 -0.26791910025547339 0.18278110602075859 0 -0.28137554012252519 0.17830943712152711 0 -0.27511125562690708 0.1804285489863087 0 -0.27375823930607018 0.17351682208988969 0 -0.27511125562690708 0.1804285489863087 0 -0.27375823930607018 0.17351682208988969 0 -0.26791910025547339 0.18278110602075859 0 -0.27375823930607018 0.17351682208988969 0 -0.24647750498340151 0.17856307317361059 0 -0.26425142265435869 0.19309956727320571 0 -0.24647750498340151 0.17856307317361059 0 -0.26425142265435869 0.19309956727320571 0 -0.26791910025547339 0.18278110602075859 0 -0.24647750498340151 0.17856307317361059 0 -0.27375823930607018 0.17351682208988969 0 -0.26791910025547339 0.18278110602075859 0 -0.24647750498340151 0.17856307317361059 0 -0.26808191176562768 0.15648251610711911 0 -0.27375823930607018 0.17351682208988969 0 -0.24647750498340151 0.17856307317361059 0 -0.26808191176562768 0.15648251610711911 0 -0.25015826910992289 0.15541888618480851 0 -0.24647750498340151 0.17856307317361059 0 -0.25015826910992289 0.15541888618480851 0 -0.26255153692745442 0.13940026716822521 0 -0.26808191176562768 0.15648251610711911 0 -0.25015826910992289 0.15541888618480851 0 -0.26255153692745442 0.13940026716822521 0 -0.25015826910992289 0.15541888618480851 0 -0.26255153692745442 0.13940026716822521 0 -0.24439990911483661 0.1384759983678979 0 -0.28410963949508411 0.14824544364517381 0 -0.26808191176562768 0.15648251610711911 0 -0.26255153692745442 0.13940026716822521 0 -0.26255153692745442 0.13940026716822521 0 -0.27494480474498739 0.12338164815164319 0 -0.28410963949508411 0.14824544364517381 0 -0.26255153692745442 0.13940026716822521 0 -0.27494480474498739 0.12338164815164319 0 -0.26255153692745442 0.13940026716822521 0 -0.27211802965608078 0.1229162110476841 0 -0.27494480474498739 0.12338164815164319 0 -0.26159681924042799 0.12802916252715671 0 -0.26255153692745442 0.13940026716822521 0 -0.27211802965608078 0.1229162110476841 0 -0.25507678301606662 0.13218613627108919 0 -0.25175886678154757 0.12283911702107719 0 -0.24439990911483661 0.1384759983678979 0 -0.26255153692745442 0.13940026716822521 0 -0.25507678301606662 0.13218613627108919 0 -0.24439990911483661 0.1384759983678979 0 -0.26159681924042799 0.12802916252715671 0 -0.26255153692745442 0.13940026716822521 0 -0.25507678301606662 0.13218613627108919 0 -0.26159681924042799 0.12802916252715671 0 -0.25507678301606662 0.13218613627108919 0 -0.25175886678154757 0.12283911702107719 0 -0.25175886678154757 0.12283911702107719 0 -0.26057125871838371 0.1143569303210116 0 -0.25046412363170262 0.108571311162474 0 -0.26057125871838371 0.1143569303210116 0 -0.26234213297018572 0.1026362011114037 0 -0.27146641941803962 0.1149449936775549 0 -0.26057125871838371 0.1143569303210116 0 -0.26403994881433152 0.12106834998964081 0 -0.27146641941803962 0.1149449936775549 0 -0.25175886678154757 0.12283911702107719 0 -0.26057125871838371 0.1143569303210116 0 -0.26403994881433152 0.12106834998964081 0 -0.26159681924042799 0.12802916252715671 0 -0.25175886678154757 0.12283911702107719 0 -0.26403994881433152 0.12106834998964081 0 -0.25046412363170262 0.108571311162474 0 -0.26234213297018572 0.1026362011114037 0 -0.2396933968871289 0.09268355830743602 0 -0.26234213297018572 0.1026362011114037 0 -0.2396933968871289 0.09268355830743602 0 -0.26057125871838371 0.1143569303210116 0 -0.25046412363170262 0.108571311162474 0 -0.26234213297018572 0.1026362011114037 0 -0.26234213297018572 0.1026362011114037 0 -0.28093063059111129 0.1026842078712287 0 -0.27803098544979399 0.095274570459217348 0 -0.26234213297018572 0.1026362011114037 0 -0.28499086905324261 0.11258884391537149 0 -0.26234213297018572 0.1026362011114037 0 -0.27803098544979399 0.095274570459217348 0 -0.27161888821200447 0.087639257010881405 0 -0.26234213297018572 0.1026362011114037 0 -0.28093063059111129 0.1026842078712287 0 -0.28499086905324261 0.11258884391537149 0 -0.26234213297018572 0.1026362011114037 0 -0.27146641941803962 0.1149449936775549 0 -0.28499086905324261 0.11258884391537149 0 -0.26159681924042799 0.12802916252715671 0 -0.26403994881433152 0.12106834998964081 0 -0.27211802965608078 0.1229162110476841 0 -0.26403994881433152 0.12106834998964081 0 -0.27211802965608078 0.1229162110476841 0 -0.27146641941803962 0.1149449936775549 0 -0.27211802965608078 0.1229162110476841 0 -0.27146641941803962 0.1149449936775549 0 -0.27494480474498739 0.12338164815164319 0 -0.27146641941803962 0.1149449936775549 0 -0.28041455106490859 0.11631185964176601 0 -0.28499086905324261 0.11258884391537149 0 -0.28041455106490859 0.11631185964176601 0 -0.27494480474498739 0.12338164815164319 0 -0.27146641941803962 0.1149449936775549 0 -0.28041455106490859 0.11631185964176601 0 -0.27494480474498739 0.12338164815164319 0 -0.27211802965608078 0.1229162110476841 0 -0.27494480474498739 0.12338164815164319 0 -0.30261657298217193 0.12793788883747501 0 -0.28041455106490859 0.11631185964176601 0 -0.28499086905324261 0.11258884391537149 0 -0.28499086905324261 0.11258884391537149 0 -0.30763960513629951 0.1225414867193392 0 -0.30261657298217193 0.12793788883747501 0 -0.28041455106490859 0.11631185964176601 0 -0.27494480474498739 0.12338164815164319 0 -0.28499086905324261 0.11258884391537149 0 -0.29184858779012601 0.1059637163125863 0 -0.2984601747485337 0.1116669463272344 0 -0.28093063059111129 0.1026842078712287 0 -0.2874405776922081 0.096957707557564624 0 -0.29184858779012601 0.1059637163125863 0 -0.28093063059111129 0.1026842078712287 0 -0.28499086905324261 0.11258884391537149 0 -0.29184858779012601 0.1059637163125863 0 -0.28093063059111129 0.1026842078712287 0 -0.27803098544979399 0.095274570459217348 0 -0.2874405776922081 0.096957707557564624 0 -0.2874405776922081 0.096957707557564624 0 -0.29184858779012601 0.1059637163125863 0 -0.29783136163572321 0.091143517118589271 0 -0.30299189907358121 0.1044693836310607 0 -0.31212246831994878 0.1109751958957863 0 -0.31185388182416668 0.091815421941999764 0 -0.29184858779012601 0.1059637163125863 0 -0.30299189907358121 0.1044693836310607 0 -0.2984601747485337 0.1116669463272344 0 -0.30299189907358121 0.1044693836310607 0 -0.31185388182416668 0.091815421941999764 0 -0.29783136163572321 0.091143517118589271 0 -0.29184858779012601 0.1059637163125863 0 -0.30299189907358121 0.1044693836310607 0 -0.29783136163572321 0.091143517118589271 0 -0.30261657298217193 0.12793788883747501 0 -0.28499086905324261 0.11258884391537149 0 -0.30763960513629951 0.1225414867193392 0 -0.31212246831994878 0.1109751958957863 0 -0.30482991268941922 0.11277130105781411 0 -0.30763960513629951 0.1225414867193392 0 -0.28499086905324261 0.11258884391537149 0 -0.30763960513629951 0.1225414867193392 0 -0.2984601747485337 0.1116669463272344 0 -0.30299189907358121 0.1044693836310607 0 -0.31212246831994878 0.1109751958957863 0 -0.30482991268941922 0.11277130105781411 0 -0.30299189907358121 0.1044693836310607 0 -0.30482991268941922 0.11277130105781411 0 -0.2984601747485337 0.1116669463272344 0 -0.30482991268941922 0.11277130105781411 0 -0.30763960513629951 0.1225414867193392 0 -0.2984601747485337 0.1116669463272344 0 -0.29749495575393248 0.071593010413992964 0 -0.30738993854740349 0.061317086081269803 0 -0.31945102957791077 0.069779708824319428 0 -0.29749495575393248 0.071593010413992964 0 -0.29612693203356127 0.058504996296145237 0 -0.30738993854740349 0.061317086081269803 0 -0.29749495575393248 0.071593010413992964 0 -0.31185388182416668 0.091815421941999764 0 -0.29749495575393248 0.071593010413992964 0 -0.31185388182416668 0.091815421941999764 0 -0.29783136163572321 0.091143517118589271 0 -0.29749495575393248 0.071593010413992964 0 -0.31185388182416668 0.091815421941999764 0 -0.32117158787115557 0.082501940843362237 0 -0.29749495575393248 0.071593010413992964 0 -0.29783136163572321 0.091143517118589271 0 -0.29091297402198107 0.081496936677615872 0 -0.2874405776922081 0.096957707557564624 0 -0.29783136163572321 0.091143517118589271 0 -0.2845506978866465 0.088459354473664722 0 -0.29783136163572321 0.091143517118589271 0 -0.29091297402198107 0.081496936677615872 0 -0.2845506978866465 0.088459354473664722 0 -0.27803098544979399 0.095274570459217348 0 -0.2874405776922081 0.096957707557564624 0 -0.2845506978866465 0.088459354473664722 0 -0.29091297402198107 0.081496936677615872 0 -0.2845506978866465 0.088459354473664722 0 -0.27884752683472253 0.079658598023643168 0 -0.29749495575393248 0.071593010413992964 0 -0.29091297402198107 0.081496936677615872 0 -0.27799350921650801 0.06659143160165143 0 -0.29091297402198107 0.081496936677615872 0 -0.27799350921650801 0.06659143160165143 0 -0.27884752683472253 0.079658598023643168 0 -0.29091297402198107 0.081496936677615872 0 -0.27799350921650801 0.06659143160165143 0 -0.29749495575393248 0.071593010413992964 0 -0.27799350921650801 0.06659143160165143 0 -0.28313602968369828 0.051370598885986177 0 -0.27799350921650801 0.06659143160165143 0 -0.26695082606917891 0.072612191126347536 0 -0.26507404441103438 0.051685926525687313 0 -0.27799350921650801 0.06659143160165143 0 -0.26695082606917891 0.072612191126347536 0 -0.27884752683472253 0.079658598023643168 0 -0.27803098544979399 0.095274570459217348 0 -0.2845506978866465 0.088459354473664722 0 -0.27161888821200447 0.087639257010881405 0 -0.2845506978866465 0.088459354473664722 0 -0.27884752683472253 0.079658598023643168 0 -0.27161888821200447 0.087639257010881405 0 -0.26695082606917891 0.072612191126347536 0 -0.27884752683472253 0.079658598023643168 0 -0.27161888821200447 0.087639257010881405 0 -0.26234213297018572 0.1026362011114037 0 -0.27161888821200447 0.087639257010881405 0 -0.25556161972531632 0.083081474033260674 0 -0.26234213297018572 0.1026362011114037 0 -0.25556161972531632 0.083081474033260674 0 -0.2396933968871289 0.09268355830743602 0 -0.26695082606917891 0.072612191126347536 0 -0.27161888821200447 0.087639257010881405 0 -0.25556161972531632 0.083081474033260674 0 -0.26695082606917891 0.072612191126347536 0 -0.25260936801548778 0.067016459562961345 0 -0.26507404441103438 0.051685926525687313 0 -0.26695082606917891 0.072612191126347536 0 -0.25556161972531632 0.083081474033260674 0 -0.25260936801548778 0.067016459562961345 0 -0.26507404441103438 0.051685926525687313 0 -0.2480163729780232 0.05249041209415882 0 -0.25260936801548778 0.067016459562961345 0 -0.26507404441103438 0.051685926525687313 0 -0.2480163729780232 0.05249041209415882 0 -0.26507404441103438 0.051685926525687313 0 -0.25049540424656908 0.034866189931022119 0 -0.2480163729780232 0.05249041209415882 0 -0.26507404441103438 0.051685926525687313 0 -0.25049540424656908 0.034866189931022119 0 -0.26585662294946172 0.031824315789444987 0 -0.26507404441103438 0.051685926525687313 0 -0.25049540424656908 0.034866189931022119 0 -0.26585662294946172 0.031824315789444987 0 -0.28886162483750127 0.033098262223007428 0 -0.26507404441103438 0.051685926525687313 0 -0.26585662294946172 0.031824315789444987 0 -0.27486691243728067 0.042125558070276528 0 -0.26585662294946172 0.031824315789444987 0 -0.27486691243728067 0.042125558070276528 0 -0.28886162483750127 0.033098262223007428 0 -0.27486691243728067 0.042125558070276528 0 -0.27759625192852339 0.046938678144914717 0 -0.28492795476767602 0.043221403483114082 0 -0.26507404441103438 0.051685926525687313 0 -0.27759625192852339 0.046938678144914717 0 -0.28551609609810252 0.050721824500580992 0 -0.27799350921650801 0.06659143160165143 0 -0.26507404441103438 0.051685926525687313 0 -0.28313602968369828 0.051370598885986177 0 -0.26507404441103438 0.051685926525687313 0 -0.28313602968369828 0.051370598885986177 0 -0.28551609609810252 0.050721824500580992 0 -0.26507404441103438 0.051685926525687313 0 -0.28551609609810252 0.050721824500580992 0 -0.27799350921650801 0.06659143160165143 0 -0.26507404441103438 0.051685926525687313 0 -0.26507404441103438 0.051685926525687313 0 -0.27486691243728067 0.042125558070276528 0 -0.27759625192852339 0.046938678144914717 0 -0.24515485499866729 -0.0027749487305340739 0 -0.26589010801216828 -0.00086410655635342742 0 -0.2556199760206222 0.01490474827358006 0 -0.26589010801216828 -0.00086410655635342742 0 -0.2556199760206222 0.01490474827358006 0 -0.27071735450651452 0.0186009948444852 0 -0.26585662294946172 0.031824315789444987 0 -0.2556199760206222 0.01490474827358006 0 -0.27071735450651452 0.0186009948444852 0 -0.25049540424656908 0.034866189931022119 0 -0.26585662294946172 0.031824315789444987 0 -0.2556199760206222 0.01490474827358006 0 -0.26585662294946172 0.031824315789444987 0 -0.27071735450651452 0.0186009948444852 0 -0.28886162483750127 0.033098262223007428 0 -0.27071735450651452 0.0186009948444852 0 -0.27977988153755318 0.01004381441023585 0 -0.28765126972109212 0.018551856460611211 0 -0.26589010801216828 -0.00086410655635342742 0 -0.28338472513160562 -0.0026069285523867558 0 -0.27977988153755318 0.01004381441023585 0 -0.26589010801216828 -0.00086410655635342742 0 -0.27071735450651452 0.0186009948444852 0 -0.27977988153755318 0.01004381441023585 0 -0.27977988153755318 0.01004381441023585 0 -0.28765126972109212 0.018551856460611211 0 -0.29767081851185972 0.0087763125949969108 0 -0.28338472513160562 -0.0026069285523867558 0 -0.27977988153755318 0.01004381441023585 0 -0.29767081851185972 0.0087763125949969108 0 -0.28765126972109212 0.018551856460611211 0 -0.30458697407996749 0.02153728044102772 0 -0.29767081851185972 0.0087763125949969108 0 -0.28765126972109212 0.018551856460611211 0 -0.30458697407996749 0.02153728044102772 0 -0.28886162483750127 0.033098262223007428 0 -0.27071735450651452 0.0186009948444852 0 -0.28765126972109212 0.018551856460611211 0 -0.28886162483750127 0.033098262223007428 0 -0.30458697407996749 0.02153728044102772 0 -0.28886162483750127 0.033098262223007428 0 -0.31186662672554089 0.034372208656569869 0 -0.30458697407996749 0.02153728044102772 0 -0.29767081851185972 0.0087763125949969108 0 -0.31720468743479141 0.0090564158681312023 0 -0.30940863170084509 -0.0032780389657020709 0 -0.29767081851185972 0.0087763125949969108 0 -0.31720468743479141 0.0090564158681312023 0 -0.28551609609810252 0.050721824500580992 0 -0.29541794467128513 0.043472192788117647 0 -0.3059581477851705 0.049757722475473859 0 -0.29749495575393248 0.071593010413992964 0 -0.29612693203356127 0.058504996296145237 0 -0.28313602968369828 0.051370598885986177 0 -0.29612693203356127 0.058504996296145237 0 -0.28551609609810252 0.050721824500580992 0 -0.3059581477851705 0.049757722475473859 0 -0.29749495575393248 0.071593010413992964 0 -0.28313602968369828 0.051370598885986177 0 -0.28551609609810252 0.050721824500580992 0 -0.3059581477851705 0.049757722475473859 0 -0.27759625192852339 0.046938678144914717 0 -0.28551609609810252 0.050721824500580992 0 -0.28492795476767602 0.043221403483114082 0 -0.29612693203356127 0.058504996296145237 0 -0.28313602968369828 0.051370598885986177 0 -0.28551609609810252 0.050721824500580992 0 -0.28551609609810252 0.050721824500580992 0 -0.28492795476767602 0.043221403483114082 0 -0.29541794467128513 0.043472192788117647 0 -0.27486691243728067 0.042125558070276528 0 -0.28492795476767602 0.043221403483114082 0 -0.28886162483750127 0.033098262223007428 0 -0.28492795476767602 0.043221403483114082 0 -0.28886162483750127 0.033098262223007428 0 -0.29541794467128513 0.043472192788117647 0 -0.29541794467128513 0.043472192788117647 0 -0.31186662672554089 0.034372208656569869 0 -0.3059581477851705 0.049757722475473859 0 -0.28886162483750127 0.033098262223007428 0 -0.29541794467128513 0.043472192788117647 0 -0.31186662672554089 0.034372208656569869 0 -0.28886162483750127 0.033098262223007428 0 -0.31186662672554089 0.034372208656569869 0 -0.29612693203356127 0.058504996296145237 0 -0.3059581477851705 0.049757722475473859 0 -0.30738993854740349 0.061317086081269803 0 -0.3059581477851705 0.049757722475473859 0 -0.30738993854740349 0.061317086081269803 0 -0.31768126412906089 0.057979855006894621 0 -0.3059581477851705 0.049757722475473859 0 -0.31768126412906089 0.057979855006894621 0 -0.32640019947223847 0.048793620450366733 0 -0.3059581477851705 0.049757722475473859 0 -0.32640019947223847 0.048793620450366733 0 -0.31768126412906089 0.057979855006894621 0 -0.32640019947223847 0.048793620450366733 0 -0.32920700526258101 0.060251137203043308 0 -0.31186662672554089 0.034372208656569869 0 -0.3059581477851705 0.049757722475473859 0 -0.32640019947223847 0.048793620450366733 0 -0.31186662672554089 0.034372208656569869 0 -0.33487162861358061 0.03564615509013231 0 -0.31186662672554089 0.034372208656569869 0 -0.32640019947223847 0.048793620450366733 0 -0.33487162861358061 0.03564615509013231 0 -0.32640019947223847 0.048793620450366733 0 -0.33487162861358061 0.03564615509013231 0 -0.33866215211632927 0.047591256136401278 0 -0.33866215211632927 0.047591256136401278 0 -0.34158118716533148 0.061818051310688862 0 -0.35003827168093399 0.050680094861894363 0 -0.33866215211632927 0.047591256136401278 0 -0.34158118716533148 0.061818051310688862 0 -0.32920700526258101 0.060251137203043308 0 -0.32640019947223847 0.048793620450366733 0 -0.33866215211632927 0.047591256136401278 0 -0.32920700526258101 0.060251137203043308 0 -0.31720468743479141 0.0090564158681312023 0 -0.3225990591652258 0.023729904657864551 0 -0.33616688094669461 0.01238419364140216 0 -0.33056872009283023 -0.0011461246091495291 0 -0.32216129791980902 -0.0069344387365319659 0 -0.31720468743479141 0.0090564158681312023 0 -0.33056872009283023 -0.0011461246091495291 0 -0.31720468743479141 0.0090564158681312023 0 -0.33616688094669461 0.01238419364140216 0 -0.30458697407996749 0.02153728044102772 0 -0.31720468743479141 0.0090564158681312023 0 -0.3225990591652258 0.023729904657864551 0 -0.31186662672554089 0.034372208656569869 0 -0.33487162861358061 0.03564615509013231 0 -0.3225990591652258 0.023729904657864551 0 -0.30458697407996749 0.02153728044102772 0 -0.31186662672554089 0.034372208656569869 0 -0.3225990591652258 0.023729904657864551 0 -0.33487162861358061 0.03564615509013231 0 -0.3225990591652258 0.023729904657864551 0 -0.33606154312739728 0.0242559826160029 0 -0.34368289138490687 0.031078957010143959 0 -0.33606154312739728 0.0242559826160029 0 -0.34547827427691058 0.017441189228716181 0 -0.33487162861358061 0.03564615509013231 0 -0.34368289138490687 0.031078957010143959 0 -0.33606154312739728 0.0242559826160029 0 -0.33606154312739728 0.0242559826160029 0 -0.33616688094669461 0.01238419364140216 0 -0.34547827427691058 0.017441189228716181 0 -0.3225990591652258 0.023729904657864551 0 -0.33606154312739728 0.0242559826160029 0 -0.33616688094669461 0.01238419364140216 0 -0.36405253737196008 -0.0035712873924979732 0 -0.35220590029562848 0.0033345073516840001 0 -0.36051966500509169 0.015652548798470209 0 -0.33616688094669461 0.01238419364140216 0 -0.35220590029562848 0.0033345073516840001 0 -0.34547827427691058 0.017441189228716181 0 -0.346274627689245 -0.003181346978018551 0 -0.33616688094669461 0.01238419364140216 0 -0.35220590029562848 0.0033345073516840001 0 -0.35220590029562848 0.0033345073516840001 0 -0.34547827427691058 0.017441189228716181 0 -0.36051966500509169 0.015652548798470209 0 -0.34368289138490687 0.031078957010143959 0 -0.34547827427691058 0.017441189228716181 0 -0.36051966500509169 0.015652548798470209 0 -0.34368289138490687 0.031078957010143959 0 -0.36449434579528173 0.027531650513306881 0 -0.36051966500509169 0.015652548798470209 0 -0.34368289138490687 0.031078957010143959 0 -0.36051966500509169 0.015652548798470209 0 -0.37565268294822551 0.020411264913400569 0 -0.36449434579528173 0.027531650513306881 0 -0.37394892727117302 0.040596389240003979 0 -0.37565268294822551 0.020411264913400569 0 -0.37394892727117302 0.040596389240003979 0 -0.37565268294822551 0.020411264913400569 0 -0.36449434579528173 0.027531650513306881 0 -0.36051966500509169 0.015652548798470209 0 -0.3773564386252769 0.0002261405867970603 0 -0.36051966500509169 0.015652548798470209 0 -0.37565268294822551 0.020411264913400569 0 -0.3773564386252769 0.0002261405867970603 0 -0.36051966500509169 0.015652548798470209 0 -0.36405253737196008 -0.0035712873924979732 0 -0.3773564386252769 0.0002261405867970603 0 -0.36051966500509169 0.015652548798470209 0 -0.35579571877883232 0.056383364547430287 0 -0.35003827168093399 0.050680094861894363 0 -0.3614181579835668 0.04906193166777803 0 -0.35579571877883232 0.056383364547430287 0 -0.35126940665119988 0.061856388989014612 0 -0.35003827168093399 0.050680094861894363 0 -0.35579571877883232 0.056383364547430287 0 -0.36200044780486179 0.05969785492690851 0 -0.35729837562142081 0.062865941352305693 0 -0.35579571877883232 0.056383364547430287 0 -0.35126940665119988 0.061856388989014612 0 -0.35729837562142081 0.062865941352305693 0 -0.34158118716533148 0.061818051310688862 0 -0.35126940665119988 0.061856388989014612 0 -0.35003827168093399 0.050680094861894363 0 -0.33866215211632927 0.047591256136401278 0 -0.35003827168093399 0.050680094861894363 0 -0.35787663050162011 0.036920101523694737 0 -0.34368289138490687 0.031078957010143959 0 -0.36449434579528173 0.027531650513306881 0 -0.35787663050162011 0.036920101523694737 0 -0.33487162861358061 0.03564615509013231 0 -0.33866215211632927 0.047591256136401278 0 -0.35787663050162011 0.036920101523694737 0 -0.33487162861358061 0.03564615509013231 0 -0.35787663050162011 0.036920101523694737 0 -0.33487162861358061 0.03564615509013231 0 -0.34368289138490687 0.031078957010143959 0 -0.35787663050162011 0.036920101523694737 0 -0.35003827168093399 0.050680094861894363 0 -0.35787663050162011 0.036920101523694737 0 -0.3614181579835668 0.04906193166777803 0 -0.36449434579528173 0.027531650513306881 0 -0.35787663050162011 0.036920101523694737 0 -0.37394892727117302 0.040596389240003979 0 -0.35787663050162011 0.036920101523694737 0 -0.37394892727117302 0.040596389240003979 0 -0.3614181579835668 0.04906193166777803 0 -0.37394892727117302 0.040596389240003979 0 -0.37224517159411952 0.060781513566607312 0 -0.37394892727117302 0.040596389240003979 0 -0.3614181579835668 0.04906193166777803 0 -0.37224517159411952 0.060781513566607312 0 -0.3614181579835668 0.04906193166777803 0 -0.36200044780486179 0.05969785492690851 0 -0.37224517159411952 0.060781513566607312 0 -0.36200044780486179 0.05969785492690851 0 -0.37224517159411952 0.060781513566607312 0 -0.36200044780486179 0.05969785492690851 0 -0.37224517159411952 0.060781513566607312 0 -0.36213088386670639 0.066126532349732203 0 -0.35579571877883232 0.056383364547430287 0 -0.3614181579835668 0.04906193166777803 0 -0.36200044780486179 0.05969785492690851 0 -0.37224517159411952 0.060781513566607312 0 -0.37174830621872118 0.066668090797781271 0 -0.36213088386670639 0.066126532349732203 0 -0.3806114969857749 0.087796634505169363 0 -0.36213088386670639 0.066126532349732203 0 -0.36213088386670639 0.066126532349732203 0 -0.35480911573212998 0.069989474411297103 0 -0.36250040015500667 0.081971481722797293 0 -0.3806114969857749 0.087796634505169363 0 -0.37174830621872118 0.066668090797781271 0 -0.36213088386670639 0.066126532349732203 0 -0.37224517159411952 0.060781513566607312 0 -0.37174830621872118 0.066668090797781271 0 -0.36200044780486179 0.05969785492690851 0 -0.36213088386670639 0.066126532349732203 0 -0.35729837562142081 0.062865941352305693 0 -0.36213088386670639 0.066126532349732203 0 -0.35729837562142081 0.062865941352305693 0 -0.35480911573212998 0.069989474411297103 0 -0.35126940665119988 0.061856388989014612 0 -0.35729837562142081 0.062865941352305693 0 -0.35480911573212998 0.069989474411297103 0 -0.35480911573212998 0.069989474411297103 0 -0.34742183894075968 0.077600652027759801 0 -0.36250040015500667 0.081971481722797293 0 -0.35480911573212998 0.069989474411297103 0 -0.34742183894075968 0.077600652027759801 0 -0.34596628666298579 0.068705459090680696 0 -0.35126940665119988 0.061856388989014612 0 -0.35480911573212998 0.069989474411297103 0 -0.34596628666298579 0.068705459090680696 0 -0.34158118716533148 0.061818051310688862 0 -0.35126940665119988 0.061856388989014612 0 -0.34596628666298579 0.068705459090680696 0 -0.34870449892199101 0.090491941555433358 0 -0.36250040015500667 0.081971481722797293 0 -0.36414002759233149 0.099960541505488304 0 -0.34742183894075968 0.077600652027759801 0 -0.34870449892199101 0.090491941555433358 0 -0.33680156975277692 0.084041125668062364 0 -0.34742183894075968 0.077600652027759801 0 -0.34870449892199101 0.090491941555433358 0 -0.36250040015500667 0.081971481722797293 0 -0.3806114969857749 0.087796634505169363 0 -0.36250040015500667 0.081971481722797293 0 -0.36414002759233149 0.099960541505488304 0 -0.3806114969857749 0.087796634505169363 0 -0.36213088386670639 0.066126532349732203 0 -0.36250040015500667 0.081971481722797293 0 -0.37704360043719409 0.1171158391467417 0 -0.38022180878003597 0.10358493795450149 0 -0.36414002759233149 0.099960541505488304 0 -0.38022180878003597 0.10358493795450149 0 -0.3806114969857749 0.087796634505169363 0 -0.36414002759233149 0.099960541505488304 0 -0.37704360043719409 0.1171158391467417 0 -0.36414002759233149 0.099960541505488304 0 -0.355467083144139 0.11428213385471619 0 -0.37704360043719409 0.1171158391467417 0 -0.36401968028201059 0.1255018374607936 0 -0.355467083144139 0.11428213385471619 0 -0.34057173396463508 0.13226024499801331 0 -0.35236213654664672 0.12471454939567821 0 -0.34118317121448949 0.1162193912910752 0 -0.36401968028201059 0.1255018374607936 0 -0.35236213654664672 0.12471454939567821 0 -0.355467083144139 0.11428213385471619 0 -0.355467083144139 0.11428213385471619 0 -0.34851557229741542 0.1036965672765025 0 -0.34118317121448949 0.1162193912910752 0 -0.35236213654664672 0.12471454939567821 0 -0.355467083144139 0.11428213385471619 0 -0.34118317121448949 0.1162193912910752 0 -0.34870449892199101 0.090491941555433358 0 -0.36414002759233149 0.099960541505488304 0 -0.34851557229741542 0.1036965672765025 0 -0.36414002759233149 0.099960541505488304 0 -0.355467083144139 0.11428213385471619 0 -0.34851557229741542 0.1036965672765025 0 -0.34870449892199101 0.090491941555433358 0 -0.34851557229741542 0.1036965672765025 0 -0.3330830806141255 0.09752882817579947 0 -0.3330830806141255 0.09752882817579947 0 -0.34118317121448949 0.1162193912910752 0 -0.32621280789440099 0.1120378334700065 0 -0.34851557229741542 0.1036965672765025 0 -0.3330830806141255 0.09752882817579947 0 -0.34118317121448949 0.1162193912910752 0 -0.34057173396463508 0.13226024499801331 0 -0.32621280789440099 0.1120378334700065 0 -0.34057173396463508 0.13226024499801331 0 -0.34118317121448949 0.1162193912910752 0 -0.32621280789440099 0.1120378334700065 0 -0.33028834121935657 0.13249412952330639 0 -0.32621280789440099 0.1120378334700065 0 -0.31906580564250148 0.1195121614021095 0 -0.33028834121935657 0.13249412952330639 0 -0.30763960513629951 0.1225414867193392 0 -0.31906580564250148 0.1195121614021095 0 -0.31212246831994878 0.1109751958957863 0 -0.32621280789440099 0.1120378334700065 0 -0.31906580564250148 0.1195121614021095 0 -0.31212246831994878 0.1109751958957863 0 -0.30763960513629951 0.1225414867193392 0 -0.31906580564250148 0.1195121614021095 0 -0.31185388182416668 0.091815421941999764 0 -0.32621280789440099 0.1120378334700065 0 -0.31212246831994878 0.1109751958957863 0 -0.31185388182416668 0.091815421941999764 0 -0.32621280789440099 0.1120378334700065 0 -0.31185388182416668 0.091815421941999764 0 -0.3330830806141255 0.09752882817579947 0 -0.32621280789440099 0.1120378334700065 0 -0.31185388182416668 0.091815421941999764 0 -0.3330830806141255 0.09752882817579947 0 -0.32117158787115557 0.082501940843362237 0 -0.29749495575393248 0.071593010413992964 0 -0.32117158787115557 0.082501940843362237 0 -0.31945102957791077 0.069779708824319428 0 -0.30738993854740349 0.061317086081269803 0 -0.31768126412906089 0.057979855006894621 0 -0.31945102957791077 0.069779708824319428 0 -0.31768126412906089 0.057979855006894621 0 -0.32920700526258101 0.060251137203043308 0 -0.31945102957791077 0.069779708824319428 0 -0.32920700526258101 0.060251137203043308 0 -0.31945102957791077 0.069779708824319428 0 -0.3347498848255076 0.072262728714643149 0 -0.32117158787115557 0.082501940843362237 0 -0.31945102957791077 0.069779708824319428 0 -0.3347498848255076 0.072262728714643149 0 -0.34158118716533148 0.061818051310688862 0 -0.32920700526258101 0.060251137203043308 0 -0.3347498848255076 0.072262728714643149 0 -0.34158118716533148 0.061818051310688862 0 -0.34596628666298579 0.068705459090680696 0 -0.3347498848255076 0.072262728714643149 0 -0.34742183894075968 0.077600652027759801 0 -0.3347498848255076 0.072262728714643149 0 -0.33680156975277692 0.084041125668062364 0 -0.34742183894075968 0.077600652027759801 0 -0.34596628666298579 0.068705459090680696 0 -0.3347498848255076 0.072262728714643149 0 -0.32117158787115557 0.082501940843362237 0 -0.3347498848255076 0.072262728714643149 0 -0.33680156975277692 0.084041125668062364 0 -0.3330830806141255 0.09752882817579947 0 -0.32117158787115557 0.082501940843362237 0 -0.33680156975277692 0.084041125668062364 0 -0.34870449892199101 0.090491941555433358 0 -0.3330830806141255 0.09752882817579947 0 -0.33680156975277692 0.084041125668062364 0 -0.40607465479962318 0.47617139972711431 0 -0.38804747050137173 0.47796257662936442 0 -0.40349000214772829 0.45824077622743181 0 -0.40607465479962318 0.47617139972711431 0 -0.4044265637878216 0.5 0 -0.38804747050137173 0.47796257662936442 0 -0.37650627782310658 0.5 0 -0.38804747050137173 0.47796257662936442 0 -0.36350645233131229 0.47915105311160888 0 -0.4044265637878216 0.5 0 -0.37650627782310658 0.5 0 -0.38804747050137173 0.47796257662936442 0 -0.38804747050137173 0.47796257662936442 0 -0.38367594565080598 0.46002149645219997 0 -0.36350645233131229 0.47915105311160888 0 -0.38367594565080598 0.46002149645219997 0 -0.39485286882606158 0.43722124595066481 0 -0.37257914947884441 0.4469660416209062 0 -0.39485286882606158 0.43722124595066481 0 -0.37678669511930091 0.43099729644030632 0 -0.37257914947884441 0.4469660416209062 0 -0.40349000214772829 0.45824077622743181 0 -0.41893253379408502 0.43851897582549931 0 -0.39485286882606158 0.43722124595066481 0 -0.38367594565080598 0.46002149645219997 0 -0.40349000214772829 0.45824077622743181 0 -0.39485286882606158 0.43722124595066481 0 -0.38804747050137173 0.47796257662936442 0 -0.38367594565080598 0.46002149645219997 0 -0.40349000214772829 0.45824077622743181 0 -0.38804747050137173 0.47796257662936442 0 -0.40349000214772829 0.45824077622743181 0 -0.40349000214772829 0.45824077622743181 0 -0.41821216624407698 0.46579629131185502 0 -0.42443625456320511 0.44833991711482879 0 -0.40607465479962318 0.47617139972711431 0 -0.40349000214772829 0.45824077622743181 0 -0.41821216624407698 0.46579629131185502 0 -0.40349000214772829 0.45824077622743181 0 -0.41893253379408502 0.43851897582549931 0 -0.42443625456320511 0.44833991711482879 0 -0.40349000214772829 0.45824077622743181 0 -0.41893253379408502 0.43851897582549931 0 -0.42443625456320511 0.44833991711482879 0 -0.44962416970880498 0.432509549263842 0 -0.42443625456320511 0.44833991711482879 0 -0.44962416970880498 0.432509549263842 0 -0.43184200587663418 0.43454140440693417 0 -0.41893253379408502 0.43851897582549931 0 -0.42443625456320511 0.44833991711482879 0 -0.43184200587663418 0.43454140440693417 0 -0.41821216624407698 0.46579629131185502 0 -0.42443625456320511 0.44833991711482879 0 -0.43448678847886912 0.46587013785376569 0 -0.42443625456320511 0.44833991711482879 0 -0.43448678847886912 0.46587013785376569 0 -0.44420656194417851 0.45175830449062349 0 -0.43448678847886912 0.46587013785376569 0 -0.42257313123095952 0.48035922563613459 0 -0.44106157957067671 0.48333625115462958 0 -0.41821216624407698 0.46579629131185502 0 -0.43448678847886912 0.46587013785376569 0 -0.42257313123095952 0.48035922563613459 0 -0.40607465479962318 0.47617139972711431 0 -0.41821216624407698 0.46579629131185502 0 -0.42257313123095952 0.48035922563613459 0 -0.4044265637878216 0.5 0 -0.42257313123095952 0.48035922563613459 0 -0.43234684975253651 0.5 0 -0.40607465479962318 0.47617139972711431 0 -0.4044265637878216 0.5 0 -0.42257313123095952 0.48035922563613459 0 -0.42257313123095952 0.48035922563613459 0 -0.43234684975253651 0.5 0 -0.44106157957067671 0.48333625115462958 0 -0.44106157957067671 0.48333625115462958 0 -0.45563399267376747 0.47045189228324802 0 -0.4602671357172512 0.5 0 -0.43234684975253651 0.5 0 -0.44106157957067671 0.48333625115462958 0 -0.4602671357172512 0.5 0 -0.43448678847886912 0.46587013785376569 0 -0.44106157957067671 0.48333625115462958 0 -0.45563399267376747 0.47045189228324802 0 -0.45563399267376747 0.47045189228324802 0 -0.4602671357172512 0.5 0 -0.47502892106713479 0.48254416214453749 0 -0.49409371084098108 0.47893061675000032 0 -0.5 0.5 0 -0.49999999999999861 0.45786123350000552 0 -0.4602671357172512 0.5 0 -0.47502892106713479 0.48254416214453749 0 -0.48818742168196588 0.49999999999999573 0 -0.45563399267376747 0.47045189228324802 0 -0.47502892106713479 0.48254416214453749 0 -0.47696234442170821 0.46333830168943901 0 -0.47502892106713479 0.48254416214453749 0 -0.49409371084098108 0.47893061675000032 0 -0.47696234442170821 0.46333830168943901 0 -0.49409371084098108 0.47893061675000032 0 -0.5 0.5 0 -0.48818742168196588 0.49999999999999573 0 -0.49409371084098108 0.47893061675000032 0 -0.48818742168196588 0.49999999999999573 0 -0.47502892106713479 0.48254416214453749 0 -0.49409371084098108 0.47893061675000032 0 -0.48818742168196588 0.49999999999999573 0 -0.49999999999999861 0.45786123350000552 0 -0.47646079037666972 0.44153231124560871 0 -0.5 0.42935502353093602 0 -0.49409371084098108 0.47893061675000032 0 -0.49999999999999861 0.45786123350000552 0 -0.49999999999999861 0.45786123350000552 0 -0.47696234442170821 0.46333830168943901 0 -0.47646079037666972 0.44153231124560871 0 -0.49409371084098108 0.47893061675000032 0 -0.49999999999999861 0.45786123350000552 0 -0.47696234442170821 0.46333830168943901 0 -0.47696234442170821 0.46333830168943901 0 -0.47646079037666972 0.44153231124560871 0 -0.46057757182502568 0.45191807179455218 0 -0.47646079037666972 0.44153231124560871 0 -0.46057757182502568 0.45191807179455218 0 -0.44962416970880498 0.432509549263842 0 -0.45563399267376747 0.47045189228324802 0 -0.46057757182502568 0.45191807179455218 0 -0.44420656194417851 0.45175830449062349 0 -0.45563399267376747 0.47045189228324802 0 -0.47696234442170821 0.46333830168943901 0 -0.46057757182502568 0.45191807179455218 0 -0.43448678847886912 0.46587013785376569 0 -0.45563399267376747 0.47045189228324802 0 -0.44420656194417851 0.45175830449062349 0 -0.46057757182502568 0.45191807179455218 0 -0.44420656194417851 0.45175830449062349 0 -0.44962416970880498 0.432509549263842 0 -0.42443625456320511 0.44833991711482879 0 -0.44420656194417851 0.45175830449062349 0 -0.44962416970880498 0.432509549263842 0 -0.44962416970880498 0.432509549263842 0 -0.43437506544044158 0.41879717542356693 0 -0.43184200587663418 0.43454140440693417 0 -0.44962416970880498 0.432509549263842 0 -0.45336774767969013 0.41503519625633972 0 -0.43437506544044158 0.41879717542356693 0 -0.44981759708679681 0.39907537502163343 0 -0.43437506544044158 0.41879717542356693 0 -0.45336774767969013 0.41503519625633972 0 -0.44981759708679681 0.39907537502163343 0 -0.43437506544044158 0.41879717542356693 0 -0.46322360901124282 0.40658697820083728 0 -0.45336774767969013 0.41503519625633972 0 -0.44981759708679681 0.39907537502163343 0 -0.44962416970880498 0.432509549263842 0 -0.45336774767969013 0.41503519625633972 0 -0.47481208485440513 0.41667918141285498 0 -0.46322360901124282 0.40658697820083728 0 -0.45336774767969013 0.41503519625633972 0 -0.47481208485440513 0.41667918141285498 0 -0.47646079037666972 0.44153231124560871 0 -0.44962416970880498 0.432509549263842 0 -0.47481208485440513 0.41667918141285498 0 -0.44962416970880498 0.432509549263842 0 -0.47481208485440513 0.41667918141285498 0 -0.47646079037666972 0.44153231124560871 0 -0.47481208485440513 0.41667918141285498 0 -0.5 0.42935502353093602 0 -0.47481208485440513 0.41667918141285498 0 -0.5 0.42935502353093602 0 -0.500000000000004 0.40084881356186641 0 -0.47481208485440513 0.41667918141285498 0 -0.500000000000004 0.40084881356186641 0 -0.50000000000000178 0.38306770476170432 0 -0.48597388505611822 0.39198124690470659 0 -0.48055430247078013 0.37587048873324819 0 -0.50000000000000178 0.38306770476170432 0 -0.48055430247078013 0.37587048873324819 0 -0.5 0.36668616424636791 0 -0.50000000000000178 0.38306770476170432 0 -0.48055430247078013 0.37587048873324819 0 -0.50000000000000178 0.38306770476170432 0 -0.500000000000004 0.40084881356186641 0 -0.48597388505611822 0.39198124690470659 0 -0.47481208485440513 0.41667918141285498 0 -0.500000000000004 0.40084881356186641 0 -0.48597388505611822 0.39198124690470659 0 -0.47481208485440513 0.41667918141285498 0 -0.48597388505611822 0.39198124690470659 0 -0.47137364370735052 0.39355922810757749 0 -0.46322360901124282 0.40658697820083728 0 -0.47481208485440513 0.41667918141285498 0 -0.47137364370735052 0.39355922810757749 0 -0.48597388505611822 0.39198124690470659 0 -0.47137364370735052 0.39355922810757749 0 -0.47122253315394258 0.38225399667269422 0 -0.48055430247078013 0.37587048873324819 0 -0.47122253315394258 0.38225399667269422 0 -0.46110860494155831 0.36867327270479272 0 -0.48597388505611822 0.39198124690470659 0 -0.48055430247078013 0.37587048873324819 0 -0.47122253315394258 0.38225399667269422 0 -0.47122253315394258 0.38225399667269422 0 -0.46040761644227429 0.38555076307560182 0 -0.46110860494155831 0.36867327270479272 0 -0.46040761644227429 0.38555076307560182 0 -0.45220037359775722 0.37618122944736843 0 -0.46110860494155831 0.36867327270479272 0 -0.47137364370735052 0.39355922810757749 0 -0.47122253315394258 0.38225399667269422 0 -0.46040761644227429 0.38555076307560182 0 -0.47137364370735052 0.39355922810757749 0 -0.46040761644227429 0.38555076307560182 0 -0.44981759708679681 0.39907537502163343 0 -0.46322360901124282 0.40658697820083728 0 -0.47137364370735052 0.39355922810757749 0 -0.44981759708679681 0.39907537502163343 0 -0.47137364370735052 0.39355922810757749 0 -0.44981759708679681 0.39907537502163343 0 -0.46040761644227429 0.38555076307560182 0 -0.44981759708679681 0.39907537502163343 0 -0.44981759708679681 0.39907537502163343 0 -0.42777581537409781 0.40471582052237598 0 -0.44981759708679681 0.39907537502163343 0 -0.4441032200514855 0.383692517209617 0 -0.43274307086925318 0.39075565785371841 0 -0.46040761644227429 0.38555076307560182 0 -0.45220037359775722 0.37618122944736843 0 -0.4441032200514855 0.383692517209617 0 -0.46040761644227429 0.38555076307560182 0 -0.44981759708679681 0.39907537502163343 0 -0.4441032200514855 0.383692517209617 0 -0.45220037359775722 0.37618122944736843 0 -0.4441032200514855 0.383692517209617 0 -0.44445093059727592 0.3759113444093134 0 -0.4441032200514855 0.383692517209617 0 -0.43597822322646113 0.37642762290532639 0 -0.43274307086925318 0.39075565785371841 0 -0.4441032200514855 0.383692517209617 0 -0.44445093059727592 0.3759113444093134 0 -0.43597822322646113 0.37642762290532639 0 -0.43597822322646113 0.37642762290532639 0 -0.42486349458874317 0.38045400884375791 0 -0.43274307086925318 0.39075565785371841 0 -0.42486349458874317 0.38045400884375791 0 -0.41332802954934772 0.39414439347560531 0 -0.43274307086925318 0.39075565785371841 0 -0.43597822322646113 0.37642762290532639 0 -0.42486349458874317 0.38045400884375791 0 -0.43074937070441449 0.3720979984360252 0 -0.42486349458874317 0.38045400884375791 0 -0.39747253887049472 0.37831803176124412 0 -0.42486349458874317 0.38045400884375791 0 -0.41332802954934772 0.39414439347560531 0 -0.39747253887049472 0.37831803176124412 0 -0.41332802954934772 0.39414439347560531 0 -0.42777581537409781 0.40471582052237598 0 -0.40573403366139937 0.4103562660231207 0 -0.44981759708679681 0.39907537502163343 0 -0.42777581537409781 0.40471582052237598 0 -0.43274307086925318 0.39075565785371841 0 -0.41332802954934772 0.39414439347560531 0 -0.42777581537409781 0.40471582052237598 0 -0.43274307086925318 0.39075565785371841 0 -0.44981759708679681 0.39907537502163343 0 -0.42777581537409781 0.40471582052237598 0 -0.43437506544044158 0.41879717542356693 0 -0.42777581537409781 0.40471582052237598 0 -0.43437506544044158 0.41879717542356693 0 -0.41792003750103801 0.42181937960678312 0 -0.41893253379408502 0.43851897582549931 0 -0.43437506544044158 0.41879717542356693 0 -0.43184200587663418 0.43454140440693417 0 -0.41893253379408502 0.43851897582549931 0 -0.43437506544044158 0.41879717542356693 0 -0.41893253379408502 0.43851897582549931 0 -0.43437506544044158 0.41879717542356693 0 -0.41792003750103801 0.42181937960678312 0 -0.41893253379408502 0.43851897582549931 0 -0.41792003750103801 0.42181937960678312 0 -0.40422634514625699 0.42478251578598658 0 -0.42777581537409781 0.40471582052237598 0 -0.41792003750103801 0.42181937960678312 0 -0.40573403366139937 0.4103562660231207 0 -0.42777581537409781 0.40471582052237598 0 -0.40573403366139937 0.4103562660231207 0 -0.41792003750103801 0.42181937960678312 0 -0.40573403366139937 0.4103562660231207 0 -0.40422634514625699 0.42478251578598658 0 -0.40573403366139937 0.4103562660231207 0 -0.38369225194870082 0.41599671152386541 0 -0.39204143765344651 0.39933570750061798 0 -0.40573403366139937 0.4103562660231207 0 -0.38369225194870082 0.41599671152386541 0 -0.40573403366139937 0.4103562660231207 0 -0.40422634514625699 0.42478251578598658 0 -0.38369225194870082 0.41599671152386541 0 -0.39485286882606158 0.43722124595066481 0 -0.40422634514625699 0.42478251578598658 0 -0.38369225194870082 0.41599671152386541 0 -0.41893253379408502 0.43851897582549931 0 -0.39485286882606158 0.43722124595066481 0 -0.40422634514625699 0.42478251578598658 0 -0.39485286882606158 0.43722124595066481 0 -0.37678669511930091 0.43099729644030632 0 -0.38369225194870082 0.41599671152386541 0 -0.37678669511930091 0.43099729644030632 0 -0.38369225194870082 0.41599671152386541 0 -0.36763814449916238 0.41115388442632828 0 -0.38369225194870082 0.41599671152386541 0 -0.37582039998565231 0.39864571816498678 0 -0.36763814449916238 0.41115388442632828 0 -0.37582039998565231 0.39864571816498678 0 -0.38052316154374027 0.38802784367461318 0 -0.39204143765344651 0.39933570750061798 0 -0.38369225194870082 0.41599671152386541 0 -0.37582039998565231 0.39864571816498678 0 -0.39204143765344651 0.39933570750061798 0 -0.38052316154374027 0.38802784367461318 0 -0.39747253887049472 0.37831803176124412 0 -0.39204143765344651 0.39933570750061798 0 -0.38052316154374027 0.38802784367461318 0 -0.39747253887049472 0.37831803176124412 0 -0.37008158315224637 0.37618205467873028 0 -0.39747253887049472 0.37831803176124412 0 -0.37008158315224637 0.37618205467873028 0 -0.41332802954934772 0.39414439347560531 0 -0.39747253887049472 0.37831803176124412 0 -0.39204143765344651 0.39933570750061798 0 -0.41332802954934772 0.39414439347560531 0 -0.40573403366139937 0.4103562660231207 0 -0.39204143765344651 0.39933570750061798 0 -0.39824931629709148 0.34540787535458661 0 -0.38774581346470821 0.36098869976520792 0 -0.40693391074854718 0.35528467164114202 0 -0.38774581346470821 0.36098869976520792 0 -0.41663385948905401 0.36416635392007479 0 -0.39747253887049472 0.37831803176124412 0 -0.38774581346470821 0.36098869976520792 0 -0.41663385948905401 0.36416635392007479 0 -0.38774581346470821 0.36098869976520792 0 -0.40693391074854718 0.35528467164114202 0 -0.41663385948905401 0.36416635392007479 0 -0.39747253887049472 0.37831803176124412 0 -0.38774581346470821 0.36098869976520792 0 -0.37008158315224637 0.37618205467873028 0 -0.39824931629709148 0.34540787535458661 0 -0.38774581346470821 0.36098869976520792 0 -0.37654252073946909 0.33737378469371132 0 -0.39824931629709148 0.34540787535458661 0 -0.37654252073946909 0.33737378469371132 0 -0.37654252073946909 0.33737378469371132 0 -0.37999927534227651 0.32156068054136983 0 -0.39769478195841418 0.32772781580290661 0 -0.37999927534227651 0.32156068054136983 0 -0.39769478195841418 0.32772781580290661 0 -0.39034203851487997 0.31152166348477461 0 -0.37999927534227651 0.32156068054136983 0 -0.39034203851487997 0.31152166348477461 0 -0.36956580530237088 0.30990980503172572 0 -0.39769478195841418 0.32772781580290661 0 -0.41011068841792131 0.31687998128454109 0 -0.39034203851487997 0.31152166348477461 0 -0.41011068841792131 0.31687998128454109 0 -0.39034203851487997 0.31152166348477461 0 -0.39824931629709148 0.34540787535458661 0 -0.39769478195841418 0.32772781580290661 0 -0.41408960043960319 0.33612656720962242 0 -0.39824931629709148 0.34540787535458661 0 -0.37654252073946909 0.33737378469371132 0 -0.39769478195841418 0.32772781580290661 0 -0.39769478195841418 0.32772781580290661 0 -0.41408960043960319 0.33612656720962242 0 -0.41453003395765881 0.32522415805174021 0 -0.41408960043960319 0.33612656720962242 0 -0.429069551126257 0.34031488844017721 0 -0.41995611185471399 0.35344196601546191 0 -0.41408960043960319 0.33612656720962242 0 -0.41453003395765881 0.32522415805174021 0 -0.42577126137527888 0.32612387099344781 0 -0.39769478195841418 0.32772781580290661 0 -0.41011068841792131 0.31687998128454109 0 -0.41453003395765881 0.32522415805174021 0 -0.41453003395765881 0.32522415805174021 0 -0.4197844913509432 0.31677455786671549 0 -0.42577126137527888 0.32612387099344781 0 -0.41011068841792131 0.31687998128454109 0 -0.4197844913509432 0.31677455786671549 0 -0.41372675512513218 0.30671840048231691 0 -0.41011068841792131 0.31687998128454109 0 -0.41453003395765881 0.32522415805174021 0 -0.4197844913509432 0.31677455786671549 0 -0.42930408505260809 0.31782570961049128 0 -0.44235492625946887 0.31709718185710811 0 -0.4223999737753974 0.30780802880891839 0 -0.4197844913509432 0.31677455786671549 0 -0.42930408505260809 0.31782570961049128 0 -0.4223999737753974 0.30780802880891839 0 -0.4197844913509432 0.31677455786671549 0 -0.42930408505260809 0.31782570961049128 0 -0.42577126137527888 0.32612387099344781 0 -0.42930408505260809 0.31782570961049128 0 -0.42577126137527888 0.32612387099344781 0 -0.4356025555526265 0.32160430102801169 0 -0.42577126137527888 0.32612387099344781 0 -0.4356025555526265 0.32160430102801169 0 -0.43807807879033389 0.32854612858283738 0 -0.42930408505260809 0.31782570961049128 0 -0.4356025555526265 0.32160430102801169 0 -0.44235492625946887 0.31709718185710811 0 -0.41408960043960319 0.33612656720962242 0 -0.42577126137527888 0.32612387099344781 0 -0.429069551126257 0.34031488844017721 0 -0.42577126137527888 0.32612387099344781 0 -0.429069551126257 0.34031488844017721 0 -0.43807807879033389 0.32854612858283738 0 -0.429069551126257 0.34031488844017721 0 -0.43807807879033389 0.32854612858283738 0 -0.44304958027101282 0.33886724621812708 0 -0.429069551126257 0.34031488844017721 0 -0.41995611185471399 0.35344196601546191 0 -0.44166290741233771 0.36147605667633409 0 -0.41995611185471399 0.35344196601546191 0 -0.44166290741233771 0.36147605667633409 0 -0.39824931629709148 0.34540787535458661 0 -0.41995611185471399 0.35344196601546191 0 -0.40693391074854718 0.35528467164114202 0 -0.39824931629709148 0.34540787535458661 0 -0.41995611185471399 0.35344196601546191 0 -0.39824931629709148 0.34540787535458661 0 -0.41408960043960319 0.33612656720962242 0 -0.41995611185471399 0.35344196601546191 0 -0.41995611185471399 0.35344196601546191 0 -0.40693391074854718 0.35528467164114202 0 -0.41663385948905401 0.36416635392007479 0 -0.42486349458874317 0.38045400884375791 0 -0.39747253887049472 0.37831803176124412 0 -0.41663385948905401 0.36416635392007479 0 -0.41663385948905401 0.36416635392007479 0 -0.42626687843780547 0.36522597569790688 0 -0.41995611185471399 0.35344196601546191 0 -0.41663385948905401 0.36416635392007479 0 -0.42626687843780547 0.36522597569790688 0 -0.42626687843780547 0.36522597569790688 0 -0.43074937070441449 0.3720979984360252 0 -0.44552190551339999 0.36734400807494172 0 -0.42626687843780547 0.36522597569790688 0 -0.44552190551339999 0.36734400807494172 0 -0.42486349458874317 0.38045400884375791 0 -0.41663385948905401 0.36416635392007479 0 -0.43074937070441449 0.3720979984360252 0 -0.41995611185471399 0.35344196601546191 0 -0.42626687843780547 0.36522597569790688 0 -0.44166290741233771 0.36147605667633409 0 -0.41663385948905401 0.36416635392007479 0 -0.42626687843780547 0.36522597569790688 0 -0.43074937070441449 0.3720979984360252 0 -0.42626687843780547 0.36522597569790688 0 -0.44166290741233771 0.36147605667633409 0 -0.43597822322646113 0.37642762290532639 0 -0.43074937070441449 0.3720979984360252 0 -0.44552190551339999 0.36734400807494172 0 -0.44166290741233771 0.36147605667633409 0 -0.46110860494155831 0.36867327270479272 0 -0.44445093059727592 0.3759113444093134 0 -0.43597822322646113 0.37642762290532639 0 -0.44552190551339999 0.36734400807494172 0 -0.44166290741233771 0.36147605667633409 0 -0.44552190551339999 0.36734400807494172 0 -0.46110860494155831 0.36867327270479272 0 -0.42626687843780547 0.36522597569790688 0 -0.44166290741233771 0.36147605667633409 0 -0.44552190551339999 0.36734400807494172 0 -0.45220037359775722 0.37618122944736843 0 -0.44552190551339999 0.36734400807494172 0 -0.46110860494155831 0.36867327270479272 0 -0.45220037359775722 0.37618122944736843 0 -0.44445093059727592 0.3759113444093134 0 -0.44552190551339999 0.36734400807494172 0 -0.429069551126257 0.34031488844017721 0 -0.44166290741233771 0.36147605667633409 0 -0.44304958027101282 0.33886724621812708 0 -0.44166290741233771 0.36147605667633409 0 -0.45593307979202718 0.34160366814837467 0 -0.44304958027101282 0.33886724621812708 0 -0.47083145370616791 0.3558903402036806 0 -0.47110869636540798 0.33679643256801289 0 -0.45593307979202718 0.34160366814837467 0 -0.44166290741233771 0.36147605667633409 0 -0.47083145370616791 0.3558903402036806 0 -0.44166290741233771 0.36147605667633409 0 -0.47083145370616791 0.3558903402036806 0 -0.45593307979202718 0.34160366814837467 0 -0.44166290741233771 0.36147605667633409 0 -0.46110860494155831 0.36867327270479272 0 -0.47083145370616791 0.3558903402036806 0 -0.48055430247078013 0.37587048873324819 0 -0.46110860494155831 0.36867327270479272 0 -0.48055430247078013 0.37587048873324819 0 -0.47083145370616791 0.3558903402036806 0 -0.48784643904423702 0.36218790422858199 0 -0.48055430247078013 0.37587048873324819 0 -0.46110860494155831 0.36867327270479272 0 -0.47083145370616791 0.3558903402036806 0 -0.47083145370616791 0.3558903402036806 0 -0.48704348501254502 0.33988041721477191 0 -0.47110869636540798 0.33679643256801289 0 -0.47083145370616791 0.3558903402036806 0 -0.49999999999999861 0.35030462373103138 0 -0.48704348501254502 0.33988041721477191 0 -0.47083145370616791 0.3558903402036806 0 -0.49999999999999861 0.35030462373103138 0 -0.47083145370616791 0.3558903402036806 0 -0.49999999999999861 0.35030462373103138 0 -0.48784643904423702 0.36218790422858199 0 -0.48055430247078013 0.37587048873324819 0 -0.48784643904423702 0.36218790422858199 0 -0.5 0.36668616424636791 0 -0.49999999999999861 0.35030462373103138 0 -0.48784643904423702 0.36218790422858199 0 -0.5 0.36668616424636791 0 -0.4934526017509227 0.3167344676828221 0 -0.5 0.32757758423410499 0 -0.48371911793592598 0.32259526933739913 0 -0.5 0.32757758423410499 0 -0.48235870752389781 0.3307117318014362 0 -0.48371911793592598 0.32259526933739913 0 -0.4934526017509227 0.3167344676828221 0 -0.5 0.32757758423410499 0 -0.50000000000000488 0.30485054473717849 0 -0.49999999999999861 0.35030462373103138 0 -0.5 0.32757758423410499 0 -0.48704348501254502 0.33988041721477191 0 -0.5 0.32757758423410499 0 -0.48704348501254502 0.33988041721477191 0 -0.48235870752389781 0.3307117318014362 0 -0.48704348501254502 0.33988041721477191 0 -0.48235870752389781 0.3307117318014362 0 -0.47110869636540798 0.33679643256801289 0 -0.48235870752389781 0.3307117318014362 0 -0.47110869636540798 0.33679643256801289 0 -0.47301588797906158 0.32419357491044448 0 -0.47110869636540798 0.33679643256801289 0 -0.47301588797906158 0.32419357491044448 0 -0.46230987874354063 0.32638633490529773 0 -0.4934526017509227 0.3167344676828221 0 -0.48371911793592598 0.32259526933739913 0 -0.46976839242574758 0.31375898805818753 0 -0.4934526017509227 0.3167344676828221 0 -0.46976839242574758 0.31375898805818753 0 -0.48235870752389781 0.3307117318014362 0 -0.47301588797906158 0.32419357491044448 0 -0.48371911793592598 0.32259526933739913 0 -0.47301588797906158 0.32419357491044448 0 -0.48371911793592598 0.32259526933739913 0 -0.46976839242574758 0.31375898805818753 0 -0.46976839242574758 0.31375898805818753 0 -0.46230987874354063 0.32638633490529773 0 -0.44608418310057241 0.31078350843355279 0 -0.47301588797906158 0.32419357491044448 0 -0.46976839242574758 0.31375898805818753 0 -0.46230987874354063 0.32638633490529773 0 -0.47110869636540798 0.33679643256801289 0 -0.46230987874354063 0.32638633490529773 0 -0.45593307979202718 0.34160366814837467 0 -0.46230987874354063 0.32638633490529773 0 -0.45593307979202718 0.34160366814837467 0 -0.44842408695828412 0.32967576473263382 0 -0.45593307979202718 0.34160366814837467 0 -0.44842408695828412 0.32967576473263382 0 -0.44304958027101282 0.33886724621812708 0 -0.44842408695828412 0.32967576473263382 0 -0.43807807879033389 0.32854612858283738 0 -0.44304958027101282 0.33886724621812708 0 -0.46230987874354063 0.32638633490529773 0 -0.44235492625946887 0.31709718185710811 0 -0.46230987874354063 0.32638633490529773 0 -0.44235492625946887 0.31709718185710811 0 -0.44608418310057241 0.31078350843355279 0 -0.46230987874354063 0.32638633490529773 0 -0.44842408695828412 0.32967576473263382 0 -0.44235492625946887 0.31709718185710811 0 -0.4356025555526265 0.32160430102801169 0 -0.43807807879033389 0.32854612858283738 0 -0.44235492625946887 0.31709718185710811 0 -0.44842408695828412 0.32967576473263382 0 -0.43807807879033389 0.32854612858283738 0 -0.44235492625946887 0.31709718185710811 0 -0.44589574851846131 0.29920506973413002 0 -0.44608418310057241 0.31078350843355279 0 -0.4337212064321973 0.30401111350432419 0 -0.44589574851846131 0.29920506973413002 0 -0.45981739034056007 0.27733477071151919 0 -0.43502345158011568 0.28249977862695269 0 -0.44589574851846131 0.29920506973413002 0 -0.47294787425923313 0.30202780723565398 0 -0.45981739034056007 0.27733477071151919 0 -0.46976839242574758 0.31375898805818753 0 -0.44608418310057241 0.31078350843355279 0 -0.46976839242574758 0.31375898805818753 0 -0.44589574851846131 0.29920506973413002 0 -0.44608418310057241 0.31078350843355279 0 -0.46976839242574758 0.31375898805818753 0 -0.44589574851846131 0.29920506973413002 0 -0.47294787425923313 0.30202780723565398 0 -0.44589574851846131 0.29920506973413002 0 -0.47294787425923313 0.30202780723565398 0 -0.4934526017509227 0.3167344676828221 0 -0.46976839242574758 0.31375898805818753 0 -0.47294787425923313 0.30202780723565398 0 -0.47294787425923313 0.30202780723565398 0 -0.48192186005242682 0.28474090740785252 0 -0.45981739034056007 0.27733477071151919 0 -0.48192186005242682 0.28474090740785252 0 -0.50000000000000488 0.30485054473717849 0 -0.5 0.2783839676246852 0 -0.47294787425923313 0.30202780723565398 0 -0.50000000000000488 0.30485054473717849 0 -0.47294787425923313 0.30202780723565398 0 -0.48192186005242682 0.28474090740785252 0 -0.50000000000000488 0.30485054473717849 0 -0.4934526017509227 0.3167344676828221 0 -0.47294787425923313 0.30202780723565398 0 -0.50000000000000488 0.30485054473717849 0 -0.5 0.25191739051219192 0 -0.5 0.2783839676246852 0 -0.48196211933701277 0.26331588837661452 0 -0.48490729924198572 0.23868410195594519 0 -0.5 0.25191739051219192 0 -0.48196211933701277 0.26331588837661452 0 -0.48192186005242682 0.28474090740785252 0 -0.5 0.2783839676246852 0 -0.48196211933701277 0.26331588837661452 0 -0.48192186005242682 0.28474090740785252 0 -0.48196211933701277 0.26331588837661452 0 -0.45981739034056007 0.27733477071151919 0 -0.4644099162462717 0.24458613087686731 0 -0.45981739034056007 0.27733477071151919 0 -0.43765962649067502 0.26204987574680472 0 -0.4644099162462717 0.24458613087686731 0 -0.48196211933701277 0.26331588837661452 0 -0.45981739034056007 0.27733477071151919 0 -0.45981739034056007 0.27733477071151919 0 -0.43765962649067502 0.26204987574680472 0 -0.43502345158011568 0.28249977862695269 0 -0.43765962649067502 0.26204987574680472 0 -0.4182676279250796 0.25580819642353902 0 -0.41527521002660212 0.27504967916233009 0 -0.43496877321299349 0.23827636000747851 0 -0.43765962649067502 0.26204987574680472 0 -0.4182676279250796 0.25580819642353902 0 -0.40749727746368719 0.24051240033958959 0 -0.4182676279250796 0.25580819642353902 0 -0.39593725243144001 0.26315266686149202 0 -0.4182676279250796 0.25580819642353902 0 -0.41527521002660212 0.27504967916233009 0 -0.39593725243144001 0.26315266686149202 0 -0.43765962649067502 0.26204987574680472 0 -0.41527521002660212 0.27504967916233009 0 -0.43502345158011568 0.28249977862695269 0 -0.44589574851846131 0.29920506973413002 0 -0.43502345158011568 0.28249977862695269 0 -0.41884362277768949 0.29638233223260579 0 -0.41527521002660212 0.27504967916233009 0 -0.43502345158011568 0.28249977862695269 0 -0.41884362277768949 0.29638233223260579 0 -0.44608418310057241 0.31078350843355279 0 -0.4337212064321973 0.30401111350432419 0 -0.4223999737753974 0.30780802880891839 0 -0.44608418310057241 0.31078350843355279 0 -0.4223999737753974 0.30780802880891839 0 -0.44589574851846131 0.29920506973413002 0 -0.4337212064321973 0.30401111350432419 0 -0.41884362277768949 0.29638233223260579 0 -0.44589574851846131 0.29920506973413002 0 -0.41884362277768949 0.29638233223260579 0 -0.44235492625946887 0.31709718185710811 0 -0.4223999737753974 0.30780802880891839 0 -0.44235492625946887 0.31709718185710811 0 -0.44608418310057241 0.31078350843355279 0 -0.4223999737753974 0.30780802880891839 0 -0.4337212064321973 0.30401111350432419 0 -0.4223999737753974 0.30780802880891839 0 -0.41884362277768949 0.29638233223260579 0 -0.4223999737753974 0.30780802880891839 0 -0.40709573540615762 0.30068381176999959 0 -0.41372675512513218 0.30671840048231691 0 -0.4223999737753974 0.30780802880891839 0 -0.41372675512513218 0.30671840048231691 0 -0.4197844913509432 0.31677455786671549 0 -0.4223999737753974 0.30780802880891839 0 -0.41372675512513218 0.30671840048231691 0 -0.4223999737753974 0.30780802880891839 0 -0.40709573540615762 0.30068381176999959 0 -0.41884362277768949 0.29638233223260579 0 -0.4223999737753974 0.30780802880891839 0 -0.40709573540615762 0.30068381176999959 0 -0.40709573540615762 0.30068381176999959 0 -0.41372675512513218 0.30671840048231691 0 -0.40359918350943408 0.3077635393521207 0 -0.41011068841792131 0.31687998128454109 0 -0.41372675512513218 0.30671840048231691 0 -0.40359918350943408 0.3077635393521207 0 -0.41527521002660212 0.27504967916233009 0 -0.41884362277768949 0.29638233223260579 0 -0.39179149703691768 0.29355959473108117 0 -0.41884362277768949 0.29638233223260579 0 -0.39179149703691768 0.29355959473108117 0 -0.40709573540615762 0.30068381176999959 0 -0.41884362277768949 0.29638233223260579 0 -0.39179149703691768 0.29355959473108117 0 -0.41011068841792131 0.31687998128454109 0 -0.40359918350943408 0.3077635393521207 0 -0.39034203851487997 0.31152166348477461 0 -0.40709573540615762 0.30068381176999959 0 -0.40359918350943408 0.3077635393521207 0 -0.39672070008308008 0.30301383973897122 0 -0.40709573540615762 0.30068381176999959 0 -0.39179149703691768 0.29355959473108117 0 -0.40709573540615762 0.30068381176999959 0 -0.39179149703691768 0.29355959473108117 0 -0.39672070008308008 0.30301383973897122 0 -0.40359918350943408 0.3077635393521207 0 -0.39672070008308008 0.30301383973897122 0 -0.39034203851487997 0.31152166348477461 0 -0.39672070008308008 0.30301383973897122 0 -0.39034203851487997 0.31152166348477461 0 -0.38107376492631029 0.29942463478954751 0 -0.39034203851487997 0.31152166348477461 0 -0.37057338861183858 0.30616334568500791 0 -0.39034203851487997 0.31152166348477461 0 -0.38107376492631029 0.29942463478954751 0 -0.37057338861183858 0.30616334568500791 0 -0.39034203851487997 0.31152166348477461 0 -0.36956580530237088 0.30990980503172572 0 -0.37057338861183858 0.30616334568500791 0 -0.39179149703691768 0.29355959473108117 0 -0.39672070008308008 0.30301383973897122 0 -0.38107376492631029 0.29942463478954751 0 -0.39179149703691768 0.29355959473108117 0 -0.36930781590824152 0.28309330295425578 0 -0.37047209479723481 0.29133503475421718 0 -0.39179149703691768 0.29355959473108117 0 -0.38015145162671382 0.26982301316075141 0 -0.36930781590824152 0.28309330295425578 0 -0.39179149703691768 0.29355959473108117 0 -0.38107376492631029 0.29942463478954751 0 -0.37047209479723481 0.29133503475421718 0 -0.39179149703691768 0.29355959473108117 0 -0.36930781590824152 0.28309330295425578 0 -0.39179149703691768 0.29355959473108117 0 -0.37047209479723481 0.29133503475421718 0 -0.39179149703691768 0.29355959473108117 0 -0.38015145162671382 0.26982301316075141 0 -0.39593725243144001 0.26315266686149202 0 -0.38610430073764168 0.2450654417194186 0 -0.36885577837193079 0.24818085992020131 0 -0.38015145162671382 0.26982301316075141 0 -0.38610430073764168 0.2450654417194186 0 -0.38015145162671382 0.26982301316075141 0 -0.39593725243144001 0.26315266686149202 0 -0.40749727746368719 0.24051240033958959 0 -0.39593725243144001 0.26315266686149202 0 -0.41527521002660212 0.27504967916233009 0 -0.39179149703691768 0.29355959473108117 0 -0.39593725243144001 0.26315266686149202 0 -0.34682413477956481 0.2726270111774316 0 -0.36106950376565689 0.26533330166137892 0 -0.36930781590824152 0.28309330295425578 0 -0.34682413477956481 0.2726270111774316 0 -0.36930781590824152 0.28309330295425578 0 -0.34682413477956481 0.2726270111774316 0 -0.34915269255755188 0.28911047477735308 0 -0.34682413477956481 0.2726270111774316 0 -0.34578790683574773 0.26529173019166818 0 -0.36106950376565689 0.26533330166137892 0 -0.34682413477956481 0.2726270111774316 0 -0.34578790683574773 0.26529173019166818 0 -0.3401029822171806 0.2443340424669852 0 -0.34578790683574773 0.26529173019166818 0 -0.35424593444847002 0.25164983576020972 0 -0.34578790683574773 0.26529173019166818 0 -0.35424593444847002 0.25164983576020972 0 -0.36106950376565689 0.26533330166137892 0 -0.36885577837193079 0.24818085992020131 0 -0.38015145162671382 0.26982301316075141 0 -0.36106950376565689 0.26533330166137892 0 -0.36885577837193079 0.24818085992020131 0 -0.35424593444847002 0.25164983576020972 0 -0.36106950376565689 0.26533330166137892 0 -0.38015145162671382 0.26982301316075141 0 -0.36106950376565689 0.26533330166137892 0 -0.36930781590824152 0.28309330295425578 0 -0.36930781590824152 0.28309330295425578 0 -0.37047209479723481 0.29133503475421718 0 -0.34915269255755188 0.28911047477735308 0 -0.37047209479723481 0.29133503475421718 0 -0.36195662967604098 0.29880770626825298 0 -0.34915269255755188 0.28911047477735308 0 -0.37047209479723481 0.29133503475421718 0 -0.34915269255755188 0.28911047477735308 0 -0.37047209479723481 0.29133503475421718 0 -0.37264559229011152 0.29894115262706372 0 -0.36847021608487818 0.29949296152115967 0 -0.38107376492631029 0.29942463478954751 0 -0.37047209479723481 0.29133503475421718 0 -0.37264559229011152 0.29894115262706372 0 -0.37047209479723481 0.29133503475421718 0 -0.36847021608487818 0.29949296152115967 0 -0.36195662967604098 0.29880770626825298 0 -0.37057338861183858 0.30616334568500791 0 -0.36195662967604098 0.29880770626825298 0 -0.35080473870879758 0.30080502788524011 0 -0.37057338861183858 0.30616334568500791 0 -0.35080473870879758 0.30080502788524011 0 -0.37057338861183858 0.30616334568500791 0 -0.35976986650127268 0.30733625425119682 0 -0.35080473870879758 0.30080502788524011 0 -0.36956580530237088 0.30990980503172572 0 -0.35976986650127268 0.30733625425119682 0 -0.35287540309167748 0.31546290809998212 0 -0.38107376492631029 0.29942463478954751 0 -0.37057338861183858 0.30616334568500791 0 -0.37264559229011152 0.29894115262706372 0 -0.37057338861183858 0.30616334568500791 0 -0.37264559229011152 0.29894115262706372 0 -0.36847021608487818 0.29949296152115967 0 -0.37057338861183858 0.30616334568500791 0 -0.36847021608487818 0.29949296152115967 0 -0.36195662967604098 0.29880770626825298 0 -0.36956580530237088 0.30990980503172572 0 -0.37057338861183858 0.30616334568500791 0 -0.35976986650127268 0.30733625425119682 0 -0.35976986650127268 0.30733625425119682 0 -0.35080473870879758 0.30080502788524011 0 -0.35287540309167748 0.31546290809998212 0 -0.35080473870879758 0.30080502788524011 0 -0.35287540309167748 0.31546290809998212 0 -0.35080473870879758 0.30080502788524011 0 -0.34057487508930812 0.30972536043067939 0 -0.35287540309167748 0.31546290809998212 0 -0.34682413477956481 0.2726270111774316 0 -0.36930781590824152 0.28309330295425578 0 -0.34915269255755188 0.28911047477735308 0 -0.36195662967604098 0.29880770626825298 0 -0.35080473870879758 0.30080502788524011 0 -0.34915269255755188 0.28911047477735308 0 -0.35080473870879758 0.30080502788524011 0 -0.34915269255755188 0.28911047477735308 0 -0.34915269255755188 0.28911047477735308 0 -0.33234617854981358 0.2873568093606631 0 -0.35080473870879758 0.30080502788524011 0 -0.34915269255755188 0.28911047477735308 0 -0.33114147334089911 0.29403865327491402 0 -0.34915269255755188 0.28911047477735308 0 -0.33114147334089911 0.29403865327491402 0 -0.33234617854981358 0.2873568093606631 0 -0.34682413477956481 0.2726270111774316 0 -0.34915269255755188 0.28911047477735308 0 -0.33234617854981358 0.2873568093606631 0 -0.35080473870879758 0.30080502788524011 0 -0.33114147334089911 0.29403865327491402 0 -0.32454483900179643 0.29368724853712053 0 -0.33114147334089911 0.29403865327491402 0 -0.33234617854981358 0.2873568093606631 0 -0.33114147334089911 0.29403865327491402 0 -0.33234617854981358 0.2873568093606631 0 -0.32753381218761018 0.28998110376171138 0 -0.33234617854981358 0.2873568093606631 0 -0.32629617549433959 0.28246065157918998 0 -0.32791495023044209 0.27658782542767713 0 -0.33234617854981358 0.2873568093606631 0 -0.32501152667762429 0.28659147960067849 0 -0.33234617854981358 0.2873568093606631 0 -0.32501152667762429 0.28659147960067849 0 -0.32753381218761018 0.28998110376171138 0 -0.35080473870879758 0.30080502788524011 0 -0.32454483900179643 0.29368724853712053 0 -0.34057487508930812 0.30972536043067939 0 -0.32454483900179643 0.29368724853712053 0 -0.33180902571033227 0.31272714841201571 0 -0.35080473870879758 0.30080502788524011 0 -0.34057487508930812 0.30972536043067939 0 -0.32454483900179643 0.29368724853712053 0 -0.31836392377778988 0.31000408984810618 0 -0.32454483900179643 0.29368724853712053 0 -0.32418748689032201 0.3179962083314769 0 -0.32454483900179643 0.29368724853712053 0 -0.32418748689032201 0.3179962083314769 0 -0.32454483900179643 0.29368724853712053 0 -0.32418748689032201 0.3179962083314769 0 -0.33180902571033227 0.31272714841201571 0 -0.31836392377778988 0.31000408984810618 0 -0.32454483900179643 0.29368724853712053 0 -0.3120594240846904 0.30350863612486528 0 -0.31836392377778988 0.31000408984810618 0 -0.3120594240846904 0.30350863612486528 0 -0.31201892479168508 0.31357134426366862 0 -0.32454483900179643 0.29368724853712053 0 -0.30154360892674648 0.28745273575389152 0 -0.32454483900179643 0.29368724853712053 0 -0.30154360892674648 0.28745273575389152 0 -0.3120594240846904 0.30350863612486528 0 -0.32454483900179643 0.29368724853712053 0 -0.31319128842402078 0.28467112609903472 0 -0.30154360892674648 0.28745273575389152 0 -0.32057978598968978 0.28639021208229237 0 -0.32282357485649149 0.2839762067155891 0 -0.32462504336791742 0.28823132803518148 0 -0.32282357485649149 0.2839762067155891 0 -0.32501152667762429 0.28659147960067849 0 -0.32462504336791742 0.28823132803518148 0 -0.32282357485649149 0.2839762067155891 0 -0.3182896921981313 0.281521759418906 0 -0.32325711835724658 0.27917681366022612 0 -0.32282357485649149 0.2839762067155891 0 -0.32629617549433959 0.28246065157918998 0 -0.32325711835724658 0.27917681366022612 0 -0.32057978598968978 0.28639021208229237 0 -0.32282357485649149 0.2839762067155891 0 -0.3182896921981313 0.281521759418906 0 -0.32282357485649149 0.2839762067155891 0 -0.32629617549433959 0.28246065157918998 0 -0.32501152667762429 0.28659147960067849 0 -0.33234617854981358 0.2873568093606631 0 -0.32629617549433959 0.28246065157918998 0 -0.32501152667762429 0.28659147960067849 0 -0.32501152667762429 0.28659147960067849 0 -0.32462504336791742 0.28823132803518148 0 -0.32753381218761018 0.28998110376171138 0 -0.32462504336791742 0.28823132803518148 0 -0.32753381218761018 0.28998110376171138 0 -0.32454483900179643 0.29368724853712053 0 -0.33114147334089911 0.29403865327491402 0 -0.32753381218761018 0.28998110376171138 0 -0.32454483900179643 0.29368724853712053 0 -0.32462504336791742 0.28823132803518148 0 -0.32454483900179643 0.29368724853712053 0 -0.32057978598968978 0.28639021208229237 0 -0.32462504336791742 0.28823132803518148 0 -0.32454483900179643 0.29368724853712053 0 -0.32057978598968978 0.28639021208229237 0 -0.32454483900179643 0.29368724853712053 0 -0.31319128842402078 0.28467112609903472 0 -0.32057978598968978 0.28639021208229237 0 -0.3182896921981313 0.281521759418906 0 -0.31319128842402078 0.28467112609903472 0 -0.32114585209287638 0.27304725435947402 0 -0.33591728841755059 0.26754980714947602 0 -0.31815796724145412 0.25928273397210527 0 -0.32114585209287638 0.27304725435947402 0 -0.31815796724145412 0.25928273397210527 0 -0.31135941566091557 0.27508682187774869 0 -0.3182896921981313 0.281521759418906 0 -0.32114585209287638 0.27304725435947402 0 -0.31135941566091557 0.27508682187774869 0 -0.3182896921981313 0.281521759418906 0 -0.31319128842402078 0.28467112609903472 0 -0.31135941566091557 0.27508682187774869 0 -0.3182896921981313 0.281521759418906 0 -0.32114585209287638 0.27304725435947402 0 -0.32325711835724658 0.27917681366022612 0 -0.32114585209287638 0.27304725435947402 0 -0.32325711835724658 0.27917681366022612 0 -0.32791495023044209 0.27658782542767713 0 -0.32629617549433959 0.28246065157918998 0 -0.32325711835724658 0.27917681366022612 0 -0.32791495023044209 0.27658782542767713 0 -0.34682413477956481 0.2726270111774316 0 -0.33234617854981358 0.2873568093606631 0 -0.33591728841755059 0.26754980714947602 0 -0.33234617854981358 0.2873568093606631 0 -0.32791495023044209 0.27658782542767713 0 -0.33591728841755059 0.26754980714947602 0 -0.33234617854981358 0.2873568093606631 0 -0.33591728841755059 0.26754980714947602 0 -0.32114585209287638 0.27304725435947402 0 -0.32791495023044209 0.27658782542767713 0 -0.33591728841755059 0.26754980714947602 0 -0.34682413477956481 0.2726270111774316 0 -0.33591728841755059 0.26754980714947602 0 -0.34682413477956481 0.2726270111774316 0 -0.34578790683574773 0.26529173019166818 0 -0.33591728841755059 0.26754980714947602 0 -0.3401029822171806 0.2443340424669852 0 -0.34578790683574773 0.26529173019166818 0 -0.33591728841755059 0.26754980714947602 0 -0.32662084351026838 0.24606416088457669 0 -0.3401029822171806 0.2443340424669852 0 -0.33591728841755059 0.26754980714947602 0 -0.3401029822171806 0.2443340424669852 0 -0.33591728841755059 0.26754980714947602 0 -0.33591728841755059 0.26754980714947602 0 -0.31815796724145412 0.25928273397210527 0 -0.32662084351026838 0.24606416088457669 0 -0.33591728841755059 0.26754980714947602 0 -0.31815796724145412 0.25928273397210527 0 -0.31261733674505238 0.243813888356921 0 -0.31815796724145412 0.25928273397210527 0 -0.30039864606535688 0.25101566079473597 0 -0.31815796724145412 0.25928273397210527 0 -0.30039864606535688 0.25101566079473597 0 -0.30097112749605209 0.26923419827431372 0 -0.30039864606535688 0.25101566079473597 0 -0.30097112749605209 0.26923419827431372 0 -0.29244520407878039 0.25471299079119492 0 -0.30039864606535688 0.25101566079473597 0 -0.30097112749605209 0.26923419827431372 0 -0.31815796724145412 0.25928273397210527 0 -0.30039864606535688 0.25101566079473597 0 -0.30097112749605209 0.26923419827431372 0 -0.29652246703985868 0.27362648164959669 0 -0.30154360892674648 0.28745273575389152 0 -0.30097112749605209 0.26923419827431372 0 -0.30154360892674648 0.28745273575389152 0 -0.31135941566091557 0.27508682187774869 0 -0.30097112749605209 0.26923419827431372 0 -0.30154360892674648 0.28745273575389152 0 -0.31815796724145412 0.25928273397210527 0 -0.31135941566091557 0.27508682187774869 0 -0.30097112749605209 0.26923419827431372 0 -0.28305974052834593 0.25432035902133598 0 -0.28368662101820352 0.28261257637882953 0 -0.2905081209690743 0.27022251377463707 0 -0.28305974052834593 0.25432035902133598 0 -0.28368662101820352 0.28261257637882953 0 -0.28305974052834593 0.25432035902133598 0 -0.27857408695030111 0.27372543261807719 0 -0.28368662101820352 0.28261257637882953 0 -0.29652246703985868 0.27362648164959669 0 -0.2914122911083718 0.28470662912205108 0 -0.29053237503387702 0.27779205023127862 0 -0.29652246703985868 0.27362648164959669 0 -0.2914122911083718 0.28470662912205108 0 -0.29053237503387702 0.27779205023127862 0 -0.29652246703985868 0.27362648164959669 0 -0.2905081209690743 0.27022251377463707 0 -0.30097112749605209 0.26923419827431372 0 -0.29652246703985868 0.27362648164959669 0 -0.2905081209690743 0.27022251377463707 0 -0.30097112749605209 0.26923419827431372 0 -0.2905081209690743 0.27022251377463707 0 -0.29174604826806322 0.26212251546537041 0 -0.29053237503387702 0.27779205023127862 0 -0.2905081209690743 0.27022251377463707 0 -0.28368662101820352 0.28261257637882953 0 -0.2905081209690743 0.27022251377463707 0 -0.29174604826806322 0.26212251546537041 0 -0.28305974052834593 0.25432035902133598 0 -0.29244520407878039 0.25471299079119492 0 -0.29174604826806322 0.26212251546537041 0 -0.28305974052834593 0.25432035902133598 0 -0.29015399615612231 0.24624671328619471 0 -0.30039864606535688 0.25101566079473597 0 -0.29244520407878039 0.25471299079119492 0 -0.30097112749605209 0.26923419827431372 0 -0.29244520407878039 0.25471299079119492 0 -0.29174604826806322 0.26212251546537041 0 -0.29015399615612231 0.24624671328619471 0 -0.29244520407878039 0.25471299079119492 0 -0.28305974052834593 0.25432035902133598 0 -0.28305974052834593 0.25432035902133598 0 -0.27857408695030111 0.27372543261807719 0 -0.26334133594650633 0.25465547566955482 0 -0.27857408695030111 0.27372543261807719 0 -0.26334133594650633 0.25465547566955482 0 -0.27857408695030111 0.27372543261807719 0 -0.26361200176472721 0.27717132519591919 0 -0.26334133594650633 0.25465547566955482 0 -0.27857408695030111 0.27372543261807719 0 -0.26361200176472721 0.27717132519591919 0 -0.28368662101820352 0.28261257637882953 0 -0.26361200176472721 0.27717132519591919 0 -0.28368662101820352 0.28261257637882953 0 -0.26361200176472721 0.27717132519591919 0 -0.24353738251125079 0.27173007401300969 0 -0.26361200176472721 0.27717132519591919 0 -0.2558639330911156 0.26600491407303672 0 -0.26334133594650633 0.25465547566955482 0 -0.26361200176472721 0.27717132519591919 0 -0.2558639330911156 0.26600491407303672 0 -0.24353738251125079 0.27173007401300969 0 -0.26361200176472721 0.27717132519591919 0 -0.25490735409216092 0.29022679384063449 0 -0.24353738251125079 0.27173007401300969 0 -0.2558639330911156 0.26600491407303672 0 -0.25223805791004961 0.25923010996706408 0 -0.24353738251125079 0.27173007401300969 0 -0.2558639330911156 0.26600491407303672 0 -0.25223805791004961 0.25923010996706408 0 -0.26334133594650633 0.25465547566955482 0 -0.25223805791004961 0.25923010996706408 0 -0.26334133594650633 0.25465547566955482 0 -0.24620958009132571 0.24452997611265531 0 -0.26210555508040723 0.30508309218454799 0 -0.25063258211170919 0.30705260831688053 0 -0.25490735409216092 0.29022679384063449 0 -0.26210555508040723 0.30508309218454799 0 -0.26959001623726808 0.31169903758575113 0 -0.25667134793037499 0.31917276002506362 0 -0.26210555508040723 0.30508309218454799 0 -0.25063258211170919 0.30705260831688053 0 -0.25667134793037499 0.31917276002506362 0 -0.26361200176472721 0.27717132519591919 0 -0.25490735409216092 0.29022679384063449 0 -0.27050920297469111 0.29189965488786918 0 -0.26210555508040723 0.30508309218454799 0 -0.25490735409216092 0.29022679384063449 0 -0.27050920297469111 0.29189965488786918 0 -0.27050920297469111 0.29189965488786918 0 -0.28408504061007972 0.30059395221566171 0 -0.28368662101820352 0.28261257637882953 0 -0.26361200176472721 0.27717132519591919 0 -0.27050920297469111 0.29189965488786918 0 -0.28368662101820352 0.28261257637882953 0 -0.27050920297469111 0.29189965488786918 0 -0.27168227873247319 0.3029491917037041 0 -0.28408504061007972 0.30059395221566171 0 -0.26210555508040723 0.30508309218454799 0 -0.27050920297469111 0.29189965488786918 0 -0.27168227873247319 0.3029491917037041 0 -0.26210555508040723 0.30508309218454799 0 -0.27168227873247319 0.3029491917037041 0 -0.26959001623726808 0.31169903758575113 0 -0.27168227873247319 0.3029491917037041 0 -0.26959001623726808 0.31169903758575113 0 -0.28408504061007972 0.30059395221566171 0 -0.29601078439301709 0.31100430973967458 0 -0.288988209841545 0.28996264736521299 0 -0.28408504061007972 0.30059395221566171 0 -0.29601078439301709 0.31100430973967458 0 -0.288988209841545 0.28996264736521299 0 -0.29601078439301709 0.31100430973967458 0 -0.288988209841545 0.28996264736521299 0 -0.29724702701195521 0.30114354746646088 0 -0.28408504061007972 0.30059395221566171 0 -0.28368662101820352 0.28261257637882953 0 -0.28408504061007972 0.30059395221566171 0 -0.28368662101820352 0.28261257637882953 0 -0.288988209841545 0.28996264736521299 0 -0.28368662101820352 0.28261257637882953 0 -0.28759092752493831 0.28577598583070718 0 -0.2914122911083718 0.28470662912205108 0 -0.28368662101820352 0.28261257637882953 0 -0.2914122911083718 0.28470662912205108 0 -0.29053237503387702 0.27779205023127862 0 -0.28368662101820352 0.28261257637882953 0 -0.2914122911083718 0.28470662912205108 0 -0.28759092752493831 0.28577598583070718 0 -0.288988209841545 0.28996264736521299 0 -0.28368662101820352 0.28261257637882953 0 -0.28759092752493831 0.28577598583070718 0 -0.288988209841545 0.28996264736521299 0 -0.28408504061007972 0.30059395221566171 0 -0.288988209841545 0.28996264736521299 0 -0.288988209841545 0.28996264736521299 0 -0.30154360892674648 0.28745273575389152 0 -0.29724702701195521 0.30114354746646088 0 -0.29652246703985868 0.27362648164959669 0 -0.2914122911083718 0.28470662912205108 0 -0.30154360892674648 0.28745273575389152 0 -0.2914122911083718 0.28470662912205108 0 -0.30154360892674648 0.28745273575389152 0 -0.288988209841545 0.28996264736521299 0 -0.2914122911083718 0.28470662912205108 0 -0.30154360892674648 0.28745273575389152 0 -0.28759092752493831 0.28577598583070718 0 -0.288988209841545 0.28996264736521299 0 -0.2914122911083718 0.28470662912205108 0 -0.288988209841545 0.28996264736521299 0 -0.2914122911083718 0.28470662912205108 0 -0.31319128842402078 0.28467112609903472 0 -0.31135941566091557 0.27508682187774869 0 -0.30154360892674648 0.28745273575389152 0 -0.30154360892674648 0.28745273575389152 0 -0.30244550488651251 0.31615449700706388 0 -0.30154360892674648 0.28745273575389152 0 -0.29724702701195521 0.30114354746646088 0 -0.30244550488651251 0.31615449700706388 0 -0.30154360892674648 0.28745273575389152 0 -0.3120594240846904 0.30350863612486528 0 -0.30244550488651251 0.31615449700706388 0 -0.29601078439301709 0.31100430973967458 0 -0.29724702701195521 0.30114354746646088 0 -0.30244550488651251 0.31615449700706388 0 -0.3120594240846904 0.30350863612486528 0 -0.31201892479168508 0.31357134426366862 0 -0.30244550488651251 0.31615449700706388 0 -0.29601078439301709 0.31100430973967458 0 -0.30303335894448907 0.33204597211413622 0 -0.30823627930371311 0.31964369971659917 0 -0.30244550488651251 0.31615449700706388 0 -0.30303335894448907 0.33204597211413622 0 -0.29601078439301709 0.31100430973967458 0 -0.30244550488651251 0.31615449700706388 0 -0.30303335894448907 0.33204597211413622 0 -0.31201892479168508 0.31357134426366862 0 -0.30823627930371311 0.31964369971659917 0 -0.30244550488651251 0.31615449700706388 0 -0.31201892479168508 0.31357134426366862 0 -0.30823627930371311 0.31964369971659917 0 -0.31554328367343137 0.31876827561618692 0 -0.30823627930371311 0.31964369971659917 0 -0.31198909495691568 0.32379246689774671 0 -0.30303335894448907 0.33204597211413622 0 -0.30823627930371311 0.31964369971659917 0 -0.31198909495691568 0.32379246689774671 0 -0.31554328367343137 0.31876827561618692 0 -0.30303335894448907 0.33204597211413622 0 -0.31174522307163838 0.35814923414034522 0 -0.31588411482202372 0.33854080054290708 0 -0.30303335894448907 0.33204597211413622 0 -0.29308669398458559 0.33535535046287218 0 -0.29813120573556179 0.35023540047444279 0 -0.30303335894448907 0.33204597211413622 0 -0.29308669398458559 0.33535535046287218 0 -0.28474310561503002 0.3302935815016288 0 -0.29308669398458559 0.33535535046287218 0 -0.28540117061997872 0.35999321078759622 0 -0.30303335894448907 0.33204597211413622 0 -0.28474310561503002 0.3302935815016288 0 -0.29308669398458559 0.33535535046287218 0 -0.29601078439301709 0.31100430973967458 0 -0.30303335894448907 0.33204597211413622 0 -0.28474310561503002 0.3302935815016288 0 -0.28408504061007972 0.30059395221566171 0 -0.28474310561503002 0.3302935815016288 0 -0.28408504061007972 0.30059395221566171 0 -0.29601078439301709 0.31100430973967458 0 -0.28474310561503002 0.3302935815016288 0 -0.26959001623726808 0.31169903758575113 0 -0.28408504061007972 0.30059395221566171 0 -0.27252725877811279 0.32565413191780518 0 -0.28408504061007972 0.30059395221566171 0 -0.28474310561503002 0.3302935815016288 0 -0.27252725877811279 0.32565413191780518 0 -0.28408504061007972 0.30059395221566171 0 -0.27252725877811279 0.32565413191780518 0 -0.26959001623726808 0.31169903758575113 0 -0.27252725877811279 0.32565413191780518 0 -0.25667134793037499 0.31917276002506362 0 -0.27252725877811279 0.32565413191780518 0 -0.26096947694614792 0.35071431161994948 0 -0.27252725877811279 0.32565413191780518 0 -0.27417447955185392 0.34141499271951981 0 -0.26096947694614792 0.35071431161994948 0 -0.28474310561503002 0.3302935815016288 0 -0.27252725877811279 0.32565413191780518 0 -0.27417447955185392 0.34141499271951981 0 -0.27252725877811279 0.32565413191780518 0 -0.26096947694614792 0.35071431161994948 0 -0.24842919977145511 0.33726607880296411 0 -0.27252725877811279 0.32565413191780518 0 -0.25667134793037499 0.31917276002506362 0 -0.24842919977145511 0.33726607880296411 0 -0.26096947694614792 0.35071431161994948 0 -0.24941169511418279 0.37577449132209412 0 -0.26274763340654761 0.36757473014170983 0 -0.26096947694614792 0.35071431161994948 0 -0.24941169511418279 0.37577449132209412 0 -0.26096947694614792 0.35071431161994948 0 -0.24941169511418279 0.37577449132209412 0 -0.2459313423592274 0.36756318794634713 0 -0.26274763340654761 0.36757473014170983 0 -0.25568216061679477 0.37984930750060092 0 -0.24941169511418279 0.37577449132209412 0 -0.26096947694614792 0.35071431161994948 0 -0.24747779027060771 0.34907328350334221 0 -0.24457121342047861 0.35926242206930881 0 -0.26096947694614792 0.35071431161994948 0 -0.24457121342047861 0.35926242206930881 0 -0.2459313423592274 0.36756318794634713 0 -0.26096947694614792 0.35071431161994948 0 -0.24747779027060771 0.34907328350334221 0 -0.24842919977145511 0.33726607880296411 0 -0.27417447955185392 0.34141499271951981 0 -0.26096947694614792 0.35071431161994948 0 -0.28540117061997872 0.35999321078759622 0 -0.26274763340654761 0.36757473014170983 0 -0.26096947694614792 0.35071431161994948 0 -0.28540117061997872 0.35999321078759622 0 -0.26274763340654761 0.36757473014170983 0 -0.27446177550680539 0.37467468282454508 0 -0.28540117061997872 0.35999321078759622 0 -0.26274763340654761 0.36757473014170983 0 -0.27446177550680539 0.37467468282454508 0 -0.26362349328795598 0.38194849433734268 0 -0.28540117061997872 0.35999321078759622 0 -0.29872006596083173 0.36618885011199859 0 -0.28634265395512232 0.37701021781088118 0 -0.27446177550680539 0.37467468282454508 0 -0.28540117061997872 0.35999321078759622 0 -0.28634265395512232 0.37701021781088118 0 -0.28474310561503002 0.3302935815016288 0 -0.27417447955185392 0.34141499271951981 0 -0.28540117061997872 0.35999321078759622 0 -0.29308669398458559 0.33535535046287218 0 -0.28540117061997872 0.35999321078759622 0 -0.29813120573556179 0.35023540047444279 0 -0.28540117061997872 0.35999321078759622 0 -0.29813120573556179 0.35023540047444279 0 -0.29872006596083173 0.36618885011199859 0 -0.28474310561503002 0.3302935815016288 0 -0.28540117061997872 0.35999321078759622 0 -0.30303335894448907 0.33204597211413622 0 -0.31174522307163838 0.35814923414034522 0 -0.30303335894448907 0.33204597211413622 0 -0.29813120573556179 0.35023540047444279 0 -0.31174522307163838 0.35814923414034522 0 -0.29813120573556179 0.35023540047444279 0 -0.31174522307163838 0.35814923414034522 0 -0.29872006596083173 0.36618885011199859 0 -0.29872006596083173 0.36618885011199859 0 -0.31019444678049868 0.3716436701373847 0 -0.30070359986733791 0.3819532198363696 0 -0.31174522307163838 0.35814923414034522 0 -0.29872006596083173 0.36618885011199859 0 -0.31019444678049868 0.3716436701373847 0 -0.31174522307163838 0.35814923414034522 0 -0.31019444678049868 0.3716436701373847 0 -0.32341777551595619 0.37035600208097358 0 -0.32341777551595619 0.37035600208097358 0 -0.34269062743399809 0.37404607759621661 0 -0.33680689321241097 0.35538547303787121 0 -0.34269062743399809 0.37404607759621661 0 -0.33680689321241097 0.35538547303787121 0 -0.35112818616812602 0.36628107001711119 0 -0.33680689321241097 0.35538547303787121 0 -0.32375084169831719 0.34769909821523948 0 -0.33805397359476358 0.33833551538362427 0 -0.33680689321241097 0.35538547303787121 0 -0.33805397359476358 0.33833551538362427 0 -0.34713858985734591 0.34521793201616813 0 -0.32341777551595619 0.37035600208097358 0 -0.33680689321241097 0.35538547303787121 0 -0.32375084169831719 0.34769909821523948 0 -0.31174522307163838 0.35814923414034522 0 -0.32341777551595619 0.37035600208097358 0 -0.32375084169831719 0.34769909821523948 0 -0.31174522307163838 0.35814923414034522 0 -0.32375084169831719 0.34769909821523948 0 -0.31588411482202372 0.33854080054290708 0 -0.32341777551595619 0.37035600208097358 0 -0.32375084169831719 0.34769909821523948 0 -0.32375084169831719 0.34769909821523948 0 -0.32408390788067792 0.32504219434950532 0 -0.33167957247912072 0.33104713670354302 0 -0.32375084169831719 0.34769909821523948 0 -0.32408390788067792 0.32504219434950532 0 -0.30303335894448907 0.33204597211413622 0 -0.31588411482202372 0.33854080054290708 0 -0.32408390788067792 0.32504219434950532 0 -0.32375084169831719 0.34769909821523948 0 -0.31588411482202372 0.33854080054290708 0 -0.32408390788067792 0.32504219434950532 0 -0.30303335894448907 0.33204597211413622 0 -0.32408390788067792 0.32504219434950532 0 -0.31198909495691568 0.32379246689774671 0 -0.30303335894448907 0.33204597211413622 0 -0.32408390788067792 0.32504219434950532 0 -0.31554328367343137 0.31876827561618692 0 -0.32408390788067792 0.32504219434950532 0 -0.32082980864618849 0.31675346886991929 0 -0.31836392377778988 0.31000408984810618 0 -0.3166472920879263 0.31469810559578931 0 -0.32082980864618849 0.31675346886991929 0 -0.31201892479168508 0.31357134426366862 0 -0.3166472920879263 0.31469810559578931 0 -0.31554328367343137 0.31876827561618692 0 -0.31836392377778988 0.31000408984810618 0 -0.31201892479168508 0.31357134426366862 0 -0.3166472920879263 0.31469810559578931 0 -0.3166472920879263 0.31469810559578931 0 -0.31554328367343137 0.31876827561618692 0 -0.32082980864618849 0.31675346886991929 0 -0.31198909495691568 0.32379246689774671 0 -0.31554328367343137 0.31876827561618692 0 -0.32408390788067792 0.32504219434950532 0 -0.32408390788067792 0.32504219434950532 0 -0.32418748689032201 0.3179962083314769 0 -0.33416360285770741 0.32168855527014151 0 -0.32408390788067792 0.32504219434950532 0 -0.32418748689032201 0.3179962083314769 0 -0.32408390788067792 0.32504219434950532 0 -0.32082980864618849 0.31675346886991929 0 -0.32418748689032201 0.3179962083314769 0 -0.31836392377778988 0.31000408984810618 0 -0.32082980864618849 0.31675346886991929 0 -0.32418748689032201 0.3179962083314769 0 -0.32082980864618849 0.31675346886991929 0 -0.32418748689032201 0.3179962083314769 0 -0.34057487508930812 0.30972536043067939 0 -0.33416360285770741 0.32168855527014151 0 -0.35287540309167748 0.31546290809998212 0 -0.33416360285770741 0.32168855527014151 0 -0.35287540309167748 0.31546290809998212 0 -0.32418748689032201 0.3179962083314769 0 -0.33416360285770741 0.32168855527014151 0 -0.32418748689032201 0.3179962083314769 0 -0.33180902571033227 0.31272714841201571 0 -0.33416360285770741 0.32168855527014151 0 -0.34057487508930812 0.30972536043067939 0 -0.33180902571033227 0.31272714841201571 0 -0.33416360285770741 0.32168855527014151 0 -0.32408390788067792 0.32504219434950532 0 -0.33416360285770741 0.32168855527014151 0 -0.33167957247912072 0.33104713670354302 0 -0.32408390788067792 0.32504219434950532 0 -0.33416360285770741 0.32168855527014151 0 -0.33416360285770741 0.32168855527014151 0 -0.33805397359476358 0.33833551538362427 0 -0.35483572518184647 0.32933969403283669 0 -0.33416360285770741 0.32168855527014151 0 -0.33805397359476358 0.33833551538362427 0 -0.33167957247912072 0.33104713670354302 0 -0.32375084169831719 0.34769909821523948 0 -0.33805397359476358 0.33833551538362427 0 -0.33167957247912072 0.33104713670354302 0 -0.35483572518184647 0.32933969403283669 0 -0.35885776744036241 0.35781104561034072 0 -0.33805397359476358 0.33833551538362427 0 -0.35483572518184647 0.32933969403283669 0 -0.34713858985734591 0.34521793201616813 0 -0.33416360285770741 0.32168855527014151 0 -0.35483572518184647 0.32933969403283669 0 -0.35287540309167748 0.31546290809998212 0 -0.33416360285770741 0.32168855527014151 0 -0.35483572518184647 0.32933969403283669 0 -0.35483572518184647 0.32933969403283669 0 -0.35287540309167748 0.31546290809998212 0 -0.35483572518184647 0.32933969403283669 0 -0.35287540309167748 0.31546290809998212 0 -0.36658468412804368 0.3227515050943161 0 -0.36956580530237088 0.30990980503172572 0 -0.35287540309167748 0.31546290809998212 0 -0.36658468412804368 0.3227515050943161 0 -0.37654252073946909 0.33737378469371132 0 -0.37999927534227651 0.32156068054136983 0 -0.36658468412804368 0.3227515050943161 0 -0.36956580530237088 0.30990980503172572 0 -0.35287540309167748 0.31546290809998212 0 -0.37999927534227651 0.32156068054136983 0 -0.36956580530237088 0.30990980503172572 0 -0.36658468412804368 0.3227515050943161 0 -0.37654252073946909 0.33737378469371132 0 -0.35483572518184647 0.32933969403283669 0 -0.36658468412804368 0.3227515050943161 0 -0.37654252073946909 0.33737378469371132 0 -0.35483572518184647 0.32933969403283669 0 -0.35885776744036241 0.35781104561034072 0 -0.37654252073946909 0.33737378469371132 0 -0.35483572518184647 0.32933969403283669 0 -0.38774581346470821 0.36098869976520792 0 -0.37654252073946909 0.33737378469371132 0 -0.35885776744036241 0.35781104561034072 0 -0.38774581346470821 0.36098869976520792 0 -0.35885776744036241 0.35781104561034072 0 -0.37008158315224637 0.37618205467873028 0 -0.36090153397442942 0.37227852053816129 0 -0.35885776744036241 0.35781104561034072 0 -0.37008158315224637 0.37618205467873028 0 -0.38774581346470821 0.36098869976520792 0 -0.35885776744036241 0.35781104561034072 0 -0.36090153397442942 0.37227852053816129 0 -0.35885776744036241 0.35781104561034072 0 -0.36090153397442942 0.37227852053816129 0 -0.35112818616812602 0.36628107001711119 0 -0.35885776744036241 0.35781104561034072 0 -0.33680689321241097 0.35538547303787121 0 -0.35112818616812602 0.36628107001711119 0 -0.35885776744036241 0.35781104561034072 0 -0.34269062743399809 0.37404607759621661 0 -0.36090153397442942 0.37227852053816129 0 -0.37008158315224637 0.37618205467873028 0 -0.34269062743399809 0.37404607759621661 0 -0.36090153397442942 0.37227852053816129 0 -0.35112818616812602 0.36628107001711119 0 -0.33680689321241097 0.35538547303787121 0 -0.35885776744036241 0.35781104561034072 0 -0.33680689321241097 0.35538547303787121 0 -0.34713858985734591 0.34521793201616813 0 -0.35885776744036241 0.35781104561034072 0 -0.35483572518184647 0.32933969403283669 0 -0.34713858985734591 0.34521793201616813 0 -0.35885776744036241 0.35781104561034072 0 -0.35274994313417318 0.40225325961877151 0 -0.33879734148499918 0.4089292337508415 0 -0.34060399147618359 0.39271546926452372 0 -0.35274994313417318 0.40225325961877151 0 -0.355752182116923 0.38652634330134589 0 -0.36399107874036257 0.39766150006172057 0 -0.35274994313417318 0.40225325961877151 0 -0.355752182116923 0.38652634330134589 0 -0.34060399147618359 0.39271546926452372 0 -0.34269062743399809 0.37404607759621661 0 -0.355752182116923 0.38652634330134589 0 -0.37008158315224637 0.37618205467873028 0 -0.34269062743399809 0.37404607759621661 0 -0.355752182116923 0.38652634330134589 0 -0.34060399147618359 0.39271546926452372 0 -0.34269062743399809 0.37404607759621661 0 -0.37008158315224637 0.37618205467873028 0 -0.355752182116923 0.38652634330134589 0 -0.37008158315224637 0.37618205467873028 0 -0.36823246398382242 0.38857557149522809 0 -0.38052316154374027 0.38802784367461318 0 -0.37008158315224637 0.37618205467873028 0 -0.36823246398382242 0.38857557149522809 0 -0.37582039998565231 0.39864571816498678 0 -0.36823246398382242 0.38857557149522809 0 -0.36399107874036257 0.39766150006172057 0 -0.37582039998565231 0.39864571816498678 0 -0.38052316154374027 0.38802784367461318 0 -0.36823246398382242 0.38857557149522809 0 -0.355752182116923 0.38652634330134589 0 -0.36823246398382242 0.38857557149522809 0 -0.36399107874036257 0.39766150006172057 0 -0.35274994313417318 0.40225325961877151 0 -0.36399107874036257 0.39766150006172057 0 -0.36763814449916238 0.41115388442632828 0 -0.37582039998565231 0.39864571816498678 0 -0.36399107874036257 0.39766150006172057 0 -0.36763814449916238 0.41115388442632828 0 -0.36763814449916238 0.41115388442632828 0 -0.36010307139418862 0.42833598316712762 0 -0.35114481859213797 0.41607238042239819 0 -0.37678669511930091 0.43099729644030632 0 -0.36763814449916238 0.41115388442632828 0 -0.36010307139418862 0.42833598316712762 0 -0.37678669511930091 0.43099729644030632 0 -0.36010307139418862 0.42833598316712762 0 -0.37257914947884441 0.4469660416209062 0 -0.36010307139418862 0.42833598316712762 0 -0.33912974930084527 0.42726535433827212 0 -0.35072631608628829 0.44520362684920189 0 -0.36010307139418862 0.42833598316712762 0 -0.35114481859213797 0.41607238042239819 0 -0.33912974930084527 0.42726535433827212 0 -0.35274994313417318 0.40225325961877151 0 -0.36763814449916238 0.41115388442632828 0 -0.35114481859213797 0.41607238042239819 0 -0.35274994313417318 0.40225325961877151 0 -0.35114481859213797 0.41607238042239819 0 -0.33879734148499918 0.4089292337508415 0 -0.35114481859213797 0.41607238042239819 0 -0.33879734148499918 0.4089292337508415 0 -0.33912974930084527 0.42726535433827212 0 -0.33879734148499918 0.4089292337508415 0 -0.33912974930084527 0.42726535433827212 0 -0.3259095468768658 0.41527149849263351 0 -0.33879734148499918 0.4089292337508415 0 -0.3259095468768658 0.41527149849263351 0 -0.32385362574834098 0.40060803027278891 0 -0.33912974930084527 0.42726535433827212 0 -0.32168206560938961 0.42818780364162062 0 -0.32529570306037903 0.45032414902986623 0 -0.33912974930084527 0.42726535433827212 0 -0.32168206560938961 0.42818780364162062 0 -0.3259095468768658 0.41527149849263351 0 -0.32168206560938961 0.42818780364162062 0 -0.31138345286652558 0.41669141442547869 0 -0.30890292304643119 0.43684354767619632 0 -0.3259095468768658 0.41527149849263351 0 -0.32385362574834098 0.40060803027278891 0 -0.31138345286652558 0.41669141442547869 0 -0.32168206560938961 0.42818780364162062 0 -0.3259095468768658 0.41527149849263351 0 -0.31138345286652558 0.41669141442547869 0 -0.32385362574834098 0.40060803027278891 0 -0.31536734650163978 0.38439434170192432 0 -0.30425207087460537 0.39925606358459442 0 -0.32385362574834098 0.40060803027278891 0 -0.30425207087460537 0.39925606358459442 0 -0.31138345286652558 0.41669141442547869 0 -0.33879734148499918 0.4089292337508415 0 -0.32385362574834098 0.40060803027278891 0 -0.34060399147618359 0.39271546926452372 0 -0.32385362574834098 0.40060803027278891 0 -0.34060399147618359 0.39271546926452372 0 -0.32958706947684058 0.38356217587188152 0 -0.32341777551595619 0.37035600208097358 0 -0.34269062743399809 0.37404607759621661 0 -0.32958706947684058 0.38356217587188152 0 -0.34269062743399809 0.37404607759621661 0 -0.34060399147618359 0.39271546926452372 0 -0.32958706947684058 0.38356217587188152 0 -0.32385362574834098 0.40060803027278891 0 -0.32958706947684058 0.38356217587188152 0 -0.31536734650163978 0.38439434170192432 0 -0.32341777551595619 0.37035600208097358 0 -0.32958706947684058 0.38356217587188152 0 -0.31536734650163978 0.38439434170192432 0 -0.31019444678049868 0.3716436701373847 0 -0.32341777551595619 0.37035600208097358 0 -0.31536734650163978 0.38439434170192432 0 -0.31019444678049868 0.3716436701373847 0 -0.31536734650163978 0.38439434170192432 0 -0.30070359986733791 0.3819532198363696 0 -0.31536734650163978 0.38439434170192432 0 -0.30070359986733791 0.3819532198363696 0 -0.30425207087460537 0.39925606358459442 0 -0.30070359986733791 0.3819532198363696 0 -0.30425207087460537 0.39925606358459442 0 -0.28825720219518358 0.39235718901163419 0 -0.28825720219518358 0.39235718901163419 0 -0.27419192466117748 0.40046103608242473 0 -0.2904875339020877 0.4109496450559551 0 -0.30425207087460537 0.39925606358459442 0 -0.28825720219518358 0.39235718901163419 0 -0.2904875339020877 0.4109496450559551 0 -0.29872006596083173 0.36618885011199859 0 -0.30070359986733791 0.3819532198363696 0 -0.28634265395512232 0.37701021781088118 0 -0.30070359986733791 0.3819532198363696 0 -0.28825720219518358 0.39235718901163419 0 -0.28634265395512232 0.37701021781088118 0 -0.28825720219518358 0.39235718901163419 0 -0.28634265395512232 0.37701021781088118 0 -0.2741939262644229 0.38684676104519561 0 -0.27446177550680539 0.37467468282454508 0 -0.28634265395512232 0.37701021781088118 0 -0.2741939262644229 0.38684676104519561 0 -0.27446177550680539 0.37467468282454508 0 -0.2741939262644229 0.38684676104519561 0 -0.26362349328795598 0.38194849433734268 0 -0.2741939262644229 0.38684676104519561 0 -0.2652851640385791 0.39330119845534051 0 -0.26362349328795598 0.38194849433734268 0 -0.28825720219518358 0.39235718901163419 0 -0.2741939262644229 0.38684676104519561 0 -0.27419192466117748 0.40046103608242473 0 -0.27419192466117748 0.40046103608242473 0 -0.2652851640385791 0.39330119845534051 0 -0.25956070043817692 0.40564840357077347 0 -0.2741939262644229 0.38684676104519561 0 -0.27419192466117748 0.40046103608242473 0 -0.2652851640385791 0.39330119845534051 0 -0.25956070043817692 0.40564840357077347 0 -0.25485577554116218 0.39160129724096621 0 -0.23841167611813249 0.40692784214494759 0 -0.2652851640385791 0.39330119845534051 0 -0.25956070043817692 0.40564840357077347 0 -0.25485577554116218 0.39160129724096621 0 -0.25485577554116218 0.39160129724096621 0 -0.25568216061679477 0.37984930750060092 0 -0.24777220573412551 0.38234752446089149 0 -0.25568216061679477 0.37984930750060092 0 -0.24941169511418279 0.37577449132209412 0 -0.24777220573412551 0.38234752446089149 0 -0.26274763340654761 0.36757473014170983 0 -0.25568216061679477 0.37984930750060092 0 -0.26362349328795598 0.38194849433734268 0 -0.2652851640385791 0.39330119845534051 0 -0.25485577554116218 0.39160129724096621 0 -0.26362349328795598 0.38194849433734268 0 -0.25485577554116218 0.39160129724096621 0 -0.25568216061679477 0.37984930750060092 0 -0.26362349328795598 0.38194849433734268 0 -0.25287143391397221 0.42645082168962412 0 -0.27212696182559831 0.41986530239504188 0 -0.26200680992327269 0.44114200114990532 0 -0.25956070043817692 0.40564840357077347 0 -0.25287143391397221 0.42645082168962412 0 -0.23841167611813249 0.40692784214494759 0 -0.25956070043817692 0.40564840357077347 0 -0.25287143391397221 0.42645082168962412 0 -0.27212696182559831 0.41986530239504188 0 -0.27419192466117748 0.40046103608242473 0 -0.25956070043817692 0.40564840357077347 0 -0.27212696182559831 0.41986530239504188 0 -0.27419192466117748 0.40046103608242473 0 -0.27212696182559831 0.41986530239504188 0 -0.2904875339020877 0.4109496450559551 0 -0.27212696182559831 0.41986530239504188 0 -0.27895016643647791 0.44201875652956929 0 -0.26200680992327269 0.44114200114990532 0 -0.27212696182559831 0.41986530239504188 0 -0.29303888819656448 0.43026823366010841 0 -0.27895016643647791 0.44201875652956929 0 -0.27212696182559831 0.41986530239504188 0 -0.29303888819656448 0.43026823366010841 0 -0.2904875339020877 0.4109496450559551 0 -0.30425207087460537 0.39925606358459442 0 -0.2904875339020877 0.4109496450559551 0 -0.31138345286652558 0.41669141442547869 0 -0.29303888819656448 0.43026823366010841 0 -0.2904875339020877 0.4109496450559551 0 -0.31138345286652558 0.41669141442547869 0 -0.29303888819656448 0.43026823366010841 0 -0.31138345286652558 0.41669141442547869 0 -0.30890292304643119 0.43684354767619632 0 -0.30890292304643119 0.43684354767619632 0 -0.30185264976724507 0.45039798192874753 0 -0.32529570306037903 0.45032414902986623 0 -0.29303888819656448 0.43026823366010841 0 -0.30890292304643119 0.43684354767619632 0 -0.30185264976724507 0.45039798192874753 0 -0.30185264976724507 0.45039798192874753 0 -0.3079634476235214 0.46636976966209898 0 -0.28843558994694019 0.45925447042908868 0 -0.3079634476235214 0.46636976966209898 0 -0.28843558994694019 0.45925447042908868 0 -0.29607513309294531 0.47858325955651287 0 -0.30185264976724507 0.45039798192874753 0 -0.3079634476235214 0.46636976966209898 0 -0.32529570306037903 0.45032414902986623 0 -0.29303888819656448 0.43026823366010841 0 -0.30185264976724507 0.45039798192874753 0 -0.27895016643647791 0.44201875652956929 0 -0.30185264976724507 0.45039798192874753 0 -0.28843558994694019 0.45925447042908868 0 -0.27895016643647791 0.44201875652956929 0 -0.27895016643647791 0.44201875652956929 0 -0.27067941584387839 0.45599883976161709 0 -0.26200680992327269 0.44114200114990532 0 -0.28843558994694019 0.45925447042908868 0 -0.27895016643647791 0.44201875652956929 0 -0.27067941584387839 0.45599883976161709 0 -0.27067941584387839 0.45599883976161709 0 -0.26580826120896428 0.47103388624362241 0 -0.28144596369206182 0.47127290118120407 0 -0.28843558994694019 0.45925447042908868 0 -0.27067941584387839 0.45599883976161709 0 -0.28144596369206182 0.47127290118120407 0 -0.27067941584387839 0.45599883976161709 0 -0.26580826120896428 0.47103388624362241 0 -0.24742970385555391 0.45127102303631311 0 -0.26580826120896428 0.47103388624362241 0 -0.24742970385555391 0.45127102303631311 0 -0.26580826120896428 0.47103388624362241 0 -0.24634193355070119 0.47531546692573701 0 -0.24742970385555391 0.45127102303631311 0 -0.25287143391397221 0.42645082168962412 0 -0.26200680992327269 0.44114200114990532 0 -0.24742970385555391 0.45127102303631311 0 -0.27067941584387839 0.45599883976161709 0 -0.26200680992327269 0.44114200114990532 0 -0.24742970385555391 0.45127102303631311 0 -0.26254300669186748 0.48782621624540878 0 -0.24634193355070119 0.47531546692573701 0 -0.2455034188358993 0.5 0 -0.26254300669186748 0.48782621624540878 0 -0.27522859792461668 0.50000000000000155 0 -0.2455034188358993 0.5 0 -0.26254300669186748 0.48782621624540878 0 -0.26580826120896428 0.47103388624362241 0 -0.24634193355070119 0.47531546692573701 0 -0.26254300669186748 0.48782621624540878 0 -0.26580826120896428 0.47103388624362241 0 -0.28418681856237438 0.49079674945093188 0 -0.26580826120896428 0.47103388624362241 0 -0.28418681856237438 0.49079674945093188 0 -0.26580826120896428 0.47103388624362241 0 -0.28418681856237438 0.49079674945093188 0 -0.28144596369206182 0.47127290118120407 0 -0.26254300669186748 0.48782621624540878 0 -0.27522859792461668 0.50000000000000155 0 -0.28418681856237438 0.49079674945093188 0 -0.27522859792461668 0.50000000000000155 0 -0.28418681856237438 0.49079674945093188 0 -0.28418681856237438 0.49079674945093188 0 -0.29274541992896191 0.49999999999999711 0 -0.27522859792461668 0.50000000000000155 0 -0.28418681856237438 0.49079674945093188 0 -0.29274541992896191 0.49999999999999711 0 -0.28418681856237438 0.49079674945093188 0 -0.29494366218619489 0.48937455655738171 0 -0.29607513309294531 0.47858325955651287 0 -0.28418681856237438 0.49079674945093188 0 -0.29607513309294531 0.47858325955651287 0 -0.28418681856237438 0.49079674945093188 0 -0.29494366218619489 0.48937455655738171 0 -0.29274541992896191 0.49999999999999711 0 -0.28843558994694019 0.45925447042908868 0 -0.28144596369206182 0.47127290118120407 0 -0.29607513309294531 0.47858325955651287 0 -0.28418681856237438 0.49079674945093188 0 -0.28144596369206182 0.47127290118120407 0 -0.29607513309294531 0.47858325955651287 0 -0.3079634476235214 0.46636976966209898 0 -0.29607513309294531 0.47858325955651287 0 -0.30659607532479849 0.48902457357660439 0 -0.3079634476235214 0.46636976966209898 0 -0.29607513309294531 0.47858325955651287 0 -0.29274541992896191 0.49999999999999711 0 -0.30659607532479849 0.48902457357660439 0 -0.32066570589367682 0.5 0 -0.29494366218619489 0.48937455655738171 0 -0.29274541992896191 0.49999999999999711 0 -0.30659607532479849 0.48902457357660439 0 -0.29494366218619489 0.48937455655738171 0 -0.29607513309294531 0.47858325955651287 0 -0.30659607532479849 0.48902457357660439 0 -0.30659607532479849 0.48902457357660439 0 -0.32066570589367682 0.5 0 -0.32603740511813989 0.47702262391938838 0 -0.32066570589367682 0.5 0 -0.34068908718545599 0.48411945365048392 0 -0.34858599185839168 0.5 0 -0.32066570589367682 0.5 0 -0.34068908718545599 0.48411945365048392 0 -0.32603740511813989 0.47702262391938838 0 -0.34068908718545599 0.48411945365048392 0 -0.32603740511813989 0.47702262391938838 0 -0.34464988072575969 0.46442359122142202 0 -0.3079634476235214 0.46636976966209898 0 -0.30659607532479849 0.48902457357660439 0 -0.32603740511813989 0.47702262391938838 0 -0.3079634476235214 0.46636976966209898 0 -0.32603740511813989 0.47702262391938838 0 -0.32529570306037903 0.45032414902986623 0 -0.32168206560938961 0.42818780364162062 0 -0.30890292304643119 0.43684354767619632 0 -0.32529570306037903 0.45032414902986623 0 -0.33912974930084527 0.42726535433827212 0 -0.32529570306037903 0.45032414902986623 0 -0.35072631608628829 0.44520362684920189 0 -0.32603740511813989 0.47702262391938838 0 -0.32529570306037903 0.45032414902986623 0 -0.34464988072575969 0.46442359122142202 0 -0.32529570306037903 0.45032414902986623 0 -0.34464988072575969 0.46442359122142202 0 -0.35072631608628829 0.44520362684920189 0 -0.34464988072575969 0.46442359122142202 0 -0.36273497306893338 0.45978258025058522 0 -0.36350645233131229 0.47915105311160888 0 -0.34464988072575969 0.46442359122142202 0 -0.35072631608628829 0.44520362684920189 0 -0.36273497306893338 0.45978258025058522 0 -0.35072631608628829 0.44520362684920189 0 -0.37257914947884441 0.4469660416209062 0 -0.36273497306893338 0.45978258025058522 0 -0.36010307139418862 0.42833598316712762 0 -0.35072631608628829 0.44520362684920189 0 -0.37257914947884441 0.4469660416209062 0 -0.38367594565080598 0.46002149645219997 0 -0.37257914947884441 0.4469660416209062 0 -0.36273497306893338 0.45978258025058522 0 -0.38367594565080598 0.46002149645219997 0 -0.36273497306893338 0.45978258025058522 0 -0.36350645233131229 0.47915105311160888 0 -0.37650627782310658 0.5 0 -0.36350645233131229 0.47915105311160888 0 -0.34858599185839168 0.5 0 -0.34068908718545599 0.48411945365048392 0 -0.36350645233131229 0.47915105311160888 0 -0.34858599185839168 0.5 0 -0.34068908718545599 0.48411945365048392 0 -0.34464988072575969 0.46442359122142202 0 -0.36350645233131229 0.47915105311160888 0 -0.14777406511617419 0.48527288461542212 0 -0.1475791352049923 0.46801622875391741 0 -0.15854000929999729 0.47489768922584152 0 -0.14777406511617419 0.48527288461542212 0 -0.13172327871406089 0.46892808210398151 0 -0.1475791352049923 0.46801622875391741 0 -0.14777406511617419 0.48527288461542212 0 -0.12660270248102989 0.5 0 -0.1563278815697472 0.5 0 -0.14777406511617419 0.48527288461542212 0 -0.12660270248102989 0.5 0 -0.12299167508180051 0.48219453451606709 0 -0.14777406511617419 0.48527288461542212 0 -0.13172327871406089 0.46892808210398151 0 -0.12299167508180051 0.48219453451606709 0 -0.14777406511617419 0.48527288461542212 0 -0.12299167508180051 0.48219453451606709 0 -0.13172327871406089 0.46892808210398151 0 -0.1298355272073875 0.45315861617002928 0 -0.1138637830632442 0.46817611658835989 0 -0.1298355272073875 0.45315861617002928 0 -0.1475791352049923 0.46801622875391741 0 -0.13172327871406089 0.46892808210398151 0 -0.1298355272073875 0.45315861617002928 0 -0.1475791352049923 0.46801622875391741 0 -0.1298355272073875 0.45315861617002928 0 -0.14620982358489351 0.44935849883751489 0 -0.12864843367962889 0.43296759499821791 0 -0.14620982358489351 0.44935849883751489 0 -0.14377114852548059 0.43024201329789152 0 -0.12864843367962889 0.43296759499821791 0 -0.14620982358489351 0.44935849883751489 0 -0.1579851847463451 0.43395603346536687 0 -0.14377114852548059 0.43024201329789152 0 -0.14620982358489351 0.44935849883751489 0 -0.15900564892409441 0.46099150642010228 0 -0.16137272672237099 0.44825139393137581 0 -0.14620982358489351 0.44935849883751489 0 -0.16137272672237099 0.44825139393137581 0 -0.1579851847463451 0.43395603346536687 0 -0.14620982358489351 0.44935849883751489 0 -0.1475791352049923 0.46801622875391741 0 -0.15900564892409441 0.46099150642010228 0 -0.1298355272073875 0.45315861617002928 0 -0.14620982358489351 0.44935849883751489 0 -0.1475791352049923 0.46801622875391741 0 -0.1475791352049923 0.46801622875391741 0 -0.15900564892409441 0.46099150642010228 0 -0.15854000929999729 0.47489768922584152 0 -0.15900564892409441 0.46099150642010228 0 -0.16912986456940249 0.46901700049960249 0 -0.15854000929999729 0.47489768922584152 0 -0.15900564892409441 0.46099150642010228 0 -0.17120233416290959 0.45640822727236241 0 -0.16137272672237099 0.44825139393137581 0 -0.15900564892409441 0.46099150642010228 0 -0.17120233416290959 0.45640822727236241 0 -0.16912986456940249 0.46901700049960249 0 -0.17120233416290959 0.45640822727236241 0 -0.16137272672237099 0.44825139393137581 0 -0.17811588893482599 0.44059896695768402 0 -0.16137272672237099 0.44825139393137581 0 -0.17811588893482599 0.44059896695768402 0 -0.1579851847463451 0.43395603346536687 0 -0.17811588893482599 0.44059896695768402 0 -0.18352012225738101 0.45784428174623631 0 -0.1911731604708177 0.44585841385420072 0 -0.17120233416290959 0.45640822727236241 0 -0.17811588893482599 0.44059896695768402 0 -0.18352012225738101 0.45784428174623631 0 -0.18352012225738101 0.45784428174623631 0 -0.1809250447687078 0.47460126407309761 0 -0.19236433542717299 0.47132381600177531 0 -0.18352012225738101 0.45784428174623631 0 -0.1809250447687078 0.47460126407309761 0 -0.16912986456940249 0.46901700049960249 0 -0.17120233416290959 0.45640822727236241 0 -0.18352012225738101 0.45784428174623631 0 -0.16912986456940249 0.46901700049960249 0 -0.1809250447687078 0.47460126407309761 0 -0.16912986456940249 0.46901700049960249 0 -0.17255645515054779 0.48835123471477698 0 -0.1809250447687078 0.47460126407309761 0 -0.17255645515054779 0.48835123471477698 0 -0.18876222835527129 0.4813741766122796 0 -0.1809250447687078 0.47460126407309761 0 -0.19236433542717299 0.47132381600177531 0 -0.18876222835527129 0.4813741766122796 0 -0.16912986456940249 0.46901700049960249 0 -0.15854000929999729 0.47489768922584152 0 -0.17255645515054779 0.48835123471477698 0 -0.14777406511617419 0.48527288461542212 0 -0.15854000929999729 0.47489768922584152 0 -0.17255645515054779 0.48835123471477698 0 -0.14777406511617419 0.48527288461542212 0 -0.17255645515054779 0.48835123471477698 0 -0.1563278815697472 0.5 0 -0.18605306065846461 0.5 0 -0.17255645515054779 0.48835123471477698 0 -0.14777406511617419 0.48527288461542212 0 -0.1563278815697472 0.5 0 -0.17255645515054779 0.48835123471477698 0 -0.18605306065846461 0.5 0 -0.17255645515054779 0.48835123471477698 0 -0.1973388451849214 0.49142958481413201 0 -0.17255645515054779 0.48835123471477698 0 -0.1973388451849214 0.49142958481413201 0 -0.17255645515054779 0.48835123471477698 0 -0.1973388451849214 0.49142958481413201 0 -0.18876222835527129 0.4813741766122796 0 -0.18605306065846461 0.5 0 -0.1973388451849214 0.49142958481413201 0 -0.21577823974718199 0.5 0 -0.19236433542717299 0.47132381600177531 0 -0.18876222835527129 0.4813741766122796 0 -0.1988389202598016 0.47825959616769798 0 -0.1973388451849214 0.49142958481413201 0 -0.18876222835527129 0.4813741766122796 0 -0.1988389202598016 0.47825959616769798 0 -0.1973388451849214 0.49142958481413201 0 -0.1988389202598016 0.47825959616769798 0 -0.2109305278648605 0.47891776497304939 0 -0.19236433542717299 0.47132381600177531 0 -0.1988389202598016 0.47825959616769798 0 -0.2047986644667818 0.46825263843725362 0 -0.2109305278648605 0.47891776497304939 0 -0.21451028840253181 0.48613781056712868 0 -0.22765054534105009 0.4796959575678465 0 -0.2109305278648605 0.47891776497304939 0 -0.2171096650449639 0.46286593763402573 0 -0.2047986644667818 0.46825263843725362 0 -0.2109305278648605 0.47891776497304939 0 -0.22765054534105009 0.4796959575678465 0 -0.2171096650449639 0.46286593763402573 0 -0.1988389202598016 0.47825959616769798 0 -0.2109305278648605 0.47891776497304939 0 -0.2047986644667818 0.46825263843725362 0 -0.1973388451849214 0.49142958481413201 0 -0.22212123521929489 0.49450793491348688 0 -0.1973388451849214 0.49142958481413201 0 -0.21451028840253181 0.48613781056712868 0 -0.22212123521929489 0.49450793491348688 0 -0.1973388451849214 0.49142958481413201 0 -0.21577823974718199 0.5 0 -0.22212123521929489 0.49450793491348688 0 -0.1973388451849214 0.49142958481413201 0 -0.2109305278648605 0.47891776497304939 0 -0.21451028840253181 0.48613781056712868 0 -0.22212123521929489 0.49450793491348688 0 -0.22765054534105009 0.4796959575678465 0 -0.2455034188358993 0.5 0 -0.21577823974718199 0.5 0 -0.22212123521929489 0.49450793491348688 0 -0.2455034188358993 0.5 0 -0.21451028840253181 0.48613781056712868 0 -0.22212123521929489 0.49450793491348688 0 -0.22765054534105009 0.4796959575678465 0 -0.22765054534105009 0.4796959575678465 0 -0.24634193355070119 0.47531546692573701 0 -0.23232245071316421 0.46326708677908729 0 -0.22765054534105009 0.4796959575678465 0 -0.24634193355070119 0.47531546692573701 0 -0.2455034188358993 0.5 0 -0.24742970385555391 0.45127102303631311 0 -0.22905114650214239 0.43150815982900481 0 -0.24634193355070119 0.47531546692573701 0 -0.24742970385555391 0.45127102303631311 0 -0.23232245071316421 0.46326708677908729 0 -0.24742970385555391 0.45127102303631311 0 -0.23232245071316421 0.46326708677908729 0 -0.22308040577355159 0.4471870487315146 0 -0.22765054534105009 0.4796959575678465 0 -0.23232245071316421 0.46326708677908729 0 -0.2171096650449639 0.46286593763402573 0 -0.23232245071316421 0.46326708677908729 0 -0.22308040577355159 0.4471870487315146 0 -0.2171096650449639 0.46286593763402573 0 -0.22308040577355159 0.4471870487315146 0 -0.2171096650449639 0.46286593763402573 0 -0.22308040577355159 0.4471870487315146 0 -0.2119276217906978 0.43485749349419472 0 -0.22905114650214239 0.43150815982900481 0 -0.24742970385555391 0.45127102303631311 0 -0.22308040577355159 0.4471870487315146 0 -0.22905114650214239 0.43150815982900481 0 -0.22308040577355159 0.4471870487315146 0 -0.22905114650214239 0.43150815982900481 0 -0.22308040577355159 0.4471870487315146 0 -0.20220546657504601 0.45091232817512172 0 -0.2119276217906978 0.43485749349419472 0 -0.22308040577355159 0.4471870487315146 0 -0.2171096650449639 0.46286593763402573 0 -0.20220546657504601 0.45091232817512172 0 -0.2171096650449639 0.46286593763402573 0 -0.2047986644667818 0.46825263843725362 0 -0.20220546657504601 0.45091232817512172 0 -0.2047986644667818 0.46825263843725362 0 -0.1953009841110771 0.46082667584069942 0 -0.20220546657504601 0.45091232817512172 0 -0.19236433542717299 0.47132381600177531 0 -0.2047986644667818 0.46825263843725362 0 -0.1953009841110771 0.46082667584069942 0 -0.18352012225738101 0.45784428174623631 0 -0.1953009841110771 0.46082667584069942 0 -0.1911731604708177 0.44585841385420072 0 -0.18352012225738101 0.45784428174623631 0 -0.19236433542717299 0.47132381600177531 0 -0.1953009841110771 0.46082667584069942 0 -0.17811588893482599 0.44059896695768402 0 -0.1911731604708177 0.44585841385420072 0 -0.19501916247553919 0.43345208691141057 0 -0.20220546657504601 0.45091232817512172 0 -0.19501916247553919 0.43345208691141057 0 -0.2119276217906978 0.43485749349419472 0 -0.20220546657504601 0.45091232817512172 0 -0.1911731604708177 0.44585841385420072 0 -0.19501916247553919 0.43345208691141057 0 -0.1953009841110771 0.46082667584069942 0 -0.20220546657504601 0.45091232817512172 0 -0.1911731604708177 0.44585841385420072 0 -0.19501916247553919 0.43345208691141057 0 -0.189768139455155 0.41591539254960908 0 -0.20415314302700879 0.4243648944051579 0 -0.19501916247553919 0.43345208691141057 0 -0.189768139455155 0.41591539254960908 0 -0.18153180020973941 0.42784706973318082 0 -0.189768139455155 0.41591539254960908 0 -0.20215705559505179 0.41296373682118548 0 -0.19207261812344761 0.39892631204537471 0 -0.189768139455155 0.41591539254960908 0 -0.20215705559505179 0.41296373682118548 0 -0.20415314302700879 0.4243648944051579 0 -0.20215705559505179 0.41296373682118548 0 -0.2176496070172888 0.4192478359712063 0 -0.20415314302700879 0.4243648944051579 0 -0.20215705559505179 0.41296373682118548 0 -0.2176496070172888 0.4192478359712063 0 -0.21649537099290939 0.40502175542655278 0 -0.19501916247553919 0.43345208691141057 0 -0.20415314302700879 0.4243648944051579 0 -0.2119276217906978 0.43485749349419472 0 -0.2176496070172888 0.4192478359712063 0 -0.20415314302700879 0.4243648944051579 0 -0.2119276217906978 0.43485749349419472 0 -0.2176496070172888 0.4192478359712063 0 -0.2119276217906978 0.43485749349419472 0 -0.22905114650214239 0.43150815982900481 0 -0.2176496070172888 0.4192478359712063 0 -0.22905114650214239 0.43150815982900481 0 -0.2176496070172888 0.4192478359712063 0 -0.22905114650214239 0.43150815982900481 0 -0.23841167611813249 0.40692784214494759 0 -0.2176496070172888 0.4192478359712063 0 -0.23841167611813249 0.40692784214494759 0 -0.21649537099290939 0.40502175542655278 0 -0.22905114650214239 0.43150815982900481 0 -0.23841167611813249 0.40692784214494759 0 -0.25287143391397221 0.42645082168962412 0 -0.22905114650214239 0.43150815982900481 0 -0.23841167611813249 0.40692784214494759 0 -0.25287143391397221 0.42645082168962412 0 -0.24742970385555391 0.45127102303631311 0 -0.22905114650214239 0.43150815982900481 0 -0.2354821072187317 0.38833801458898809 0 -0.24129509255994691 0.37724097736319151 0 -0.24777220573412551 0.38234752446089149 0 -0.2354821072187317 0.38833801458898809 0 -0.24129509255994691 0.37724097736319151 0 -0.23340923375538111 0.37482373735719182 0 -0.24129509255994691 0.37724097736319151 0 -0.24941169511418279 0.37577449132209412 0 -0.24777220573412551 0.38234752446089149 0 -0.23841167611813249 0.40692784214494759 0 -0.24777220573412551 0.38234752446089149 0 -0.25485577554116218 0.39160129724096621 0 -0.23841167611813249 0.40692784214494759 0 -0.24777220573412551 0.38234752446089149 0 -0.23841167611813249 0.40692784214494759 0 -0.2354821072187317 0.38833801458898809 0 -0.24777220573412551 0.38234752446089149 0 -0.23841167611813249 0.40692784214494759 0 -0.22283254627232571 0.39352656943172432 0 -0.21649537099290939 0.40502175542655278 0 -0.23841167611813249 0.40692784214494759 0 -0.2354821072187317 0.38833801458898809 0 -0.22283254627232571 0.39352656943172432 0 -0.22283254627232571 0.39352656943172432 0 -0.23340923375538111 0.37482373735719182 0 -0.22372180465832411 0.36620145075406341 0 -0.22283254627232571 0.39352656943172432 0 -0.21231736435749909 0.37881416027897141 0 -0.22372180465832411 0.36620145075406341 0 -0.22283254627232571 0.39352656943172432 0 -0.22372180465832411 0.36620145075406341 0 -0.2354821072187317 0.38833801458898809 0 -0.22283254627232571 0.39352656943172432 0 -0.23340923375538111 0.37482373735719182 0 -0.22283254627232571 0.39352656943172432 0 -0.21231736435749909 0.37881416027897141 0 -0.2057594354729648 0.39209465872593768 0 -0.21231736435749909 0.37881416027897141 0 -0.2057594354729648 0.39209465872593768 0 -0.19964091123515881 0.37609137338235937 0 -0.22283254627232571 0.39352656943172432 0 -0.21649537099290939 0.40502175542655278 0 -0.2057594354729648 0.39209465872593768 0 -0.20215705559505179 0.41296373682118548 0 -0.21649537099290939 0.40502175542655278 0 -0.2057594354729648 0.39209465872593768 0 -0.20215705559505179 0.41296373682118548 0 -0.2057594354729648 0.39209465872593768 0 -0.19207261812344761 0.39892631204537471 0 -0.2057594354729648 0.39209465872593768 0 -0.19207261812344761 0.39892631204537471 0 -0.19519826757879619 0.38743981110428399 0 -0.2057594354729648 0.39209465872593768 0 -0.19964091123515881 0.37609137338235937 0 -0.19519826757879619 0.38743981110428399 0 -0.19964091123515881 0.37609137338235937 0 -0.19519826757879619 0.38743981110428399 0 -0.1831510961662445 0.38347727262091319 0 -0.19964091123515881 0.37609137338235937 0 -0.1831510961662445 0.38347727262091319 0 -0.18564407182847259 0.36731544271842109 0 -0.19207261812344761 0.39892631204537471 0 -0.19519826757879619 0.38743981110428399 0 -0.1831510961662445 0.38347727262091319 0 -0.1831510961662445 0.38347727262091319 0 -0.16679599857736899 0.37915727882944561 0 -0.1740363649876544 0.36972783293537992 0 -0.1831510961662445 0.38347727262091319 0 -0.17241111132080869 0.38973437465895983 0 -0.16679599857736899 0.37915727882944561 0 -0.17241111132080869 0.38973437465895983 0 -0.16679599857736899 0.37915727882944561 0 -0.15730616494495961 0.38981315874500749 0 -0.16679599857736899 0.37915727882944561 0 -0.15730616494495961 0.38981315874500749 0 -0.15439055439905799 0.37745868276354649 0 -0.15730616494495961 0.38981315874500749 0 -0.16747525183201939 0.40147683973048037 0 -0.14412310220641061 0.40342320725945913 0 -0.17241111132080869 0.38973437465895983 0 -0.15730616494495961 0.38981315874500749 0 -0.16747525183201939 0.40147683973048037 0 -0.1831510961662445 0.38347727262091319 0 -0.17241111132080869 0.38973437465895983 0 -0.1798136762686951 0.40056663347851851 0 -0.189768139455155 0.41591539254960908 0 -0.19207261812344761 0.39892631204537471 0 -0.1798136762686951 0.40056663347851851 0 -0.16747525183201939 0.40147683973048037 0 -0.1798136762686951 0.40056663347851851 0 -0.17400384071449551 0.41386960926577432 0 -0.19207261812344761 0.39892631204537471 0 -0.1831510961662445 0.38347727262091319 0 -0.1798136762686951 0.40056663347851851 0 -0.17241111132080869 0.38973437465895983 0 -0.16747525183201939 0.40147683973048037 0 -0.1798136762686951 0.40056663347851851 0 -0.189768139455155 0.41591539254960908 0 -0.1798136762686951 0.40056663347851851 0 -0.17400384071449551 0.41386960926577432 0 -0.189768139455155 0.41591539254960908 0 -0.17400384071449551 0.41386960926577432 0 -0.18153180020973941 0.42784706973318082 0 -0.17811588893482599 0.44059896695768402 0 -0.19501916247553919 0.43345208691141057 0 -0.18153180020973941 0.42784706973318082 0 -0.17400384071449551 0.41386960926577432 0 -0.18153180020973941 0.42784706973318082 0 -0.17022770101615881 0.42583485332478299 0 -0.17811588893482599 0.44059896695768402 0 -0.18153180020973941 0.42784706973318082 0 -0.17022770101615881 0.42583485332478299 0 -0.17022770101615881 0.42583485332478299 0 -0.1579851847463451 0.43395603346536687 0 -0.1570653450130873 0.41645344563745201 0 -0.17811588893482599 0.44059896695768402 0 -0.17022770101615881 0.42583485332478299 0 -0.1579851847463451 0.43395603346536687 0 -0.16747525183201939 0.40147683973048037 0 -0.17400384071449551 0.41386960926577432 0 -0.1570653450130873 0.41645344563745201 0 -0.17400384071449551 0.41386960926577432 0 -0.17022770101615881 0.42583485332478299 0 -0.1570653450130873 0.41645344563745201 0 -0.16747525183201939 0.40147683973048037 0 -0.1570653450130873 0.41645344563745201 0 -0.14412310220641061 0.40342320725945913 0 -0.1570653450130873 0.41645344563745201 0 -0.1442572166054947 0.41661747328016979 0 -0.14412310220641061 0.40342320725945913 0 -0.1570653450130873 0.41645344563745201 0 -0.1442572166054947 0.41661747328016979 0 -0.14377114852548059 0.43024201329789152 0 -0.1579851847463451 0.43395603346536687 0 -0.1570653450130873 0.41645344563745201 0 -0.14377114852548059 0.43024201329789152 0 -0.14377114852548059 0.43024201329789152 0 -0.12864843367962889 0.43296759499821791 0 -0.13206927067700039 0.41635122692587689 0 -0.13206927067700039 0.41635122692587689 0 -0.14412310220641061 0.40342320725945913 0 -0.12354121578373491 0.40401081501634539 0 -0.1442572166054947 0.41661747328016979 0 -0.13206927067700039 0.41635122692587689 0 -0.14412310220641061 0.40342320725945913 0 -0.1442572166054947 0.41661747328016979 0 -0.14377114852548059 0.43024201329789152 0 -0.13206927067700039 0.41635122692587689 0 -0.12887062937621169 0.39161013580209258 0 -0.14434400515691201 0.38389896634082638 0 -0.14412310220641061 0.40342320725945913 0 -0.12887062937621169 0.39161013580209258 0 -0.14412310220641061 0.40342320725945913 0 -0.12354121578373491 0.40401081501634539 0 -0.13290249935650369 0.38003853136326993 0 -0.13113569255656549 0.36781604156189851 0 -0.1160994672829133 0.37864949379152102 0 -0.12887062937621169 0.39161013580209258 0 -0.13290249935650369 0.38003853136326993 0 -0.1160994672829133 0.37864949379152102 0 -0.13290249935650369 0.38003853136326993 0 -0.14434400515691201 0.38389896634082638 0 -0.14367819823147249 0.37219432506340011 0 -0.12887062937621169 0.39161013580209258 0 -0.13290249935650369 0.38003853136326993 0 -0.14434400515691201 0.38389896634082638 0 -0.14434400515691201 0.38389896634082638 0 -0.15439055439905799 0.37745868276354649 0 -0.14367819823147249 0.37219432506340011 0 -0.15730616494495961 0.38981315874500749 0 -0.14434400515691201 0.38389896634082638 0 -0.15439055439905799 0.37745868276354649 0 -0.15730616494495961 0.38981315874500749 0 -0.14434400515691201 0.38389896634082638 0 -0.14412310220641061 0.40342320725945913 0 -0.1461215621748812 0.34796885464669092 0 -0.15614597317774631 0.35356614838935652 0 -0.16274365266791671 0.34399515030461392 0 -0.14177764928198189 0.35819395357226069 0 -0.15614597317774631 0.35356614838935652 0 -0.1574917261252545 0.36533580981121322 0 -0.14177764928198189 0.35819395357226069 0 -0.1461215621748812 0.34796885464669092 0 -0.15614597317774631 0.35356614838935652 0 -0.14177764928198189 0.35819395357226069 0 -0.1461215621748812 0.34796885464669092 0 -0.13693741407796819 0.34302004204933711 0 -0.1461215621748812 0.34796885464669092 0 -0.13693741407796819 0.34302004204933711 0 -0.14327022650866619 0.34074606321254031 0 -0.14177764928198189 0.35819395357226069 0 -0.14367819823147249 0.37219432506340011 0 -0.1574917261252545 0.36533580981121322 0 -0.15439055439905799 0.37745868276354649 0 -0.14367819823147249 0.37219432506340011 0 -0.1574917261252545 0.36533580981121322 0 -0.14177764928198189 0.35819395357226069 0 -0.14367819823147249 0.37219432506340011 0 -0.13113569255656549 0.36781604156189851 0 -0.14177764928198189 0.35819395357226069 0 -0.13113569255656549 0.36781604156189851 0 -0.12888200105751521 0.35579093866438438 0 -0.13290249935650369 0.38003853136326993 0 -0.14367819823147249 0.37219432506340011 0 -0.13113569255656549 0.36781604156189851 0 -0.13113569255656549 0.36781604156189851 0 -0.12888200105751521 0.35579093866438438 0 -0.12079023235990979 0.36438695187357462 0 -0.14177764928198189 0.35819395357226069 0 -0.12888200105751521 0.35579093866438438 0 -0.13693741407796819 0.34302004204933711 0 -0.12888200105751521 0.35579093866438438 0 -0.13693741407796819 0.34302004204933711 0 -0.1242325426061309 0.34487041488274628 0 -0.13244893608213201 0.33472999016969379 0 -0.1429267734340047 0.32566826594271853 0 -0.1229851162022422 0.33183173367034802 0 -0.1429267734340047 0.32566826594271853 0 -0.1229851162022422 0.33183173367034802 0 -0.13244893608213201 0.33472999016969379 0 -0.1229851162022422 0.33183173367034802 0 -0.1242325426061309 0.34487041488274628 0 -0.13244893608213201 0.33472999016969379 0 -0.13693741407796819 0.34302004204933711 0 -0.1242325426061309 0.34487041488274628 0 -0.13244893608213201 0.33472999016969379 0 -0.1429267734340047 0.32566826594271853 0 -0.14171311110818571 0.33027252620498138 0 -0.13244893608213201 0.33472999016969379 0 -0.1412262315111058 0.33551880143423629 0 -0.14171311110818571 0.33027252620498138 0 -0.13244893608213201 0.33472999016969379 0 -0.13693741407796819 0.34302004204933711 0 -0.1412262315111058 0.33551880143423629 0 -0.13693741407796819 0.34302004204933711 0 -0.14327022650866619 0.34074606321254031 0 -0.1412262315111058 0.33551880143423629 0 -0.13043306631187879 0.32057449872959859 0 -0.1429267734340047 0.32566826594271853 0 -0.1229851162022422 0.33183173367034802 0 -0.13043306631187879 0.32057449872959859 0 -0.13581145749513859 0.31035903538016218 0 -0.12690271741318301 0.3110179766017564 0 -0.13043306631187879 0.32057449872959859 0 -0.12690271741318301 0.3110179766017564 0 -0.12208066099102589 0.31807742997526522 0 -0.13043306631187879 0.32057449872959859 0 -0.12208066099102589 0.31807742997526522 0 -0.1229851162022422 0.33183173367034802 0 -0.13043306631187879 0.32057449872959859 0 -0.1429267734340047 0.32566826594271853 0 -0.13581145749513859 0.31035903538016218 0 -0.1429267734340047 0.32566826594271853 0 -0.13581145749513859 0.31035903538016218 0 -0.1429267734340047 0.32566826594271853 0 -0.16374275055711879 0.31923456779384912 0 -0.1429267734340047 0.32566826594271853 0 -0.16374275055711879 0.31923456779384912 0 -0.14863219316788931 0.31064524090149631 0 -0.1429267734340047 0.32566826594271853 0 -0.15514746812209129 0.33096086473930519 0 -0.16374275055711879 0.31923456779384912 0 -0.1429267734340047 0.32566826594271853 0 -0.14863219316788931 0.31064524090149631 0 -0.13581145749513859 0.31035903538016218 0 -0.1461215621748812 0.34796885464669092 0 -0.14942894088800421 0.33784312112317821 0 -0.16274365266791671 0.34399515030461392 0 -0.14327022650866619 0.34074606321254031 0 -0.1412262315111058 0.33551880143423629 0 -0.14942894088800421 0.33784312112317821 0 -0.1461215621748812 0.34796885464669092 0 -0.14327022650866619 0.34074606321254031 0 -0.14942894088800421 0.33784312112317821 0 -0.1412262315111058 0.33551880143423629 0 -0.14171311110818571 0.33027252620498138 0 -0.1467713491938416 0.33182264907775227 0 -0.1412262315111058 0.33551880143423629 0 -0.1467713491938416 0.33182264907775227 0 -0.14942894088800421 0.33784312112317821 0 -0.1429267734340047 0.32566826594271853 0 -0.1467713491938416 0.33182264907775227 0 -0.15514746812209129 0.33096086473930519 0 -0.1429267734340047 0.32566826594271853 0 -0.14171311110818571 0.33027252620498138 0 -0.1467713491938416 0.33182264907775227 0 -0.1467713491938416 0.33182264907775227 0 -0.15514746812209129 0.33096086473930519 0 -0.14942894088800421 0.33784312112317821 0 -0.15514746812209129 0.33096086473930519 0 -0.14942894088800421 0.33784312112317821 0 -0.16274365266791671 0.34399515030461392 0 -0.15514746812209129 0.33096086473930519 0 -0.17741102987550389 0.33231973969764461 0 -0.16274365266791671 0.34399515030461392 0 -0.15514746812209129 0.33096086473930519 0 -0.16374275055711879 0.31923456779384912 0 -0.17741102987550389 0.33231973969764461 0 -0.16374275055711879 0.31923456779384912 0 -0.18455872768023279 0.3128008696449795 0 -0.17741102987550389 0.33231973969764461 0 -0.16374275055711879 0.31923456779384912 0 -0.18455872768023279 0.3128008696449795 0 -0.18455872768023279 0.3128008696449795 0 -0.17741102987550389 0.33231973969764461 0 -0.1987660948552406 0.32961961516810578 0 -0.17741102987550389 0.33231973969764461 0 -0.17836297453412511 0.34618328980177171 0 -0.16274365266791671 0.34399515030461392 0 -0.17741102987550389 0.33231973969764461 0 -0.17836297453412511 0.34618328980177171 0 -0.1884718060108185 0.34141796057621732 0 -0.17836297453412511 0.34618328980177171 0 -0.1875136452553311 0.35357538876633909 0 -0.1884718060108185 0.34141796057621732 0 -0.1718847952361604 0.35760372251237038 0 -0.17836297453412511 0.34618328980177171 0 -0.1875136452553311 0.35357538876633909 0 -0.15614597317774631 0.35356614838935652 0 -0.1718847952361604 0.35760372251237038 0 -0.1574917261252545 0.36533580981121322 0 -0.15614597317774631 0.35356614838935652 0 -0.1718847952361604 0.35760372251237038 0 -0.16274365266791671 0.34399515030461392 0 -0.1718847952361604 0.35760372251237038 0 -0.17836297453412511 0.34618328980177171 0 -0.16274365266791671 0.34399515030461392 0 -0.16679599857736899 0.37915727882944561 0 -0.1574917261252545 0.36533580981121322 0 -0.1740363649876544 0.36972783293537992 0 -0.1718847952361604 0.35760372251237038 0 -0.1574917261252545 0.36533580981121322 0 -0.1740363649876544 0.36972783293537992 0 -0.16679599857736899 0.37915727882944561 0 -0.15439055439905799 0.37745868276354649 0 -0.1574917261252545 0.36533580981121322 0 -0.1831510961662445 0.38347727262091319 0 -0.1740363649876544 0.36972783293537992 0 -0.18564407182847259 0.36731544271842109 0 -0.1718847952361604 0.35760372251237038 0 -0.18564407182847259 0.36731544271842109 0 -0.1875136452553311 0.35357538876633909 0 -0.1718847952361604 0.35760372251237038 0 -0.1740363649876544 0.36972783293537992 0 -0.18564407182847259 0.36731544271842109 0 -0.19964091123515881 0.37609137338235937 0 -0.18564407182847259 0.36731544271842109 0 -0.19860175294287599 0.36119133557981797 0 -0.18564407182847259 0.36731544271842109 0 -0.19860175294287599 0.36119133557981797 0 -0.1875136452553311 0.35357538876633909 0 -0.19964091123515881 0.37609137338235937 0 -0.19860175294287599 0.36119133557981797 0 -0.20963212414872209 0.36615674910077178 0 -0.19860175294287599 0.36119133557981797 0 -0.1875136452553311 0.35357538876633909 0 -0.2003052855338916 0.34539176944722461 0 -0.1875136452553311 0.35357538876633909 0 -0.2003052855338916 0.34539176944722461 0 -0.1884718060108185 0.34141796057621732 0 -0.19860175294287599 0.36119133557981797 0 -0.2003052855338916 0.34539176944722461 0 -0.2112928857156483 0.35312230546832413 0 -0.2003052855338916 0.34539176944722461 0 -0.2112928857156483 0.35312230546832413 0 -0.21100872182722821 0.33882505223984222 0 -0.21231736435749909 0.37881416027897141 0 -0.19964091123515881 0.37609137338235937 0 -0.20963212414872209 0.36615674910077178 0 -0.19860175294287599 0.36119133557981797 0 -0.2112928857156483 0.35312230546832413 0 -0.20963212414872209 0.36615674910077178 0 -0.2112928857156483 0.35312230546832413 0 -0.20963212414872209 0.36615674910077178 0 -0.22372180465832411 0.36620145075406341 0 -0.21231736435749909 0.37881416027897141 0 -0.20963212414872209 0.36615674910077178 0 -0.22372180465832411 0.36620145075406341 0 -0.23340923375538111 0.37482373735719182 0 -0.22372180465832411 0.36620145075406341 0 -0.23594127094434919 0.34905032152114629 0 -0.2112928857156483 0.35312230546832413 0 -0.22372180465832411 0.36620145075406341 0 -0.22461106304432249 0.33887633207640228 0 -0.22372180465832411 0.36620145075406341 0 -0.23594127094434919 0.34905032152114629 0 -0.22461106304432249 0.33887633207640228 0 -0.22372180465832411 0.36620145075406341 0 -0.22461106304432249 0.33887633207640228 0 -0.23594127094434919 0.34905032152114629 0 -0.24747779027060771 0.34907328350334221 0 -0.24842919977145511 0.33726607880296411 0 -0.23594127094434919 0.34905032152114629 0 -0.24747779027060771 0.34907328350334221 0 -0.24457121342047861 0.35926242206930881 0 -0.23340923375538111 0.37482373735719182 0 -0.23594127094434919 0.34905032152114629 0 -0.23340923375538111 0.37482373735719182 0 -0.23594127094434919 0.34905032152114629 0 -0.24457121342047861 0.35926242206930881 0 -0.24129509255994691 0.37724097736319151 0 -0.24941169511418279 0.37577449132209412 0 -0.2459313423592274 0.36756318794634713 0 -0.23340923375538111 0.37482373735719182 0 -0.24457121342047861 0.35926242206930881 0 -0.2459313423592274 0.36756318794634713 0 -0.24129509255994691 0.37724097736319151 0 -0.23340923375538111 0.37482373735719182 0 -0.2459313423592274 0.36756318794634713 0 -0.25667134793037499 0.31917276002506362 0 -0.23847330813331741 0.32327690568510092 0 -0.24842919977145511 0.33726607880296411 0 -0.25063258211170919 0.30705260831688053 0 -0.25667134793037499 0.31917276002506362 0 -0.23847330813331741 0.32327690568510092 0 -0.23594127094434919 0.34905032152114629 0 -0.23847330813331741 0.32327690568510092 0 -0.24842919977145511 0.33726607880296411 0 -0.23594127094434919 0.34905032152114629 0 -0.23847330813331741 0.32327690568510092 0 -0.23594127094434919 0.34905032152114629 0 -0.23847330813331741 0.32327690568510092 0 -0.22461106304432249 0.33887633207640228 0 -0.23847330813331741 0.32327690568510092 0 -0.22461106304432249 0.33887633207640228 0 -0.22550032143032089 0.31155121339874131 0 -0.22461106304432249 0.33887633207640228 0 -0.2131626788371529 0.32581878956550853 0 -0.22550032143032089 0.31155121339874131 0 -0.22461106304432249 0.33887633207640228 0 -0.22550032143032089 0.31155121339874131 0 -0.2131626788371529 0.32581878956550853 0 -0.20549579401558241 0.31009073940439658 0 -0.22550032143032089 0.31155121339874131 0 -0.2131626788371529 0.32581878956550853 0 -0.1987660948552406 0.32961961516810578 0 -0.20549579401558241 0.31009073940439658 0 -0.2003052855338916 0.34539176944722461 0 -0.21100872182722821 0.33882505223984222 0 -0.1987660948552406 0.32961961516810578 0 -0.2112928857156483 0.35312230546832413 0 -0.22461106304432249 0.33887633207640228 0 -0.21100872182722821 0.33882505223984222 0 -0.22461106304432249 0.33887633207640228 0 -0.2131626788371529 0.32581878956550853 0 -0.21100872182722821 0.33882505223984222 0 -0.2131626788371529 0.32581878956550853 0 -0.21100872182722821 0.33882505223984222 0 -0.1987660948552406 0.32961961516810578 0 -0.17741102987550389 0.33231973969764461 0 -0.1987660948552406 0.32961961516810578 0 -0.1884718060108185 0.34141796057621732 0 -0.2003052855338916 0.34539176944722461 0 -0.1987660948552406 0.32961961516810578 0 -0.1884718060108185 0.34141796057621732 0 -0.18455872768023279 0.3128008696449795 0 -0.1987660948552406 0.32961961516810578 0 -0.20549579401558241 0.31009073940439658 0 -0.18993723549576949 0.29823743671863151 0 -0.20501537468855069 0.29409146999488128 0 -0.20549579401558241 0.31009073940439658 0 -0.18455872768023279 0.3128008696449795 0 -0.18993723549576949 0.29823743671863151 0 -0.20549579401558241 0.31009073940439658 0 -0.18993723549576949 0.29823743671863151 0 -0.20501537468855069 0.29409146999488128 0 -0.188445376727503 0.27985286493163641 0 -0.20501537468855069 0.29409146999488128 0 -0.20827477610159939 0.27825842853588162 0 -0.188445376727503 0.27985286493163641 0 -0.20501537468855069 0.29409146999488128 0 -0.2229368939362909 0.28458391477917627 0 -0.20827477610159939 0.27825842853588162 0 -0.20501537468855069 0.29409146999488128 0 -0.2179544593470843 0.2995204055395716 0 -0.2229368939362909 0.28458391477917627 0 -0.20501537468855069 0.29409146999488128 0 -0.20549579401558241 0.31009073940439658 0 -0.2179544593470843 0.2995204055395716 0 -0.20549579401558241 0.31009073940439658 0 -0.2179544593470843 0.2995204055395716 0 -0.22550032143032089 0.31155121339874131 0 -0.2179544593470843 0.2995204055395716 0 -0.22550032143032089 0.31155121339874131 0 -0.24100534532228551 0.29750348984905539 0 -0.2179544593470843 0.2995204055395716 0 -0.2229368939362909 0.28458391477917627 0 -0.24100534532228551 0.29750348984905539 0 -0.2229368939362909 0.28458391477917627 0 -0.24100534532228551 0.29750348984905539 0 -0.24353738251125079 0.27173007401300969 0 -0.24100534532228551 0.29750348984905539 0 -0.24353738251125079 0.27173007401300969 0 -0.25490735409216092 0.29022679384063449 0 -0.24100534532228551 0.29750348984905539 0 -0.24353738251125079 0.27173007401300969 0 -0.25063258211170919 0.30705260831688053 0 -0.23847330813331741 0.32327690568510092 0 -0.24100534532228551 0.29750348984905539 0 -0.23847330813331741 0.32327690568510092 0 -0.22550032143032089 0.31155121339874131 0 -0.24100534532228551 0.29750348984905539 0 -0.25063258211170919 0.30705260831688053 0 -0.25490735409216092 0.29022679384063449 0 -0.24100534532228551 0.29750348984905539 0 -0.23847330813331741 0.32327690568510092 0 -0.24100534532228551 0.29750348984905539 0 -0.25223805791004961 0.25923010996706408 0 -0.24353738251125079 0.27173007401300969 0 -0.24620958009132571 0.24452997611265531 0 -0.24353738251125079 0.27173007401300969 0 -0.24620958009132571 0.24452997611265531 0 -0.24353738251125079 0.27173007401300969 0 -0.2302780686573522 0.25216232498291469 0 -0.24620958009132571 0.24452997611265531 0 -0.24353738251125079 0.27173007401300969 0 -0.22145184499062981 0.26574376086595253 0 -0.2229368939362909 0.28458391477917627 0 -0.24353738251125079 0.27173007401300969 0 -0.22145184499062981 0.26574376086595253 0 -0.22145184499062981 0.26574376086595253 0 -0.2302780686573522 0.25216232498291469 0 -0.2102488235112544 0.25114212950950071 0 -0.24353738251125079 0.27173007401300969 0 -0.22145184499062981 0.26574376086595253 0 -0.2302780686573522 0.25216232498291469 0 -0.22145184499062981 0.26574376086595253 0 -0.2102488235112544 0.25114212950950071 0 -0.2016899230145667 0.26387200469957472 0 -0.2229368939362909 0.28458391477917627 0 -0.22145184499062981 0.26574376086595253 0 -0.20827477610159939 0.27825842853588162 0 -0.22145184499062981 0.26574376086595253 0 -0.20827477610159939 0.27825842853588162 0 -0.2016899230145667 0.26387200469957472 0 -0.20827477610159939 0.27825842853588162 0 -0.188445376727503 0.27985286493163641 0 -0.2016899230145667 0.26387200469957472 0 -0.188445376727503 0.27985286493163641 0 -0.2016899230145667 0.26387200469957472 0 -0.18093545971449801 0.25782937809115902 0 -0.2102488235112544 0.25114212950950071 0 -0.2016899230145667 0.26387200469957472 0 -0.1956053581888402 0.2442754871541202 0 -0.2016899230145667 0.26387200469957472 0 -0.18093545971449801 0.25782937809115902 0 -0.1956053581888402 0.2442754871541202 0 -0.18093545971449801 0.25782937809115902 0 -0.1649721865240513 0.27380707923660258 0 -0.15515622089855061 0.24748850867644601 0 -0.188445376727503 0.27985286493163641 0 -0.18093545971449801 0.25782937809115902 0 -0.1649721865240513 0.27380707923660258 0 -0.188445376727503 0.27985286493163641 0 -0.1649721865240513 0.27380707923660258 0 -0.17450046181473319 0.29645416153515441 0 -0.18993723549576949 0.29823743671863151 0 -0.188445376727503 0.27985286493163641 0 -0.17450046181473319 0.29645416153515441 0 -0.16374275055711879 0.31923456779384912 0 -0.18455872768023279 0.3128008696449795 0 -0.17450046181473319 0.29645416153515441 0 -0.18455872768023279 0.3128008696449795 0 -0.18993723549576949 0.29823743671863151 0 -0.17450046181473319 0.29645416153515441 0 -0.16374275055711879 0.31923456779384912 0 -0.17450046181473319 0.29645416153515441 0 -0.15593275217003569 0.29494016059228639 0 -0.1649721865240513 0.27380707923660258 0 -0.17450046181473319 0.29645416153515441 0 -0.15593275217003569 0.29494016059228639 0 -0.15593275217003569 0.29494016059228639 0 -0.1421997451233491 0.29645267968771533 0 -0.14192618122741041 0.27126915674702567 0 -0.16374275055711879 0.31923456779384912 0 -0.15593275217003569 0.29494016059228639 0 -0.14863219316788931 0.31064524090149631 0 -0.15593275217003569 0.29494016059228639 0 -0.1421997451233491 0.29645267968771533 0 -0.14863219316788931 0.31064524090149631 0 -0.1421997451233491 0.29645267968771533 0 -0.14863219316788931 0.31064524090149631 0 -0.13581145749513859 0.31035903538016218 0 -0.1421997451233491 0.29645267968771533 0 -0.13581145749513859 0.31035903538016218 0 -0.1286961415562716 0.29504980481760629 0 -0.13581145749513859 0.31035903538016218 0 -0.1286961415562716 0.29504980481760629 0 -0.13581145749513859 0.31035903538016218 0 -0.12613054057328699 0.29966140505331318 0 -0.1286961415562716 0.29504980481760629 0 -0.12613054057328699 0.29966140505331318 0 -0.1286961415562716 0.29504980481760629 0 -0.1207777553564833 0.29868961397344501 0 -0.12613054057328699 0.29966140505331318 0 -0.1286961415562716 0.29504980481760629 0 -0.13581145749513859 0.31035903538016218 0 -0.12613054057328699 0.29966140505331318 0 -0.12690271741318301 0.3110179766017564 0 -0.1286961415562716 0.29504980481760629 0 -0.14192618122741041 0.27126915674702567 0 -0.1421997451233491 0.29645267968771533 0 -0.1286961415562716 0.29504980481760629 0 -0.14192618122741041 0.27126915674702567 0 -0.14192618122741041 0.27126915674702567 0 -0.12284685308058151 0.25610948100957021 0 -0.1180811662760852 0.27221074814374008 0 -0.1286961415562716 0.29504980481760629 0 -0.14192618122741041 0.27126915674702567 0 -0.1180811662760852 0.27221074814374008 0 -0.13862848509303791 0.25523695188050011 0 -0.14192618122741041 0.27126915674702567 0 -0.12284685308058151 0.25610948100957021 0 -0.13862848509303791 0.25523695188050011 0 -0.12284685308058151 0.25610948100957021 0 -0.13129777129848899 0.24343749324056141 0 -0.14192618122741041 0.27126915674702567 0 -0.15515622089855061 0.24748850867644601 0 -0.13862848509303791 0.25523695188050011 0 -0.14192618122741041 0.27126915674702567 0 -0.15515622089855061 0.24748850867644601 0 -0.1649721865240513 0.27380707923660258 0 -0.14192618122741041 0.27126915674702567 0 -0.15515622089855061 0.24748850867644601 0 -0.1649721865240513 0.27380707923660258 0 -0.15593275217003569 0.29494016059228639 0 -0.14192618122741041 0.27126915674702567 0 -0.10135104566069809 0.26371404111890712 0 -0.1180811662760852 0.27221074814374008 0 -0.091313901857944677 0.27698176099054389 0 -0.1180811662760852 0.27221074814374008 0 -0.1035195991934033 0.29391595652421237 0 -0.091313901857944677 0.27698176099054389 0 -0.10135104566069809 0.26371404111890712 0 -0.088542923512864496 0.25629196387147002 0 -0.1074661909958979 0.2493716914698744 0 -0.10135104566069809 0.26371404111890712 0 -0.1180811662760852 0.27221074814374008 0 -0.1074661909958979 0.2493716914698744 0 -0.12284685308058151 0.25610948100957021 0 -0.1180811662760852 0.27221074814374008 0 -0.1074661909958979 0.2493716914698744 0 -0.1180811662760852 0.27221074814374008 0 -0.1074661909958979 0.2493716914698744 0 -0.1286961415562716 0.29504980481760629 0 -0.1180811662760852 0.27221074814374008 0 -0.1180811662760852 0.27221074814374008 0 -0.1161685706363438 0.29216210287963018 0 -0.1035195991934033 0.29391595652421237 0 -0.1286961415562716 0.29504980481760629 0 -0.1180811662760852 0.27221074814374008 0 -0.1161685706363438 0.29216210287963018 0 -0.1286961415562716 0.29504980481760629 0 -0.1161685706363438 0.29216210287963018 0 -0.1207777553564833 0.29868961397344501 0 -0.1161685706363438 0.29216210287963018 0 -0.1128356623219291 0.30015724324623261 0 -0.1035195991934033 0.29391595652421237 0 -0.12005786169458479 0.30641751387044258 0 -0.1078771143244894 0.3085755539040349 0 -0.11155066033253309 0.32220635763421118 0 -0.12613054057328699 0.29966140505331318 0 -0.12690271741318301 0.3110179766017564 0 -0.12005786169458479 0.30641751387044258 0 -0.12690271741318301 0.3110179766017564 0 -0.12005786169458479 0.30641751387044258 0 -0.12208066099102589 0.31807742997526522 0 -0.12005786169458479 0.30641751387044258 0 -0.1207777553564833 0.29868961397344501 0 -0.1128356623219291 0.30015724324623261 0 -0.12613054057328699 0.29966140505331318 0 -0.12005786169458479 0.30641751387044258 0 -0.1207777553564833 0.29868961397344501 0 -0.1161685706363438 0.29216210287963018 0 -0.1207777553564833 0.29868961397344501 0 -0.1128356623219291 0.30015724324623261 0 -0.12005786169458479 0.30641751387044258 0 -0.1128356623219291 0.30015724324623261 0 -0.1078771143244894 0.3085755539040349 0 -0.1078771143244894 0.3085755539040349 0 -0.1035195991934033 0.29391595652421237 0 -0.095922449885076866 0.31881468897150012 0 -0.1035195991934033 0.29391595652421237 0 -0.08848367042477881 0.30360580245097241 0 -0.095922449885076866 0.31881468897150012 0 -0.1035195991934033 0.29391595652421237 0 -0.095922449885076866 0.31881468897150012 0 -0.1128356623219291 0.30015724324623261 0 -0.1078771143244894 0.3085755539040349 0 -0.1035195991934033 0.29391595652421237 0 -0.1035195991934033 0.29391595652421237 0 -0.082375162514843947 0.28947553506127022 0 -0.091313901857944677 0.27698176099054389 0 -0.1035195991934033 0.29391595652421237 0 -0.082375162514843947 0.28947553506127022 0 -0.08848367042477881 0.30360580245097241 0 -0.08848367042477881 0.30360580245097241 0 -0.079922074007079819 0.31456811045236538 0 -0.095922449885076866 0.31881468897150012 0 -0.082375162514843947 0.28947553506127022 0 -0.08848367042477881 0.30360580245097241 0 -0.076674520983404645 0.30119773861623711 0 -0.08848367042477881 0.30360580245097241 0 -0.076674520983404645 0.30119773861623711 0 -0.079922074007079819 0.31456811045236538 0 -0.076674520983404645 0.30119773861623711 0 -0.063918458900324382 0.30841388935597958 0 -0.079922074007079819 0.31456811045236538 0 -0.076674520983404645 0.30119773861623711 0 -0.063918458900324382 0.30841388935597958 0 -0.06875456180514411 0.29337375503573498 0 -0.082375162514843947 0.28947553506127022 0 -0.06875456180514411 0.29337375503573498 0 -0.070472499276071118 0.27580619124033218 0 -0.06875456180514411 0.29337375503573498 0 -0.070472499276071118 0.27580619124033218 0 -0.05240207503927774 0.29532041860919439 0 -0.082375162514843947 0.28947553506127022 0 -0.076674520983404645 0.30119773861623711 0 -0.06875456180514411 0.29337375503573498 0 -0.070472499276071118 0.27580619124033218 0 -0.088542923512864496 0.25629196387147002 0 -0.10135104566069809 0.26371404111890712 0 -0.091313901857944677 0.27698176099054389 0 -0.088542923512864496 0.25629196387147002 0 -0.082375162514843947 0.28947553506127022 0 -0.070472499276071118 0.27580619124033218 0 -0.091313901857944677 0.27698176099054389 0 -0.070472499276071118 0.27580619124033218 0 -0.091313901857944677 0.27698176099054389 0 -0.088542923512864496 0.25629196387147002 0 -0.088542923512864496 0.25629196387147002 0 -0.071267019643513466 0.25651201127637591 0 -0.077007347841610785 0.24298791573861461 0 -0.070472499276071118 0.27580619124033218 0 -0.071267019643513466 0.25651201127637591 0 -0.055927016289783957 0.26063492272420802 0 -0.070472499276071118 0.27580619124033218 0 -0.088542923512864496 0.25629196387147002 0 -0.071267019643513466 0.25651201127637591 0 -0.071267019643513466 0.25651201127637591 0 -0.055927016289783957 0.26063492272420802 0 -0.064385311297236944 0.24683906280725471 0 -0.055927016289783957 0.26063492272420802 0 -0.038786919138796061 0.25267394763554318 0 -0.050791600231549397 0.24159365453644521 0 -0.055927016289783957 0.26063492272420802 0 -0.05144852077571798 0.27889984183585009 0 -0.041490257998965552 0.26698938459773602 0 -0.070472499276071118 0.27580619124033218 0 -0.055927016289783957 0.26063492272420802 0 -0.05144852077571798 0.27889984183585009 0 -0.05144852077571798 0.27889984183585009 0 -0.041490257998965552 0.26698938459773602 0 -0.03191445115594535 0.27764536327640998 0 -0.041490257998965552 0.26698938459773602 0 -0.03191445115594535 0.27764536327640998 0 -0.02771679864661868 0.26238202411560319 0 -0.055927016289783957 0.26063492272420802 0 -0.041490257998965552 0.26698938459773602 0 -0.038786919138796061 0.25267394763554318 0 -0.041490257998965552 0.26698938459773602 0 -0.038786919138796061 0.25267394763554318 0 -0.02771679864661868 0.26238202411560319 0 -0.02771679864661868 0.26238202411560319 0 -0.0046720592673639514 0.26114863339281791 0 -0.02213363532787254 0.24685338798251069 0 -0.02771679864661868 0.26238202411560319 0 -0.01846298512798639 0.27257171713341072 0 -0.0046720592673639514 0.26114863339281791 0 -0.038786919138796061 0.25267394763554318 0 -0.02771679864661868 0.26238202411560319 0 -0.02213363532787254 0.24685338798251069 0 -0.03191445115594535 0.27764536327640998 0 -0.01846298512798639 0.27257171713341072 0 -0.010309773737530019 0.28496617390661522 0 -0.03191445115594535 0.27764536327640998 0 -0.02771679864661868 0.26238202411560319 0 -0.01846298512798639 0.27257171713341072 0 -0.0046720592673639514 0.26114863339281791 0 -0.010309773737530019 0.28496617390661522 0 -0.01846298512798639 0.27257171713341072 0 -0.0046720592673639514 0.26114863339281791 0 -0.010309773737530019 0.28496617390661522 0 -0.0046720592673639514 0.26114863339281791 0 -0.010309773737530019 0.28496617390661522 0 0.0070266906870940019 0.27647173113642831 0 -0.010309773737530019 0.28496617390661522 0 -0.016698261898627938 0.31195549314299831 0 0.00048632796560877181 0.30625335544440752 0 -0.010309773737530019 0.28496617390661522 0 -0.016698261898627938 0.31195549314299831 0 -0.03191445115594535 0.27764536327640998 0 -0.010309773737530019 0.28496617390661522 0 -0.034073391337172493 0.29542766748942378 0 -0.03191445115594535 0.27764536327640998 0 -0.010309773737530019 0.28496617390661522 0 -0.010309773737530019 0.28496617390661522 0 -0.016698261898627938 0.31195549314299831 0 -0.034073391337172493 0.29542766748942378 0 -0.016698261898627938 0.31195549314299831 0 -0.034073391337172493 0.29542766748942378 0 -0.016698261898627938 0.31195549314299831 0 -0.034040761274621127 0.31177124287829872 0 -0.034073391337172493 0.29542766748942378 0 -0.034040761274621127 0.31177124287829872 0 -0.034073391337172493 0.29542766748942378 0 -0.047969460216488347 0.30863065796616368 0 -0.034073391337172493 0.29542766748942378 0 -0.05240207503927774 0.29532041860919439 0 -0.047969460216488347 0.30863065796616368 0 -0.05144852077571798 0.27889984183585009 0 -0.034073391337172493 0.29542766748942378 0 -0.05144852077571798 0.27889984183585009 0 -0.03191445115594535 0.27764536327640998 0 -0.034073391337172493 0.29542766748942378 0 -0.05144852077571798 0.27889984183585009 0 -0.034073391337172493 0.29542766748942378 0 -0.05240207503927774 0.29532041860919439 0 -0.070472499276071118 0.27580619124033218 0 -0.05144852077571798 0.27889984183585009 0 -0.05240207503927774 0.29532041860919439 0 -0.070472499276071118 0.27580619124033218 0 -0.05240207503927774 0.29532041860919439 0 -0.063918458900324382 0.30841388935597958 0 -0.06875456180514411 0.29337375503573498 0 -0.05240207503927774 0.29532041860919439 0 -0.063918458900324382 0.30841388935597958 0 -0.047969460216488347 0.30863065796616368 0 -0.056291226700066102 0.31903746513805431 0 -0.063918458900324382 0.30841388935597958 0 -0.05240207503927774 0.29532041860919439 0 -0.047969460216488347 0.30863065796616368 0 -0.056291226700066102 0.31903746513805431 0 -0.055508926624936832 0.33172866968085318 0 -0.069291971150669499 0.32549477974069468 0 -0.056291226700066102 0.31903746513805431 0 -0.055508926624936832 0.33172866968085318 0 -0.044767316607911431 0.32091932894658021 0 -0.047969460216488347 0.30863065796616368 0 -0.056291226700066102 0.31903746513805431 0 -0.044767316607911431 0.32091932894658021 0 -0.055508926624936832 0.33172866968085318 0 -0.040740365897220937 0.33836471230859372 0 -0.044767316607911431 0.32091932894658021 0 -0.055508926624936832 0.33172866968085318 0 -0.056314651680319253 0.3459898676356632 0 -0.064969206827601794 0.33607653435421952 0 -0.055508926624936832 0.33172866968085318 0 -0.040740365897220937 0.33836471230859372 0 -0.056314651680319253 0.3459898676356632 0 -0.040740365897220937 0.33836471230859372 0 -0.032132639855153793 0.32405797685402732 0 -0.021156848241040731 0.33079159444018569 0 -0.040740365897220937 0.33836471230859372 0 -0.044767316607911431 0.32091932894658021 0 -0.032132639855153793 0.32405797685402732 0 -0.034040761274621127 0.31177124287829872 0 -0.047969460216488347 0.30863065796616368 0 -0.044767316607911431 0.32091932894658021 0 -0.034040761274621127 0.31177124287829872 0 -0.044767316607911431 0.32091932894658021 0 -0.032132639855153793 0.32405797685402732 0 -0.016698261898627938 0.31195549314299831 0 -0.021156848241040731 0.33079159444018569 0 -0.016698261898627938 0.31195549314299831 0 -0.034040761274621127 0.31177124287829872 0 -0.032132639855153793 0.32405797685402732 0 -0.016698261898627938 0.31195549314299831 0 -0.032132639855153793 0.32405797685402732 0 -0.021156848241040731 0.33079159444018569 0 -0.040740365897220937 0.33836471230859372 0 -0.021156848241040731 0.33079159444018569 0 -0.02561543458345291 0.3496276957373734 0 -0.021156848241040731 0.33079159444018569 0 -0.02561543458345291 0.3496276957373734 0 -0.021156848241040731 0.33079159444018569 0 -0.010901863507345349 0.35190367330768102 0 0.0039219051409631941 0.33157011109351803 0 -0.016698261898627938 0.31195549314299831 0 0.0039219051409631941 0.33157011109351803 0 0.00048632796560877181 0.30625335544440752 0 -0.016698261898627938 0.31195549314299831 0 -0.021156848241040731 0.33079159444018569 0 0.0039219051409631941 0.33157011109351803 0 -0.016698261898627938 0.31195549314299831 0 0.0039219051409631941 0.33157011109351803 0 -0.016339593909742739 0.37473021554748309 0 0.0041012391354052387 0.36295747229576109 0 -0.016339593909742739 0.37473021554748309 0 -0.0040003650468491726 0.37678481023003718 0 0.0041012391354052387 0.36295747229576109 0 -0.010901863507345349 0.35190367330768102 0 -0.016339593909742739 0.37473021554748309 0 0.0041012391354052387 0.36295747229576109 0 -0.010901863507345349 0.35190367330768102 0 0.006063579509959287 0.34913786842647748 0 0.0039219051409631941 0.33157011109351803 0 -0.010901863507345349 0.35190367330768102 0 0.006063579509959287 0.34913786842647748 0 0.0041012391354052387 0.36295747229576109 0 -0.010901863507345349 0.35190367330768102 0 -0.02561543458345291 0.3496276957373734 0 -0.028971850200858861 0.36597999022907218 0 -0.021156848241040731 0.33079159444018569 0 -0.010901863507345349 0.35190367330768102 0 -0.02561543458345291 0.3496276957373734 0 -0.010901863507345349 0.35190367330768102 0 -0.028971850200858861 0.36597999022907218 0 -0.016339593909742739 0.37473021554748309 0 -0.028971850200858861 0.36597999022907218 0 -0.041576494203277622 0.36211401542530097 0 -0.046658788680084079 0.37452754563603929 0 -0.02561543458345291 0.3496276957373734 0 -0.028971850200858861 0.36597999022907218 0 -0.041576494203277622 0.36211401542530097 0 -0.040740365897220937 0.33836471230859372 0 -0.02561543458345291 0.3496276957373734 0 -0.044667706099423311 0.35042724238514061 0 -0.02561543458345291 0.3496276957373734 0 -0.041576494203277622 0.36211401542530097 0 -0.044667706099423311 0.35042724238514061 0 -0.041576494203277622 0.36211401542530097 0 -0.044667706099423311 0.35042724238514061 0 -0.054127268367324587 0.36144489432237192 0 -0.040740365897220937 0.33836471230859372 0 -0.044667706099423311 0.35042724238514061 0 -0.056314651680319253 0.3459898676356632 0 -0.044667706099423311 0.35042724238514061 0 -0.056314651680319253 0.3459898676356632 0 -0.054127268367324587 0.36144489432237192 0 -0.056314651680319253 0.3459898676356632 0 -0.054127268367324587 0.36144489432237192 0 -0.064733749079261521 0.35511761753674848 0 -0.046658788680084079 0.37452754563603929 0 -0.054127268367324587 0.36144489432237192 0 -0.059326968169042038 0.37491243970607591 0 -0.041576494203277622 0.36211401542530097 0 -0.046658788680084079 0.37452754563603929 0 -0.054127268367324587 0.36144489432237192 0 -0.054127268367324587 0.36144489432237192 0 -0.066474777988410325 0.36653597637951357 0 -0.064733749079261521 0.35511761753674848 0 -0.054127268367324587 0.36144489432237192 0 -0.059326968169042038 0.37491243970607591 0 -0.066474777988410325 0.36653597637951357 0 -0.066474777988410325 0.36653597637951357 0 -0.073093102256994655 0.36758524971045498 0 -0.070100163573805843 0.37661548814797718 0 -0.059326968169042038 0.37491243970607591 0 -0.066474777988410325 0.36653597637951357 0 -0.070100163573805843 0.37661548814797718 0 -0.066474777988410325 0.36653597637951357 0 -0.07506931619733849 0.35857738044825382 0 -0.064733749079261521 0.35511761753674848 0 -0.073093102256994655 0.36758524971045498 0 -0.080728151268423989 0.36861215386607549 0 -0.07506931619733849 0.35857738044825382 0 -0.066474777988410325 0.36653597637951357 0 -0.073093102256994655 0.36758524971045498 0 -0.07506931619733849 0.35857738044825382 0 -0.073093102256994655 0.36758524971045498 0 -0.080728151268423989 0.36861215386607549 0 -0.070100163573805843 0.37661548814797718 0 -0.093084467202203425 0.36844560955654421 0 -0.09307263996702031 0.35650042970310769 0 -0.083101820963559225 0.37500565800823571 0 -0.080728151268423989 0.36861215386607549 0 -0.09307263996702031 0.35650042970310769 0 -0.083101820963559225 0.37500565800823571 0 -0.09307263996702031 0.35650042970310769 0 -0.083101820963559225 0.37500565800823571 0 -0.093084467202203425 0.36844560955654421 0 -0.089918243428782185 0.37599284359108492 0 -0.083101820963559225 0.37500565800823571 0 -0.093084467202203425 0.36844560955654421 0 -0.095468880903915129 0.37963361203365731 0 -0.089918243428782185 0.37599284359108492 0 -0.09307263996702031 0.35650042970310769 0 -0.088325300576750435 0.34371342141878791 0 -0.098286930393308908 0.33946532547243208 0 -0.080728151268423989 0.36861215386607549 0 -0.07506931619733849 0.35857738044825382 0 -0.088325300576750435 0.34371342141878791 0 -0.080728151268423989 0.36861215386607549 0 -0.09307263996702031 0.35650042970310769 0 -0.088325300576750435 0.34371342141878791 0 -0.080728151268423989 0.36861215386607549 0 -0.088325300576750435 0.34371342141878791 0 -0.076698192604150506 0.34695129195830771 0 -0.07506931619733849 0.35857738044825382 0 -0.088325300576750435 0.34371342141878791 0 -0.076698192604150506 0.34695129195830771 0 -0.071511503703409057 0.35199522214413997 0 -0.066974394127277917 0.34498743096545781 0 -0.071511503703409057 0.35199522214413997 0 -0.07506931619733849 0.35857738044825382 0 -0.064733749079261521 0.35511761753674848 0 -0.076698192604150506 0.34695129195830771 0 -0.071511503703409057 0.35199522214413997 0 -0.07506931619733849 0.35857738044825382 0 -0.071511503703409057 0.35199522214413997 0 -0.064733749079261521 0.35511761753674848 0 -0.066974394127277917 0.34498743096545781 0 -0.056314651680319253 0.3459898676356632 0 -0.064733749079261521 0.35511761753674848 0 -0.066974394127277917 0.34498743096545781 0 -0.066974394127277917 0.34498743096545781 0 -0.064969206827601794 0.33607653435421952 0 -0.075910647305329843 0.33743397849970519 0 -0.056314651680319253 0.3459898676356632 0 -0.066974394127277917 0.34498743096545781 0 -0.064969206827601794 0.33607653435421952 0 -0.064969206827601794 0.33607653435421952 0 -0.075910647305329843 0.33743397849970519 0 -0.069291971150669499 0.32549477974069468 0 -0.055508926624936832 0.33172866968085318 0 -0.064969206827601794 0.33607653435421952 0 -0.069291971150669499 0.32549477974069468 0 -0.075910647305329843 0.33743397849970519 0 -0.069291971150669499 0.32549477974069468 0 -0.082204146084081373 0.32818077341200103 0 -0.076698192604150506 0.34695129195830771 0 -0.066974394127277917 0.34498743096545781 0 -0.075910647305329843 0.33743397849970519 0 -0.063918458900324382 0.30841388935597958 0 -0.056291226700066102 0.31903746513805431 0 -0.069291971150669499 0.32549477974069468 0 -0.063918458900324382 0.30841388935597958 0 -0.069291971150669499 0.32549477974069468 0 -0.079922074007079819 0.31456811045236538 0 -0.069291971150669499 0.32549477974069468 0 -0.079922074007079819 0.31456811045236538 0 -0.082204146084081373 0.32818077341200103 0 -0.079922074007079819 0.31456811045236538 0 -0.082204146084081373 0.32818077341200103 0 -0.095922449885076866 0.31881468897150012 0 -0.088325300576750435 0.34371342141878791 0 -0.095922449885076866 0.31881468897150012 0 -0.082204146084081373 0.32818077341200103 0 -0.088325300576750435 0.34371342141878791 0 -0.095922449885076866 0.31881468897150012 0 -0.076698192604150506 0.34695129195830771 0 -0.075910647305329843 0.33743397849970519 0 -0.088325300576750435 0.34371342141878791 0 -0.075910647305329843 0.33743397849970519 0 -0.082204146084081373 0.32818077341200103 0 -0.088325300576750435 0.34371342141878791 0 -0.088325300576750435 0.34371342141878791 0 -0.097941931071284516 0.3333295876386918 0 -0.095922449885076866 0.31881468897150012 0 -0.1030434589704802 0.33799520139797912 0 -0.11155066033253309 0.32220635763421118 0 -0.1030434589704802 0.33799520139797912 0 -0.102245907641939 0.32737916367780667 0 -0.11155066033253309 0.32220635763421118 0 -0.088325300576750435 0.34371342141878791 0 -0.098286930393308908 0.33946532547243208 0 -0.097941931071284516 0.3333295876386918 0 -0.098286930393308908 0.33946532547243208 0 -0.097941931071284516 0.3333295876386918 0 -0.1030434589704802 0.33799520139797912 0 -0.098286930393308908 0.33946532547243208 0 -0.1030434589704802 0.33799520139797912 0 -0.097941931071284516 0.3333295876386918 0 -0.1030434589704802 0.33799520139797912 0 -0.102245907641939 0.32737916367780667 0 -0.1078771143244894 0.3085755539040349 0 -0.095922449885076866 0.31881468897150012 0 -0.11155066033253309 0.32220635763421118 0 -0.095922449885076866 0.31881468897150012 0 -0.102245907641939 0.32737916367780667 0 -0.11155066033253309 0.32220635763421118 0 -0.097941931071284516 0.3333295876386918 0 -0.095922449885076866 0.31881468897150012 0 -0.102245907641939 0.32737916367780667 0 -0.12005786169458479 0.30641751387044258 0 -0.11155066033253309 0.32220635763421118 0 -0.12208066099102589 0.31807742997526522 0 -0.12005786169458479 0.30641751387044258 0 -0.11155066033253309 0.32220635763421118 0 -0.11155066033253309 0.32220635763421118 0 -0.12208066099102589 0.31807742997526522 0 -0.1229851162022422 0.33183173367034802 0 -0.1030434589704802 0.33799520139797912 0 -0.11155066033253309 0.32220635763421118 0 -0.1229851162022422 0.33183173367034802 0 -0.1030434589704802 0.33799520139797912 0 -0.11483140205233409 0.34258402798573268 0 -0.1229851162022422 0.33183173367034802 0 -0.1030434589704802 0.33799520139797912 0 -0.1229851162022422 0.33183173367034802 0 -0.11483140205233409 0.34258402798573268 0 -0.1229851162022422 0.33183173367034802 0 -0.1242325426061309 0.34487041488274628 0 -0.11483140205233409 0.34258402798573268 0 -0.1242325426061309 0.34487041488274628 0 -0.114118813436866 0.35085507693437418 0 -0.1242325426061309 0.34487041488274628 0 -0.114118813436866 0.35085507693437418 0 -0.1197086478603941 0.35626518289288411 0 -0.11483140205233409 0.34258402798573268 0 -0.114118813436866 0.35085507693437418 0 -0.105896923745694 0.35209317835490289 0 -0.114118813436866 0.35085507693437418 0 -0.1197086478603941 0.35626518289288411 0 -0.1107056978378788 0.36302701214997513 0 -0.114118813436866 0.35085507693437418 0 -0.1107056978378788 0.36302701214997513 0 -0.105896923745694 0.35209317835490289 0 -0.12888200105751521 0.35579093866438438 0 -0.1242325426061309 0.34487041488274628 0 -0.1197086478603941 0.35626518289288411 0 -0.12888200105751521 0.35579093866438438 0 -0.1197086478603941 0.35626518289288411 0 -0.12079023235990979 0.36438695187357462 0 -0.13113569255656549 0.36781604156189851 0 -0.12079023235990979 0.36438695187357462 0 -0.1160994672829133 0.37864949379152102 0 -0.12079023235990979 0.36438695187357462 0 -0.1107056978378788 0.36302701214997513 0 -0.1160994672829133 0.37864949379152102 0 -0.1107056978378788 0.36302701214997513 0 -0.10351654808439879 0.37278126027607011 0 -0.1160994672829133 0.37864949379152102 0 -0.1197086478603941 0.35626518289288411 0 -0.12079023235990979 0.36438695187357462 0 -0.1107056978378788 0.36302701214997513 0 -0.1107056978378788 0.36302701214997513 0 -0.10351654808439879 0.37278126027607011 0 -0.1012552553674391 0.36256949800811999 0 -0.093084467202203425 0.36844560955654421 0 -0.10351654808439879 0.37278126027607011 0 -0.1012552553674391 0.36256949800811999 0 -0.093084467202203425 0.36844560955654421 0 -0.10351654808439879 0.37278126027607011 0 -0.095468880903915129 0.37963361203365731 0 -0.093084467202203425 0.36844560955654421 0 -0.09307263996702031 0.35650042970310769 0 -0.1012552553674391 0.36256949800811999 0 -0.09307263996702031 0.35650042970310769 0 -0.1030434589704802 0.33799520139797912 0 -0.105896923745694 0.35209317835490289 0 -0.09307263996702031 0.35650042970310769 0 -0.1012552553674391 0.36256949800811999 0 -0.105896923745694 0.35209317835490289 0 -0.09307263996702031 0.35650042970310769 0 -0.098286930393308908 0.33946532547243208 0 -0.1030434589704802 0.33799520139797912 0 -0.09307263996702031 0.35650042970310769 0 -0.1030434589704802 0.33799520139797912 0 -0.1030434589704802 0.33799520139797912 0 -0.11483140205233409 0.34258402798573268 0 -0.105896923745694 0.35209317835490289 0 -0.1107056978378788 0.36302701214997513 0 -0.1012552553674391 0.36256949800811999 0 -0.105896923745694 0.35209317835490289 0 -0.094761267674764477 0.40615595922695802 0 -0.094735604582930177 0.39184294203536169 0 -0.11084205123609051 0.39510575280139898 0 -0.094761267674764477 0.40615595922695802 0 -0.11084205123609051 0.39510575280139898 0 -0.110438991067318 0.4104312465818748 0 -0.094735604582930177 0.39184294203536169 0 -0.1040640533225661 0.38455548635270898 0 -0.11084205123609051 0.39510575280139898 0 -0.094735604582930177 0.39184294203536169 0 -0.095468880903915129 0.37963361203365731 0 -0.1040640533225661 0.38455548635270898 0 -0.10351654808439879 0.37278126027607011 0 -0.095468880903915129 0.37963361203365731 0 -0.1040640533225661 0.38455548635270898 0 -0.10351654808439879 0.37278126027607011 0 -0.1040640533225661 0.38455548635270898 0 -0.1160994672829133 0.37864949379152102 0 -0.1040640533225661 0.38455548635270898 0 -0.1160994672829133 0.37864949379152102 0 -0.11084205123609051 0.39510575280139898 0 -0.12887062937621169 0.39161013580209258 0 -0.1160994672829133 0.37864949379152102 0 -0.11084205123609051 0.39510575280139898 0 -0.12887062937621169 0.39161013580209258 0 -0.11084205123609051 0.39510575280139898 0 -0.12354121578373491 0.40401081501634539 0 -0.11084205123609051 0.39510575280139898 0 -0.12354121578373491 0.40401081501634539 0 -0.110438991067318 0.4104312465818748 0 -0.13206927067700039 0.41635122692587689 0 -0.12354121578373491 0.40401081501634539 0 -0.110438991067318 0.4104312465818748 0 -0.12864843367962889 0.43296759499821791 0 -0.13206927067700039 0.41635122692587689 0 -0.110438991067318 0.4104312465818748 0 -0.110438991067318 0.4104312465818748 0 -0.1120919192097822 0.43830100358614182 0 -0.12864843367962889 0.43296759499821791 0 -0.110438991067318 0.4104312465818748 0 -0.1120919192097822 0.43830100358614182 0 -0.093579789974724256 0.42279986963894772 0 -0.094440045949706911 0.44047263041486617 0 -0.1120919192097822 0.43830100358614182 0 -0.093579789974724256 0.42279986963894772 0 -0.1120919192097822 0.43830100358614182 0 -0.110438991067318 0.4104312465818748 0 -0.093579789974724256 0.42279986963894772 0 -0.1120919192097822 0.43830100358614182 0 -0.094761267674764477 0.40615595922695802 0 -0.110438991067318 0.4104312465818748 0 -0.093579789974724256 0.42279986963894772 0 -0.094761267674764477 0.40615595922695802 0 -0.093579789974724256 0.42279986963894772 0 -0.075067660739665781 0.40729873569175412 0 -0.093579789974724256 0.42279986963894772 0 -0.075067660739665781 0.40729873569175412 0 -0.078348064736903228 0.42124186963298038 0 -0.093579789974724256 0.42279986963894772 0 -0.075067660739665781 0.40729873569175412 0 -0.093579789974724256 0.42279986963894772 0 -0.079469434695033786 0.43561212059718962 0 -0.094440045949706911 0.44047263041486617 0 -0.078348064736903228 0.42124186963298038 0 -0.093579789974724256 0.42279986963894772 0 -0.079469434695033786 0.43561212059718962 0 -0.06527537353818913 0.41925675260403028 0 -0.057419745116280743 0.44500261889469739 0 -0.06840123317934492 0.43778029064983343 0 -0.078348064736903228 0.42124186963298038 0 -0.079469434695033786 0.43561212059718962 0 -0.06527537353818913 0.41925675260403028 0 -0.079469434695033786 0.43561212059718962 0 -0.06527537353818913 0.41925675260403028 0 -0.06840123317934492 0.43778029064983343 0 -0.06527537353818913 0.41925675260403028 0 -0.073131001960097849 0.39351088631336339 0 -0.075067660739665781 0.40729873569175412 0 -0.06527537353818913 0.41925675260403028 0 -0.073131001960097849 0.39351088631336339 0 -0.06527537353818913 0.41925675260403028 0 -0.069506072931818735 0.40023853218025879 0 -0.056031140659758942 0.40934623830202732 0 -0.078348064736903228 0.42124186963298038 0 -0.075067660739665781 0.40729873569175412 0 -0.06527537353818913 0.41925675260403028 0 -0.06527537353818913 0.41925675260403028 0 -0.069506072931818735 0.40023853218025879 0 -0.073131001960097849 0.39351088631336339 0 -0.069506072931818735 0.40023853218025879 0 -0.065504510999516194 0.39405149728685579 0 -0.057221260000038583 0.39827570205092699 0 -0.065504510999516194 0.39405149728685579 0 -0.073131001960097849 0.39351088631336339 0 -0.06312940358874862 0.38686206646410493 0 -0.069506072931818735 0.40023853218025879 0 -0.065504510999516194 0.39405149728685579 0 -0.073131001960097849 0.39351088631336339 0 -0.069506072931818735 0.40023853218025879 0 -0.073131001960097849 0.39351088631336339 0 -0.075067660739665781 0.40729873569175412 0 -0.073131001960097849 0.39351088631336339 0 -0.08439131091141823 0.39770384844374917 0 -0.094761267674764477 0.40615595922695802 0 -0.075067660739665781 0.40729873569175412 0 -0.08439131091141823 0.39770384844374917 0 -0.073131001960097849 0.39351088631336339 0 -0.08439131091141823 0.39770384844374917 0 -0.084382035683975107 0.38763425888372022 0 -0.094735604582930177 0.39184294203536169 0 -0.08439131091141823 0.39770384844374917 0 -0.084382035683975107 0.38763425888372022 0 -0.094761267674764477 0.40615595922695802 0 -0.094735604582930177 0.39184294203536169 0 -0.08439131091141823 0.39770384844374917 0 -0.073131001960097849 0.39351088631336339 0 -0.084382035683975107 0.38763425888372022 0 -0.083101820963559225 0.37500565800823571 0 -0.080728151268423989 0.36861215386607549 0 -0.073131001960097849 0.39351088631336339 0 -0.083101820963559225 0.37500565800823571 0 -0.088017804645450934 0.38088649476590258 0 -0.089918243428782185 0.37599284359108492 0 -0.083101820963559225 0.37500565800823571 0 -0.095468880903915129 0.37963361203365731 0 -0.088017804645450934 0.38088649476590258 0 -0.089918243428782185 0.37599284359108492 0 -0.094735604582930177 0.39184294203536169 0 -0.095468880903915129 0.37963361203365731 0 -0.088017804645450934 0.38088649476590258 0 -0.094735604582930177 0.39184294203536169 0 -0.088017804645450934 0.38088649476590258 0 -0.084382035683975107 0.38763425888372022 0 -0.088017804645450934 0.38088649476590258 0 -0.084382035683975107 0.38763425888372022 0 -0.083101820963559225 0.37500565800823571 0 -0.073131001960097849 0.39351088631336339 0 -0.083101820963559225 0.37500565800823571 0 -0.073131001960097849 0.39351088631336339 0 -0.06312940358874862 0.38686206646410493 0 -0.070100163573805843 0.37661548814797718 0 -0.080728151268423989 0.36861215386607549 0 -0.073131001960097849 0.39351088631336339 0 -0.070100163573805843 0.37661548814797718 0 -0.080728151268423989 0.36861215386607549 0 -0.073131001960097849 0.39351088631336339 0 -0.059326968169042038 0.37491243970607591 0 -0.06312940358874862 0.38686206646410493 0 -0.070100163573805843 0.37661548814797718 0 -0.059326968169042038 0.37491243970607591 0 -0.06312940358874862 0.38686206646410493 0 -0.052623369478560791 0.38421614253127051 0 -0.052623369478560791 0.38421614253127051 0 -0.057221260000038583 0.39827570205092699 0 -0.036780426954890671 0.38650295879920499 0 -0.06312940358874862 0.38686206646410493 0 -0.052623369478560791 0.38421614253127051 0 -0.057221260000038583 0.39827570205092699 0 -0.046658788680084079 0.37452754563603929 0 -0.059326968169042038 0.37491243970607591 0 -0.052623369478560791 0.38421614253127051 0 -0.057221260000038583 0.39827570205092699 0 -0.036780426954890671 0.38650295879920499 0 -0.069506072931818735 0.40023853218025879 0 -0.057221260000038583 0.39827570205092699 0 -0.056031140659758942 0.40934623830202732 0 -0.065504510999516194 0.39405149728685579 0 -0.06312940358874862 0.38686206646410493 0 -0.057221260000038583 0.39827570205092699 0 -0.057221260000038583 0.39827570205092699 0 -0.043270740573474548 0.40350631468948539 0 -0.056031140659758942 0.40934623830202732 0 -0.057221260000038583 0.39827570205092699 0 -0.043270740573474548 0.40350631468948539 0 -0.036780426954890671 0.38650295879920499 0 -0.043270740573474548 0.40350631468948539 0 -0.031609918935095127 0.39988821815183401 0 -0.036780426954890671 0.38650295879920499 0 -0.043270740573474548 0.40350631468948539 0 -0.031609918935095127 0.39988821815183401 0 -0.032990845685358143 0.41181385565579148 0 -0.028971850200858861 0.36597999022907218 0 -0.046658788680084079 0.37452754563603929 0 -0.036780426954890671 0.38650295879920499 0 -0.046658788680084079 0.37452754563603929 0 -0.052623369478560791 0.38421614253127051 0 -0.036780426954890671 0.38650295879920499 0 -0.016339593909742739 0.37473021554748309 0 -0.036780426954890671 0.38650295879920499 0 -0.021243675051994142 0.39335935674298139 0 -0.028971850200858861 0.36597999022907218 0 -0.016339593909742739 0.37473021554748309 0 -0.036780426954890671 0.38650295879920499 0 -0.016339593909742739 0.37473021554748309 0 -0.036780426954890671 0.38650295879920499 0 -0.031609918935095127 0.39988821815183401 0 -0.036780426954890671 0.38650295879920499 0 -0.021243675051994142 0.39335935674298139 0 -0.031609918935095127 0.39988821815183401 0 -0.01994869986189261 0.40634554927250388 0 -0.032990845685358143 0.41181385565579148 0 -0.031609918935095127 0.39988821815183401 0 -0.021243675051994142 0.39335935674298139 0 -0.01994869986189261 0.40634554927250388 0 -0.021243675051994142 0.39335935674298139 0 -0.0094740205342502826 0.39946209826551982 0 -0.01994869986189261 0.40634554927250388 0 -0.021243675051994142 0.39335935674298139 0 -0.0094740205342502826 0.39946209826551982 0 -0.0092273037058214161 0.38801518389075451 0 -0.0094740205342502826 0.39946209826551982 0 -0.0030751309422814908 0.40732012660286121 0 -0.010969388623263949 0.40774736989125909 0 -0.0094740205342502826 0.39946209826551982 0 -0.010969388623263949 0.40774736989125909 0 -0.01994869986189261 0.40634554927250388 0 -0.0094740205342502826 0.39946209826551982 0 -0.0030751309422814908 0.40732012660286121 0 0.0010753368538949099 0.40034504048298852 0 -0.0094740205342502826 0.39946209826551982 0 -0.0031430655094493642 0.39406554551191331 0 -0.0092273037058214161 0.38801518389075451 0 -0.0094740205342502826 0.39946209826551982 0 -0.0031430655094493642 0.39406554551191331 0 0.0010753368538949099 0.40034504048298852 0 -0.0012755702951004241 0.38734001269042828 0 -0.0040003650468491726 0.37678481023003718 0 -0.0092273037058214161 0.38801518389075451 0 -0.0031430655094493642 0.39406554551191331 0 -0.0012755702951004241 0.38734001269042828 0 -0.0092273037058214161 0.38801518389075451 0 -0.016339593909742739 0.37473021554748309 0 -0.021243675051994142 0.39335935674298139 0 -0.0092273037058214161 0.38801518389075451 0 -0.016339593909742739 0.37473021554748309 0 -0.0040003650468491726 0.37678481023003718 0 -0.0092273037058214161 0.38801518389075451 0 -0.01105288470244176 0.42797527723350481 0 0.0084200799520162371 0.44559131381809941 0 -0.01105288470244176 0.42797527723350481 0 -0.015139045863095949 0.42347407702289203 0 -0.020333419103912061 0.4244962185405099 0 -0.01105288470244176 0.42797527723350481 0 -0.0086804336153693644 0.42410738228281608 0 -0.0118856923091233 0.42377311482890889 0 -0.0086804336153693644 0.42410738228281608 0 -0.01000572438490142 0.42226836057489719 0 -0.0061450774242781947 0.42164737761882293 0 -0.01000572438490142 0.42226836057489719 0 -0.0118856923091233 0.42377311482890889 0 -0.012319445511537399 0.42115257701086989 0 -0.0086804336153693644 0.42410738228281608 0 -0.01000572438490142 0.42226836057489719 0 -0.0118856923091233 0.42377311482890889 0 -0.01105288470244176 0.42797527723350481 0 -0.0118856923091233 0.42377311482890889 0 -0.015139045863095949 0.42347407702289203 0 -0.0118856923091233 0.42377311482890889 0 -0.015139045863095949 0.42347407702289203 0 -0.012319445511537399 0.42115257701086989 0 -0.0086804336153693644 0.42410738228281608 0 -0.00037575452869264192 0.42146722834861489 0 -0.0061450774242781947 0.42164737761882293 0 -0.01105288470244176 0.42797527723350481 0 -0.0086804336153693644 0.42410738228281608 0 -0.00037575452869264192 0.42146722834861489 0 -0.00037575452869264192 0.42146722834861489 0 -0.00014566007642066191 0.41506108244244988 0 -0.0046432660789389171 0.41777221027025602 0 -0.00037575452869264192 0.42146722834861489 0 -0.0046432660789389171 0.41777221027025602 0 -0.0061450774242781947 0.42164737761882293 0 -0.0046432660789389171 0.41777221027025602 0 -0.0072726128936802734 0.41362574242493222 0 -0.0091639437193906832 0.41860566618307049 0 -0.00014566007642066191 0.41506108244244988 0 -0.0046432660789389171 0.41777221027025602 0 -0.0072726128936802734 0.41362574242493222 0 -0.0046432660789389171 0.41777221027025602 0 -0.0061450774242781947 0.42164737761882293 0 -0.0091639437193906832 0.41860566618307049 0 -0.0030751309422814908 0.40732012660286121 0 -0.0072726128936802734 0.41362574242493222 0 -0.010969388623263949 0.40774736989125909 0 -0.00014566007642066191 0.41506108244244988 0 -0.0030751309422814908 0.40732012660286121 0 -0.0072726128936802734 0.41362574242493222 0 -0.0072726128936802734 0.41362574242493222 0 -0.010969388623263949 0.40774736989125909 0 -0.016102637769284299 0.41660805866627248 0 -0.0072726128936802734 0.41362574242493222 0 -0.0091639437193906832 0.41860566618307049 0 -0.016102637769284299 0.41660805866627248 0 -0.01000572438490142 0.42226836057489719 0 -0.0091639437193906832 0.41860566618307049 0 -0.012319445511537399 0.42115257701086989 0 -0.01000572438490142 0.42226836057489719 0 -0.0061450774242781947 0.42164737761882293 0 -0.0091639437193906832 0.41860566618307049 0 -0.015139045863095949 0.42347407702289203 0 -0.012319445511537399 0.42115257701086989 0 -0.016102637769284299 0.41660805866627248 0 -0.0091639437193906832 0.41860566618307049 0 -0.012319445511537399 0.42115257701086989 0 -0.016102637769284299 0.41660805866627248 0 -0.015139045863095949 0.42347407702289203 0 -0.016102637769284299 0.41660805866627248 0 -0.020333419103912061 0.4244962185405099 0 -0.016102637769284299 0.41660805866627248 0 -0.02439145681538582 0.41789325422158979 0 -0.020333419103912061 0.4244962185405099 0 -0.02439145681538582 0.41789325422158979 0 -0.032581681656482009 0.43020258897287189 0 -0.032990845685358143 0.41181385565579148 0 -0.016102637769284299 0.41660805866627248 0 -0.01994869986189261 0.40634554927250388 0 -0.02439145681538582 0.41789325422158979 0 -0.010969388623263949 0.40774736989125909 0 -0.016102637769284299 0.41660805866627248 0 -0.01994869986189261 0.40634554927250388 0 -0.01994869986189261 0.40634554927250388 0 -0.02439145681538582 0.41789325422158979 0 -0.032990845685358143 0.41181385565579148 0 -0.01105288470244176 0.42797527723350481 0 -0.020333419103912061 0.4244962185405099 0 -0.032581681656482009 0.43020258897287189 0 -0.01105288470244176 0.42797527723350481 0 -0.032581681656482009 0.43020258897287189 0 -0.022148700850592069 0.44000346733072287 0 -0.02439145681538582 0.41789325422158979 0 -0.020333419103912061 0.4244962185405099 0 -0.032581681656482009 0.43020258897287189 0 -0.01105288470244176 0.42797527723350481 0 -0.032581681656482009 0.43020258897287189 0 -0.032581681656482009 0.43020258897287189 0 -0.044990851205705923 0.41521091517712738 0 -0.053574731546349313 0.42147897876963292 0 -0.032581681656482009 0.43020258897287189 0 -0.054110478610522358 0.43242990071223841 0 -0.041010197967108718 0.4430914198397955 0 -0.032581681656482009 0.43020258897287189 0 -0.054110478610522358 0.43242990071223841 0 -0.032581681656482009 0.43020258897287189 0 -0.053574731546349313 0.42147897876963292 0 -0.054110478610522358 0.43242990071223841 0 -0.032581681656482009 0.43020258897287189 0 -0.032990845685358143 0.41181385565579148 0 -0.044990851205705923 0.41521091517712738 0 -0.043270740573474548 0.40350631468948539 0 -0.032990845685358143 0.41181385565579148 0 -0.044990851205705923 0.41521091517712738 0 -0.043270740573474548 0.40350631468948539 0 -0.044990851205705923 0.41521091517712738 0 -0.056031140659758942 0.40934623830202732 0 -0.044990851205705923 0.41521091517712738 0 -0.053574731546349313 0.42147897876963292 0 -0.056031140659758942 0.40934623830202732 0 -0.06527537353818913 0.41925675260403028 0 -0.053574731546349313 0.42147897876963292 0 -0.056031140659758942 0.40934623830202732 0 -0.06527537353818913 0.41925675260403028 0 -0.057419745116280743 0.44500261889469739 0 -0.06527537353818913 0.41925675260403028 0 -0.054110478610522358 0.43242990071223841 0 -0.057419745116280743 0.44500261889469739 0 -0.06527537353818913 0.41925675260403028 0 -0.053574731546349313 0.42147897876963292 0 -0.054110478610522358 0.43242990071223841 0 -0.054110478610522358 0.43242990071223841 0 -0.057419745116280743 0.44500261889469739 0 -0.041010197967108718 0.4430914198397955 0 -0.057419745116280743 0.44500261889469739 0 -0.045181101181962842 0.46280156109246612 0 -0.041010197967108718 0.4430914198397955 0 -0.061392682251947772 0.45947134035248532 0 -0.045181101181962842 0.46280156109246612 0 -0.063248447427975474 0.47441932787459418 0 -0.057419745116280743 0.44500261889469739 0 -0.061392682251947772 0.45947134035248532 0 -0.045181101181962842 0.46280156109246612 0 -0.045181101181962842 0.46280156109246612 0 -0.041010197967108718 0.4430914198397955 0 -0.022049961721710299 0.45656004616399071 0 -0.032581681656482009 0.43020258897287189 0 -0.041010197967108718 0.4430914198397955 0 -0.022148700850592069 0.44000346733072287 0 -0.022148700850592069 0.44000346733072287 0 -0.022049961721710299 0.45656004616399071 0 -0.0078939568385715843 0.44642137318155689 0 -0.041010197967108718 0.4430914198397955 0 -0.022148700850592069 0.44000346733072287 0 -0.022049961721710299 0.45656004616399071 0 -0.045181101181962842 0.46280156109246612 0 -0.022049961721710299 0.45656004616399071 0 -0.02478784610526432 0.47955509613492708 0 -0.022049961721710299 0.45656004616399071 0 -0.0078939568385715843 0.44642137318155689 0 0.0033509757514942431 0.47114459251720497 0 -0.01105288470244176 0.42797527723350481 0 -0.0078939568385715843 0.44642137318155689 0 0.0084200799520162371 0.44559131381809941 0 -0.01105288470244176 0.42797527723350481 0 -0.022148700850592069 0.44000346733072287 0 -0.0078939568385715843 0.44642137318155689 0 -0.0077019861261599099 0.5 0 -0.02478784610526432 0.47955509613492708 0 0.0033509757514942431 0.47114459251720497 0 -0.022049961721710299 0.45656004616399071 0 -0.02478784610526432 0.47955509613492708 0 0.0033509757514942431 0.47114459251720497 0 -0.0077019861261599099 0.5 0 -0.02478784610526432 0.47955509613492708 0 -0.037427165214877538 0.5 0 -0.02478784610526432 0.47955509613492708 0 -0.037427165214877538 0.5 0 -0.047503714001891732 0.4831554075404737 0 -0.045181101181962842 0.46280156109246612 0 -0.02478784610526432 0.47955509613492708 0 -0.047503714001891732 0.4831554075404737 0 -0.045181101181962842 0.46280156109246612 0 -0.047503714001891732 0.4831554075404737 0 -0.063248447427975474 0.47441932787459418 0 -0.037427165214877538 0.5 0 -0.047503714001891732 0.4831554075404737 0 -0.067152344303595068 0.5 0 -0.047503714001891732 0.4831554075404737 0 -0.067152344303595068 0.5 0 -0.063248447427975474 0.47441932787459418 0 -0.067152344303595068 0.5 0 -0.078581441262713908 0.48488176059864868 0 -0.063248447427975474 0.47441932787459418 0 -0.067152344303595068 0.5 0 -0.078581441262713908 0.48488176059864868 0 -0.096877523392312481 0.5 0 -0.078581441262713908 0.48488176059864868 0 -0.092833176434337528 0.4779488495996268 0 -0.096877523392312481 0.5 0 -0.078581441262713908 0.48488176059864868 0 -0.092833176434337528 0.4779488495996268 0 -0.078114234980117478 0.46667546762223028 0 -0.092833176434337528 0.4779488495996268 0 -0.078114234980117478 0.46667546762223028 0 -0.094081244884706372 0.46486469218374821 0 -0.078581441262713908 0.48488176059864868 0 -0.063248447427975474 0.47441932787459418 0 -0.078114234980117478 0.46667546762223028 0 -0.061392682251947772 0.45947134035248532 0 -0.063248447427975474 0.47441932787459418 0 -0.078114234980117478 0.46667546762223028 0 -0.061392682251947772 0.45947134035248532 0 -0.078114234980117478 0.46667546762223028 0 -0.071440379367876033 0.45124967050341641 0 -0.079469434695033786 0.43561212059718962 0 -0.06840123317934492 0.43778029064983343 0 -0.071440379367876033 0.45124967050341641 0 -0.057419745116280743 0.44500261889469739 0 -0.06840123317934492 0.43778029064983343 0 -0.071440379367876033 0.45124967050341641 0 -0.057419745116280743 0.44500261889469739 0 -0.061392682251947772 0.45947134035248532 0 -0.071440379367876033 0.45124967050341641 0 -0.079469434695033786 0.43561212059718962 0 -0.086458873120421692 0.45392431019338192 0 -0.094440045949706911 0.44047263041486617 0 -0.079469434695033786 0.43561212059718962 0 -0.071440379367876033 0.45124967050341641 0 -0.086458873120421692 0.45392431019338192 0 -0.078114234980117478 0.46667546762223028 0 -0.086458873120421692 0.45392431019338192 0 -0.094081244884706372 0.46486469218374821 0 -0.078114234980117478 0.46667546762223028 0 -0.071440379367876033 0.45124967050341641 0 -0.086458873120421692 0.45392431019338192 0 -0.1018108642646868 0.4556106965711415 0 -0.1120919192097822 0.43830100358614182 0 -0.1138637830632442 0.46817611658835989 0 -0.094081244884706372 0.46486469218374821 0 -0.1018108642646868 0.4556106965711415 0 -0.102373447435886 0.47141659366595978 0 -0.1018108642646868 0.4556106965711415 0 -0.1138637830632442 0.46817611658835989 0 -0.102373447435886 0.47141659366595978 0 -0.086458873120421692 0.45392431019338192 0 -0.094081244884706372 0.46486469218374821 0 -0.1018108642646868 0.4556106965711415 0 -0.1018108642646868 0.4556106965711415 0 -0.094440045949706911 0.44047263041486617 0 -0.1120919192097822 0.43830100358614182 0 -0.086458873120421692 0.45392431019338192 0 -0.1018108642646868 0.4556106965711415 0 -0.094440045949706911 0.44047263041486617 0 -0.1298355272073875 0.45315861617002928 0 -0.1120919192097822 0.43830100358614182 0 -0.1298355272073875 0.45315861617002928 0 -0.12864843367962889 0.43296759499821791 0 -0.1120919192097822 0.43830100358614182 0 -0.1298355272073875 0.45315861617002928 0 -0.1120919192097822 0.43830100358614182 0 -0.1138637830632442 0.46817611658835989 0 -0.1120919192097822 0.43830100358614182 0 -0.1138637830632442 0.46817611658835989 0 -0.1138637830632442 0.46817611658835989 0 -0.12299167508180051 0.48219453451606709 0 -0.1156356469167068 0.49805122959057802 0 -0.1138637830632442 0.46817611658835989 0 -0.1156356469167068 0.49805122959057802 0 -0.1045151735718557 0.48341312010882559 0 -0.1138637830632442 0.46817611658835989 0 -0.1156356469167068 0.49805122959057802 0 -0.13172327871406089 0.46892808210398151 0 -0.1138637830632442 0.46817611658835989 0 -0.12299167508180051 0.48219453451606709 0 -0.12660270248102989 0.5 0 -0.1156356469167068 0.49805122959057802 0 -0.096877523392312481 0.5 0 -0.12660270248102989 0.5 0 -0.12299167508180051 0.48219453451606709 0 -0.1156356469167068 0.49805122959057802 0 -0.1156356469167068 0.49805122959057802 0 -0.096877523392312481 0.5 0 -0.1045151735718557 0.48341312010882559 0 -0.092833176434337528 0.4779488495996268 0 -0.096877523392312481 0.5 0 -0.1045151735718557 0.48341312010882559 0 -0.092833176434337528 0.4779488495996268 0 -0.102373447435886 0.47141659366595978 0 -0.1045151735718557 0.48341312010882559 0 -0.092833176434337528 0.4779488495996268 0 -0.094081244884706372 0.46486469218374821 0 -0.102373447435886 0.47141659366595978 0 -0.1138637830632442 0.46817611658835989 0 -0.102373447435886 0.47141659366595978 0 -0.1045151735718557 0.48341312010882559 0 -0.16492767996097141 0.08011158205629651 0 -0.1698633168887817 0.09262955147950741 0 -0.15245958451809011 0.086650477720213309 0 -0.16492767996097141 0.08011158205629651 0 -0.1698633168887817 0.09262955147950741 0 -0.17460821546967001 0.080136668008510895 0 -0.16492767996097141 0.08011158205629651 0 -0.15802359189216761 0.071857592694763536 0 -0.15245958451809011 0.086650477720213309 0 -0.15802359189216761 0.071857592694763536 0 -0.16968369103614761 0.069283620378487371 0 -0.16358759926624861 0.057064707669315068 0 -0.15802359189216761 0.071857592694763536 0 -0.16358759926624861 0.057064707669315068 0 -0.15802359189216761 0.071857592694763536 0 -0.1549040169430681 0.062843076297240869 0 -0.16358759926624861 0.057064707669315068 0 -0.16492767996097141 0.08011158205629651 0 -0.15802359189216761 0.071857592694763536 0 -0.16968369103614761 0.069283620378487371 0 -0.16492767996097141 0.08011158205629651 0 -0.16968369103614761 0.069283620378487371 0 -0.17460821546967001 0.080136668008510895 0 -0.16968369103614761 0.069283620378487371 0 -0.1798149626958809 0.071333517553569425 0 -0.17460821546967001 0.080136668008510895 0 -0.16968369103614761 0.069283620378487371 0 -0.1798149626958809 0.071333517553569425 0 -0.17853110289306159 0.060550065657680063 0 -0.1798149626958809 0.071333517553569425 0 -0.17853110289306159 0.060550065657680063 0 -0.19082257130453231 0.069764154257815264 0 -0.1798149626958809 0.071333517553569425 0 -0.18663810913775419 0.079472086351745255 0 -0.19082257130453231 0.069764154257815264 0 -0.1798149626958809 0.071333517553569425 0 -0.18663810913775419 0.079472086351745255 0 -0.17460821546967001 0.080136668008510895 0 -0.18663810913775419 0.079472086351745255 0 -0.17460821546967001 0.080136668008510895 0 -0.18347321561473559 0.090237230545710839 0 -0.1698633168887817 0.09262955147950741 0 -0.17460821546967001 0.080136668008510895 0 -0.18347321561473559 0.090237230545710839 0 -0.18347321561473559 0.090237230545710839 0 -0.18130954992082399 0.10102756207005729 0 -0.19463867431802939 0.1003516794179401 0 -0.18130954992082399 0.10102756207005729 0 -0.17273804476661669 0.1078756155223506 0 -0.1865734535828702 0.113408741928007 0 -0.1698633168887817 0.09262955147950741 0 -0.18130954992082399 0.10102756207005729 0 -0.17273804476661669 0.1078756155223506 0 -0.1698633168887817 0.09262955147950741 0 -0.18347321561473559 0.090237230545710839 0 -0.18130954992082399 0.10102756207005729 0 -0.1865734535828702 0.113408741928007 0 -0.17359255664471429 0.1213382489026881 0 -0.189826202086047 0.1322305006059277 0 -0.17273804476661669 0.1078756155223506 0 -0.1865734535828702 0.113408741928007 0 -0.17359255664471429 0.1213382489026881 0 -0.17273804476661669 0.1078756155223506 0 -0.17359255664471429 0.1213382489026881 0 -0.15715685767266349 0.1174989727741225 0 -0.17359255664471429 0.1213382489026881 0 -0.15715685767266349 0.1174989727741225 0 -0.15762552394537249 0.13327186817192299 0 -0.1698633168887817 0.09262955147950741 0 -0.16176221867846441 0.1025595079189416 0 -0.15245958451809011 0.086650477720213309 0 -0.1698633168887817 0.09262955147950741 0 -0.17273804476661669 0.1078756155223506 0 -0.16176221867846441 0.1025595079189416 0 -0.17273804476661669 0.1078756155223506 0 -0.15715685767266349 0.1174989727741225 0 -0.16176221867846441 0.1025595079189416 0 -0.16176221867846441 0.1025595079189416 0 -0.14901482165530139 0.1051989838793191 0 -0.15245958451809011 0.086650477720213309 0 -0.14901482165530139 0.1051989838793191 0 -0.13984095416987741 0.09487332990378719 0 -0.15245958451809011 0.086650477720213309 0 -0.15715685767266349 0.1174989727741225 0 -0.16176221867846441 0.1025595079189416 0 -0.14901482165530139 0.1051989838793191 0 -0.14901482165530139 0.1051989838793191 0 -0.13984095416987741 0.09487332990378719 0 -0.1371148419788045 0.1070728635242526 0 -0.15715685767266349 0.1174989727741225 0 -0.14901482165530139 0.1051989838793191 0 -0.14044427592244271 0.1183681654496411 0 -0.15715685767266349 0.1174989727741225 0 -0.14044427592244271 0.1183681654496411 0 -0.1438329639345729 0.13334257750544021 0 -0.14901482165530139 0.1051989838793191 0 -0.14044427592244271 0.1183681654496411 0 -0.1371148419788045 0.1070728635242526 0 -0.14044427592244271 0.1183681654496411 0 -0.1371148419788045 0.1070728635242526 0 -0.1243948490168727 0.11539622895634639 0 -0.14044427592244271 0.1183681654496411 0 -0.13008698395851501 0.1271038200760391 0 -0.1243948490168727 0.11539622895634639 0 -0.13984095416987741 0.09487332990378719 0 -0.1371148419788045 0.1070728635242526 0 -0.12744617509248429 0.099807489466986421 0 -0.1371148419788045 0.1070728635242526 0 -0.12744617509248429 0.099807489466986421 0 -0.1243948490168727 0.11539622895634639 0 -0.13984095416987741 0.09487332990378719 0 -0.12744617509248429 0.099807489466986421 0 -0.1305101894376054 0.087734546591958923 0 -0.12744617509248429 0.099807489466986421 0 -0.1305101894376054 0.087734546591958923 0 -0.11879703826714311 0.091445673577066192 0 -0.1305101894376054 0.087734546591958923 0 -0.12928676081632329 0.076721976002511696 0 -0.1229292451896431 0.083308674660196327 0 -0.1305101894376054 0.087734546591958923 0 -0.14263533248506219 0.080791796288102402 0 -0.12928676081632329 0.076721976002511696 0 -0.13984095416987741 0.09487332990378719 0 -0.1305101894376054 0.087734546591958923 0 -0.14263533248506219 0.080791796288102402 0 -0.13984095416987741 0.09487332990378719 0 -0.14263533248506219 0.080791796288102402 0 -0.15245958451809011 0.086650477720213309 0 -0.15802359189216761 0.071857592694763536 0 -0.14263533248506219 0.080791796288102402 0 -0.15245958451809011 0.086650477720213309 0 -0.15802359189216761 0.071857592694763536 0 -0.15245958451809011 0.086650477720213309 0 -0.15802359189216761 0.071857592694763536 0 -0.1549040169430681 0.062843076297240869 0 -0.14569091407630991 0.066912854815379813 0 -0.15802359189216761 0.071857592694763536 0 -0.14263533248506219 0.080791796288102402 0 -0.14569091407630991 0.066912854815379813 0 -0.14263533248506219 0.080791796288102402 0 -0.14569091407630991 0.066912854815379813 0 -0.12928676081632329 0.076721976002511696 0 -0.14569091407630991 0.066912854815379813 0 -0.13289171863837371 0.062666347230071889 0 -0.12928676081632329 0.076721976002511696 0 -0.13289171863837371 0.062666347230071889 0 -0.12928676081632329 0.076721976002511696 0 -0.11385880570329759 0.075264310084059288 0 -0.13289171863837371 0.062666347230071889 0 -0.13863426731822001 0.050665772681980248 0 -0.1139749244558077 0.05476336510437825 0 -0.13863426731822001 0.050665772681980248 0 -0.13597864250291511 0.037504521009828963 0 -0.12196352676440041 0.038922236892053673 0 -0.13597864250291511 0.037504521009828963 0 -0.1339030821971057 0.025411948112316861 0 -0.12196352676440041 0.038922236892053673 0 -0.13597864250291511 0.037504521009828963 0 -0.144880556020034 0.031424879950165123 0 -0.1339030821971057 0.025411948112316861 0 -0.13863426731822001 0.050665772681980248 0 -0.13597864250291511 0.037504521009828963 0 -0.14544784873153049 0.039737795062949513 0 -0.13863426731822001 0.050665772681980248 0 -0.14544784873153049 0.039737795062949513 0 -0.14876924056867749 0.044495991057374999 0 -0.13597864250291511 0.037504521009828963 0 -0.14544784873153049 0.039737795062949513 0 -0.144880556020034 0.031424879950165123 0 -0.14544784873153049 0.039737795062949513 0 -0.144880556020034 0.031424879950165123 0 -0.14997676974985799 0.034600863732263828 0 -0.144880556020034 0.031424879950165123 0 -0.14997676974985799 0.034600863732263828 0 -0.15145377442376259 0.02934458439283057 0 -0.14997676974985799 0.034600863732263828 0 -0.15470265046016149 0.031634522981823607 0 -0.15145377442376259 0.02934458439283057 0 -0.14544784873153049 0.039737795062949513 0 -0.14997676974985799 0.034600863732263828 0 -0.15251106929513589 0.039298000524014103 0 -0.15553070673830441 0.035557446286335191 0 -0.15251106929513589 0.039298000524014103 0 -0.15710974772108899 0.037995897307429097 0 -0.14997676974985799 0.034600863732263828 0 -0.15553070673830441 0.035557446286335191 0 -0.15251106929513589 0.039298000524014103 0 -0.14997676974985799 0.034600863732263828 0 -0.15553070673830441 0.035557446286335191 0 -0.15470265046016149 0.031634522981823607 0 -0.14876924056867749 0.044495991057374999 0 -0.15532838592505149 0.042710002641846628 0 -0.15192463157344979 0.050068384376084532 0 -0.14876924056867749 0.044495991057374999 0 -0.15532838592505149 0.042710002641846628 0 -0.15251106929513589 0.039298000524014103 0 -0.14544784873153049 0.039737795062949513 0 -0.14876924056867749 0.044495991057374999 0 -0.15251106929513589 0.039298000524014103 0 -0.15532838592505149 0.042710002641846628 0 -0.15251106929513589 0.039298000524014103 0 -0.15710974772108899 0.037995897307429097 0 -0.13289171863837371 0.062666347230071889 0 -0.15192463157344979 0.050068384376084532 0 -0.13289171863837371 0.062666347230071889 0 -0.13863426731822001 0.050665772681980248 0 -0.15192463157344979 0.050068384376084532 0 -0.14569091407630991 0.066912854815379813 0 -0.13289171863837371 0.062666347230071889 0 -0.1528230686602263 0.054554035227588137 0 -0.13289171863837371 0.062666347230071889 0 -0.15192463157344979 0.050068384376084532 0 -0.1528230686602263 0.054554035227588137 0 -0.15192463157344979 0.050068384376084532 0 -0.1528230686602263 0.054554035227588137 0 -0.1593469804060777 0.05091455208812317 0 -0.1549040169430681 0.062843076297240869 0 -0.14569091407630991 0.066912854815379813 0 -0.1528230686602263 0.054554035227588137 0 -0.13863426731822001 0.050665772681980248 0 -0.14876924056867749 0.044495991057374999 0 -0.15192463157344979 0.050068384376084532 0 -0.1369545246070322 -0.003046531511930108 0 -0.1373449432543101 0.014621089294952559 0 -0.14691254456249311 0.0032821267856216162 0 -0.1369545246070322 -0.003046531511930108 0 -0.1373449432543101 0.014621089294952559 0 -0.12462408747253829 0.005126321988230334 0 -0.1373449432543101 0.014621089294952559 0 -0.12462408747253829 0.005126321988230334 0 -0.1246133706905766 0.016707218202252051 0 -0.1373449432543101 0.014621089294952559 0 -0.1339030821971057 0.025411948112316861 0 -0.1440125513485932 0.024008500859199981 0 -0.1373449432543101 0.014621089294952559 0 -0.1339030821971057 0.025411948112316861 0 -0.1246133706905766 0.016707218202252051 0 -0.144880556020034 0.031424879950165123 0 -0.1339030821971057 0.025411948112316861 0 -0.1440125513485932 0.024008500859199981 0 -0.1440125513485932 0.024008500859199981 0 -0.148115484564217 0.026907817333616069 0 -0.1488551972687201 0.02424528297127759 0 -0.144880556020034 0.031424879950165123 0 -0.1440125513485932 0.024008500859199981 0 -0.148115484564217 0.026907817333616069 0 -0.144880556020034 0.031424879950165123 0 -0.148115484564217 0.026907817333616069 0 -0.15145377442376259 0.02934458439283057 0 -0.15470265046016149 0.031634522981823607 0 -0.15145377442376259 0.02934458439283057 0 -0.15532314596080729 0.029147081837748341 0 -0.15145377442376259 0.02934458439283057 0 -0.15532314596080729 0.029147081837748341 0 -0.15405075249115979 0.026708019388622928 0 -0.15532314596080729 0.029147081837748341 0 -0.15405075249115979 0.026708019388622928 0 -0.15752386016443129 0.028227607246525791 0 -0.15470265046016149 0.031634522981823607 0 -0.15532314596080729 0.029147081837748341 0 -0.15835412544824021 0.030381830691791682 0 -0.1554482680750035 0.024176318781099479 0 -0.15405075249115979 0.026708019388622928 0 -0.15752386016443129 0.028227607246525791 0 -0.1554482680750035 0.024176318781099479 0 -0.15405075249115979 0.026708019388622928 0 -0.1535236474781391 0.024631889466827629 0 -0.15405075249115979 0.026708019388622928 0 -0.1535236474781391 0.024631889466827629 0 -0.1513753437599753 0.02551583849460708 0 -0.1554482680750035 0.024176318781099479 0 -0.1535236474781391 0.024631889466827629 0 -0.1522559898757542 0.023148503285380151 0 -0.1535236474781391 0.024631889466827629 0 -0.1513753437599753 0.02551583849460708 0 -0.1522559898757542 0.023148503285380151 0 -0.1513753437599753 0.02551583849460708 0 -0.1522559898757542 0.023148503285380151 0 -0.15056548645803569 0.023344686067356919 0 -0.15145377442376259 0.02934458439283057 0 -0.15405075249115979 0.026708019388622928 0 -0.1513753437599753 0.02551583849460708 0 -0.148115484564217 0.026907817333616069 0 -0.15145377442376259 0.02934458439283057 0 -0.1513753437599753 0.02551583849460708 0 -0.148115484564217 0.026907817333616069 0 -0.1513753437599753 0.02551583849460708 0 -0.1488551972687201 0.02424528297127759 0 -0.1513753437599753 0.02551583849460708 0 -0.1488551972687201 0.02424528297127759 0 -0.15056548645803569 0.023344686067356919 0 -0.1488551972687201 0.02424528297127759 0 -0.15055178826344459 0.020455829125428249 0 -0.15056548645803569 0.023344686067356919 0 -0.15055178826344459 0.020455829125428249 0 -0.1522559898757542 0.023148503285380151 0 -0.15056548645803569 0.023344686067356919 0 -0.1554482680750035 0.024176318781099479 0 -0.15055178826344459 0.020455829125428249 0 -0.1522559898757542 0.023148503285380151 0 -0.1373449432543101 0.014621089294952559 0 -0.1440125513485932 0.024008500859199981 0 -0.15055178826344459 0.020455829125428249 0 -0.1373449432543101 0.014621089294952559 0 -0.15055178826344459 0.020455829125428249 0 -0.1440125513485932 0.024008500859199981 0 -0.1488551972687201 0.02424528297127759 0 -0.15055178826344459 0.020455829125428249 0 -0.1373449432543101 0.014621089294952559 0 -0.15055178826344459 0.020455829125428249 0 -0.14691254456249311 0.0032821267856216162 0 -0.1611968816541014 -0.0072298905557722244 0 -0.15055178826344459 0.020455829125428249 0 -0.14691254456249311 0.0032821267856216162 0 -0.1611968816541014 -0.0072298905557722244 0 -0.15055178826344459 0.020455829125428249 0 -0.15055178826344459 0.020455829125428249 0 -0.16988817359510119 0.0045850682390851209 0 -0.1659785900517512 0.018206243811773579 0 -0.1611968816541014 -0.0072298905557722244 0 -0.15055178826344459 0.020455829125428249 0 -0.16988817359510119 0.0045850682390851209 0 -0.16988817359510119 0.0045850682390851209 0 -0.1659785900517512 0.018206243811773579 0 -0.17950579115376891 0.01474341537515479 0 -0.15055178826344459 0.020455829125428249 0 -0.17353760318892161 0.030610885067166381 0 -0.1554482680750035 0.024176318781099479 0 -0.16417772543880529 0.031005363289792989 0 -0.17353760318892161 0.030610885067166381 0 -0.1554482680750035 0.024176318781099479 0 -0.15055178826344459 0.020455829125428249 0 -0.17353760318892161 0.030610885067166381 0 -0.15055178826344459 0.020455829125428249 0 -0.1659785900517512 0.018206243811773579 0 -0.17353760318892161 0.030610885067166381 0 -0.1554482680750035 0.024176318781099479 0 -0.15752386016443129 0.028227607246525791 0 -0.16417772543880529 0.031005363289792989 0 -0.15752386016443129 0.028227607246525791 0 -0.15835412544824021 0.030381830691791682 0 -0.16417772543880529 0.031005363289792989 0 -0.15532314596080729 0.029147081837748341 0 -0.15752386016443129 0.028227607246525791 0 -0.15835412544824021 0.030381830691791682 0 -0.17353760318892161 0.030610885067166381 0 -0.17950579115376891 0.01474341537515479 0 -0.17353760318892161 0.030610885067166381 0 -0.17950579115376891 0.01474341537515479 0 -0.1877006651110264 0.02638808157079062 0 -0.1659785900517512 0.018206243811773579 0 -0.17353760318892161 0.030610885067166381 0 -0.17950579115376891 0.01474341537515479 0 -0.1782053404814877 0.032673075747853872 0 -0.1877006651110264 0.02638808157079062 0 -0.17353760318892161 0.030610885067166381 0 -0.1782053404814877 0.032673075747853872 0 -0.1877006651110264 0.02638808157079062 0 -0.17950579115376891 0.01474341537515479 0 -0.19376962241888679 0.01165582365144778 0 -0.1877006651110264 0.02638808157079062 0 -0.18547397911861879 -0.001124054316855833 0 -0.17950579115376891 0.01474341537515479 0 -0.18547397911861879 -0.001124054316855833 0 -0.16988817359510119 0.0045850682390851209 0 -0.17950579115376891 0.01474341537515479 0 -0.18547397911861879 -0.001124054316855833 0 -0.17950579115376891 0.01474341537515479 0 -0.19376962241888679 0.01165582365144778 0 -0.16358759926624861 0.057064707669315068 0 -0.17095754450852549 0.037470421522096523 0 -0.16358759926624861 0.057064707669315068 0 -0.1593469804060777 0.05091455208812317 0 -0.17095754450852549 0.037470421522096523 0 -0.16358759926624861 0.057064707669315068 0 -0.17853110289306159 0.060550065657680063 0 -0.16968369103614761 0.069283620378487371 0 -0.16358759926624861 0.057064707669315068 0 -0.17853110289306159 0.060550065657680063 0 -0.1549040169430681 0.062843076297240869 0 -0.1528230686602263 0.054554035227588137 0 -0.16358759926624861 0.057064707669315068 0 -0.1528230686602263 0.054554035227588137 0 -0.16358759926624861 0.057064707669315068 0 -0.1528230686602263 0.054554035227588137 0 -0.16358759926624861 0.057064707669315068 0 -0.1593469804060777 0.05091455208812317 0 -0.15532838592505149 0.042710002641846628 0 -0.15192463157344979 0.050068384376084532 0 -0.16224753188532809 0.038540536815055343 0 -0.15192463157344979 0.050068384376084532 0 -0.1593469804060777 0.05091455208812317 0 -0.17095754450852549 0.037470421522096523 0 -0.15192463157344979 0.050068384376084532 0 -0.16224753188532809 0.038540536815055343 0 -0.17095754450852549 0.037470421522096523 0 -0.15192463157344979 0.050068384376084532 0 -0.17095754450852549 0.037470421522096523 0 -0.15532838592505149 0.042710002641846628 0 -0.15710974772108899 0.037995897307429097 0 -0.16224753188532809 0.038540536815055343 0 -0.15553070673830441 0.035557446286335191 0 -0.15470265046016149 0.031634522981823607 0 -0.1599310447616252 0.033873500269894191 0 -0.15470265046016149 0.031634522981823607 0 -0.15835412544824021 0.030381830691791682 0 -0.1599310447616252 0.033873500269894191 0 -0.15553070673830441 0.035557446286335191 0 -0.1599310447616252 0.033873500269894191 0 -0.15710974772108899 0.037995897307429097 0 -0.1599310447616252 0.033873500269894191 0 -0.15710974772108899 0.037995897307429097 0 -0.16224753188532809 0.038540536815055343 0 -0.16417772543880529 0.031005363289792989 0 -0.1599310447616252 0.033873500269894191 0 -0.16224753188532809 0.038540536815055343 0 -0.15835412544824021 0.030381830691791682 0 -0.16417772543880529 0.031005363289792989 0 -0.1599310447616252 0.033873500269894191 0 -0.16224753188532809 0.038540536815055343 0 -0.1677301012553942 0.034406801673527478 0 -0.17095754450852549 0.037470421522096523 0 -0.16417772543880529 0.031005363289792989 0 -0.17353760318892161 0.030610885067166381 0 -0.1677301012553942 0.034406801673527478 0 -0.16417772543880529 0.031005363289792989 0 -0.16224753188532809 0.038540536815055343 0 -0.1677301012553942 0.034406801673527478 0 -0.17353760318892161 0.030610885067166381 0 -0.1677301012553942 0.034406801673527478 0 -0.17095754450852549 0.037470421522096523 0 -0.17095754450852549 0.037470421522096523 0 -0.1782053404814877 0.032673075747853872 0 -0.18195372622241529 0.047260673885132228 0 -0.17353760318892161 0.030610885067166381 0 -0.17095754450852549 0.037470421522096523 0 -0.17095754450852549 0.037470421522096523 0 -0.1782053404814877 0.032673075747853872 0 -0.17353760318892161 0.030610885067166381 0 -0.17095754450852549 0.037470421522096523 0 -0.1782053404814877 0.032673075747853872 0 -0.17353760318892161 0.030610885067166381 0 -0.1782053404814877 0.032673075747853872 0 -0.16358759926624861 0.057064707669315068 0 -0.17095754450852549 0.037470421522096523 0 -0.18195372622241529 0.047260673885132228 0 -0.16358759926624861 0.057064707669315068 0 -0.18195372622241529 0.047260673885132228 0 -0.17853110289306159 0.060550065657680063 0 -0.18195372622241529 0.047260673885132228 0 -0.17853110289306159 0.060550065657680063 0 -0.193474606519875 0.064035423646043504 0 -0.17853110289306159 0.060550065657680063 0 -0.193474606519875 0.064035423646043504 0 -0.2029354704003459 0.043598764203394091 0 -0.193474606519875 0.064035423646043504 0 -0.2029354704003459 0.043598764203394091 0 -0.20714184138812139 0.056606011358039748 0 -0.193474606519875 0.064035423646043504 0 -0.18195372622241529 0.047260673885132228 0 -0.2029354704003459 0.043598764203394091 0 -0.193474606519875 0.064035423646043504 0 -0.1782053404814877 0.032673075747853872 0 -0.2029354704003459 0.043598764203394091 0 -0.1782053404814877 0.032673075747853872 0 -0.2029354704003459 0.043598764203394091 0 -0.1877006651110264 0.02638808157079062 0 -0.2029354704003459 0.043598764203394091 0 -0.1877006651110264 0.02638808157079062 0 -0.20059508150096361 0.02411671142482031 0 -0.1782053404814877 0.032673075747853872 0 -0.18195372622241529 0.047260673885132228 0 -0.2029354704003459 0.043598764203394091 0 -0.2029354704003459 0.043598764203394091 0 -0.21334088062518641 0.0211217655051016 0 -0.2279489769770113 0.034898624556293653 0 -0.2029354704003459 0.043598764203394091 0 -0.2164478016570178 0.049568466833458592 0 -0.2029354704003459 0.043598764203394091 0 -0.2164478016570178 0.049568466833458592 0 -0.2279489769770113 0.034898624556293653 0 -0.2029354704003459 0.043598764203394091 0 -0.21334088062518641 0.0211217655051016 0 -0.2164478016570178 0.049568466833458592 0 -0.20714184138812139 0.056606011358039748 0 -0.215709486975247 0.069221390749261841 0 -0.2029354704003459 0.043598764203394091 0 -0.2164478016570178 0.049568466833458592 0 -0.20714184138812139 0.056606011358039748 0 -0.19376962241888679 0.01165582365144778 0 -0.20059508150096361 0.02411671142482031 0 -0.20910777891088581 0.0081120294841065844 0 -0.20023443871805741 -0.0023012416293297618 0 -0.19376962241888679 0.01165582365144778 0 -0.20910777891088581 0.0081120294841065844 0 -0.18547397911861879 -0.001124054316855833 0 -0.20023443871805741 -0.0023012416293297618 0 -0.19376962241888679 0.01165582365144778 0 -0.19376962241888679 0.01165582365144778 0 -0.1877006651110264 0.02638808157079062 0 -0.20059508150096361 0.02411671142482031 0 -0.2029354704003459 0.043598764203394091 0 -0.20059508150096361 0.02411671142482031 0 -0.21334088062518641 0.0211217655051016 0 -0.20059508150096361 0.02411671142482031 0 -0.21334088062518641 0.0211217655051016 0 -0.20910777891088581 0.0081120294841065844 0 -0.20023443871805741 -0.0023012416293297618 0 -0.22374629085002579 -0.00135523319319138 0 -0.20910777891088581 0.0081120294841065844 0 -0.22374629085002579 -0.00135523319319138 0 -0.21334088062518641 0.0211217655051016 0 -0.22374629085002579 -0.00135523319319138 0 -0.21334088062518641 0.0211217655051016 0 -0.20910777891088581 0.0081120294841065844 0 -0.22374629085002579 -0.00135523319319138 0 -0.21334088062518641 0.0211217655051016 0 -0.23591676408210341 0.018046453336357189 0 -0.21334088062518641 0.0211217655051016 0 -0.23591676408210341 0.018046453336357189 0 -0.2279489769770113 0.034898624556293653 0 -0.25049540424656908 0.034866189931022119 0 -0.23591676408210341 0.018046453336357189 0 -0.25049540424656908 0.034866189931022119 0 -0.23591676408210341 0.018046453336357189 0 -0.2279489769770113 0.034898624556293653 0 -0.25049540424656908 0.034866189931022119 0 -0.2556199760206222 0.01490474827358006 0 -0.23591676408210341 0.018046453336357189 0 -0.22374629085002579 -0.00135523319319138 0 -0.24515485499866729 -0.0027749487305340739 0 -0.23591676408210341 0.018046453336357189 0 -0.24515485499866729 -0.0027749487305340739 0 -0.2556199760206222 0.01490474827358006 0 -0.23591676408210341 0.018046453336357189 0 -0.23095870154501211 0.053294897662629508 0 -0.23991904699477309 0.062042043678506693 0 -0.215709486975247 0.069221390749261841 0 -0.2164478016570178 0.049568466833458592 0 -0.23095870154501211 0.053294897662629508 0 -0.215709486975247 0.069221390749261841 0 -0.2164478016570178 0.049568466833458592 0 -0.23095870154501211 0.053294897662629508 0 -0.2279489769770113 0.034898624556293653 0 -0.23095870154501211 0.053294897662629508 0 -0.2279489769770113 0.034898624556293653 0 -0.23935486393665389 0.043887531061026018 0 -0.25049540424656908 0.034866189931022119 0 -0.2279489769770113 0.034898624556293653 0 -0.23935486393665389 0.043887531061026018 0 -0.25049540424656908 0.034866189931022119 0 -0.23935486393665389 0.043887531061026018 0 -0.2480163729780232 0.05249041209415882 0 -0.23095870154501211 0.053294897662629508 0 -0.2480163729780232 0.05249041209415882 0 -0.23991904699477309 0.062042043678506693 0 -0.23095870154501211 0.053294897662629508 0 -0.2480163729780232 0.05249041209415882 0 -0.23095870154501211 0.053294897662629508 0 -0.23935486393665389 0.043887531061026018 0 -0.2480163729780232 0.05249041209415882 0 -0.25260936801548778 0.067016459562961345 0 -0.2480163729780232 0.05249041209415882 0 -0.23991904699477309 0.062042043678506693 0 -0.25260936801548778 0.067016459562961345 0 -0.23991904699477309 0.062042043678506693 0 -0.2379443674306192 0.074407357852479122 0 -0.25556161972531632 0.083081474033260674 0 -0.25260936801548778 0.067016459562961345 0 -0.2379443674306192 0.074407357852479122 0 -0.25556161972531632 0.083081474033260674 0 -0.2379443674306192 0.074407357852479122 0 -0.2396933968871289 0.09268355830743602 0 -0.2396933968871289 0.09268355830743602 0 -0.22459688042599321 0.083321356151360798 0 -0.22182924128726139 0.096582015447501904 0 -0.2379443674306192 0.074407357852479122 0 -0.2396933968871289 0.09268355830743602 0 -0.22459688042599321 0.083321356151360798 0 -0.22459688042599321 0.083321356151360798 0 -0.21329129485359849 0.083590402487593446 0 -0.22182924128726139 0.096582015447501904 0 -0.23991904699477309 0.062042043678506693 0 -0.2379443674306192 0.074407357852479122 0 -0.215709486975247 0.069221390749261841 0 -0.2379443674306192 0.074407357852479122 0 -0.22459688042599321 0.083321356151360798 0 -0.215709486975247 0.069221390749261841 0 -0.2379443674306192 0.074407357852479122 0 -0.215709486975247 0.069221390749261841 0 -0.20714184138812139 0.056606011358039748 0 -0.215709486975247 0.069221390749261841 0 -0.193474606519875 0.064035423646043504 0 -0.215709486975247 0.069221390749261841 0 -0.193474606519875 0.064035423646043504 0 -0.215709486975247 0.069221390749261841 0 -0.21329129485359849 0.083590402487593446 0 -0.19958524356214 0.077324922208767174 0 -0.22459688042599321 0.083321356151360798 0 -0.215709486975247 0.069221390749261841 0 -0.21329129485359849 0.083590402487593446 0 -0.21329129485359849 0.083590402487593446 0 -0.20473562201735071 0.091502327881075443 0 -0.22182924128726139 0.096582015447501904 0 -0.21329129485359849 0.083590402487593446 0 -0.20473562201735071 0.091502327881075443 0 -0.19958524356214 0.077324922208767174 0 -0.20473562201735071 0.091502327881075443 0 -0.19378142795335451 0.087805835946504138 0 -0.19958524356214 0.077324922208767174 0 -0.20473562201735071 0.091502327881075443 0 -0.19378142795335451 0.087805835946504138 0 -0.19463867431802939 0.1003516794179401 0 -0.18347321561473559 0.090237230545710839 0 -0.19378142795335451 0.087805835946504138 0 -0.19463867431802939 0.1003516794179401 0 -0.18663810913775419 0.079472086351745255 0 -0.18347321561473559 0.090237230545710839 0 -0.19378142795335451 0.087805835946504138 0 -0.18663810913775419 0.079472086351745255 0 -0.19378142795335451 0.087805835946504138 0 -0.19958524356214 0.077324922208767174 0 -0.215709486975247 0.069221390749261841 0 -0.193474606519875 0.064035423646043504 0 -0.19958524356214 0.077324922208767174 0 -0.18663810913775419 0.079472086351745255 0 -0.19082257130453231 0.069764154257815264 0 -0.19958524356214 0.077324922208767174 0 -0.19082257130453231 0.069764154257815264 0 -0.193474606519875 0.064035423646043504 0 -0.19958524356214 0.077324922208767174 0 -0.17853110289306159 0.060550065657680063 0 -0.19082257130453231 0.069764154257815264 0 -0.193474606519875 0.064035423646043504 0 -0.19082257130453231 0.069764154257815264 0 -0.193474606519875 0.064035423646043504 0 -0.1865734535828702 0.113408741928007 0 -0.2062698927679224 0.1158215825560473 0 -0.189826202086047 0.1322305006059277 0 -0.1865734535828702 0.113408741928007 0 -0.19463867431802939 0.1003516794179401 0 -0.2062698927679224 0.1158215825560473 0 -0.18130954992082399 0.10102756207005729 0 -0.1865734535828702 0.113408741928007 0 -0.19463867431802939 0.1003516794179401 0 -0.20473562201735071 0.091502327881075443 0 -0.19463867431802939 0.1003516794179401 0 -0.20900870869144991 0.1028636820607009 0 -0.19463867431802939 0.1003516794179401 0 -0.20900870869144991 0.1028636820607009 0 -0.2062698927679224 0.1158215825560473 0 -0.20473562201735071 0.091502327881075443 0 -0.20900870869144991 0.1028636820607009 0 -0.22182924128726139 0.096582015447501904 0 -0.20900870869144991 0.1028636820607009 0 -0.22126886280972591 0.1138574638073877 0 -0.22182924128726139 0.096582015447501904 0 -0.20900870869144991 0.1028636820607009 0 -0.2062698927679224 0.1158215825560473 0 -0.22126886280972591 0.1138574638073877 0 -0.2062698927679224 0.1158215825560473 0 -0.22126886280972591 0.1138574638073877 0 -0.21456820605110569 0.13110258640909289 0 -0.22126886280972591 0.1138574638073877 0 -0.23366091781190829 0.12629636795559909 0 -0.21456820605110569 0.13110258640909289 0 -0.22126886280972591 0.1138574638073877 0 -0.23795496280126741 0.1103407490514413 0 -0.23366091781190829 0.12629636795559909 0 -0.22126886280972591 0.1138574638073877 0 -0.22182924128726139 0.096582015447501904 0 -0.23795496280126741 0.1103407490514413 0 -0.2396933968871289 0.09268355830743602 0 -0.22182924128726139 0.096582015447501904 0 -0.23795496280126741 0.1103407490514413 0 -0.25046412363170262 0.108571311162474 0 -0.2396933968871289 0.09268355830743602 0 -0.23795496280126741 0.1103407490514413 0 -0.25175886678154757 0.12283911702107719 0 -0.23795496280126741 0.1103407490514413 0 -0.23366091781190829 0.12629636795559909 0 -0.25175886678154757 0.12283911702107719 0 -0.25046412363170262 0.108571311162474 0 -0.23795496280126741 0.1103407490514413 0 -0.25175886678154757 0.12283911702107719 0 -0.24439990911483661 0.1384759983678979 0 -0.23366091781190829 0.12629636795559909 0 -0.24439990911483661 0.1384759983678979 0 -0.23366091781190829 0.12629636795559909 0 -0.22732017200176419 0.1418598866504599 0 -0.23366091781190829 0.12629636795559909 0 -0.22732017200176419 0.1418598866504599 0 -0.21456820605110569 0.13110258640909289 0 -0.22732017200176419 0.1418598866504599 0 -0.23608306593550951 0.1561932475302627 0 -0.22178540155694301 0.15836850366957031 0 -0.25015826910992289 0.15541888618480851 0 -0.24439990911483661 0.1384759983678979 0 -0.23608306593550951 0.1561932475302627 0 -0.24439990911483661 0.1384759983678979 0 -0.22732017200176419 0.1418598866504599 0 -0.23608306593550951 0.1561932475302627 0 -0.25015826910992289 0.15541888618480851 0 -0.23776500129239109 0.17143750520139159 0 -0.24647750498340151 0.17856307317361059 0 -0.25015826910992289 0.15541888618480851 0 -0.23608306593550951 0.1561932475302627 0 -0.23776500129239109 0.17143750520139159 0 -0.25015826910992289 0.15541888618480851 0 -0.23776500129239109 0.17143750520139159 0 -0.24647750498340151 0.17856307317361059 0 -0.22987627846516781 0.1816338833768037 0 -0.23776500129239109 0.17143750520139159 0 -0.24647750498340151 0.17856307317361059 0 -0.22987627846516781 0.1816338833768037 0 -0.24647750498340151 0.17856307317361059 0 -0.22987627846516781 0.1816338833768037 0 -0.2493898144878188 0.1931365841058523 0 -0.23776500129239109 0.17143750520139159 0 -0.24647750498340151 0.17856307317361059 0 -0.23776500129239109 0.17143750520139159 0 -0.22987627846516781 0.1816338833768037 0 -0.23776500129239109 0.17143750520139159 0 -0.22987627846516781 0.1816338833768037 0 -0.22551610188131341 0.1701106483224688 0 -0.22987627846516781 0.1816338833768037 0 -0.22551610188131341 0.1701106483224688 0 -0.2142886258212898 0.17199476511050349 0 -0.23608306593550951 0.1561932475302627 0 -0.23776500129239109 0.17143750520139159 0 -0.22178540155694301 0.15836850366957031 0 -0.23776500129239109 0.17143750520139159 0 -0.22551610188131341 0.1701106483224688 0 -0.22178540155694301 0.15836850366957031 0 -0.23776500129239109 0.17143750520139159 0 -0.22178540155694301 0.15836850366957031 0 -0.22551610188131341 0.1701106483224688 0 -0.22178540155694301 0.15836850366957031 0 -0.2142886258212898 0.17199476511050349 0 -0.22178540155694301 0.15836850366957031 0 -0.20624282243385411 0.16083470921985099 0 -0.2142886258212898 0.17199476511050349 0 -0.20624282243385411 0.16083470921985099 0 -0.2142886258212898 0.17199476511050349 0 -0.19980986672715351 0.17259322011177761 0 -0.22987627846516781 0.1816338833768037 0 -0.20083558438452659 0.18700568283949681 0 -0.21254060659236801 0.19105778924406211 0 -0.22987627846516781 0.1816338833768037 0 -0.2142886258212898 0.17199476511050349 0 -0.20083558438452659 0.18700568283949681 0 -0.22987627846516781 0.1816338833768037 0 -0.20083558438452659 0.18700568283949681 0 -0.2142886258212898 0.17199476511050349 0 -0.20083558438452659 0.18700568283949681 0 -0.19980986672715351 0.17259322011177761 0 -0.20083558438452659 0.18700568283949681 0 -0.19980986672715351 0.17259322011177761 0 -0.18570980209916579 0.17880021668685511 0 -0.20624282243385411 0.16083470921985099 0 -0.19086942727282491 0.16419497943766589 0 -0.1933552699287675 0.15113682547594909 0 -0.20624282243385411 0.16083470921985099 0 -0.19980986672715351 0.17259322011177761 0 -0.19086942727282491 0.16419497943766589 0 -0.19980986672715351 0.17259322011177761 0 -0.19086942727282491 0.16419497943766589 0 -0.18570980209916579 0.17880021668685511 0 -0.1933552699287675 0.15113682547594909 0 -0.189826202086047 0.1322305006059277 0 -0.20580580182149499 0.145299502137749 0 -0.1933552699287675 0.15113682547594909 0 -0.189826202086047 0.1322305006059277 0 -0.17948608722225751 0.15065293310600381 0 -0.19086942727282491 0.16419497943766589 0 -0.1933552699287675 0.15113682547594909 0 -0.17948608722225751 0.15065293310600381 0 -0.20624282243385411 0.16083470921985099 0 -0.1933552699287675 0.15113682547594909 0 -0.20580580182149499 0.145299502137749 0 -0.189826202086047 0.1322305006059277 0 -0.20580580182149499 0.145299502137749 0 -0.2062698927679224 0.1158215825560473 0 -0.189826202086047 0.1322305006059277 0 -0.21456820605110569 0.13110258640909289 0 -0.189826202086047 0.1322305006059277 0 -0.21456820605110569 0.13110258640909289 0 -0.20580580182149499 0.145299502137749 0 -0.22732017200176419 0.1418598866504599 0 -0.21456820605110569 0.13110258640909289 0 -0.20580580182149499 0.145299502137749 0 -0.22732017200176419 0.1418598866504599 0 -0.22178540155694301 0.15836850366957031 0 -0.20580580182149499 0.145299502137749 0 -0.22178540155694301 0.15836850366957031 0 -0.20624282243385411 0.16083470921985099 0 -0.20580580182149499 0.145299502137749 0 -0.22178540155694301 0.15836850366957031 0 -0.20580580182149499 0.145299502137749 0 -0.2302780686573522 0.25216232498291469 0 -0.2102488235112544 0.25114212950950071 0 -0.2208903600413806 0.23978581847091349 0 -0.2302780686573522 0.25216232498291469 0 -0.2208903600413806 0.23978581847091349 0 -0.23380565231587491 0.23640630330374579 0 -0.2302780686573522 0.25216232498291469 0 -0.23380565231587491 0.23640630330374579 0 -0.24620958009132571 0.24452997611265531 0 -0.23380565231587491 0.23640630330374579 0 -0.24620958009132571 0.24452997611265531 0 -0.24810858494271151 0.23558551872103251 0 -0.24810858494271151 0.23558551872103251 0 -0.23287583393891659 0.21651556177251011 0 -0.23380565231587491 0.23640630330374579 0 -0.24810858494271151 0.23558551872103251 0 -0.23287583393891659 0.21651556177251011 0 -0.24810858494271151 0.23558551872103251 0 -0.2490341611817905 0.22096027876345231 0 -0.23287583393891659 0.21651556177251011 0 -0.23380565231587491 0.23640630330374579 0 -0.22036532861468469 0.22600134147970091 0 -0.23287583393891659 0.21651556177251011 0 -0.2208903600413806 0.23978581847091349 0 -0.23380565231587491 0.23640630330374579 0 -0.22036532861468469 0.22600134147970091 0 -0.2190653947442554 0.21331547778157939 0 -0.23287583393891659 0.21651556177251011 0 -0.217643082935122 0.1974456048239876 0 -0.23287583393891659 0.21651556177251011 0 -0.217643082935122 0.1974456048239876 0 -0.23287583393891659 0.21651556177251011 0 -0.23517590109516651 0.19942276960095609 0 -0.217643082935122 0.1974456048239876 0 -0.22036532861468469 0.22600134147970091 0 -0.2190653947442554 0.21331547778157939 0 -0.23287583393891659 0.21651556177251011 0 -0.23287583393891659 0.21651556177251011 0 -0.24821946419808 0.20639881122062559 0 -0.23517590109516651 0.19942276960095609 0 -0.2490341611817905 0.22096027876345231 0 -0.23287583393891659 0.21651556177251011 0 -0.24821946419808 0.20639881122062559 0 -0.22987627846516781 0.1816338833768037 0 -0.23517590109516651 0.19942276960095609 0 -0.2493898144878188 0.1931365841058523 0 -0.24821946419808 0.20639881122062559 0 -0.23517590109516651 0.19942276960095609 0 -0.2493898144878188 0.1931365841058523 0 -0.22987627846516781 0.1816338833768037 0 -0.217643082935122 0.1974456048239876 0 -0.22987627846516781 0.1816338833768037 0 -0.21254060659236801 0.19105778924406211 0 -0.217643082935122 0.1974456048239876 0 -0.22987627846516781 0.1816338833768037 0 -0.23517590109516651 0.19942276960095609 0 -0.217643082935122 0.1974456048239876 0 -0.217643082935122 0.1974456048239876 0 -0.20609896992137069 0.19730942844878399 0 -0.2053773334882984 0.21329940305011899 0 -0.21254060659236801 0.19105778924406211 0 -0.217643082935122 0.1974456048239876 0 -0.20609896992137069 0.19730942844878399 0 -0.21254060659236801 0.19105778924406211 0 -0.217643082935122 0.1974456048239876 0 -0.20083558438452659 0.18700568283949681 0 -0.21254060659236801 0.19105778924406211 0 -0.20609896992137069 0.19730942844878399 0 -0.20083558438452659 0.18700568283949681 0 -0.20609896992137069 0.19730942844878399 0 -0.19409824220653851 0.19773866228625461 0 -0.20609896992137069 0.19730942844878399 0 -0.19409824220653851 0.19773866228625461 0 -0.2053773334882984 0.21329940305011899 0 -0.20083558438452659 0.18700568283949681 0 -0.19409824220653851 0.19773866228625461 0 -0.17179489030388539 0.19237748230219001 0 -0.19409824220653851 0.19773866228625461 0 -0.2053773334882984 0.21329940305011899 0 -0.1868562661199514 0.21841289641277481 0 -0.19409824220653851 0.19773866228625461 0 -0.1868562661199514 0.21841289641277481 0 -0.18161630024083111 0.1999272125352865 0 -0.217643082935122 0.1974456048239876 0 -0.2053773334882984 0.21329940305011899 0 -0.2190653947442554 0.21331547778157939 0 -0.217643082935122 0.1974456048239876 0 -0.2053773334882984 0.21329940305011899 0 -0.22036532861468469 0.22600134147970091 0 -0.2190653947442554 0.21331547778157939 0 -0.2053773334882984 0.21329940305011899 0 -0.22036532861468469 0.22600134147970091 0 -0.2053773334882984 0.21329940305011899 0 -0.2067002024312328 0.2307260711083951 0 -0.2208903600413806 0.23978581847091349 0 -0.22036532861468469 0.22600134147970091 0 -0.2067002024312328 0.2307260711083951 0 -0.2067002024312328 0.2307260711083951 0 -0.1956053581888402 0.2442754871541202 0 -0.1868562661199514 0.21841289641277481 0 -0.2053773334882984 0.21329940305011899 0 -0.2067002024312328 0.2307260711083951 0 -0.1868562661199514 0.21841289641277481 0 -0.2102488235112544 0.25114212950950071 0 -0.2208903600413806 0.23978581847091349 0 -0.2067002024312328 0.2307260711083951 0 -0.2102488235112544 0.25114212950950071 0 -0.2067002024312328 0.2307260711083951 0 -0.1956053581888402 0.2442754871541202 0 -0.18093545971449801 0.25782937809115902 0 -0.17913046411340891 0.23785277864332111 0 -0.15515622089855061 0.24748850867644601 0 -0.17913046411340891 0.23785277864332111 0 -0.16838626056969089 0.2237078606058662 0 -0.15515622089855061 0.24748850867644601 0 -0.16838626056969089 0.2237078606058662 0 -0.15515622089855061 0.24748850867644601 0 -0.18093545971449801 0.25782937809115902 0 -0.1956053581888402 0.2442754871541202 0 -0.17913046411340891 0.23785277864332111 0 -0.1956053581888402 0.2442754871541202 0 -0.17913046411340891 0.23785277864332111 0 -0.1868562661199514 0.21841289641277481 0 -0.17913046411340891 0.23785277864332111 0 -0.16838626056969089 0.2237078606058662 0 -0.1868562661199514 0.21841289641277481 0 -0.16838626056969089 0.2237078606058662 0 -0.14734186276959341 0.22000183711078519 0 -0.15515622089855061 0.24748850867644601 0 -0.16838626056969089 0.2237078606058662 0 -0.15929723223171491 0.20599831956280959 0 -0.17027367083653061 0.20550271875153811 0 -0.16838626056969089 0.2237078606058662 0 -0.15929723223171491 0.20599831956280959 0 -0.14734186276959341 0.22000183711078519 0 -0.16838626056969089 0.2237078606058662 0 -0.17027367083653061 0.20550271875153811 0 -0.18161630024083111 0.1999272125352865 0 -0.16838626056969089 0.2237078606058662 0 -0.18161630024083111 0.1999272125352865 0 -0.16838626056969089 0.2237078606058662 0 -0.1868562661199514 0.21841289641277481 0 -0.18161630024083111 0.1999272125352865 0 -0.20083558438452659 0.18700568283949681 0 -0.17179489030388539 0.19237748230219001 0 -0.19409824220653851 0.19773866228625461 0 -0.18161630024083111 0.1999272125352865 0 -0.17179489030388539 0.19237748230219001 0 -0.17027367083653061 0.20550271875153811 0 -0.18161630024083111 0.1999272125352865 0 -0.17179489030388539 0.19237748230219001 0 -0.15929723223171491 0.20599831956280959 0 -0.17179489030388539 0.19237748230219001 0 -0.1427541962232442 0.19774928176488341 0 -0.17179489030388539 0.19237748230219001 0 -0.1427541962232442 0.19774928176488341 0 -0.15510312994786321 0.1844136844757753 0 -0.17179489030388539 0.19237748230219001 0 -0.1427541962232442 0.19774928176488341 0 -0.15929723223171491 0.20599831956280959 0 -0.17027367083653061 0.20550271875153811 0 -0.17179489030388539 0.19237748230219001 0 -0.1427541962232442 0.19774928176488341 0 -0.15510312994786321 0.1844136844757753 0 -0.14103664400226981 0.18182187856073989 0 -0.1427541962232442 0.19774928176488341 0 -0.15510312994786321 0.1844136844757753 0 -0.1427541962232442 0.19774928176488341 0 -0.13049968025146769 0.18805681240534211 0 -0.1223155702429381 0.20152991454708599 0 -0.1427541962232442 0.19774928176488341 0 -0.13049968025146769 0.18805681240534211 0 -0.14103664400226981 0.18182187856073989 0 -0.1427541962232442 0.19774928176488341 0 -0.1223155702429381 0.20152991454708599 0 -0.1427541962232442 0.19774928176488341 0 -0.14734186276959341 0.22000183711078519 0 -0.1246837719864511 0.21726350913374581 0 -0.1427541962232442 0.19774928176488341 0 -0.1246837719864511 0.21726350913374581 0 -0.1223155702429381 0.20152991454708599 0 -0.1427541962232442 0.19774928176488341 0 -0.1246837719864511 0.21726350913374581 0 -0.15929723223171491 0.20599831956280959 0 -0.1427541962232442 0.19774928176488341 0 -0.14734186276959341 0.22000183711078519 0 -0.14734186276959341 0.22000183711078519 0 -0.1344108305990179 0.22898602449579231 0 -0.15515622089855061 0.24748850867644601 0 -0.14734186276959341 0.22000183711078519 0 -0.1344108305990179 0.22898602449579231 0 -0.1246837719864511 0.21726350913374581 0 -0.1344108305990179 0.22898602449579231 0 -0.1226297943828856 0.23353947253263571 0 -0.1246837719864511 0.21726350913374581 0 -0.1344108305990179 0.22898602449579231 0 -0.13129777129848899 0.24343749324056141 0 -0.15515622089855061 0.24748850867644601 0 -0.1344108305990179 0.22898602449579231 0 -0.13129777129848899 0.24343749324056141 0 -0.1226297943828856 0.23353947253263571 0 -0.13862848509303791 0.25523695188050011 0 -0.13129777129848899 0.24343749324056141 0 -0.15515622089855061 0.24748850867644601 0 -0.1618109832309407 0.1454276168711294 0 -0.17234246464134129 0.1365298274335624 0 -0.17948608722225751 0.15065293310600381 0 -0.1618109832309407 0.1454276168711294 0 -0.17948608722225751 0.15065293310600381 0 -0.16415147769504801 0.15847453573315251 0 -0.1618109832309407 0.1454276168711294 0 -0.16415147769504801 0.15847453573315251 0 -0.14866759294536699 0.14931611641024781 0 -0.1618109832309407 0.1454276168711294 0 -0.15762552394537249 0.13327186817192299 0 -0.17234246464134129 0.1365298274335624 0 -0.17359255664471429 0.1213382489026881 0 -0.15762552394537249 0.13327186817192299 0 -0.17234246464134129 0.1365298274335624 0 -0.189826202086047 0.1322305006059277 0 -0.17234246464134129 0.1365298274335624 0 -0.17948608722225751 0.15065293310600381 0 -0.17359255664471429 0.1213382489026881 0 -0.189826202086047 0.1322305006059277 0 -0.17234246464134129 0.1365298274335624 0 -0.19086942727282491 0.16419497943766589 0 -0.17948608722225751 0.15065293310600381 0 -0.17675777758527059 0.16729022162553181 0 -0.17948608722225751 0.15065293310600381 0 -0.17675777758527059 0.16729022162553181 0 -0.16415147769504801 0.15847453573315251 0 -0.19086942727282491 0.16419497943766589 0 -0.17675777758527059 0.16729022162553181 0 -0.18570980209916579 0.17880021668685511 0 -0.20083558438452659 0.18700568283949681 0 -0.17179489030388539 0.19237748230219001 0 -0.18570980209916579 0.17880021668685511 0 -0.17675777758527059 0.16729022162553181 0 -0.1728778075498453 0.18054057760284661 0 -0.16745206367248189 0.17107808718666689 0 -0.17675777758527059 0.16729022162553181 0 -0.18570980209916579 0.17880021668685511 0 -0.1728778075498453 0.18054057760284661 0 -0.17179489030388539 0.19237748230219001 0 -0.18570980209916579 0.17880021668685511 0 -0.1728778075498453 0.18054057760284661 0 -0.1728778075498453 0.18054057760284661 0 -0.16745206367248189 0.17107808718666689 0 -0.15510312994786321 0.1844136844757753 0 -0.17179489030388539 0.19237748230219001 0 -0.1728778075498453 0.18054057760284661 0 -0.15510312994786321 0.1844136844757753 0 -0.16745206367248189 0.17107808718666689 0 -0.1478177102724077 0.1648302392480446 0 -0.15510312994786321 0.1844136844757753 0 -0.16745206367248189 0.17107808718666689 0 -0.15510312994786321 0.1844136844757753 0 -0.16415147769504801 0.15847453573315251 0 -0.16745206367248189 0.17107808718666689 0 -0.1478177102724077 0.1648302392480446 0 -0.17675777758527059 0.16729022162553181 0 -0.16415147769504801 0.15847453573315251 0 -0.16745206367248189 0.17107808718666689 0 -0.1478177102724077 0.1648302392480446 0 -0.1328448764933555 0.15849882380722261 0 -0.14866759294536699 0.14931611641024781 0 -0.16415147769504801 0.15847453573315251 0 -0.1478177102724077 0.1648302392480446 0 -0.14866759294536699 0.14931611641024781 0 -0.1478177102724077 0.1648302392480446 0 -0.15510312994786321 0.1844136844757753 0 -0.14103664400226981 0.18182187856073989 0 -0.1478177102724077 0.1648302392480446 0 -0.14103664400226981 0.18182187856073989 0 -0.12900850331636601 0.17405937490965401 0 -0.13049968025146769 0.18805681240534211 0 -0.14103664400226981 0.18182187856073989 0 -0.12900850331636601 0.17405937490965401 0 -0.12900850331636601 0.17405937490965401 0 -0.1328448764933555 0.15849882380722261 0 -0.1166452246663595 0.1644744694529213 0 -0.1478177102724077 0.1648302392480446 0 -0.12900850331636601 0.17405937490965401 0 -0.1328448764933555 0.15849882380722261 0 -0.1328448764933555 0.15849882380722261 0 -0.13438483648731181 0.1472032619754515 0 -0.14866759294536699 0.14931611641024781 0 -0.1328448764933555 0.15849882380722261 0 -0.13438483648731181 0.1472032619754515 0 -0.1216722026476144 0.1504895522241787 0 -0.13438483648731181 0.1472032619754515 0 -0.1261825937037154 0.13843973563205281 0 -0.1216722026476144 0.1504895522241787 0 -0.1618109832309407 0.1454276168711294 0 -0.15762552394537249 0.13327186817192299 0 -0.14866759294536699 0.14931611641024781 0 -0.13438483648731181 0.1472032619754515 0 -0.14866759294536699 0.14931611641024781 0 -0.1438329639345729 0.13334257750544021 0 -0.15762552394537249 0.13327186817192299 0 -0.14866759294536699 0.14931611641024781 0 -0.1438329639345729 0.13334257750544021 0 -0.15715685767266349 0.1174989727741225 0 -0.15762552394537249 0.13327186817192299 0 -0.1438329639345729 0.13334257750544021 0 -0.14044427592244271 0.1183681654496411 0 -0.1438329639345729 0.13334257750544021 0 -0.13008698395851501 0.1271038200760391 0 -0.13438483648731181 0.1472032619754515 0 -0.1438329639345729 0.13334257750544021 0 -0.1261825937037154 0.13843973563205281 0 -0.1438329639345729 0.13334257750544021 0 -0.1261825937037154 0.13843973563205281 0 -0.13008698395851501 0.1271038200760391 0 -0.1261825937037154 0.13843973563205281 0 -0.13008698395851501 0.1271038200760391 0 -0.1136632866008583 0.1304423610735175 0 -0.1261825937037154 0.13843973563205281 0 -0.1136632866008583 0.1304423610735175 0 -0.1136565331401418 0.14225277248911741 0 -0.1136632866008583 0.1304423610735175 0 -0.1032446388200856 0.1415431570283906 0 -0.1136565331401418 0.14225277248911741 0 -0.1136632866008583 0.1304423610735175 0 -0.094220719873532241 0.13052041757278229 0 -0.1032446388200856 0.1415431570283906 0 -0.1136632866008583 0.1304423610735175 0 -0.094220719873532241 0.13052041757278229 0 -0.1054096998128458 0.1184997735589237 0 -0.094220719873532241 0.13052041757278229 0 -0.093912495379214186 0.15224691123085421 0 -0.1032446388200856 0.1415431570283906 0 -0.094220719873532241 0.13052041757278229 0 -0.093912495379214186 0.15224691123085421 0 -0.1032446388200856 0.1415431570283906 0 -0.1084249743316994 0.15411847774244811 0 -0.1136565331401418 0.14225277248911741 0 -0.093912495379214186 0.15224691123085421 0 -0.1032446388200856 0.1415431570283906 0 -0.1084249743316994 0.15411847774244811 0 -0.1084249743316994 0.15411847774244811 0 -0.1136565331401418 0.14225277248911741 0 -0.1216722026476144 0.1504895522241787 0 -0.1261825937037154 0.13843973563205281 0 -0.1136565331401418 0.14225277248911741 0 -0.1216722026476144 0.1504895522241787 0 -0.1328448764933555 0.15849882380722261 0 -0.1216722026476144 0.1504895522241787 0 -0.1166452246663595 0.1644744694529213 0 -0.1084249743316994 0.15411847774244811 0 -0.1216722026476144 0.1504895522241787 0 -0.1166452246663595 0.1644744694529213 0 -0.12900850331636601 0.17405937490965401 0 -0.1166452246663595 0.1644744694529213 0 -0.11524859674842081 0.1852575101065872 0 -0.1166452246663595 0.1644744694529213 0 -0.11524859674842081 0.1852575101065872 0 -0.1016199958835026 0.1738999355806542 0 -0.13049968025146769 0.18805681240534211 0 -0.12900850331636601 0.17405937490965401 0 -0.11524859674842081 0.1852575101065872 0 -0.11524859674842081 0.1852575101065872 0 -0.1016199958835026 0.1738999355806542 0 -0.1008276768237225 0.18870633902208619 0 -0.1016199958835026 0.1738999355806542 0 -0.1008276768237225 0.18870633902208619 0 -0.086000626111746359 0.1888325117110238 0 -0.1084249743316994 0.15411847774244811 0 -0.1166452246663595 0.1644744694529213 0 -0.1016199958835026 0.1738999355806542 0 -0.093912495379214186 0.15224691123085421 0 -0.1084249743316994 0.15411847774244811 0 -0.1016199958835026 0.1738999355806542 0 -0.093912495379214186 0.15224691123085421 0 -0.083845396799635249 0.16733131340561869 0 -0.080993612172316959 0.15649561756718491 0 -0.1016199958835026 0.1738999355806542 0 -0.083845396799635249 0.16733131340561869 0 -0.093912495379214186 0.15224691123085421 0 -0.1016199958835026 0.1738999355806542 0 -0.083845396799635249 0.16733131340561869 0 -0.1016199958835026 0.1738999355806542 0 -0.083845396799635249 0.16733131340561869 0 -0.086000626111746359 0.1888325117110238 0 -0.083845396799635249 0.16733131340561869 0 -0.072078220854231836 0.18182477067889111 0 -0.086000626111746359 0.1888325117110238 0 -0.083845396799635249 0.16733131340561869 0 -0.072078220854231836 0.18182477067889111 0 -0.067811628789257797 0.17168105201752351 0 -0.072078220854231836 0.18182477067889111 0 -0.067811628789257797 0.17168105201752351 0 -0.0588727480672641 0.18280241854936841 0 -0.083845396799635249 0.16733131340561869 0 -0.066070797715767807 0.16076269123058351 0 -0.083845396799635249 0.16733131340561869 0 -0.067811628789257797 0.17168105201752351 0 -0.066070797715767807 0.16076269123058351 0 -0.083845396799635249 0.16733131340561869 0 -0.080993612172316959 0.15649561756718491 0 -0.066070797715767807 0.16076269123058351 0 -0.067811628789257797 0.17168105201752351 0 -0.066070797715767807 0.16076269123058351 0 -0.056796672591933953 0.1707261514618342 0 -0.066070797715767807 0.16076269123058351 0 -0.080145758794650607 0.1456415544016835 0 -0.066070797715767807 0.16076269123058351 0 -0.066270627260018491 0.14652412173606399 0 -0.080145758794650607 0.1456415544016835 0 -0.080993612172316959 0.15649561756718491 0 -0.066070797715767807 0.16076269123058351 0 -0.080145758794650607 0.1456415544016835 0 -0.066270627260018491 0.14652412173606399 0 -0.080431807542886397 0.12540183722250711 0 -0.066270627260018491 0.14652412173606399 0 -0.080431807542886397 0.12540183722250711 0 -0.061854295022614657 0.1304734960223915 0 -0.066270627260018491 0.14652412173606399 0 -0.080431807542886397 0.12540183722250711 0 -0.080145758794650607 0.1456415544016835 0 -0.094220719873532241 0.13052041757278229 0 -0.080431807542886397 0.12540183722250711 0 -0.080145758794650607 0.1456415544016835 0 -0.094220719873532241 0.13052041757278229 0 -0.080145758794650607 0.1456415544016835 0 -0.094220719873532241 0.13052041757278229 0 -0.093912495379214186 0.15224691123085421 0 -0.080145758794650607 0.1456415544016835 0 -0.093912495379214186 0.15224691123085421 0 -0.080993612172316959 0.15649561756718491 0 -0.080145758794650607 0.1456415544016835 0 -0.088542923512864496 0.25629196387147002 0 -0.10661334774965781 0.23677773650260789 0 -0.090145715746355173 0.23618204079199559 0 -0.088542923512864496 0.25629196387147002 0 -0.10661334774965781 0.23677773650260789 0 -0.1074661909958979 0.2493716914698744 0 -0.088542923512864496 0.25629196387147002 0 -0.10661334774965781 0.23677773650260789 0 -0.10661334774965781 0.23677773650260789 0 -0.1074661909958979 0.2493716914698744 0 -0.1181707915015023 0.24384717495104991 0 -0.12284685308058151 0.25610948100957021 0 -0.1074661909958979 0.2493716914698744 0 -0.1181707915015023 0.24384717495104991 0 -0.10661334774965781 0.23677773650260789 0 -0.1181707915015023 0.24384717495104991 0 -0.1226297943828856 0.23353947253263571 0 -0.12284685308058151 0.25610948100957021 0 -0.13129777129848899 0.24343749324056141 0 -0.1181707915015023 0.24384717495104991 0 -0.13129777129848899 0.24343749324056141 0 -0.1181707915015023 0.24384717495104991 0 -0.1226297943828856 0.23353947253263571 0 -0.10661334774965781 0.23677773650260789 0 -0.1246837719864511 0.21726350913374581 0 -0.10661334774965781 0.23677773650260789 0 -0.1226297943828856 0.23353947253263571 0 -0.1246837719864511 0.21726350913374581 0 -0.10661334774965781 0.23677773650260789 0 -0.1246837719864511 0.21726350913374581 0 -0.11022974614747839 0.21649523342818641 0 -0.10661334774965781 0.23677773650260789 0 -0.095659096495712539 0.22159445962820359 0 -0.11022974614747839 0.21649523342818641 0 -0.10661334774965781 0.23677773650260789 0 -0.095659096495712539 0.22159445962820359 0 -0.090145715746355173 0.23618204079199559 0 -0.095659096495712539 0.22159445962820359 0 -0.10187694426263209 0.20531054732928869 0 -0.11022974614747839 0.21649523342818641 0 -0.10187694426263209 0.20531054732928869 0 -0.1223155702429381 0.20152991454708599 0 -0.10187694426263209 0.20531054732928869 0 -0.11022974614747839 0.21649523342818641 0 -0.1223155702429381 0.20152991454708599 0 -0.1246837719864511 0.21726350913374581 0 -0.11022974614747839 0.21649523342818641 0 -0.1223155702429381 0.20152991454708599 0 -0.11524859674842081 0.1852575101065872 0 -0.10187694426263209 0.20531054732928869 0 -0.1223155702429381 0.20152991454708599 0 -0.13049968025146769 0.18805681240534211 0 -0.11524859674842081 0.1852575101065872 0 -0.1223155702429381 0.20152991454708599 0 -0.11524859674842081 0.1852575101065872 0 -0.10187694426263209 0.20531054732928869 0 -0.1008276768237225 0.18870633902208619 0 -0.10187694426263209 0.20531054732928869 0 -0.1008276768237225 0.18870633902208619 0 -0.086000626111746359 0.1888325117110238 0 -0.086000626111746359 0.1888325117110238 0 -0.066127989224701852 0.19788233850092579 0 -0.082720498670804249 0.2093568796306744 0 -0.10187694426263209 0.20531054732928869 0 -0.086000626111746359 0.1888325117110238 0 -0.082720498670804249 0.2093568796306744 0 -0.072078220854231836 0.18182477067889111 0 -0.086000626111746359 0.1888325117110238 0 -0.066127989224701852 0.19788233850092579 0 -0.072078220854231836 0.18182477067889111 0 -0.066127989224701852 0.19788233850092579 0 -0.0588727480672641 0.18280241854936841 0 -0.066493302110239155 0.21664501696291691 0 -0.082720498670804249 0.2093568796306744 0 -0.080165033819793424 0.22587640365168771 0 -0.066127989224701852 0.19788233850092579 0 -0.066493302110239155 0.21664501696291691 0 -0.082720498670804249 0.2093568796306744 0 -0.095659096495712539 0.22159445962820359 0 -0.10187694426263209 0.20531054732928869 0 -0.082720498670804249 0.2093568796306744 0 -0.095659096495712539 0.22159445962820359 0 -0.082720498670804249 0.2093568796306744 0 -0.080165033819793424 0.22587640365168771 0 -0.095659096495712539 0.22159445962820359 0 -0.080165033819793424 0.22587640365168771 0 -0.090145715746355173 0.23618204079199559 0 -0.066493302110239155 0.21664501696291691 0 -0.080165033819793424 0.22587640365168771 0 -0.065519889357246841 0.2324510585935172 0 -0.080165033819793424 0.22587640365168771 0 -0.065519889357246841 0.2324510585935172 0 -0.077007347841610785 0.24298791573861461 0 -0.065519889357246841 0.2324510585935172 0 -0.064385311297236944 0.24683906280725471 0 -0.077007347841610785 0.24298791573861461 0 -0.071267019643513466 0.25651201127637591 0 -0.064385311297236944 0.24683906280725471 0 -0.077007347841610785 0.24298791573861461 0 -0.088542923512864496 0.25629196387147002 0 -0.077007347841610785 0.24298791573861461 0 -0.090145715746355173 0.23618204079199559 0 -0.080165033819793424 0.22587640365168771 0 -0.077007347841610785 0.24298791573861461 0 -0.090145715746355173 0.23618204079199559 0 -0.038786919138796061 0.25267394763554318 0 -0.050791600231549397 0.24159365453644521 0 -0.03689015193899238 0.23368826209990851 0 -0.038786919138796061 0.25267394763554318 0 -0.03689015193899238 0.23368826209990851 0 -0.02213363532787254 0.24685338798251069 0 -0.055927016289783957 0.26063492272420802 0 -0.064385311297236944 0.24683906280725471 0 -0.050791600231549397 0.24159365453644521 0 -0.065519889357246841 0.2324510585935172 0 -0.064385311297236944 0.24683906280725471 0 -0.050791600231549397 0.24159365453644521 0 -0.066493302110239155 0.21664501696291691 0 -0.065519889357246841 0.2324510585935172 0 -0.052174734424812137 0.22568336698450239 0 -0.065519889357246841 0.2324510585935172 0 -0.050791600231549397 0.24159365453644521 0 -0.052174734424812137 0.22568336698450239 0 -0.052174734424812137 0.22568336698450239 0 -0.03689015193899238 0.23368826209990851 0 -0.042890647372542418 0.21859159668966049 0 -0.050791600231549397 0.24159365453644521 0 -0.052174734424812137 0.22568336698450239 0 -0.03689015193899238 0.23368826209990851 0 -0.03689015193899238 0.23368826209990851 0 -0.031848992138733948 0.21908203479259419 0 -0.042890647372542418 0.21859159668966049 0 -0.031848992138733948 0.21908203479259419 0 -0.037550039750485827 0.20480405126201701 0 -0.042890647372542418 0.21859159668966049 0 -0.037550039750485827 0.20480405126201701 0 -0.051683735812011508 0.21010591226473599 0 -0.050959345295250112 0.19474120187398369 0 -0.037550039750485827 0.20480405126201701 0 -0.042890647372542418 0.21859159668966049 0 -0.051683735812011508 0.21010591226473599 0 -0.052174734424812137 0.22568336698450239 0 -0.042890647372542418 0.21859159668966049 0 -0.051683735812011508 0.21010591226473599 0 -0.066127989224701852 0.19788233850092579 0 -0.066493302110239155 0.21664501696291691 0 -0.051683735812011508 0.21010591226473599 0 -0.066493302110239155 0.21664501696291691 0 -0.052174734424812137 0.22568336698450239 0 -0.051683735812011508 0.21010591226473599 0 -0.066127989224701852 0.19788233850092579 0 -0.051683735812011508 0.21010591226473599 0 -0.050959345295250112 0.19474120187398369 0 -0.066127989224701852 0.19788233850092579 0 -0.050959345295250112 0.19474120187398369 0 -0.0588727480672641 0.18280241854936841 0 -0.050959345295250112 0.19474120187398369 0 -0.037406349286838503 0.19012059202970411 0 -0.044904114979680013 0.17853287065906381 0 -0.037550039750485827 0.20480405126201701 0 -0.050959345295250112 0.19474120187398369 0 -0.037406349286838503 0.19012059202970411 0 -0.037550039750485827 0.20480405126201701 0 -0.037406349286838503 0.19012059202970411 0 -0.028277659844112731 0.1967141635743905 0 -0.037406349286838503 0.19012059202970411 0 -0.028277659844112731 0.1967141635743905 0 -0.02430708876491007 0.18676150186287199 0 -0.037550039750485827 0.20480405126201701 0 -0.028277659844112731 0.1967141635743905 0 -0.0222733633838232 0.20704710550140989 0 -0.017548753043379439 0.1955001727182849 0 -0.0095814580658839105 0.20165945338865071 0 -0.0222733633838232 0.20704710550140989 0 -0.028277659844112731 0.1967141635743905 0 -0.017548753043379439 0.1955001727182849 0 -0.0222733633838232 0.20704710550140989 0 -0.028277659844112731 0.1967141635743905 0 -0.017548753043379439 0.1955001727182849 0 -0.02430708876491007 0.18676150186287199 0 -0.017548753043379439 0.1955001727182849 0 -0.02430708876491007 0.18676150186287199 0 -0.01109794911003336 0.1861363164618709 0 -0.017548753043379439 0.1955001727182849 0 -0.0032046887616313979 0.19525019806185651 0 -0.01109794911003336 0.1861363164618709 0 -0.0032046887616313979 0.19525019806185651 0 -0.01109794911003336 0.1861363164618709 0 -1.549712382417822e-05 0.1850502688264212 0 -0.017548753043379439 0.1955001727182849 0 -0.0032046887616313979 0.19525019806185651 0 -0.0095814580658839105 0.20165945338865071 0 -0.0014897688849807721 0.20636300527512011 0 -0.0059636812616133354 0.21665972498143929 0 0.002539623406746266 0.22230046777589621 0 -0.0095814580658839105 0.20165945338865071 0 -0.008855175963814901 0.20972199186218629 0 -0.0222733633838232 0.20704710550140989 0 -0.008855175963814901 0.20972199186218629 0 -0.0014897688849807721 0.20636300527512011 0 -0.0059636812616133354 0.21665972498143929 0 -0.0095814580658839105 0.20165945338865071 0 -0.008855175963814901 0.20972199186218629 0 -0.0014897688849807721 0.20636300527512011 0 -0.008855175963814901 0.20972199186218629 0 -0.0059636812616133354 0.21665972498143929 0 -0.01384687787829365 0.21742776841167069 0 -0.008855175963814901 0.20972199186218629 0 -0.01384687787829365 0.21742776841167069 0 -0.0222733633838232 0.20704710550140989 0 -0.01384687787829365 0.21742776841167069 0 -0.022563517071001689 0.21722105355391999 0 -0.0222733633838232 0.20704710550140989 0 -0.031848992138733948 0.21908203479259419 0 -0.037550039750485827 0.20480405126201701 0 -0.0222733633838232 0.20704710550140989 0 -0.031848992138733948 0.21908203479259419 0 -0.022563517071001689 0.21722105355391999 0 -0.0222733633838232 0.20704710550140989 0 -0.03689015193899238 0.23368826209990851 0 -0.031848992138733948 0.21908203479259419 0 -0.020676454989137231 0.23005856258628199 0 -0.031848992138733948 0.21908203479259419 0 -0.022563517071001689 0.21722105355391999 0 -0.020676454989137231 0.23005856258628199 0 -0.01384687787829365 0.21742776841167069 0 -0.022563517071001689 0.21722105355391999 0 -0.020676454989137231 0.23005856258628199 0 -0.01384687787829365 0.21742776841167069 0 -0.020676454989137231 0.23005856258628199 0 -0.0081662069877236204 0.22748539158232309 0 -0.0081662069877236204 0.22748539158232309 0 -0.0040594279863269559 0.2411688980649096 0 0.002539623406746266 0.22230046777589621 0 -0.0059636812616133354 0.21665972498143929 0 -0.01384687787829365 0.21742776841167069 0 -0.0081662069877236204 0.22748539158232309 0 -0.020676454989137231 0.23005856258628199 0 -0.0081662069877236204 0.22748539158232309 0 -0.0040594279863269559 0.2411688980649096 0 -0.0059636812616133354 0.21665972498143929 0 -0.0081662069877236204 0.22748539158232309 0 0.002539623406746266 0.22230046777589621 0 -0.0046720592673639514 0.26114863339281791 0 -0.0040594279863269559 0.2411688980649096 0 -0.02213363532787254 0.24685338798251069 0 -0.020676454989137231 0.23005856258628199 0 -0.0040594279863269559 0.2411688980649096 0 -0.02213363532787254 0.24685338798251069 0 -0.03689015193899238 0.23368826209990851 0 -0.020676454989137231 0.23005856258628199 0 -0.02213363532787254 0.24685338798251069 0 -0.04379980720279382 0.15253242277539761 0 -0.021528816689819839 0.14430215432021201 0 -0.04379980720279382 0.15253242277539761 0 -0.038222507691088307 0.14340222061200281 0 -0.021528816689819839 0.14430215432021201 0 -0.04379980720279382 0.15253242277539761 0 -0.038222507691088307 0.14340222061200281 0 -0.049842539743166027 0.13999688901789439 0 -0.031591127737824111 0.1389976702053087 0 -0.039822364139631992 0.13543555655364381 0 -0.025847513484463371 0.1316535805463013 0 -0.039822364139631992 0.13543555655364381 0 -0.025847513484463371 0.1316535805463013 0 -0.038222507691088307 0.14340222061200281 0 -0.031591127737824111 0.1389976702053087 0 -0.039822364139631992 0.13543555655364381 0 -0.031581325339744573 0.13103971137870721 0 -0.039822364139631992 0.13543555655364381 0 -0.037792217095585362 0.12456885794623 0 -0.031581325339744573 0.13103971137870721 0 -0.02549147988912507 0.122914525152205 0 -0.037792217095585362 0.12456885794623 0 -0.031581325339744573 0.13103971137870721 0 -0.039822364139631992 0.13543555655364381 0 -0.025847513484463371 0.1316535805463013 0 -0.039822364139631992 0.13543555655364381 0 -0.04818577297830532 0.12727967830895809 0 -0.037792217095585362 0.12456885794623 0 -0.039822364139631992 0.13543555655364381 0 -0.049842539743166027 0.13999688901789439 0 -0.04818577297830532 0.12727967830895809 0 -0.038222507691088307 0.14340222061200281 0 -0.039822364139631992 0.13543555655364381 0 -0.049842539743166027 0.13999688901789439 0 -0.066270627260018491 0.14652412173606399 0 -0.049842539743166027 0.13999688901789439 0 -0.061854295022614657 0.1304734960223915 0 -0.049842539743166027 0.13999688901789439 0 -0.04818577297830532 0.12727967830895809 0 -0.061854295022614657 0.1304734960223915 0 -0.066270627260018491 0.14652412173606399 0 -0.04379980720279382 0.15253242277539761 0 -0.049842539743166027 0.13999688901789439 0 -0.066070797715767807 0.16076269123058351 0 -0.066270627260018491 0.14652412173606399 0 -0.04379980720279382 0.15253242277539761 0 -0.066070797715767807 0.16076269123058351 0 -0.056796672591933953 0.1707261514618342 0 -0.046388928390656267 0.1654158827898588 0 -0.066070797715767807 0.16076269123058351 0 -0.04379980720279382 0.15253242277539761 0 -0.046388928390656267 0.1654158827898588 0 -0.066070797715767807 0.16076269123058351 0 -0.04379980720279382 0.15253242277539761 0 -0.066070797715767807 0.16076269123058351 0 -0.056796672591933953 0.1707261514618342 0 -0.056796672591933953 0.1707261514618342 0 -0.044904114979680013 0.17853287065906381 0 -0.046388928390656267 0.1654158827898588 0 -0.050959345295250112 0.19474120187398369 0 -0.0588727480672641 0.18280241854936841 0 -0.044904114979680013 0.17853287065906381 0 -0.067811628789257797 0.17168105201752351 0 -0.056796672591933953 0.1707261514618342 0 -0.0588727480672641 0.18280241854936841 0 -0.056796672591933953 0.1707261514618342 0 -0.0588727480672641 0.18280241854936841 0 -0.044904114979680013 0.17853287065906381 0 -0.044904114979680013 0.17853287065906381 0 -0.027690121848176201 0.1640693179133291 0 -0.030128432907827501 0.1795588238067751 0 -0.037406349286838503 0.19012059202970411 0 -0.044904114979680013 0.17853287065906381 0 -0.030128432907827501 0.1795588238067751 0 -0.04379980720279382 0.15253242277539761 0 -0.046388928390656267 0.1654158827898588 0 -0.027690121848176201 0.1640693179133291 0 -0.044904114979680013 0.17853287065906381 0 -0.046388928390656267 0.1654158827898588 0 -0.027690121848176201 0.1640693179133291 0 -0.044904114979680013 0.17853287065906381 0 -0.027690121848176201 0.1640693179133291 0 -0.027690121848176201 0.1640693179133291 0 -0.010476128716672349 0.14960576516759441 0 -0.027690121848176201 0.1640693179133291 0 -0.01190122346681005 0.1691301368277815 0 -0.0076907157758624401 0.15926194948200181 0 -0.027690121848176201 0.1640693179133291 0 -0.018507559694382721 0.1769853003412229 0 -0.01190122346681005 0.1691301368277815 0 -0.02430708876491007 0.18676150186287199 0 -0.030128432907827501 0.1795588238067751 0 -0.018507559694382721 0.1769853003412229 0 -0.037406349286838503 0.19012059202970411 0 -0.02430708876491007 0.18676150186287199 0 -0.030128432907827501 0.1795588238067751 0 -0.027690121848176201 0.1640693179133291 0 -0.030128432907827501 0.1795588238067751 0 -0.018507559694382721 0.1769853003412229 0 -0.02430708876491007 0.18676150186287199 0 -0.018507559694382721 0.1769853003412229 0 -0.01109794911003336 0.1861363164618709 0 -0.018507559694382721 0.1769853003412229 0 -0.01109794911003336 0.1861363164618709 0 -0.0068260624271957292 0.17679033342942471 0 -0.018507559694382721 0.1769853003412229 0 -0.0068260624271957292 0.17679033342942471 0 -0.01190122346681005 0.1691301368277815 0 -0.0068260624271957292 0.17679033342942471 0 -1.549712382417822e-05 0.1850502688264212 0 0.0024361028138156918 0.17568610311929039 0 -0.0068260624271957292 0.17679033342942471 0 -0.0019107495713367171 0.16800220398616211 0 0.0024361028138156918 0.17568610311929039 0 -0.01109794911003336 0.1861363164618709 0 -0.0068260624271957292 0.17679033342942471 0 -1.549712382417822e-05 0.1850502688264212 0 -0.027690121848176201 0.1640693179133291 0 -0.0076907157758624401 0.15926194948200181 0 -0.010476128716672349 0.14960576516759441 0 -0.01190122346681005 0.1691301368277815 0 -0.0019107495713367171 0.16800220398616211 0 -0.0076907157758624401 0.15926194948200181 0 -0.0068260624271957292 0.17679033342942471 0 -0.01190122346681005 0.1691301368277815 0 -0.0019107495713367171 0.16800220398616211 0 -0.0019107495713367171 0.16800220398616211 0 -0.0076907157758624401 0.15926194948200181 0 0.0023588809945384042 0.15933957368562249 0 -0.010476128716672349 0.14960576516759441 0 0.0080397248868823122 0.13404836235109341 0 0.001315765586000473 0.14616453795866441 0 -0.010476128716672349 0.14960576516759441 0 -0.021528816689819839 0.14430215432021201 0 -0.0095548245348158062 0.13339789648408129 0 -0.010476128716672349 0.14960576516759441 0 0.0080397248868823122 0.13404836235109341 0 -0.0076907157758624401 0.15926194948200181 0 0.001315765586000473 0.14616453795866441 0 0.0023588809945384042 0.15933957368562249 0 -0.0076907157758624401 0.15926194948200181 0 -0.010476128716672349 0.14960576516759441 0 0.001315765586000473 0.14616453795866441 0 -0.04379980720279382 0.15253242277539761 0 -0.027690121848176201 0.1640693179133291 0 -0.021528816689819839 0.14430215432021201 0 -0.038222507691088307 0.14340222061200281 0 -0.031591127737824111 0.1389976702053087 0 -0.021528816689819839 0.14430215432021201 0 -0.027690121848176201 0.1640693179133291 0 -0.010476128716672349 0.14960576516759441 0 -0.021528816689819839 0.14430215432021201 0 -0.025847513484463371 0.1316535805463013 0 -0.0095548245348158062 0.13339789648408129 0 -0.021528816689819839 0.14430215432021201 0 -0.025847513484463371 0.1316535805463013 0 -0.0095548245348158062 0.13339789648408129 0 -0.031581325339744573 0.13103971137870721 0 -0.025847513484463371 0.1316535805463013 0 -0.02549147988912507 0.122914525152205 0 -0.031581325339744573 0.13103971137870721 0 -0.025847513484463371 0.1316535805463013 0 -0.031591127737824111 0.1389976702053087 0 -0.021528816689819839 0.14430215432021201 0 -0.025847513484463371 0.1316535805463013 0 -0.025847513484463371 0.1316535805463013 0 -0.01099071454384299 0.1276329252616189 0 -0.02549147988912507 0.122914525152205 0 -0.025847513484463371 0.1316535805463013 0 -0.01099071454384299 0.1276329252616189 0 -0.0095548245348158062 0.13339789648408129 0 0.0080397248868823122 0.13404836235109341 0 -0.010476128716672349 0.14960576516759441 0 -0.0095548245348158062 0.13339789648408129 0 0.0080397248868823122 0.13404836235109341 0 -0.025847513484463371 0.1316535805463013 0 -0.01099071454384299 0.1276329252616189 0 -0.0095548245348158062 0.13339789648408129 0 -0.01099071454384299 0.1276329252616189 0 -0.0095548245348158062 0.13339789648408129 0 0.003866084396777528 0.1236122699769371 0 -0.01099071454384299 0.1276329252616189 0 0.003866084396777528 0.1236122699769371 0 -0.0072274341240241204 0.095873181209754688 0 0.003866084396777528 0.1236122699769371 0 -0.0072274341240241204 0.095873181209754688 0 -0.015716041699353409 0.1127117416702455 0 0.003866084396777528 0.1236122699769371 0 -0.01099071454384299 0.1276329252616189 0 -0.015716041699353409 0.1127117416702455 0 0.003866084396777528 0.1236122699769371 0 -0.024907126681300001 0.096049232495585696 0 -0.030517782130440249 0.11210543581615739 0 -0.015716041699353409 0.1127117416702455 0 -0.0072274341240241204 0.095873181209754688 0 -0.024907126681300001 0.096049232495585696 0 -0.015716041699353409 0.1127117416702455 0 -0.024907126681300001 0.096049232495585696 0 -0.030517782130440249 0.11210543581615739 0 -0.037625604901733077 0.1016078342126733 0 -0.030517782130440249 0.11210543581615739 0 -0.02549147988912507 0.122914525152205 0 -0.015716041699353409 0.1127117416702455 0 -0.01099071454384299 0.1276329252616189 0 -0.02549147988912507 0.122914525152205 0 -0.015716041699353409 0.1127117416702455 0 -0.0072274341240241204 0.095873181209754688 0 -0.0183209526448244 0.068134092442571681 0 0.0041194606216748602 0.071911933759743474 0 -0.0072274341240241204 0.095873181209754688 0 -0.0183209526448244 0.068134092442571681 0 -0.0072274341240241204 0.095873181209754688 0 -0.024907126681300001 0.096049232495585696 0 -0.0183209526448244 0.068134092442571681 0 -0.024907126681300001 0.096049232495585696 0 -0.0183209526448244 0.068134092442571681 0 -0.040034944587424737 0.085863109622111675 0 -0.0183209526448244 0.068134092442571681 0 -0.042179558109446208 0.067409843109777948 0 -0.035763968706087813 0.053943832878864513 0 -0.042179558109446208 0.067409843109777948 0 -0.040034944587424737 0.085863109622111675 0 -0.050245992448026487 0.077402529518884808 0 -0.0183209526448244 0.068134092442571681 0 -0.042179558109446208 0.067409843109777948 0 -0.040034944587424737 0.085863109622111675 0 -0.040034944587424737 0.085863109622111675 0 -0.059174087103910207 0.086841635567394951 0 -0.050245992448026487 0.077402529518884808 0 -0.040034944587424737 0.085863109622111675 0 -0.059174087103910207 0.086841635567394951 0 -0.050418882718620127 0.10069713346688849 0 -0.042179558109446208 0.067409843109777948 0 -0.05959501242450374 0.067935439261748998 0 -0.050245992448026487 0.077402529518884808 0 -0.059174087103910207 0.086841635567394951 0 -0.05959501242450374 0.067935439261748998 0 -0.050245992448026487 0.077402529518884808 0 -0.04818577297830532 0.12727967830895809 0 -0.043221491166714782 0.11524137955340839 0 -0.037792217095585362 0.12456885794623 0 -0.030517782130440249 0.11210543581615739 0 -0.02549147988912507 0.122914525152205 0 -0.037792217095585362 0.12456885794623 0 -0.030517782130440249 0.11210543581615739 0 -0.043221491166714782 0.11524137955340839 0 -0.037792217095585362 0.12456885794623 0 -0.030517782130440249 0.11210543581615739 0 -0.043221491166714782 0.11524137955340839 0 -0.037625604901733077 0.1016078342126733 0 -0.024907126681300001 0.096049232495585696 0 -0.040034944587424737 0.085863109622111675 0 -0.037625604901733077 0.1016078342126733 0 -0.040034944587424737 0.085863109622111675 0 -0.037625604901733077 0.1016078342126733 0 -0.050418882718620127 0.10069713346688849 0 -0.043221491166714782 0.11524137955340839 0 -0.037625604901733077 0.1016078342126733 0 -0.050418882718620127 0.10069713346688849 0 -0.050418882718620127 0.10069713346688849 0 -0.056023393935118987 0.1167279117984967 0 -0.064343437231655393 0.1080387348310799 0 -0.059174087103910207 0.086841635567394951 0 -0.050418882718620127 0.10069713346688849 0 -0.064343437231655393 0.1080387348310799 0 -0.043221491166714782 0.11524137955340839 0 -0.050418882718620127 0.10069713346688849 0 -0.056023393935118987 0.1167279117984967 0 -0.04818577297830532 0.12727967830895809 0 -0.043221491166714782 0.11524137955340839 0 -0.056023393935118987 0.1167279117984967 0 -0.04818577297830532 0.12727967830895809 0 -0.061854295022614657 0.1304734960223915 0 -0.056023393935118987 0.1167279117984967 0 -0.061854295022614657 0.1304734960223915 0 -0.056023393935118987 0.1167279117984967 0 -0.068116484492803664 0.11863704860825409 0 -0.080431807542886397 0.12540183722250711 0 -0.061854295022614657 0.1304734960223915 0 -0.068116484492803664 0.11863704860825409 0 -0.056023393935118987 0.1167279117984967 0 -0.068116484492803664 0.11863704860825409 0 -0.064343437231655393 0.1080387348310799 0 -0.068116484492803664 0.11863704860825409 0 -0.077371151964742813 0.1113092842051112 0 -0.064343437231655393 0.1080387348310799 0 -0.080431807542886397 0.12540183722250711 0 -0.068116484492803664 0.11863704860825409 0 -0.077371151964742813 0.1113092842051112 0 -0.080431807542886397 0.12540183722250711 0 -0.077371151964742813 0.1113092842051112 0 -0.094592987825754316 0.10427955270894999 0 -0.080431807542886397 0.12540183722250711 0 -0.094592987825754316 0.10427955270894999 0 -0.094220719873532241 0.13052041757278229 0 -0.080431807542886397 0.12540183722250711 0 -0.094592987825754316 0.10427955270894999 0 -0.079584664999938368 0.09795050388456332 0 -0.094825892768221259 0.087862272938046632 0 -0.094592987825754316 0.10427955270894999 0 -0.077371151964742813 0.1113092842051112 0 -0.079584664999938368 0.09795050388456332 0 -0.094592987825754316 0.10427955270894999 0 -0.059174087103910207 0.086841635567394951 0 -0.064343437231655393 0.1080387348310799 0 -0.072106175323577812 0.089492622707536537 0 -0.079584664999938368 0.09795050388456332 0 -0.064343437231655393 0.1080387348310799 0 -0.072106175323577812 0.089492622707536537 0 -0.077371151964742813 0.1113092842051112 0 -0.079584664999938368 0.09795050388456332 0 -0.064343437231655393 0.1080387348310799 0 -0.079584664999938368 0.09795050388456332 0 -0.064343437231655393 0.1080387348310799 0 -0.059174087103910207 0.086841635567394951 0 -0.077552896126726154 0.078323636996175075 0 -0.072106175323577812 0.089492622707536537 0 -0.077552896126726154 0.078323636996175075 0 -0.072106175323577812 0.089492622707536537 0 -0.080997667089009365 0.088198055630523686 0 -0.079584664999938368 0.09795050388456332 0 -0.072106175323577812 0.089492622707536537 0 -0.080997667089009365 0.088198055630523686 0 -0.059174087103910207 0.086841635567394951 0 -0.05959501242450374 0.067935439261748998 0 -0.077552896126726154 0.078323636996175075 0 -0.05959501242450374 0.067935439261748998 0 -0.077552896126726154 0.078323636996175075 0 -0.074028472978351939 0.064680430828368746 0 -0.077552896126726154 0.078323636996175075 0 -0.094825892768221259 0.087862272938046632 0 -0.095179307342148869 0.062950367360474602 0 -0.077552896126726154 0.078323636996175075 0 -0.074028472978351939 0.064680430828368746 0 -0.095179307342148869 0.062950367360474602 0 -0.077552896126726154 0.078323636996175075 0 -0.080997667089009365 0.088198055630523686 0 -0.094825892768221259 0.087862272938046632 0 -0.079584664999938368 0.09795050388456332 0 -0.080997667089009365 0.088198055630523686 0 -0.094825892768221259 0.087862272938046632 0 -0.079584664999938368 0.09795050388456332 0 -0.094825892768221259 0.087862272938046632 0 -0.094825892768221259 0.087862272938046632 0 -0.11385880570329759 0.075264310084059288 0 -0.094825892768221259 0.087862272938046632 0 -0.11385880570329759 0.075264310084059288 0 -0.111970481598931 0.078359935821249213 0 -0.094825892768221259 0.087862272938046632 0 -0.1032817347123427 0.091319744265099645 0 -0.111970481598931 0.078359935821249213 0 -0.094825892768221259 0.087862272938046632 0 -0.10200573136231959 0.074755468063918806 0 -0.11385880570329759 0.075264310084059288 0 -0.1032817347123427 0.091319744265099645 0 -0.1119781824638256 0.087767384019752107 0 -0.111970481598931 0.078359935821249213 0 -0.1032817347123427 0.091319744265099645 0 -0.111970481598931 0.078359935821249213 0 -0.1032817347123427 0.091319744265099645 0 -0.1119781824638256 0.087767384019752107 0 -0.1103304095879243 0.094358541970075843 0 -0.094825892768221259 0.087862272938046632 0 -0.095179307342148869 0.062950367360474602 0 -0.10200573136231959 0.074755468063918806 0 -0.094825892768221259 0.087862272938046632 0 -0.095179307342148869 0.062950367360474602 0 -0.10200573136231959 0.074755468063918806 0 -0.1084694501235314 0.066870958260685856 0 -0.11385880570329759 0.075264310084059288 0 -0.095179307342148869 0.062950367360474602 0 -0.10200573136231959 0.074755468063918806 0 -0.1084694501235314 0.066870958260685856 0 -0.13289171863837371 0.062666347230071889 0 -0.11385880570329759 0.075264310084059288 0 -0.13289171863837371 0.062666347230071889 0 -0.11385880570329759 0.075264310084059288 0 -0.1172987247302526 0.064891245169798814 0 -0.1084694501235314 0.066870958260685856 0 -0.11385880570329759 0.075264310084059288 0 -0.1172987247302526 0.064891245169798814 0 -0.11385880570329759 0.075264310084059288 0 -0.111970481598931 0.078359935821249213 0 -0.11894113430069859 0.079514552577327632 0 -0.12928676081632329 0.076721976002511696 0 -0.11385880570329759 0.075264310084059288 0 -0.11894113430069859 0.079514552577327632 0 -0.1119781824638256 0.087767384019752107 0 -0.11879703826714311 0.091445673577066192 0 -0.1103304095879243 0.094358541970075843 0 -0.1119781824638256 0.087767384019752107 0 -0.1166603781952982 0.083917866318621623 0 -0.11879703826714311 0.091445673577066192 0 -0.1119781824638256 0.087767384019752107 0 -0.111970481598931 0.078359935821249213 0 -0.1166603781952982 0.083917866318621623 0 -0.111970481598931 0.078359935821249213 0 -0.1166603781952982 0.083917866318621623 0 -0.11894113430069859 0.079514552577327632 0 -0.12928676081632329 0.076721976002511696 0 -0.11894113430069859 0.079514552577327632 0 -0.1229292451896431 0.083308674660196327 0 -0.1166603781952982 0.083917866318621623 0 -0.11894113430069859 0.079514552577327632 0 -0.1229292451896431 0.083308674660196327 0 -0.1166603781952982 0.083917866318621623 0 -0.1229292451896431 0.083308674660196327 0 -0.11879703826714311 0.091445673577066192 0 -0.1305101894376054 0.087734546591958923 0 -0.1229292451896431 0.083308674660196327 0 -0.11879703826714311 0.091445673577066192 0 -0.12744617509248429 0.099807489466986421 0 -0.11879703826714311 0.091445673577066192 0 -0.1165986797521586 0.1064791295450644 0 -0.11879703826714311 0.091445673577066192 0 -0.1103304095879243 0.094358541970075843 0 -0.1165986797521586 0.1064791295450644 0 -0.1103304095879243 0.094358541970075843 0 -0.1165986797521586 0.1064791295450644 0 -0.10604270233820511 0.1029873484096227 0 -0.12744617509248429 0.099807489466986421 0 -0.1165986797521586 0.1064791295450644 0 -0.1243948490168727 0.11539622895634639 0 -0.13008698395851501 0.1271038200760391 0 -0.1136632866008583 0.1304423610735175 0 -0.1243948490168727 0.11539622895634639 0 -0.1136632866008583 0.1304423610735175 0 -0.1243948490168727 0.11539622895634639 0 -0.1054096998128458 0.1184997735589237 0 -0.1165986797521586 0.1064791295450644 0 -0.1243948490168727 0.11539622895634639 0 -0.1054096998128458 0.1184997735589237 0 -0.1165986797521586 0.1064791295450644 0 -0.1054096998128458 0.1184997735589237 0 -0.094220719873532241 0.13052041757278229 0 -0.094592987825754316 0.10427955270894999 0 -0.094220719873532241 0.13052041757278229 0 -0.1054096998128458 0.1184997735589237 0 -0.094592987825754316 0.10427955270894999 0 -0.094220719873532241 0.13052041757278229 0 -0.1054096998128458 0.1184997735589237 0 -0.094825892768221259 0.087862272938046632 0 -0.1032817347123427 0.091319744265099645 0 -0.094592987825754316 0.10427955270894999 0 -0.094825892768221259 0.087862272938046632 0 -0.094592987825754316 0.10427955270894999 0 -0.1032817347123427 0.091319744265099645 0 -0.094592987825754316 0.10427955270894999 0 -0.10604270233820511 0.1029873484096227 0 -0.1032817347123427 0.091319744265099645 0 -0.094592987825754316 0.10427955270894999 0 -0.1032817347123427 0.091319744265099645 0 -0.1103304095879243 0.094358541970075843 0 -0.10604270233820511 0.1029873484096227 0 -0.1165986797521586 0.1064791295450644 0 -0.1054096998128458 0.1184997735589237 0 -0.10604270233820511 0.1029873484096227 0 -0.1054096998128458 0.1184997735589237 0 -0.094592987825754316 0.10427955270894999 0 -0.10604270233820511 0.1029873484096227 0 -0.1013738780463346 0.020198438070479031 0 -0.101490286963938 0.036464910404147691 0 -0.089800228749743471 0.027042280908047629 0 -0.1013738780463346 0.020198438070479031 0 -0.1152706752959851 0.025935217010900759 0 -0.101490286963938 0.036464910404147691 0 -0.1013738780463346 0.020198438070479031 0 -0.1011580797549093 0.005539704174230514 0 -0.08923672187272659 0.016006182195729159 0 -0.1013738780463346 0.020198438070479031 0 -0.1011580797549093 0.005539704174230514 0 -0.1134080182520688 0.01470137988921854 0 -0.1011580797549093 0.005539704174230514 0 -0.12462408747253829 0.005126321988230334 0 -0.1094259637898662 -0.0082475278394535945 0 -0.1011580797549093 0.005539704174230514 0 -0.12462408747253829 0.005126321988230334 0 -0.1011580797549093 0.005539704174230514 0 -0.1134080182520688 0.01470137988921854 0 -0.12462408747253829 0.005126321988230334 0 -0.1134080182520688 0.01470137988921854 0 -0.12462408747253829 0.005126321988230334 0 -0.1246133706905766 0.016707218202252051 0 -0.1339030821971057 0.025411948112316861 0 -0.1246133706905766 0.016707218202252051 0 -0.1152706752959851 0.025935217010900759 0 -0.1339030821971057 0.025411948112316861 0 -0.1152706752959851 0.025935217010900759 0 -0.12196352676440041 0.038922236892053673 0 -0.1134080182520688 0.01470137988921854 0 -0.1246133706905766 0.016707218202252051 0 -0.1152706752959851 0.025935217010900759 0 -0.1013738780463346 0.020198438070479031 0 -0.1134080182520688 0.01470137988921854 0 -0.1152706752959851 0.025935217010900759 0 -0.12196352676440041 0.038922236892053673 0 -0.1139749244558077 0.05476336510437825 0 -0.101490286963938 0.036464910404147691 0 -0.1152706752959851 0.025935217010900759 0 -0.12196352676440041 0.038922236892053673 0 -0.101490286963938 0.036464910404147691 0 -0.13863426731822001 0.050665772681980248 0 -0.12196352676440041 0.038922236892053673 0 -0.1139749244558077 0.05476336510437825 0 -0.13289171863837371 0.062666347230071889 0 -0.1172987247302526 0.064891245169798814 0 -0.1139749244558077 0.05476336510437825 0 -0.1084694501235314 0.066870958260685856 0 -0.1172987247302526 0.064891245169798814 0 -0.1139749244558077 0.05476336510437825 0 -0.095179307342148869 0.062950367360474602 0 -0.1139749244558077 0.05476336510437825 0 -0.094186077903424148 0.049149120214563302 0 -0.095179307342148869 0.062950367360474602 0 -0.1084694501235314 0.066870958260685856 0 -0.1139749244558077 0.05476336510437825 0 -0.1139749244558077 0.05476336510437825 0 -0.094186077903424148 0.049149120214563302 0 -0.101490286963938 0.036464910404147691 0 -0.101490286963938 0.036464910404147691 0 -0.080977529877089838 0.038579382946450191 0 -0.089800228749743471 0.027042280908047629 0 -0.094186077903424148 0.049149120214563302 0 -0.101490286963938 0.036464910404147691 0 -0.080977529877089838 0.038579382946450191 0 -0.095179307342148869 0.062950367360474602 0 -0.094186077903424148 0.049149120214563302 0 -0.079308340878136208 0.052987575257365797 0 -0.074028472978351939 0.064680430828368746 0 -0.095179307342148869 0.062950367360474602 0 -0.079308340878136208 0.052987575257365797 0 -0.094186077903424148 0.049149120214563302 0 -0.080977529877089838 0.038579382946450191 0 -0.079308340878136208 0.052987575257365797 0 -0.080977529877089838 0.038579382946450191 0 -0.079308340878136208 0.052987575257365797 0 -0.065249180352923264 0.049384060465443837 0 -0.05959501242450374 0.067935439261748998 0 -0.074028472978351939 0.064680430828368746 0 -0.065249180352923264 0.049384060465443837 0 -0.074028472978351939 0.064680430828368746 0 -0.079308340878136208 0.052987575257365797 0 -0.065249180352923264 0.049384060465443837 0 -0.080977529877089838 0.038579382946450191 0 -0.065249180352923264 0.049384060465443837 0 -0.066446363975823333 0.0338215571061894 0 -0.080977529877089838 0.038579382946450191 0 -0.066446363975823333 0.0338215571061894 0 -0.07642467977213141 0.02223039349692512 0 -0.066446363975823333 0.0338215571061894 0 -0.064541601995291922 0.022111897568499371 0 -0.07642467977213141 0.02223039349692512 0 -0.064541601995291922 0.022111897568499371 0 -0.07642467977213141 0.02223039349692512 0 -0.066640116236430819 0.013780684394652401 0 -0.064541601995291922 0.022111897568499371 0 -0.066640116236430819 0.013780684394652401 0 -0.058321721673206983 0.0162274053603703 0 -0.080977529877089838 0.038579382946450191 0 -0.07642467977213141 0.02223039349692512 0 -0.089800228749743471 0.027042280908047629 0 -0.07642467977213141 0.02223039349692512 0 -0.08923672187272659 0.016006182195729159 0 -0.089800228749743471 0.027042280908047629 0 -0.1013738780463346 0.020198438070479031 0 -0.08923672187272659 0.016006182195729159 0 -0.089800228749743471 0.027042280908047629 0 -0.07642467977213141 0.02223039349692512 0 -0.08923672187272659 0.016006182195729159 0 -0.077692072037280277 0.0059530863602306932 0 -0.1011580797549093 0.005539704174230514 0 -0.08923672187272659 0.016006182195729159 0 -0.077692072037280277 0.0059530863602306932 0 -0.1011580797549093 0.005539704174230514 0 -0.077692072037280277 0.0059530863602306932 0 -0.08978310787018523 -0.0099356820237927052 0 -0.1011580797549093 0.005539704174230514 0 -0.077692072037280277 0.0059530863602306932 0 -0.07642467977213141 0.02223039349692512 0 -0.077692072037280277 0.0059530863602306932 0 -0.066640116236430819 0.013780684394652401 0 -0.077692072037280277 0.0059530863602306932 0 -0.066640116236430819 0.013780684394652401 0 -0.054226064319651213 0.0063664685462303068 0 -0.07200458609491811 -0.0017846067387814839 0 -0.077692072037280277 0.0059530863602306932 0 -0.054226064319651213 0.0063664685462303068 0 -0.077692072037280277 0.0059530863602306932 0 -0.054226064319651213 0.0063664685462303068 0 -0.07200458609491811 -0.0017846067387814839 0 -0.054226064319651213 0.0063664685462303068 0 -0.04956272398512257 -0.01075335510507288 0 -0.054226064319651213 0.0063664685462303068 0 -0.043921422721777167 0.0065479973056573968 0 -0.07200458609491811 -0.0017846067387814839 0 -0.060041826674512883 -0.0044127564848112861 0 -0.054226064319651213 0.0063664685462303068 0 -0.054226064319651213 0.0063664685462303068 0 -0.043921422721777167 0.0065479973056573968 0 -0.054226064319651213 0.0063664685462303068 0 -0.042179788028278847 0.011889430814758619 0 -0.054226064319651213 0.0063664685462303068 0 -0.050819150226328373 0.01522477774784934 0 -0.058321721673206983 0.0162274053603703 0 -0.054226064319651213 0.0063664685462303068 0 -0.050819150226328373 0.01522477774784934 0 -0.042179788028278847 0.011889430814758619 0 -0.066640116236430819 0.013780684394652401 0 -0.054226064319651213 0.0063664685462303068 0 -0.058321721673206983 0.0162274053603703 0 -0.064541601995291922 0.022111897568499371 0 -0.058321721673206983 0.0162274053603703 0 -0.055381675588332832 0.02365319854462063 0 -0.066446363975823333 0.0338215571061894 0 -0.055381675588332832 0.02365319854462063 0 -0.048572535445610923 0.03515002456876052 0 -0.050819150226328373 0.01522477774784934 0 -0.058321721673206983 0.0162274053603703 0 -0.055381675588332832 0.02365319854462063 0 -0.066446363975823333 0.0338215571061894 0 -0.064541601995291922 0.022111897568499371 0 -0.055381675588332832 0.02365319854462063 0 -0.055381675588332832 0.02365319854462063 0 -0.046795522075008207 0.022723555265872379 0 -0.048572535445610923 0.03515002456876052 0 -0.050819150226328373 0.01522477774784934 0 -0.055381675588332832 0.02365319854462063 0 -0.046795522075008207 0.022723555265872379 0 -0.050819150226328373 0.01522477774784934 0 -0.046795522075008207 0.022723555265872379 0 -0.042179788028278847 0.011889430814758619 0 -0.046795522075008207 0.022723555265872379 0 -0.037024461086490067 0.027700344653372799 0 -0.042179788028278847 0.011889430814758619 0 -0.037024461086490067 0.027700344653372799 0 -0.040507989686426368 0.01265591490820631 0 -0.029414471165624671 0.040395003675388702 0 -0.040507989686426368 0.01265591490820631 0 -0.029414471165624671 0.040395003675388702 0 -0.037024461086490067 0.027700344653372799 0 -0.042179788028278847 0.011889430814758619 0 -0.040507989686426368 0.01265591490820631 0 -0.037024461086490067 0.027700344653372799 0 -0.042179788028278847 0.011889430814758619 0 -0.046795522075008207 0.022723555265872379 0 -0.037024461086490067 0.027700344653372799 0 -0.048572535445610923 0.03515002456876052 0 -0.032244717417613242 -0.010448277415751951 0 -0.043921422721777167 0.0065479973056573968 0 -0.02660341615426624 0.0068530749949768308 0 -0.043921422721777167 0.0065479973056573968 0 -0.041431250189409422 0.010347323184173271 0 -0.02660341615426624 0.0068530749949768308 0 -0.043921422721777167 0.0065479973056573968 0 -0.02660341615426624 0.0068530749949768308 0 -0.040507989686426368 0.01265591490820631 0 -0.041431250189409422 0.010347323184173271 0 -0.02660341615426624 0.0068530749949768308 0 -0.043921422721777167 0.0065479973056573968 0 -0.042179788028278847 0.011889430814758619 0 -0.054226064319651213 0.0063664685462303068 0 -0.043921422721777167 0.0065479973056573968 0 -0.042179788028278847 0.011889430814758619 0 -0.042179788028278847 0.011889430814758619 0 -0.040507989686426368 0.01265591490820631 0 -0.040507989686426368 0.01265591490820631 0 -0.041431250189409422 0.010347323184173271 0 -0.043921422721777167 0.0065479973056573968 0 -0.042179788028278847 0.011889430814758619 0 -0.041431250189409422 0.010347323184173271 0 -0.042179788028278847 0.011889430814758619 0 -0.040507989686426368 0.01265591490820631 0 -0.041431250189409422 0.010347323184173271 0 -0.042179558109446208 0.067409843109777948 0 -0.05959501242450374 0.067935439261748998 0 -0.048589214715795359 0.051178385445113772 0 -0.05959501242450374 0.067935439261748998 0 -0.065249180352923264 0.049384060465443837 0 -0.048589214715795359 0.051178385445113772 0 -0.065249180352923264 0.049384060465443837 0 -0.066446363975823333 0.0338215571061894 0 -0.048572535445610923 0.03515002456876052 0 -0.065249180352923264 0.049384060465443837 0 -0.048589214715795359 0.051178385445113772 0 -0.048572535445610923 0.03515002456876052 0 -0.048589214715795359 0.051178385445113772 0 -0.048572535445610923 0.03515002456876052 0 -0.040315646894748397 0.042601839721470469 0 -0.037024461086490067 0.027700344653372799 0 -0.048572535445610923 0.03515002456876052 0 -0.040315646894748397 0.042601839721470469 0 -0.037024461086490067 0.027700344653372799 0 -0.040315646894748397 0.042601839721470469 0 -0.029414471165624671 0.040395003675388702 0 -0.040315646894748397 0.042601839721470469 0 -0.035763968706087813 0.053943832878864513 0 -0.029414471165624671 0.040395003675388702 0 -0.042179558109446208 0.067409843109777948 0 -0.048589214715795359 0.051178385445113772 0 -0.035763968706087813 0.053943832878864513 0 -0.048589214715795359 0.051178385445113772 0 -0.040315646894748397 0.042601839721470469 0 -0.035763968706087813 0.053943832878864513 0 -0.0183209526448244 0.068134092442571681 0 -0.029414471165624671 0.040395003675388702 0 -0.0183209526448244 0.068134092442571681 0 -0.035763968706087813 0.053943832878864513 0 -0.029414471165624671 0.040395003675388702 0 -0.0183209526448244 0.068134092442571681 0 -0.029414471165624671 0.040395003675388702 0 -0.014028967103623819 0.04214149429201286 0 -0.029414471165624671 0.040395003675388702 0 -0.014028967103623819 0.04214149429201286 0 -0.013821227057519481 0.02489122974771675 0 -0.014028967103623819 0.04214149429201286 0 -0.013821227057519481 0.02489122974771675 0 0.0019078420561602851 0.044607454089230988 0 -0.0183209526448244 0.068134092442571681 0 -0.014028967103623819 0.04214149429201286 0 0.0019078420561602851 0.044607454089230988 0 -0.0183209526448244 0.068134092442571681 0 0.0019078420561602851 0.044607454089230988 0 0.0041194606216748602 0.071911933759743474 0 -0.02660341615426624 0.0068530749949768308 0 -0.0092854095867553714 0.0071581526842969308 0 -0.02660341615426624 0.0068530749949768308 0 -0.013821227057519481 0.02489122974771675 0 -0.0092854095867553714 0.0071581526842969308 0 -0.040507989686426368 0.01265591490820631 0 -0.02660341615426624 0.0068530749949768308 0 -0.013821227057519481 0.02489122974771675 0 -0.032244717417613242 -0.010448277415751951 0 -0.02660341615426624 0.0068530749949768308 0 -0.0092854095867553714 0.0071581526842969308 0 -0.040507989686426368 0.01265591490820631 0 -0.029414471165624671 0.040395003675388702 0 -0.013821227057519481 0.02489122974771675 0 -0.040507989686426368 0.01265591490820631 0 -0.013821227057519481 0.02489122974771675 0 -0.013821227057519481 0.02489122974771675 0 0.0074693190142609417 0.02000657826107502 0 0.0019078420561602851 0.044607454089230988 0 -0.013821227057519481 0.02489122974771675 0 -0.0092854095867553714 0.0071581526842969308 0 0.0074693190142609417 0.02000657826107502 0 -0.0092854095867553714 0.0071581526842969308 0 0.0074693190142609417 0.02000657826107502 0 -0.0092854095867553714 0.0071581526842969308 0 0.016490069688421989 0.0076122190127568684 0 -0.0092854095867553714 0.0071581526842969308 0 0.0074693190142609417 0.02000657826107502 0 0.016490069688421989 0.0076122190127568684 0 -0.0092854095867553714 0.0071581526842969308 0 0.016490069688421989 0.0076122190127568684 0 0.0037229942501223771 -0.0054435731040199864 0 0.0074693190142609417 0.02000657826107502 0 0.017959329698476991 0.019263053344527329 0 0.016490069688421989 0.0076122190127568684 0 0.0074693190142609417 0.02000657826107502 0 0.02422404761527722 0.032855003837853322 0 0.0074693190142609417 0.02000657826107502 0 0.017959329698476991 0.019263053344527329 0 0.022738555629234838 0.028630665257884231 0 0.0074693190142609417 0.02000657826107502 0 0.022738555629234838 0.028630665257884231 0 0.02422404761527722 0.032855003837853322 0 0.017959329698476991 0.019263053344527329 0 0.022738555629234838 0.028630665257884231 0 0.026103956653811981 0.024586173643718609 0 0.026103956653811981 0.024586173643718609 0 0.02422404761527722 0.032855003837853322 0 0.037325728994001169 0.0258744307675461 0 0.022738555629234838 0.028630665257884231 0 0.026103956653811981 0.024586173643718609 0 0.02422404761527722 0.032855003837853322 0 0.022738555629234838 0.028630665257884231 0 0.02422404761527722 0.032855003837853322 0 0.026103956653811981 0.024586173643718609 0 0.028272121332069189 0.016307715010782702 0 0.037325728994001169 0.0258744307675461 0 0.017959329698476991 0.019263053344527329 0 0.026103956653811981 0.024586173643718609 0 0.028272121332069189 0.016307715010782702 0 0.016490069688421989 0.0076122190127568684 0 0.042265548963599173 0.0080662853412176022 0 0.028272121332069189 0.016307715010782702 0 0.016490069688421989 0.0076122190127568684 0 0.042265548963599173 0.0080662853412176022 0 0.016490069688421989 0.0076122190127568684 0 0.042265548963599173 0.0080662853412176022 0 0.031393634162498907 -0.0021996921210678411 0 0.017959329698476991 0.019263053344527329 0 0.028272121332069189 0.016307715010782702 0 0.016490069688421989 0.0076122190127568684 0 0.0019078420561602851 0.044607454089230988 0 0.015786479424334799 0.055984676223185863 0 0.0041194606216748602 0.071911933759743474 0 0.0074693190142609417 0.02000657826107502 0 0.0019078420561602851 0.044607454089230988 0 0.02422404761527722 0.032855003837853322 0 0.0019078420561602851 0.044607454089230988 0 0.02422404761527722 0.032855003837853322 0 0.015786479424334799 0.055984676223185863 0 0.02422404761527722 0.032855003837853322 0 0.03044627724355534 0.050549346802439672 0 0.02422404761527722 0.032855003837853322 0 0.03044627724355534 0.050549346802439672 0 0.015786479424334799 0.055984676223185863 0 0.03044627724355534 0.050549346802439672 0 0.015786479424334799 0.055984676223185863 0 0.03666850687183356 0.068243689767025995 0 0.04402066278314834 0.048036111375523348 0 0.03666850687183356 0.068243689767025995 0 0.03044627724355534 0.050549346802439672 0 0.04402066278314834 0.048036111375523348 0 0.03666850687183356 0.068243689767025995 0 0.03044627724355534 0.050549346802439672 0 0.03666850687183356 0.068243689767025995 0 0.04402066278314834 0.048036111375523348 0 0.050103670673383879 0.052700888467511912 0 0.03666850687183356 0.068243689767025995 0 0.02422404761527722 0.032855003837853322 0 0.04402066278314834 0.048036111375523348 0 0.037325728994001169 0.0258744307675461 0 0.02422404761527722 0.032855003837853322 0 0.03044627724355534 0.050549346802439672 0 0.04402066278314834 0.048036111375523348 0 0.02422404761527722 0.032855003837853322 0 0.04402066278314834 0.048036111375523348 0 0.04402066278314834 0.048036111375523348 0 0.037325728994001169 0.0258744307675461 0 0.05216915823948385 0.025639774478844971 0 0.05096836943358711 0.044782145992923073 0 0.05216915823948385 0.025639774478844971 0 0.063249069126725982 0.035943658367440103 0 0.04402066278314834 0.048036111375523348 0 0.05216915823948385 0.025639774478844971 0 0.04402066278314834 0.048036111375523348 0 0.05096836943358711 0.044782145992923073 0 0.05216915823948385 0.025639774478844971 0 0.05096836943358711 0.044782145992923073 0 0.063249069126725982 0.035943658367440103 0 0.063868560948473249 0.051411574075477487 0 0.050103670673383879 0.052700888467511912 0 0.063868560948473249 0.051411574075477487 0 0.071904114466120717 0.069418639395140105 0 0.050103670673383879 0.052700888467511912 0 0.071904114466120717 0.069418639395140105 0 0.05096836943358711 0.044782145992923073 0 0.050103670673383879 0.052700888467511912 0 0.04402066278314834 0.048036111375523348 0 0.05096836943358711 0.044782145992923073 0 0.050103670673383879 0.052700888467511912 0 0.04402066278314834 0.048036111375523348 0 0.050103670673383879 0.052700888467511912 0 0.05096836943358711 0.044782145992923073 0 0.050103670673383879 0.052700888467511912 0 0.063868560948473249 0.051411574075477487 0 0.042265548963599173 0.0080662853412176022 0 0.037325728994001169 0.0258744307675461 0 0.05216915823948385 0.025639774478844971 0 0.028272121332069189 0.016307715010782702 0 0.042265548963599173 0.0080662853412176022 0 0.037325728994001169 0.0258744307675461 0 0.05216915823948385 0.025639774478844971 0 0.070564859190902426 0.018931180114127082 0 0.063249069126725982 0.035943658367440103 0 0.05216915823948385 0.025639774478844971 0 0.06031765369581981 0.0032434375821666292 0 0.070564859190902426 0.018931180114127082 0 0.042265548963599173 0.0080662853412176022 0 0.05216915823948385 0.025639774478844971 0 0.06031765369581981 0.0032434375821666292 0 0.05216915823948385 0.025639774478844971 0 0.06031765369581981 0.0032434375821666292 0 0.06031765369581981 0.0032434375821666292 0 0.070564859190902426 0.018931180114127082 0 0.07437522696527217 -0.0036839363458185462 0 0.090067775803660877 0.017626192357601048 0 0.1030093627271547 8.4439359333516673e-05 0 0.088091323937851365 -0.0030215899881911559 0 0.090067775803660877 0.017626192357601048 0 0.070564859190902426 0.018931180114127082 0 0.07437522696527217 -0.0036839363458185462 0 0.090067775803660877 0.017626192357601048 0 0.088091323937851365 -0.0030215899881911559 0 0.07437522696527217 -0.0036839363458185462 0 0.090067775803660877 0.017626192357601048 0 0.07437522696527217 -0.0036839363458185462 0 0.090067775803660877 0.017626192357601048 0 0.08321027131445187 0.034817954244528278 0 0.1057603246420496 0.038936321061020622 0 0.090067775803660877 0.017626192357601048 0 0.070564859190902426 0.018931180114127082 0 0.08321027131445187 0.034817954244528278 0 0.070564859190902426 0.018931180114127082 0 0.063249069126725982 0.035943658367440103 0 0.08321027131445187 0.034817954244528278 0 0.063249069126725982 0.035943658367440103 0 0.07315775568033997 0.046574125083015297 0 0.08321027131445187 0.034817954244528278 0 0.063249069126725982 0.035943658367440103 0 0.07315775568033997 0.046574125083015297 0 0.063868560948473249 0.051411574075477487 0 0.063868560948473249 0.051411574075477487 0 0.074809617112211416 0.057511711869886913 0 0.071904114466120717 0.069418639395140105 0 0.07315775568033997 0.046574125083015297 0 0.063868560948473249 0.051411574075477487 0 0.074809617112211416 0.057511711869886913 0 0.07315775568033997 0.046574125083015297 0 0.074809617112211416 0.057511711869886913 0 0.084507480063051324 0.053028397974063259 0 0.074809617112211416 0.057511711869886913 0 0.084507480063051324 0.053028397974063259 0 0.080610174403071888 0.067125822821738401 0 0.084507480063051324 0.053028397974063259 0 0.093480926497631664 0.04529622573312355 0 0.094356718960691921 0.054446622265642279 0 0.084507480063051324 0.053028397974063259 0 0.093186146216599694 0.065339692206858202 0 0.080610174403071888 0.067125822821738401 0 0.084507480063051324 0.053028397974063259 0 0.094356718960691921 0.054446622265642279 0 0.093186146216599694 0.065339692206858202 0 0.07315775568033997 0.046574125083015297 0 0.084507480063051324 0.053028397974063259 0 0.08321027131445187 0.034817954244528278 0 0.084507480063051324 0.053028397974063259 0 0.08321027131445187 0.034817954244528278 0 0.093480926497631664 0.04529622573312355 0 0.08321027131445187 0.034817954244528278 0 0.093480926497631664 0.04529622573312355 0 0.1057603246420496 0.038936321061020622 0 0.093480926497631664 0.04529622573312355 0 0.1057603246420496 0.038936321061020622 0 0.1059052293878705 0.055201139717190498 0 0.094356718960691921 0.054446622265642279 0 0.1059052293878705 0.055201139717190498 0 0.093186146216599694 0.065339692206858202 0 0.093480926497631664 0.04529622573312355 0 0.094356718960691921 0.054446622265642279 0 0.1059052293878705 0.055201139717190498 0 0.1059052293878705 0.055201139717190498 0 0.1214528734804383 0.060246449764440102 0 0.1099844811484131 0.070946774933894646 0 0.1057603246420496 0.038936321061020622 0 0.1214528734804383 0.060246449764440102 0 0.1057603246420496 0.038936321061020622 0 0.1059052293878705 0.055201139717190498 0 0.1214528734804383 0.060246449764440102 0 0.1214528734804383 0.060246449764440102 0 0.12521616871798261 0.059180546159879617 0 0.12669762268706819 0.067368701335009051 0 0.1057603246420496 0.038936321061020622 0 0.1214528734804383 0.060246449764440102 0 0.12426482289195009 0.036307645588544803 0 0.1057603246420496 0.038936321061020622 0 0.12426482289195009 0.036307645588544803 0 0.11668898874298381 0.021118874442581068 0 0.11668898874298381 0.021118874442581068 0 0.1030093627271547 8.4439359333516673e-05 0 0.1228652333266796 -0.0028958187831469389 0 0.090067775803660877 0.017626192357601048 0 0.11668898874298381 0.021118874442581068 0 0.1030093627271547 8.4439359333516673e-05 0 0.090067775803660877 0.017626192357601048 0 0.1057603246420496 0.038936321061020622 0 0.11668898874298381 0.021118874442581068 0 0.090067775803660877 0.017626192357601048 0 0.1057603246420496 0.038936321061020622 0 0.099806185939555786 0.1029101460596623 0 0.099006192045521108 0.11329043632355359 0 0.1113766782684002 0.1082460013214466 0 0.10759996999044209 0.09674356958152075 0 0.099806185939555786 0.1029101460596623 0 0.1113766782684002 0.1082460013214466 0 0.10759996999044209 0.09674356958152075 0 0.099806185939555786 0.1029101460596623 0 0.1035934593213699 0.093719730665851958 0 0.10759996999044209 0.09674356958152075 0 0.1035934593213699 0.093719730665851958 0 0.1035934593213699 0.093719730665851958 0 0.088577393768370094 0.1009981199063901 0 0.099806185939555786 0.1029101460596623 0 0.1035934593213699 0.093719730665851958 0 0.088577393768370094 0.1009981199063901 0 0.1035934593213699 0.093719730665851958 0 0.088577393768370094 0.1009981199063901 0 0.092655435136590844 0.093837226270555102 0 0.099806185939555786 0.1029101460596623 0 0.099006192045521108 0.11329043632355359 0 0.091686852891180573 0.1091948050638073 0 0.099006192045521108 0.11329043632355359 0 0.1079109412866677 0.11753443524656471 0 0.095564145962866637 0.12588942710968021 0 0.099006192045521108 0.11329043632355359 0 0.087316519280152827 0.11796309000544671 0 0.095564145962866637 0.12588942710968021 0 0.1079109412866677 0.11753443524656471 0 0.095564145962866637 0.12588942710968021 0 0.1064712059785085 0.1265550932007225 0 0.099006192045521108 0.11329043632355359 0 0.1079109412866677 0.11753443524656471 0 0.1113766782684002 0.1082460013214466 0 0.1079109412866677 0.11753443524656471 0 0.11993223338676121 0.1225747154163979 0 0.1113766782684002 0.1082460013214466 0 0.1079109412866677 0.11753443524656471 0 0.11993223338676121 0.1225747154163979 0 0.1064712059785085 0.1265550932007225 0 0.11993223338676121 0.1225747154163979 0 0.1235265639249548 0.1090055056319673 0 0.1113766782684002 0.1082460013214466 0 0.11993223338676121 0.1225747154163979 0 0.1235265639249548 0.1090055056319673 0 0.12971334191947209 0.1181933120670165 0 0.10759996999044209 0.09674356958152075 0 0.1178529336810798 0.08680806632942531 0 0.1306881249612577 0.098439589418572074 0 0.10759996999044209 0.09674356958152075 0 0.1306881249612577 0.098439589418572074 0 0.10759996999044209 0.09674356958152075 0 0.1235265639249548 0.1090055056319673 0 0.10759996999044209 0.09674356958152075 0 0.1235265639249548 0.1090055056319673 0 0.1113766782684002 0.1082460013214466 0 0.10759996999044209 0.09674356958152075 0 0.1235265639249548 0.1090055056319673 0 0.1306881249612577 0.098439589418572074 0 0.1178529336810798 0.08680806632942531 0 0.10705240535737209 0.073682482213294875 0 0.1321124080407983 0.079896401993016425 0 0.1178529336810798 0.08680806632942531 0 0.10705240535737209 0.073682482213294875 0 0.1035934593213699 0.093719730665851958 0 0.1178529336810798 0.08680806632942531 0 0.1321124080407983 0.079896401993016425 0 0.10759996999044209 0.09674356958152075 0 0.1178529336810798 0.08680806632942531 0 0.1035934593213699 0.093719730665851958 0 0.1178529336810798 0.08680806632942531 0 0.1035934593213699 0.093719730665851958 0 0.1099844811484131 0.070946774933894646 0 0.13402273224157091 0.078970454842627297 0 0.1099844811484131 0.070946774933894646 0 0.10705240535737209 0.073682482213294875 0 0.1321124080407983 0.079896401993016425 0 0.1214528734804383 0.060246449764440102 0 0.1099844811484131 0.070946774933894646 0 0.12669762268706819 0.067368701335009051 0 0.1099844811484131 0.070946774933894646 0 0.12669762268706819 0.067368701335009051 0 0.13402273224157091 0.078970454842627297 0 0.10705240535737209 0.073682482213294875 0 0.1321124080407983 0.079896401993016425 0 0.1214528734804383 0.060246449764440102 0 0.12669762268706819 0.067368701335009051 0 0.1214528734804383 0.060246449764440102 0 0.1099844811484131 0.070946774933894646 0 0.1099844811484131 0.070946774933894646 0 0.10705240535737209 0.073682482213294875 0 0.093186146216599694 0.065339692206858202 0 0.1099844811484131 0.070946774933894646 0 0.093186146216599694 0.065339692206858202 0 0.1059052293878705 0.055201139717190498 0 0.1099844811484131 0.070946774933894646 0 0.093186146216599694 0.065339692206858202 0 0.10705240535737209 0.073682482213294875 0 0.093704558258861842 0.086136390322762615 0 0.080610174403071888 0.067125822821738401 0 0.10705240535737209 0.073682482213294875 0 0.080610174403071888 0.067125822821738401 0 0.1099844811484131 0.070946774933894646 0 0.10705240535737209 0.073682482213294875 0 0.10705240535737209 0.073682482213294875 0 0.1035934593213699 0.093719730665851958 0 0.093704558258861842 0.086136390322762615 0 0.10705240535737209 0.073682482213294875 0 0.093704558258861842 0.086136390322762615 0 0.1035934593213699 0.093719730665851958 0 0.093704558258861842 0.086136390322762615 0 0.1035934593213699 0.093719730665851958 0 0.093704558258861842 0.086136390322762615 0 0.092655435136590844 0.093837226270555102 0 0.093704558258861842 0.086136390322762615 0 0.078713076578618771 0.085265763355563448 0 0.071904114466120717 0.069418639395140105 0 0.093704558258861842 0.086136390322762615 0 0.084746329197768477 0.094494664187206673 0 0.092655435136590844 0.093837226270555102 0 0.093704558258861842 0.086136390322762615 0 0.084746329197768477 0.094494664187206673 0 0.078713076578618771 0.085265763355563448 0 0.073967605960003124 0.092250005803085289 0 0.084746329197768477 0.094494664187206673 0 0.093704558258861842 0.086136390322762615 0 0.078713076578618771 0.085265763355563448 0 0.084746329197768477 0.094494664187206673 0 0.093704558258861842 0.086136390322762615 0 0.071904114466120717 0.069418639395140105 0 0.10705240535737209 0.073682482213294875 0 0.093186146216599694 0.065339692206858202 0 0.080610174403071888 0.067125822821738401 0 0.093704558258861842 0.086136390322762615 0 0.080610174403071888 0.067125822821738401 0 0.071904114466120717 0.069418639395140105 0 0.074809617112211416 0.057511711869886913 0 0.080610174403071888 0.067125822821738401 0 0.071904114466120717 0.069418639395140105 0 0.078713076578618771 0.085265763355563448 0 0.071904114466120717 0.069418639395140105 0 0.069242775010341012 0.084029117069620754 0 0.078713076578618771 0.085265763355563448 0 0.073967605960003124 0.092250005803085289 0 0.069242775010341012 0.084029117069620754 0 0.071904114466120717 0.069418639395140105 0 0.069242775010341012 0.084029117069620754 0 0.058929509265619587 0.082096005672699243 0 0.073967605960003124 0.092250005803085289 0 0.069242775010341012 0.084029117069620754 0 0.062612999057336971 0.092950953817310278 0 0.069242775010341012 0.084029117069620754 0 0.062612999057336971 0.092950953817310278 0 0.058929509265619587 0.082096005672699243 0 0.062612999057336971 0.092950953817310278 0 0.065331516160357317 0.10124581032757909 0 0.070440887210778125 0.097958129151537038 0 0.073967605960003124 0.092250005803085289 0 0.062612999057336971 0.092950953817310278 0 0.070440887210778125 0.097958129151537038 0 0.065331516160357317 0.10124581032757909 0 0.074525069296730501 0.1044900201448076 0 0.070440887210778125 0.097958129151537038 0 0.074525069296730501 0.1044900201448076 0 0.067821454079665111 0.1097921893724207 0 0.059028837063860709 0.1086837235306289 0 0.065331516160357317 0.10124581032757909 0 0.074525069296730501 0.1044900201448076 0 0.059028837063860709 0.1086837235306289 0 0.074525069296730501 0.1044900201448076 0 0.059028837063860709 0.1086837235306289 0 0.073561328215379279 0.10827650914694679 0 0.074525069296730501 0.1044900201448076 0 0.067821454079665111 0.1097921893724207 0 0.073561328215379279 0.10827650914694679 0 0.074525069296730501 0.1044900201448076 0 0.079435473211542221 0.1014226338100508 0 0.074525069296730501 0.1044900201448076 0 0.075767245579462753 0.098853855664902887 0 0.079435473211542221 0.1014226338100508 0 0.073967605960003124 0.092250005803085289 0 0.070440887210778125 0.097958129151537038 0 0.075767245579462753 0.098853855664902887 0 0.074525069296730501 0.1044900201448076 0 0.070440887210778125 0.097958129151537038 0 0.075767245579462753 0.098853855664902887 0 0.075767245579462753 0.098853855664902887 0 0.084746329197768477 0.094494664187206673 0 0.079435473211542221 0.1014226338100508 0 0.084746329197768477 0.094494664187206673 0 0.079435473211542221 0.1014226338100508 0 0.088577393768370094 0.1009981199063901 0 0.073967605960003124 0.092250005803085289 0 0.075767245579462753 0.098853855664902887 0 0.084746329197768477 0.094494664187206673 0 0.073561328215379279 0.10827650914694679 0 0.088577393768370094 0.1009981199063901 0 0.073561328215379279 0.10827650914694679 0 0.079435473211542221 0.1014226338100508 0 0.088577393768370094 0.1009981199063901 0 0.073561328215379279 0.10827650914694679 0 0.088577393768370094 0.1009981199063901 0 0.083727973422303106 0.1108122330239836 0 0.091686852891180573 0.1091948050638073 0 0.088577393768370094 0.1009981199063901 0 0.083727973422303106 0.1108122330239836 0 0.099806185939555786 0.1029101460596623 0 0.091686852891180573 0.1091948050638073 0 0.088577393768370094 0.1009981199063901 0 0.084746329197768477 0.094494664187206673 0 0.088577393768370094 0.1009981199063901 0 0.092655435136590844 0.093837226270555102 0 0.087316519280152827 0.11796309000544671 0 0.07127757662732305 0.12790519959239741 0 0.095564145962866637 0.12588942710968021 0 0.087316519280152827 0.11796309000544671 0 0.076485726268972015 0.116472886946256 0 0.07127757662732305 0.12790519959239741 0 0.091686852891180573 0.1091948050638073 0 0.087316519280152827 0.11796309000544671 0 0.083727973422303106 0.1108122330239836 0 0.099006192045521108 0.11329043632355359 0 0.091686852891180573 0.1091948050638073 0 0.087316519280152827 0.11796309000544671 0 0.087316519280152827 0.11796309000544671 0 0.083727973422303106 0.1108122330239836 0 0.076485726268972015 0.116472886946256 0 0.076485726268972015 0.116472886946256 0 0.066545233799701814 0.1174074029625054 0 0.07127757662732305 0.12790519959239741 0 0.073561328215379279 0.10827650914694679 0 0.083727973422303106 0.1108122330239836 0 0.076485726268972015 0.116472886946256 0 0.073561328215379279 0.10827650914694679 0 0.076485726268972015 0.116472886946256 0 0.066545233799701814 0.1174074029625054 0 0.067821454079665111 0.1097921893724207 0 0.066545233799701814 0.1174074029625054 0 0.059028837063860709 0.1086837235306289 0 0.073561328215379279 0.10827650914694679 0 0.067821454079665111 0.1097921893724207 0 0.066545233799701814 0.1174074029625054 0 0.066545233799701814 0.1174074029625054 0 0.059616636887076052 0.126066083185077 0 0.07127757662732305 0.12790519959239741 0 0.066545233799701814 0.1174074029625054 0 0.053155144958497297 0.1174706233618666 0 0.059616636887076052 0.126066083185077 0 0.053155144958497297 0.1174706233618666 0 0.049886306642514519 0.1243699805830059 0 0.059616636887076052 0.126066083185077 0 0.053155144958497297 0.1174706233618666 0 0.049886306642514519 0.1243699805830059 0 0.042625976094419718 0.1211801559308537 0 0.059028837063860709 0.1086837235306289 0 0.050724846862918817 0.1082161297905678 0 0.043532604830990973 0.1128774269164507 0 0.059028837063860709 0.1086837235306289 0 0.043532604830990973 0.1128774269164507 0 0.053155144958497297 0.1174706233618666 0 0.059028837063860709 0.1086837235306289 0 0.043532604830990973 0.1128774269164507 0 0.066545233799701814 0.1174074029625054 0 0.053155144958497297 0.1174706233618666 0 0.059028837063860709 0.1086837235306289 0 0.065331516160357317 0.10124581032757909 0 0.059028837063860709 0.1086837235306289 0 0.05666467548500162 0.1009621330317137 0 0.062612999057336971 0.092950953817310278 0 0.05666467548500162 0.1009621330317137 0 0.045625178280534202 0.093714047692482205 0 0.059028837063860709 0.1086837235306289 0 0.05666467548500162 0.1009621330317137 0 0.050724846862918817 0.1082161297905678 0 0.062612999057336971 0.092950953817310278 0 0.065331516160357317 0.10124581032757909 0 0.05666467548500162 0.1009621330317137 0 0.050724846862918817 0.1082161297905678 0 0.045625178280534202 0.093714047692482205 0 0.05666467548500162 0.1009621330317137 0 0.050724846862918817 0.1082161297905678 0 0.045625178280534202 0.093714047692482205 0 0.043532604830990973 0.1128774269164507 0 0.045625178280534202 0.093714047692482205 0 0.03481515029292747 0.1029948393129272 0 0.043532604830990973 0.1128774269164507 0 0.045625178280534202 0.093714047692482205 0 0.050724846862918817 0.1082161297905678 0 0.043532604830990973 0.1128774269164507 0 0.045625178280534202 0.093714047692482205 0 0.03481515029292747 0.1029948393129272 0 0.045625178280534202 0.093714047692482205 0 0.028267230310086041 0.091334801647409952 0 0.033900069450094557 0.11231996646086891 0 0.043532604830990973 0.1128774269164507 0 0.028344724893383879 0.11698768175521621 0 0.042625976094419718 0.1211801559308537 0 0.043532604830990973 0.1128774269164507 0 0.028344724893383879 0.11698768175521621 0 0.043532604830990973 0.1128774269164507 0 0.028344724893383879 0.11698768175521621 0 0.03481515029292747 0.1029948393129272 0 0.033900069450094557 0.11231996646086891 0 0.043532604830990973 0.1128774269164507 0 0.042625976094419718 0.1211801559308537 0 0.028344724893383879 0.11698768175521621 0 0.0381875985745238 0.1282435645049575 0 0.049886306642514519 0.1243699805830059 0 0.042625976094419718 0.1211801559308537 0 0.046691326710139508 0.12874104262587829 0 0.053155144958497297 0.1174706233618666 0 0.042625976094419718 0.1211801559308537 0 0.043532604830990973 0.1128774269164507 0 0.042625976094419718 0.1211801559308537 0 0.043532604830990973 0.1128774269164507 0 0.071904114466120717 0.069418639395140105 0 0.047864424476963791 0.07320746807999759 0 0.058929509265619587 0.082096005672699243 0 0.050103670673383879 0.052700888467511912 0 0.071904114466120717 0.069418639395140105 0 0.047864424476963791 0.07320746807999759 0 0.050103670673383879 0.052700888467511912 0 0.047864424476963791 0.07320746807999759 0 0.062612999057336971 0.092950953817310278 0 0.058929509265619587 0.082096005672699243 0 0.045625178280534202 0.093714047692482205 0 0.047864424476963791 0.07320746807999759 0 0.058929509265619587 0.082096005672699243 0 0.045625178280534202 0.093714047692482205 0 0.047864424476963791 0.07320746807999759 0 0.045625178280534202 0.093714047692482205 0 0.045625178280534202 0.093714047692482205 0 0.03666850687183356 0.068243689767025995 0 0.028267230310086041 0.091334801647409952 0 0.047864424476963791 0.07320746807999759 0 0.045625178280534202 0.093714047692482205 0 0.03666850687183356 0.068243689767025995 0 0.045625178280534202 0.093714047692482205 0 0.03666850687183356 0.068243689767025995 0 0.03666850687183356 0.068243689767025995 0 0.028267230310086041 0.091334801647409952 0 0.050103670673383879 0.052700888467511912 0 0.047864424476963791 0.07320746807999759 0 0.03666850687183356 0.068243689767025995 0 0.015786479424334799 0.055984676223185863 0 0.03666850687183356 0.068243689767025995 0 0.018872897616066059 0.075720903483321333 0 0.018872897616066059 0.075720903483321333 0 0.028267230310086041 0.091334801647409952 0 0.010785019671291141 0.091597478284661249 0 0.03666850687183356 0.068243689767025995 0 0.018872897616066059 0.075720903483321333 0 0.028267230310086041 0.091334801647409952 0 0.018872897616066059 0.075720903483321333 0 0.010785019671291141 0.091597478284661249 0 0.0041194606216748602 0.071911933759743474 0 -0.0072274341240241204 0.095873181209754688 0 0.010785019671291141 0.091597478284661249 0 0.0041194606216748602 0.071911933759743474 0 0.015786479424334799 0.055984676223185863 0 0.018872897616066059 0.075720903483321333 0 0.0041194606216748602 0.071911933759743474 0 0.010785019671291141 0.091597478284661249 0 0.022750668592931719 0.1047279538474247 0 0.003866084396777528 0.1236122699769371 0 -0.0072274341240241204 0.095873181209754688 0 0.010785019671291141 0.091597478284661249 0 0.003866084396777528 0.1236122699769371 0 0.028344724893383879 0.11698768175521621 0 0.003866084396777528 0.1236122699769371 0 0.028344724893383879 0.11698768175521621 0 0.022750668592931719 0.1047279538474247 0 0.003866084396777528 0.1236122699769371 0 0.033900069450094557 0.11231996646086891 0 0.028344724893383879 0.11698768175521621 0 0.022750668592931719 0.1047279538474247 0 0.033900069450094557 0.11231996646086891 0 0.028344724893383879 0.11698768175521621 0 0.028267230310086041 0.091334801647409952 0 0.010785019671291141 0.091597478284661249 0 0.022750668592931719 0.1047279538474247 0 0.03481515029292747 0.1029948393129272 0 0.033900069450094557 0.11231996646086891 0 0.022750668592931719 0.1047279538474247 0 0.03481515029292747 0.1029948393129272 0 0.028267230310086041 0.091334801647409952 0 0.022750668592931719 0.1047279538474247 0 0.028344724893383879 0.11698768175521621 0 0.003866084396777528 0.1236122699769371 0 0.0080397248868823122 0.13404836235109341 0 0.003866084396777528 0.1236122699769371 0 0.0080397248868823122 0.13404836235109341 0 -0.0095548245348158062 0.13339789648408129 0 0.003866084396777528 0.1236122699769371 0 0.0080397248868823122 0.13404836235109341 0 0.0080397248868823122 0.13404836235109341 0 0.0075277187388902139 0.14108770372628249 0 0.001315765586000473 0.14616453795866441 0 0.028344724893383879 0.11698768175521621 0 0.0080397248868823122 0.13404836235109341 0 0.028344724893383879 0.11698768175521621 0 0.0080397248868823122 0.13404836235109341 0 0.030993368252488281 0.13773903741825369 0 0.0080397248868823122 0.13404836235109341 0 0.030993368252488281 0.13773903741825369 0 0.013502261123341091 0.14770730899393339 0 0.0080397248868823122 0.13404836235109341 0 0.030993368252488281 0.13773903741825369 0 0.030993368252488281 0.13773903741825369 0 0.02565260219295673 0.15418457747704251 0 0.013502261123341091 0.14770730899393339 0 0.02565260219295673 0.15418457747704251 0 0.013502261123341091 0.14770730899393339 0 0.01215878417703754 0.15757394975661429 0 0.013502261123341091 0.14770730899393339 0 0.001315765586000473 0.14616453795866441 0 0.01215878417703754 0.15757394975661429 0 0.0080397248868823122 0.13404836235109341 0 0.013502261123341091 0.14770730899393339 0 0.0075277187388902139 0.14108770372628249 0 0.0080397248868823122 0.13404836235109341 0 0.013502261123341091 0.14770730899393339 0 0.013502261123341091 0.14770730899393339 0 0.0075277187388902139 0.14108770372628249 0 0.001315765586000473 0.14616453795866441 0 0.001315765586000473 0.14616453795866441 0 0.0023588809945384042 0.15933957368562249 0 0.01215878417703754 0.15757394975661429 0 -0.0019107495713367171 0.16800220398616211 0 0.0099252312785673789 0.1692355023333656 0 0.0024361028138156918 0.17568610311929039 0 -0.0019107495713367171 0.16800220398616211 0 0.0023588809945384042 0.15933957368562249 0 0.0099252312785673789 0.1692355023333656 0 0.0099252312785673789 0.1692355023333656 0 0.01215878417703754 0.15757394975661429 0 0.02069646896683169 0.16435483095361819 0 0.0023588809945384042 0.15933957368562249 0 0.0099252312785673789 0.1692355023333656 0 0.01215878417703754 0.15757394975661429 0 -1.549712382417822e-05 0.1850502688264212 0 0.01157859076662213 0.18346592241937029 0 0.0061155036168210018 0.19350736772143109 0 -1.549712382417822e-05 0.1850502688264212 0 0.0024361028138156918 0.17568610311929039 0 0.01157859076662213 0.18346592241937029 0 0.0099252312785673789 0.1692355023333656 0 0.01157859076662213 0.18346592241937029 0 0.02211803921306597 0.17647426139908201 0 0.0099252312785673789 0.1692355023333656 0 0.0024361028138156918 0.17568610311929039 0 0.01157859076662213 0.18346592241937029 0 0.01157859076662213 0.18346592241937029 0 0.02211803921306597 0.17647426139908201 0 0.02384553995329489 0.1881782698988444 0 0.02211803921306597 0.17647426139908201 0 0.034760023545471683 0.16542700344411779 0 0.033735734556127363 0.17853318308715871 0 0.02211803921306597 0.17647426139908201 0 0.033735734556127363 0.17853318308715871 0 0.02384553995329489 0.1881782698988444 0 0.02565260219295673 0.15418457747704251 0 0.01215878417703754 0.15757394975661429 0 0.02069646896683169 0.16435483095361819 0 0.0099252312785673789 0.1692355023333656 0 0.02211803921306597 0.17647426139908201 0 0.02069646896683169 0.16435483095361819 0 0.02211803921306597 0.17647426139908201 0 0.02069646896683169 0.16435483095361819 0 0.034760023545471683 0.16542700344411779 0 0.02565260219295673 0.15418457747704251 0 0.02069646896683169 0.16435483095361819 0 0.034760023545471683 0.16542700344411779 0 0.02565260219295673 0.15418457747704251 0 0.034760023545471683 0.16542700344411779 0 0.039414037128062691 0.1513784253129388 0 0.034760023545471683 0.16542700344411779 0 0.046620986457611438 0.1737410476044704 0 0.049033079235345028 0.15878311436561751 0 0.034760023545471683 0.16542700344411779 0 0.049033079235345028 0.15878311436561751 0 0.039414037128062691 0.1513784253129388 0 0.033735734556127363 0.17853318308715871 0 0.046620986457611438 0.1737410476044704 0 0.038765772101145332 0.190585366732794 0 0.033735734556127363 0.17853318308715871 0 0.02384553995329489 0.1881782698988444 0 0.038765772101145332 0.190585366732794 0 0.034760023545471683 0.16542700344411779 0 0.033735734556127363 0.17853318308715871 0 0.046620986457611438 0.1737410476044704 0 0.046620986457611438 0.1737410476044704 0 0.055331293835251927 0.18673221748605559 0 0.038765772101145332 0.190585366732794 0 0.046620986457611438 0.1737410476044704 0 0.055331293835251927 0.18673221748605559 0 0.068100015472327358 0.162385400511079 0 0.046620986457611438 0.1737410476044704 0 0.049033079235345028 0.15878311436561751 0 0.068100015472327358 0.162385400511079 0 0.052608673985814272 0.14227666039365999 0 0.063221567041421192 0.13767164043827829 0 0.068428005873433909 0.1471402307083248 0 0.052608673985814272 0.14227666039365999 0 0.068100015472327358 0.162385400511079 0 0.049033079235345028 0.15878311436561751 0 0.052608673985814272 0.14227666039365999 0 0.068100015472327358 0.162385400511079 0 0.049033079235345028 0.15878311436561751 0 0.052608673985814272 0.14227666039365999 0 0.039414037128062691 0.1513784253129388 0 0.053712430936524488 0.13211173486908709 0 0.053431752673589017 0.14014131930583601 0 0.063221567041421192 0.13767164043827829 0 0.052608673985814272 0.14227666039365999 0 0.053431752673589017 0.14014131930583601 0 0.063221567041421192 0.13767164043827829 0 0.059616636887076052 0.126066083185077 0 0.053712430936524488 0.13211173486908709 0 0.063221567041421192 0.13767164043827829 0 0.053712430936524488 0.13211173486908709 0 0.044392322837883448 0.1336839365675101 0 0.046691326710139508 0.12874104262587829 0 0.049886306642514519 0.1243699805830059 0 0.059616636887076052 0.126066083185077 0 0.053712430936524488 0.13211173486908709 0 0.049886306642514519 0.1243699805830059 0 0.053712430936524488 0.13211173486908709 0 0.046691326710139508 0.12874104262587829 0 0.053712430936524488 0.13211173486908709 0 0.053431752673589017 0.14014131930583601 0 0.044392322837883448 0.1336839365675101 0 0.030993368252488281 0.13773903741825369 0 0.053431752673589017 0.14014131930583601 0 0.044392322837883448 0.1336839365675101 0 0.030993368252488281 0.13773903741825369 0 0.052608673985814272 0.14227666039365999 0 0.053431752673589017 0.14014131930583601 0 0.030993368252488281 0.13773903741825369 0 0.053431752673589017 0.14014131930583601 0 0.028344724893383879 0.11698768175521621 0 0.030993368252488281 0.13773903741825369 0 0.0381875985745238 0.1282435645049575 0 0.044392322837883448 0.1336839365675101 0 0.046691326710139508 0.12874104262587829 0 0.0381875985745238 0.1282435645049575 0 0.042625976094419718 0.1211801559308537 0 0.046691326710139508 0.12874104262587829 0 0.0381875985745238 0.1282435645049575 0 0.030993368252488281 0.13773903741825369 0 0.044392322837883448 0.1336839365675101 0 0.0381875985745238 0.1282435645049575 0 0.030993368252488281 0.13773903741825369 0 0.052608673985814272 0.14227666039365999 0 0.039414037128062691 0.1513784253129388 0 0.030993368252488281 0.13773903741825369 0 0.02565260219295673 0.15418457747704251 0 0.039414037128062691 0.1513784253129388 0 0.017108833438518961 0.22991471969281929 0 0.035707435762018173 0.25346643411051889 0 0.017108833438518961 0.22991471969281929 0 0.012596111222701781 0.25023258242042362 0 0.035707435762018173 0.25346643411051889 0 0.017108833438518961 0.22991471969281929 0 0.035848190857107547 0.2365624007331352 0 0.035707435762018173 0.25346643411051889 0 -0.0040594279863269559 0.2411688980649096 0 0.017108833438518961 0.22991471969281929 0 0.012596111222701781 0.25023258242042362 0 -0.0040594279863269559 0.2411688980649096 0 0.002539623406746266 0.22230046777589621 0 0.017108833438518961 0.22991471969281929 0 -0.0014897688849807721 0.20636300527512011 0 0.002539623406746266 0.22230046777589621 0 0.017108833438518961 0.22991471969281929 0 0.017108833438518961 0.22991471969281929 0 0.01320374394315769 0.21065891037220091 0 0.035988945952199008 0.21965836735575139 0 0.017108833438518961 0.22991471969281929 0 0.035988945952199008 0.21965836735575139 0 0.035848190857107547 0.2365624007331352 0 0.01320374394315769 0.21065891037220091 0 0.02442149656139082 0.2024248322948429 0 0.035988945952199008 0.21965836735575139 0 0.01320374394315769 0.21065891037220091 0 0.035988945952199008 0.21965836735575139 0 -0.0014897688849807721 0.20636300527512011 0 0.017108833438518961 0.22991471969281929 0 -0.0095814580658839105 0.20165945338865071 0 -0.0014897688849807721 0.20636300527512011 0 0.01320374394315769 0.21065891037220091 0 -0.0014897688849807721 0.20636300527512011 0 0.017108833438518961 0.22991471969281929 0 0.01320374394315769 0.21065891037220091 0 -0.0095814580658839105 0.20165945338865071 0 0.01320374394315769 0.21065891037220091 0 -0.0032046887616313979 0.19525019806185651 0 0.01320374394315769 0.21065891037220091 0 0.0061155036168210018 0.19350736772143109 0 0.01320374394315769 0.21065891037220091 0 0.0061155036168210018 0.19350736772143109 0 0.0158329749682573 0.1956470605413379 0 -0.0032046887616313979 0.19525019806185651 0 -0.0095814580658839105 0.20165945338865071 0 0.01320374394315769 0.21065891037220091 0 -0.0032046887616313979 0.19525019806185651 0 -1.549712382417822e-05 0.1850502688264212 0 0.0061155036168210018 0.19350736772143109 0 0.01157859076662213 0.18346592241937029 0 0.0061155036168210018 0.19350736772143109 0 0.0158329749682573 0.1956470605413379 0 0.01157859076662213 0.18346592241937029 0 0.0158329749682573 0.1956470605413379 0 0.02384553995329489 0.1881782698988444 0 0.01320374394315769 0.21065891037220091 0 0.0158329749682573 0.1956470605413379 0 0.02442149656139082 0.2024248322948429 0 0.0158329749682573 0.1956470605413379 0 0.02442149656139082 0.2024248322948429 0 0.02384553995329489 0.1881782698988444 0 0.02442149656139082 0.2024248322948429 0 0.02384553995329489 0.1881782698988444 0 0.038765772101145332 0.190585366732794 0 0.038765772101145332 0.190585366732794 0 0.053722480666547702 0.1996692250102205 0 0.036099529877059937 0.20637775143437359 0 0.02442149656139082 0.2024248322948429 0 0.038765772101145332 0.190585366732794 0 0.036099529877059937 0.20637775143437359 0 0.055331293835251927 0.18673221748605559 0 0.053722480666547702 0.1996692250102205 0 0.070569937146714612 0.19200555042716139 0 0.055331293835251927 0.18673221748605559 0 0.038765772101145332 0.190585366732794 0 0.053722480666547702 0.1996692250102205 0 0.053722480666547702 0.1996692250102205 0 0.052212327095244947 0.2131526864914019 0 0.036099529877059937 0.20637775143437359 0 0.052212327095244947 0.2131526864914019 0 0.059611483864607649 0.22898854637723351 0 0.069356023943869513 0.2091617774895366 0 0.053722480666547702 0.1996692250102205 0 0.052212327095244947 0.2131526864914019 0 0.069356023943869513 0.2091617774895366 0 0.052212327095244947 0.2131526864914019 0 0.036099529877059937 0.20637775143437359 0 0.035988945952199008 0.21965836735575139 0 0.02442149656139082 0.2024248322948429 0 0.036099529877059937 0.20637775143437359 0 0.035988945952199008 0.21965836735575139 0 0.036099529877059937 0.20637775143437359 0 0.035988945952199008 0.21965836735575139 0 0.035988945952199008 0.21965836735575139 0 0.035848190857107547 0.2365624007331352 0 0.035988945952199008 0.21965836735575139 0 0.059611483864607649 0.22898854637723351 0 0.035848190857107547 0.2365624007331352 0 0.052212327095244947 0.2131526864914019 0 0.035988945952199008 0.21965836735575139 0 0.059611483864607649 0.22898854637723351 0 0.035988945952199008 0.21965836735575139 0 0.059611483864607649 0.22898854637723351 0 0.059611483864607649 0.22898854637723351 0 0.046038869013161579 0.2450998583245412 0 0.057857820753778468 0.25118676913038562 0 0.059611483864607649 0.22898854637723351 0 0.035848190857107547 0.2365624007331352 0 0.046038869013161579 0.2450998583245412 0 0.035848190857107547 0.2365624007331352 0 0.046038869013161579 0.2450998583245412 0 0.035707435762018173 0.25346643411051889 0 0.035848190857107547 0.2365624007331352 0 0.035707435762018173 0.25346643411051889 0 0.046038869013161579 0.2450998583245412 0 0.035707435762018173 0.25346643411051889 0 0.057857820753778468 0.25118676913038562 0 0.059611483864607649 0.22898854637723351 0 0.08323402177701604 0.2383187253987161 0 0.057857820753778468 0.25118676913038562 0 0.08323402177701604 0.2383187253987161 0 0.057857820753778468 0.25118676913038562 0 0.07918974385725501 0.25702135662873871 0 0.059611483864607649 0.22898854637723351 0 0.08323402177701604 0.2383187253987161 0 0.078959933341873983 0.22224842924089011 0 0.059611483864607649 0.22898854637723351 0 0.08323402177701604 0.2383187253987161 0 0.059611483864607649 0.22898854637723351 0 0.078959933341873983 0.22224842924089011 0 0.069356023943869513 0.2091617774895366 0 0.08323402177701604 0.2383187253987161 0 0.093876856610252246 0.22343724617280039 0 0.1013682548894928 0.23195218595893091 0 0.08323402177701604 0.2383187253987161 0 0.078959933341873983 0.22224842924089011 0 0.093876856610252246 0.22343724617280039 0 0.078959933341873983 0.22224842924089011 0 0.088721280513624434 0.21133585076616379 0 0.093876856610252246 0.22343724617280039 0 0.078959933341873983 0.22224842924089011 0 0.088721280513624434 0.21133585076616379 0 0.069356023943869513 0.2091617774895366 0 0.088721280513624434 0.21133585076616379 0 0.082264259401680515 0.19952004001145529 0 0.099082698445353529 0.2026028807459169 0 0.088721280513624434 0.21133585076616379 0 0.069356023943869513 0.2091617774895366 0 0.082264259401680515 0.19952004001145529 0 0.053722480666547702 0.1996692250102205 0 0.069356023943869513 0.2091617774895366 0 0.070569937146714612 0.19200555042716139 0 0.069356023943869513 0.2091617774895366 0 0.070569937146714612 0.19200555042716139 0 0.082264259401680515 0.19952004001145529 0 0.099082698445353529 0.2026028807459169 0 0.083591356958840457 0.182494140628498 0 0.070569937146714612 0.19200555042716139 0 0.082264259401680515 0.19952004001145529 0 0.083591356958840457 0.182494140628498 0 0.082264259401680515 0.19952004001145529 0 0.099082698445353529 0.2026028807459169 0 0.083591356958840457 0.182494140628498 0 0.099082698445353529 0.2026028807459169 0 0.1047681631847841 0.19622714344523701 0 0.099663340742872475 0.18267333282553111 0 0.099082698445353529 0.2026028807459169 0 0.083591356958840457 0.182494140628498 0 0.099663340742872475 0.18267333282553111 0 0.1047681631847841 0.19622714344523701 0 0.099663340742872475 0.18267333282553111 0 0.1134539451708567 0.18643286011281829 0 0.1047681631847841 0.19622714344523701 0 0.1183427082776574 0.1974520121210977 0 0.1134539451708567 0.18643286011281829 0 0.1047681631847841 0.19622714344523701 0 0.1183427082776574 0.1974520121210977 0 0.12111603015650001 0.2113108632867679 0 0.1183427082776574 0.1974520121210977 0 0.1134539451708567 0.18643286011281829 0 0.12613196654567471 0.19025247127141251 0 0.1183427082776574 0.1974520121210977 0 0.12624343633047161 0.20303672248925289 0 0.12613196654567471 0.19025247127141251 0 0.099082698445353529 0.2026028807459169 0 0.12111603015650001 0.2113108632867679 0 0.1145740399318666 0.22271162086333579 0 0.1047681631847841 0.19622714344523701 0 0.12111603015650001 0.2113108632867679 0 0.1183427082776574 0.1974520121210977 0 0.12111603015650001 0.2113108632867679 0 0.12624343633047161 0.20303672248925289 0 0.099082698445353529 0.2026028807459169 0 0.1145740399318666 0.22271162086333579 0 0.099082698445353529 0.2026028807459169 0 0.1019790994476983 0.21450645701520679 0 0.1145740399318666 0.22271162086333579 0 0.099082698445353529 0.2026028807459169 0 0.1047681631847841 0.19622714344523701 0 0.12111603015650001 0.2113108632867679 0 0.088721280513624434 0.21133585076616379 0 0.099082698445353529 0.2026028807459169 0 0.1019790994476983 0.21450645701520679 0 0.088721280513624434 0.21133585076616379 0 0.1019790994476983 0.21450645701520679 0 0.093876856610252246 0.22343724617280039 0 0.1019790994476983 0.21450645701520679 0 0.093876856610252246 0.22343724617280039 0 0.1032870261811485 0.22372770532658351 0 0.093876856610252246 0.22343724617280039 0 0.1013682548894928 0.23195218595893091 0 0.1032870261811485 0.22372770532658351 0 0.1013682548894928 0.23195218595893091 0 0.1081121504158854 0.22740926352052779 0 0.11015882524213021 0.23297082205032121 0 0.1013682548894928 0.23195218595893091 0 0.1081121504158854 0.22740926352052779 0 0.1032870261811485 0.22372770532658351 0 0.1081121504158854 0.22740926352052779 0 0.10841596412669011 0.22276572983036219 0 0.1032870261811485 0.22372770532658351 0 0.1019790994476983 0.21450645701520679 0 0.10841596412669011 0.22276572983036219 0 0.1032870261811485 0.22372770532658351 0 0.1019790994476983 0.21450645701520679 0 0.10841596412669011 0.22276572983036219 0 0.1145740399318666 0.22271162086333579 0 0.1145740399318666 0.22271162086333579 0 0.11412750465685149 0.22547360242615699 0 0.13006538141837959 0.24282036098075471 0 0.1145740399318666 0.22271162086333579 0 0.13006538141837959 0.24282036098075471 0 0.12111603015650001 0.2113108632867679 0 0.1145740399318666 0.22271162086333579 0 0.12503396081837459 0.2306749909089463 0 0.1145740399318666 0.22271162086333579 0 0.13006538141837959 0.24282036098075471 0 0.12503396081837459 0.2306749909089463 0 0.10841596412669011 0.22276572983036219 0 0.1145740399318666 0.22271162086333579 0 0.11412750465685149 0.22547360242615699 0 0.1081121504158854 0.22740926352052779 0 0.10841596412669011 0.22276572983036219 0 0.11412750465685149 0.22547360242615699 0 0.11412750465685149 0.22547360242615699 0 0.11015882524213021 0.23297082205032121 0 0.1159577419964149 0.2383533767206937 0 0.1081121504158854 0.22740926352052779 0 0.11412750465685149 0.22547360242615699 0 0.11015882524213021 0.23297082205032121 0 0.11412750465685149 0.22547360242615699 0 0.1159577419964149 0.2383533767206937 0 0.12743254065288101 0.24448259774712991 0 0.11015882524213021 0.23297082205032121 0 0.1159577419964149 0.2383533767206937 0 0.1068565596894244 0.2476489044201986 0 0.1068565596894244 0.2476489044201986 0 0.12743254065288101 0.24448259774712991 0 0.13047909760183279 0.25697908344168108 0 0.11412750465685149 0.22547360242615699 0 0.12743254065288101 0.24448259774712991 0 0.13006538141837959 0.24282036098075471 0 0.11412750465685149 0.22547360242615699 0 0.12743254065288101 0.24448259774712991 0 0.1159577419964149 0.2383533767206937 0 0.1068565596894244 0.2476489044201986 0 0.12743254065288101 0.24448259774712991 0 0.08323402177701604 0.2383187253987161 0 0.1068565596894244 0.2476489044201986 0 0.1013682548894928 0.23195218595893091 0 0.11015882524213021 0.23297082205032121 0 0.1068565596894244 0.2476489044201986 0 0.08323402177701604 0.2383187253987161 0 0.1013682548894928 0.23195218595893091 0 0.1068565596894244 0.2476489044201986 0 0.08323402177701604 0.2383187253987161 0 0.1068565596894244 0.2476489044201986 0 0.095655653454541537 0.25871883881996383 0 0.079465649956696416 0.1408377559973783 0 0.068428005873433909 0.1471402307083248 0 0.088850808228717909 0.1591408718214323 0 0.079465649956696416 0.1408377559973783 0 0.088850808228717909 0.1591408718214323 0 0.096682140249463283 0.13772106287591451 0 0.07127757662732305 0.12790519959239741 0 0.096682140249463283 0.13772106287591451 0 0.07127757662732305 0.12790519959239741 0 0.095564145962866637 0.12588942710968021 0 0.096682140249463283 0.13772106287591451 0 0.079465649956696416 0.1408377559973783 0 0.07127757662732305 0.12790519959239741 0 0.096682140249463283 0.13772106287591451 0 0.079465649956696416 0.1408377559973783 0 0.07127757662732305 0.12790519959239741 0 0.063221567041421192 0.13767164043827829 0 0.059616636887076052 0.126066083185077 0 0.07127757662732305 0.12790519959239741 0 0.063221567041421192 0.13767164043827829 0 0.079465649956696416 0.1408377559973783 0 0.063221567041421192 0.13767164043827829 0 0.068428005873433909 0.1471402307083248 0 0.068428005873433909 0.1471402307083248 0 0.068100015472327358 0.162385400511079 0 0.088850808228717909 0.1591408718214323 0 0.052608673985814272 0.14227666039365999 0 0.068428005873433909 0.1471402307083248 0 0.068100015472327358 0.162385400511079 0 0.055331293835251927 0.18673221748605559 0 0.070569937146714612 0.19200555042716139 0 0.068100015472327358 0.162385400511079 0 0.068100015472327358 0.162385400511079 0 0.083591356958840457 0.182494140628498 0 0.070569937146714612 0.19200555042716139 0 0.068100015472327358 0.162385400511079 0 0.083591356958840457 0.182494140628498 0 0.083591356958840457 0.182494140628498 0 0.088850808228717909 0.1591408718214323 0 0.099663340742872475 0.18267333282553111 0 0.068100015472327358 0.162385400511079 0 0.083591356958840457 0.182494140628498 0 0.088850808228717909 0.1591408718214323 0 0.088850808228717909 0.1591408718214323 0 0.1082330724686823 0.16914210019928411 0 0.099663340742872475 0.18267333282553111 0 0.088850808228717909 0.1591408718214323 0 0.1082330724686823 0.16914210019928411 0 0.10694432406254201 0.15492257721247391 0 0.1082330724686823 0.16914210019928411 0 0.099663340742872475 0.18267333282553111 0 0.1134539451708567 0.18643286011281829 0 0.1082330724686823 0.16914210019928411 0 0.1134539451708567 0.18643286011281829 0 0.1232872128676395 0.17595553545029249 0 0.1134539451708567 0.18643286011281829 0 0.1232872128676395 0.17595553545029249 0 0.12613196654567471 0.19025247127141251 0 0.1082330724686823 0.16914210019928411 0 0.1201146462699907 0.16383855904959441 0 0.10694432406254201 0.15492257721247391 0 0.1082330724686823 0.16914210019928411 0 0.1232872128676395 0.17595553545029249 0 0.1201146462699907 0.16383855904959441 0 0.1201146462699907 0.16383855904959441 0 0.1220867038716037 0.1475369261594314 0 0.10694432406254201 0.15492257721247391 0 0.1220867038716037 0.1475369261594314 0 0.096682140249463283 0.13772106287591451 0 0.088850808228717909 0.1591408718214323 0 0.10694432406254201 0.15492257721247391 0 0.096682140249463283 0.13772106287591451 0 0.1220867038716037 0.1475369261594314 0 0.10694432406254201 0.15492257721247391 0 0.096682140249463283 0.13772106287591451 0 0.1220867038716037 0.1475369261594314 0 0.096682140249463283 0.13772106287591451 0 0.1064712059785085 0.1265550932007225 0 0.095564145962866637 0.12588942710968021 0 0.096682140249463283 0.13772106287591451 0 0.1064712059785085 0.1265550932007225 0 0.11993223338676121 0.1225747154163979 0 0.1220867038716037 0.1475369261594314 0 0.1064712059785085 0.1265550932007225 0 0.1220867038716037 0.1475369261594314 0 0.1064712059785085 0.1265550932007225 0 0.1220867038716037 0.1475369261594314 0 0.1346524935967234 0.1282288800265329 0 0.14168659364027891 0.1408058313941116 0 0.11993223338676121 0.1225747154163979 0 0.1220867038716037 0.1475369261594314 0 0.1346524935967234 0.1282288800265329 0 0.1346524935967234 0.1282288800265329 0 0.15204367640966071 0.12844907648069681 0 0.14168659364027891 0.1408058313941116 0 0.15204367640966071 0.12844907648069681 0 0.14168659364027891 0.1408058313941116 0 0.15744482763948001 0.1445038998395114 0 0.14168659364027891 0.1408058313941116 0 0.1422052666839268 0.1553103744643855 0 0.15744482763948001 0.1445038998395114 0 0.1422052666839268 0.1553103744643855 0 0.16232382949624991 0.1630838227693393 0 0.15744482763948001 0.1445038998395114 0 0.1220867038716037 0.1475369261594314 0 0.14168659364027891 0.1408058313941116 0 0.1422052666839268 0.1553103744643855 0 0.1220867038716037 0.1475369261594314 0 0.1422052666839268 0.1553103744643855 0 0.1201146462699907 0.16383855904959441 0 0.1220867038716037 0.1475369261594314 0 0.1400219180794858 0.1716356562264901 0 0.1220867038716037 0.1475369261594314 0 0.1400219180794858 0.1716356562264901 0 0.1220867038716037 0.1475369261594314 0 0.1422052666839268 0.1553103744643855 0 0.1400219180794858 0.1716356562264901 0 0.1232872128676395 0.17595553545029249 0 0.1201146462699907 0.16383855904959441 0 0.1400219180794858 0.1716356562264901 0 0.1232872128676395 0.17595553545029249 0 0.1400219180794858 0.1716356562264901 0 0.13411932515879491 0.18193881803492329 0 0.1232872128676395 0.17595553545029249 0 0.13411932515879491 0.18193881803492329 0 0.12613196654567471 0.19025247127141251 0 0.1400219180794858 0.1716356562264901 0 0.15808437128832481 0.1788889087978584 0 0.1579571322873676 0.19573438629354889 0 0.1400219180794858 0.1716356562264901 0 0.13411932515879491 0.18193881803492329 0 0.14954824061970989 0.19310304428722691 0 0.1400219180794858 0.1716356562264901 0 0.14954824061970989 0.19310304428722691 0 0.1579571322873676 0.19573438629354889 0 0.1400219180794858 0.1716356562264901 0 0.1579571322873676 0.19573438629354889 0 0.1400219180794858 0.1716356562264901 0 0.16232382949624991 0.1630838227693393 0 0.15808437128832481 0.1788889087978584 0 0.1422052666839268 0.1553103744643855 0 0.1400219180794858 0.1716356562264901 0 0.16232382949624991 0.1630838227693393 0 0.1422052666839268 0.1553103744643855 0 0.16232382949624991 0.1630838227693393 0 0.16232382949624991 0.1630838227693393 0 0.15808437128832481 0.1788889087978584 0 0.17203460529019601 0.18510176990205551 0 0.15808437128832481 0.1788889087978584 0 0.17203460529019601 0.18510176990205551 0 0.1579571322873676 0.19573438629354889 0 0.17203460529019601 0.18510176990205551 0 0.1824423923085732 0.1708572710742931 0 0.18574698097283629 0.19079052722627149 0 0.16232382949624991 0.1630838227693393 0 0.17203460529019601 0.18510176990205551 0 0.1824423923085732 0.1708572710742931 0 0.16232382949624991 0.1630838227693393 0 0.1824423923085732 0.1708572710742931 0 0.1861607803410294 0.1552861971979573 0 0.16232382949624991 0.1630838227693393 0 0.1824423923085732 0.1708572710742931 0 0.1861607803410294 0.1552861971979573 0 0.17535446446178651 0.14288747071699229 0 0.19588498063014401 0.13906320075954201 0 0.16232382949624991 0.1630838227693393 0 0.1861607803410294 0.1552861971979573 0 0.17535446446178651 0.14288747071699229 0 0.17535446446178651 0.14288747071699229 0 0.18345163330088671 0.12903885324715189 0 0.19588498063014401 0.13906320075954201 0 0.17535446446178651 0.14288747071699229 0 0.18345163330088671 0.12903885324715189 0 0.16909658724674689 0.12826734179695071 0 0.15204367640966071 0.12844907648069681 0 0.16909658724674689 0.12826734179695071 0 0.15744482763948001 0.1445038998395114 0 0.17535446446178651 0.14288747071699229 0 0.16909658724674689 0.12826734179695071 0 0.15744482763948001 0.1445038998395114 0 0.16232382949624991 0.1630838227693393 0 0.17535446446178651 0.14288747071699229 0 0.15744482763948001 0.1445038998395114 0 0.15381176409993219 0.24147830296982939 0 0.140680818901677 0.23772266477734599 0 0.13746389712821591 0.2263945831282988 0 0.15381176409993219 0.24147830296982939 0 0.14730232733989729 0.24723517821230351 0 0.1496967195985302 0.25479380677548891 0 0.15381176409993219 0.24147830296982939 0 0.1444609742055025 0.24367880609860179 0 0.14730232733989729 0.24723517821230351 0 0.15381176409993219 0.24147830296982939 0 0.140680818901677 0.23772266477734599 0 0.1444609742055025 0.24367880609860179 0 0.140680818901677 0.23772266477734599 0 0.1444609742055025 0.24367880609860179 0 0.13816272844606731 0.24257772919731549 0 0.1444609742055025 0.24367880609860179 0 0.14234723223993859 0.24938015533621449 0 0.13816272844606731 0.24257772919731549 0 0.1444609742055025 0.24367880609860179 0 0.14730232733989729 0.24723517821230351 0 0.14234723223993859 0.24938015533621449 0 0.14234723223993859 0.24938015533621449 0 0.13816272844606731 0.24257772919731549 0 0.13006538141837959 0.24282036098075471 0 0.13006538141837959 0.24282036098075471 0 0.13078090719814769 0.23681265541541369 0 0.12503396081837459 0.2306749909089463 0 0.13006538141837959 0.24282036098075471 0 0.13078090719814769 0.23681265541541369 0 0.134500850454884 0.2391984652407243 0 0.140680818901677 0.23772266477734599 0 0.13352343610095271 0.23455680453122951 0 0.134500850454884 0.2391984652407243 0 0.13078090719814769 0.23681265541541369 0 0.13352343610095271 0.23455680453122951 0 0.134500850454884 0.2391984652407243 0 0.13816272844606731 0.24257772919731549 0 0.13006538141837959 0.24282036098075471 0 0.134500850454884 0.2391984652407243 0 0.140680818901677 0.23772266477734599 0 0.13816272844606731 0.24257772919731549 0 0.134500850454884 0.2391984652407243 0 0.12111603015650001 0.2113108632867679 0 0.13746389712821591 0.2263945831282988 0 0.140680818901677 0.23772266477734599 0 0.13352343610095271 0.23455680453122951 0 0.13746389712821591 0.2263945831282988 0 0.12111603015650001 0.2113108632867679 0 0.12503396081837459 0.2306749909089463 0 0.13746389712821591 0.2263945831282988 0 0.13352343610095271 0.23455680453122951 0 0.12503396081837459 0.2306749909089463 0 0.13746389712821591 0.2263945831282988 0 0.13078090719814769 0.23681265541541369 0 0.13352343610095271 0.23455680453122951 0 0.12503396081837459 0.2306749909089463 0 0.15381176409993219 0.24147830296982939 0 0.15168000235982121 0.21729067362852811 0 0.13746389712821591 0.2263945831282988 0 0.15168000235982121 0.21729067362852811 0 0.1355544405795398 0.21316146257620469 0 0.15381176409993219 0.24147830296982939 0 0.13746389712821591 0.2263945831282988 0 0.15381176409993219 0.24147830296982939 0 0.15168000235982121 0.21729067362852811 0 0.16251356867582531 0.22753116490745881 0 0.15381176409993219 0.24147830296982939 0 0.13746389712821591 0.2263945831282988 0 0.15168000235982121 0.21729067362852811 0 0.15168000235982121 0.21729067362852811 0 0.14333172594519941 0.20656808733790891 0 0.14954824061970989 0.19310304428722691 0 0.15168000235982121 0.21729067362852811 0 0.14954824061970989 0.19310304428722691 0 0.15168000235982121 0.21729067362852811 0 0.14333172594519941 0.20656808733790891 0 0.1355544405795398 0.21316146257620469 0 0.12111603015650001 0.2113108632867679 0 0.13746389712821591 0.2263945831282988 0 0.1355544405795398 0.21316146257620469 0 0.12111603015650001 0.2113108632867679 0 0.1355544405795398 0.21316146257620469 0 0.12624343633047161 0.20303672248925289 0 0.1355544405795398 0.21316146257620469 0 0.13611550696339469 0.2043109644467567 0 0.12624343633047161 0.20303672248925289 0 0.14333172594519941 0.20656808733790891 0 0.1355544405795398 0.21316146257620469 0 0.13611550696339469 0.2043109644467567 0 0.14333172594519941 0.20656808733790891 0 0.13611550696339469 0.2043109644467567 0 0.1406424980934794 0.19874065492473689 0 0.13193636923684471 0.19689661633146471 0 0.1367114050288474 0.1918343940571289 0 0.1406424980934794 0.19874065492473689 0 0.13611550696339469 0.2043109644467567 0 0.13193636923684471 0.19689661633146471 0 0.1406424980934794 0.19874065492473689 0 0.13193636923684471 0.19689661633146471 0 0.12624343633047161 0.20303672248925289 0 0.12613196654567471 0.19025247127141251 0 0.13611550696339469 0.2043109644467567 0 0.13193636923684471 0.19689661633146471 0 0.12624343633047161 0.20303672248925289 0 0.13411932515879491 0.18193881803492329 0 0.12613196654567471 0.19025247127141251 0 0.1367114050288474 0.1918343940571289 0 0.13193636923684471 0.19689661633146471 0 0.12613196654567471 0.19025247127141251 0 0.1367114050288474 0.1918343940571289 0 0.13411932515879491 0.18193881803492329 0 0.1367114050288474 0.1918343940571289 0 0.14954824061970989 0.19310304428722691 0 0.15168000235982121 0.21729067362852811 0 0.14954824061970989 0.19310304428722691 0 0.1579571322873676 0.19573438629354889 0 0.1367114050288474 0.1918343940571289 0 0.1406424980934794 0.19874065492473689 0 0.14954824061970989 0.19310304428722691 0 0.14333172594519941 0.20656808733790891 0 0.1406424980934794 0.19874065492473689 0 0.14954824061970989 0.19310304428722691 0 0.1579571322873676 0.19573438629354889 0 0.16935166507854391 0.1961851068720184 0 0.1665110933571777 0.2109006261305435 0 0.17203460529019601 0.18510176990205551 0 0.1579571322873676 0.19573438629354889 0 0.16935166507854391 0.1961851068720184 0 0.17203460529019601 0.18510176990205551 0 0.16935166507854391 0.1961851068720184 0 0.18574698097283629 0.19079052722627149 0 0.16935166507854391 0.1961851068720184 0 0.18574698097283629 0.19079052722627149 0 0.17809149431756779 0.20350998990465119 0 0.18726907354862171 0.2171879997720994 0 0.17809149431756779 0.20350998990465119 0 0.1665110933571777 0.2109006261305435 0 0.15168000235982121 0.21729067362852811 0 0.1579571322873676 0.19573438629354889 0 0.1665110933571777 0.2109006261305435 0 0.15168000235982121 0.21729067362852811 0 0.1665110933571777 0.2109006261305435 0 0.16251356867582531 0.22753116490745881 0 0.16935166507854391 0.1961851068720184 0 0.17809149431756779 0.20350998990465119 0 0.1665110933571777 0.2109006261305435 0 0.1665110933571777 0.2109006261305435 0 0.16251356867582531 0.22753116490745881 0 0.1754069931517917 0.22865191395817611 0 0.16251356867582531 0.22753116490745881 0 0.1754069931517917 0.22865191395817611 0 0.16557916039895451 0.23912647121301681 0 0.18726907354862171 0.2171879997720994 0 0.1665110933571777 0.2109006261305435 0 0.1754069931517917 0.22865191395817611 0 0.18726907354862171 0.2171879997720994 0 0.1754069931517917 0.22865191395817611 0 0.19675678972537111 0.23577495867629039 0 0.1754069931517917 0.22865191395817611 0 0.17821534512342471 0.2442019642551809 0 0.16557916039895451 0.23912647121301681 0 0.1754069931517917 0.22865191395817611 0 0.17821534512342471 0.2442019642551809 0 0.19675678972537111 0.23577495867629039 0 0.17821534512342471 0.2442019642551809 0 0.16557916039895451 0.23912647121301681 0 0.1639321141411299 0.25081606703310272 0 0.15381176409993219 0.24147830296982939 0 0.16251356867582531 0.22753116490745881 0 0.16557916039895451 0.23912647121301681 0 0.15381176409993219 0.24147830296982939 0 0.1639321141411299 0.25081606703310272 0 0.15381176409993219 0.24147830296982939 0 0.16557916039895451 0.23912647121301681 0 0.1639321141411299 0.25081606703310272 0 0.19675678972537111 0.23577495867629039 0 0.21539624971043489 0.2334100868507325 0 0.21628400391968941 0.25467379496871179 0 0.17821534512342471 0.2442019642551809 0 0.19675678972537111 0.23577495867629039 0 0.19605567301978619 0.25703485086780442 0 0.19675678972537111 0.23577495867629039 0 0.19605567301978619 0.25703485086780442 0 0.21628400391968941 0.25467379496871179 0 0.18726907354862171 0.2171879997720994 0 0.19675678972537111 0.23577495867629039 0 0.20283200132264331 0.2117925207778979 0 0.21539624971043489 0.2334100868507325 0 0.20283200132264331 0.2117925207778979 0 0.2275725083277188 0.2200750516511446 0 0.19675678972537111 0.23577495867629039 0 0.21539624971043489 0.2334100868507325 0 0.20283200132264331 0.2117925207778979 0 0.20283200132264331 0.2117925207778979 0 0.22278435916788911 0.19915966573164939 0 0.2275725083277188 0.2200750516511446 0 0.20283200132264331 0.2117925207778979 0 0.2275725083277188 0.2200750516511446 0 0.17809149431756779 0.20350998990465119 0 0.20283200132264331 0.2117925207778979 0 0.18726907354862171 0.2171879997720994 0 0.17809149431756779 0.20350998990465119 0 0.20283200132264331 0.2117925207778979 0 0.18574698097283629 0.19079052722627149 0 0.20283200132264331 0.2117925207778979 0 0.2029411720897496 0.18731282814338979 0 0.18574698097283629 0.19079052722627149 0 0.17809149431756779 0.20350998990465119 0 0.20283200132264331 0.2117925207778979 0 0.22278435916788911 0.19915966573164939 0 0.2029411720897496 0.18731282814338979 0 0.22333642662749989 0.1797262629028436 0 0.20283200132264331 0.2117925207778979 0 0.22278435916788911 0.19915966573164939 0 0.2029411720897496 0.18731282814338979 0 0.22278435916788911 0.19915966573164939 0 0.24173246471255769 0.18944206582477369 0 0.22333642662749989 0.1797262629028436 0 0.24173246471255769 0.18944206582477369 0 0.23884710115474539 0.2050928719382423 0 0.25446569247249118 0.2016270656083107 0 0.22278435916788911 0.19915966573164939 0 0.24173246471255769 0.18944206582477369 0 0.23884710115474539 0.2050928719382423 0 0.23884710115474539 0.2050928719382423 0 0.24768048109307009 0.21516051087533339 0 0.2275725083277188 0.2200750516511446 0 0.23884710115474539 0.2050928719382423 0 0.24768048109307009 0.21516051087533339 0 0.25446569247249118 0.2016270656083107 0 0.22278435916788911 0.19915966573164939 0 0.23884710115474539 0.2050928719382423 0 0.2275725083277188 0.2200750516511446 0 0.21539624971043489 0.2334100868507325 0 0.2275725083277188 0.2200750516511446 0 0.23353594525675181 0.2447341081796178 0 0.2275725083277188 0.2200750516511446 0 0.24486768388138971 0.238914970013657 0 0.25231301533279432 0.22835758252439139 0 0.24768048109307009 0.21516051087533339 0 0.2275725083277188 0.2200750516511446 0 0.25231301533279432 0.22835758252439139 0 0.2275725083277188 0.2200750516511446 0 0.25231301533279432 0.22835758252439139 0 0.2275725083277188 0.2200750516511446 0 0.24486768388138971 0.238914970013657 0 0.23353594525675181 0.2447341081796178 0 0.24486768388138971 0.238914970013657 0 0.23353594525675181 0.2447341081796178 0 0.24766219088804209 0.25228471583829248 0 0.21539624971043489 0.2334100868507325 0 0.23353594525675181 0.2447341081796178 0 0.21628400391968941 0.25467379496871179 0 0.21399064987307739 0.14572015984989939 0 0.20072798015823409 0.15200576575208211 0 0.20619933046661529 0.16665815804138201 0 0.21399064987307739 0.14572015984989939 0 0.20619933046661529 0.16665815804138201 0 0.22769910670979659 0.15545648730105119 0 0.21399064987307739 0.14572015984989939 0 0.19588498063014401 0.13906320075954201 0 0.20072798015823409 0.15200576575208211 0 0.21399064987307739 0.14572015984989939 0 0.214818136655232 0.12865774510934719 0 0.19588498063014401 0.13906320075954201 0 0.214818136655232 0.12865774510934719 0 0.19588498063014401 0.13906320075954201 0 0.19659124785685689 0.1235416929741488 0 0.18345163330088671 0.12903885324715189 0 0.19588498063014401 0.13906320075954201 0 0.19659124785685689 0.1235416929741488 0 0.1861607803410294 0.1552861971979573 0 0.19588498063014401 0.13906320075954201 0 0.20072798015823409 0.15200576575208211 0 0.1861607803410294 0.1552861971979573 0 0.20072798015823409 0.15200576575208211 0 0.20619933046661529 0.16665815804138201 0 0.1824423923085732 0.1708572710742931 0 0.1861607803410294 0.1552861971979573 0 0.20619933046661529 0.16665815804138201 0 0.1824423923085732 0.1708572710742931 0 0.2029411720897496 0.18731282814338979 0 0.20619933046661529 0.16665815804138201 0 0.1824423923085732 0.1708572710742931 0 0.18574698097283629 0.19079052722627149 0 0.2029411720897496 0.18731282814338979 0 0.2029411720897496 0.18731282814338979 0 0.20619933046661529 0.16665815804138201 0 0.22333642662749989 0.1797262629028436 0 0.20619933046661529 0.16665815804138201 0 0.22333642662749989 0.1797262629028436 0 0.22769910670979659 0.15545648730105119 0 0.22333642662749989 0.1797262629028436 0 0.24050736723060351 0.16869895270764909 0 0.22769910670979659 0.15545648730105119 0 0.24173246471255769 0.18944206582477369 0 0.22333642662749989 0.1797262629028436 0 0.24050736723060351 0.16869895270764909 0 0.24173246471255769 0.18944206582477369 0 0.24050736723060351 0.16869895270764909 0 0.25464003426139131 0.17666586729871581 0 0.24050736723060351 0.16869895270764909 0 0.25454967408750251 0.15794531861218969 0 0.25464003426139131 0.17666586729871581 0 0.24050736723060351 0.16869895270764909 0 0.2430308126809651 0.1505159525120901 0 0.22769910670979659 0.15545648730105119 0 0.24050736723060351 0.16869895270764909 0 0.2430308126809651 0.1505159525120901 0 0.25454967408750251 0.15794531861218969 0 0.2430308126809651 0.1505159525120901 0 0.23699525760342019 0.1360324445557605 0 0.25893386802456347 0.14003650189678191 0 0.2430308126809651 0.1505159525120901 0 0.22769910670979659 0.15545648730105119 0 0.23699525760342019 0.1360324445557605 0 0.21399064987307739 0.14572015984989939 0 0.22769910670979659 0.15545648730105119 0 0.23699525760342019 0.1360324445557605 0 0.214818136655232 0.12865774510934719 0 0.23699525760342019 0.1360324445557605 0 0.23859442605707831 0.113875232042858 0 0.21399064987307739 0.14572015984989939 0 0.214818136655232 0.12865774510934719 0 0.23699525760342019 0.1360324445557605 0 0.23699525760342019 0.1360324445557605 0 0.2494604034116702 0.12801796591919351 0 0.25893386802456347 0.14003650189678191 0 0.23699525760342019 0.1360324445557605 0 0.2494604034116702 0.12801796591919351 0 0.23859442605707831 0.113875232042858 0 0.23859442605707831 0.113875232042858 0 0.24730480387762471 0.1084596992921386 0 0.26331806196161889 0.12212768518137281 0 0.23859442605707831 0.113875232042858 0 0.24730480387762471 0.1084596992921386 0 0.22225552855294661 0.10224843948606641 0 0.25128065365224361 0.093692309096531284 0 0.24730480387762471 0.1084596992921386 0 0.22225552855294661 0.10224843948606641 0 0.25128065365224361 0.093692309096531284 0 0.22225552855294661 0.10224843948606641 0 0.23398853630743549 0.086253916778114711 0 0.25128065365224361 0.093692309096531284 0 0.24730480387762471 0.1084596992921386 0 0.22225552855294661 0.10224843948606641 0 0.23859442605707831 0.113875232042858 0 0.24730480387762471 0.1084596992921386 0 0.22225552855294661 0.10224843948606641 0 0.23859442605707831 0.113875232042858 0 0.22225552855294661 0.10224843948606641 0 0.21243474658957309 0.1051434447864167 0 0.214818136655232 0.12865774510934719 0 0.23859442605707831 0.113875232042858 0 0.23859442605707831 0.113875232042858 0 0.2125403026422982 0.11675311292579089 0 0.21243474658957309 0.1051434447864167 0 0.214818136655232 0.12865774510934719 0 0.23859442605707831 0.113875232042858 0 0.2125403026422982 0.11675311292579089 0 0.23859442605707831 0.113875232042858 0 0.21243474658957309 0.1051434447864167 0 0.2125403026422982 0.11675311292579089 0 0.19659124785685689 0.1235416929741488 0 0.20027753139972401 0.1140321039623841 0 0.214818136655232 0.12865774510934719 0 0.2125403026422982 0.11675311292579089 0 0.19659124785685689 0.1235416929741488 0 0.2125403026422982 0.11675311292579089 0 0.21243474658957309 0.1051434447864167 0 0.20591470139039489 0.1070654470750881 0 0.2125403026422982 0.11675311292579089 0 0.20591470139039489 0.1070654470750881 0 0.20027753139972401 0.1140321039623841 0 0.22225552855294661 0.10224843948606641 0 0.20124719748598499 0.097039178912357041 0 0.22225552855294661 0.10224843948606641 0 0.20124719748598499 0.097039178912357041 0 0.22036888546838621 0.08395132393550854 0 0.22225552855294661 0.10224843948606641 0 0.21243474658957309 0.1051434447864167 0 0.20124719748598499 0.097039178912357041 0 0.22225552855294661 0.10224843948606641 0 0.21243474658957309 0.1051434447864167 0 0.21243474658957309 0.1051434447864167 0 0.20975016446412159 0.104247363470856 0 0.20975016446412159 0.104247363470856 0 0.19995258987370429 0.10352764892972501 0 0.20975016446412159 0.104247363470856 0 0.20591470139039489 0.1070654470750881 0 0.19995258987370429 0.10352764892972501 0 0.21243474658957309 0.1051434447864167 0 0.20975016446412159 0.104247363470856 0 0.20124719748598499 0.097039178912357041 0 0.21243474658957309 0.1051434447864167 0 0.20975016446412159 0.104247363470856 0 0.20591470139039489 0.1070654470750881 0 0.21243474658957309 0.1051434447864167 0 0.20591470139039489 0.1070654470750881 0 0.20975016446412159 0.104247363470856 0 0.19995258987370429 0.10352764892972501 0 0.19012718027155401 0.09769744669841153 0 0.20124719748598499 0.097039178912357041 0 0.18023886641902381 0.091829918338645983 0 0.20591470139039489 0.1070654470750881 0 0.19995258987370429 0.10352764892972501 0 0.17940787380908471 0.11487922469784401 0 0.19995258987370429 0.10352764892972501 0 0.19012718027155401 0.09769744669841153 0 0.17686443490288881 0.10183162909267469 0 0.19995258987370429 0.10352764892972501 0 0.17686443490288881 0.10183162909267469 0 0.20124719748598499 0.097039178912357041 0 0.19012718027155401 0.09769744669841153 0 0.18023886641902381 0.091829918338645983 0 0.20975016446412159 0.104247363470856 0 0.19012718027155401 0.09769744669841153 0 0.20975016446412159 0.104247363470856 0 0.20124719748598499 0.097039178912357041 0 0.19012718027155401 0.09769744669841153 0 0.20591470139039489 0.1070654470750881 0 0.19995258987370429 0.10352764892972501 0 0.19995258987370429 0.10352764892972501 0 0.19012718027155401 0.09769744669841153 0 0.20591470139039489 0.1070654470750881 0 0.17940787380908471 0.11487922469784401 0 0.20591470139039489 0.1070654470750881 0 0.20027753139972401 0.1140321039623841 0 0.17940787380908471 0.11487922469784401 0 0.19659124785685689 0.1235416929741488 0 0.20027753139972401 0.1140321039623841 0 0.17940787380908471 0.11487922469784401 0 0.20002534839917249 0.071319198824201568 0 0.1903042708281476 0.07408405316456812 0 0.20412462379025251 0.081581620984889983 0 0.20002534839917249 0.071319198824201568 0 0.19454763578559209 0.062805644925421775 0 0.2090694085574826 0.066204554383094569 0 0.19454763578559209 0.062805644925421775 0 0.1903042708281476 0.07408405316456812 0 0.1832131670766361 0.065121180868306122 0 0.20002534839917249 0.071319198824201568 0 0.19454763578559209 0.062805644925421775 0 0.1903042708281476 0.07408405316456812 0 0.1903042708281476 0.07408405316456812 0 0.20412462379025251 0.081581620984889983 0 0.18023886641902381 0.091829918338645983 0 0.20124719748598499 0.097039178912357041 0 0.20412462379025251 0.081581620984889983 0 0.18023886641902381 0.091829918338645983 0 0.20124719748598499 0.097039178912357041 0 0.20412462379025251 0.081581620984889983 0 0.22036888546838621 0.08395132393550854 0 0.20412462379025251 0.081581620984889983 0 0.22091474839060199 0.070312076039673668 0 0.22036888546838621 0.08395132393550854 0 0.20412462379025251 0.081581620984889983 0 0.2090694085574826 0.066204554383094569 0 0.22091474839060199 0.070312076039673668 0 0.20002534839917249 0.071319198824201568 0 0.20412462379025251 0.081581620984889983 0 0.2090694085574826 0.066204554383094569 0 0.2090694085574826 0.066204554383094569 0 0.22091474839060199 0.070312076039673668 0 0.2230481491931175 0.058433595357029411 0 0.22091474839060199 0.070312076039673668 0 0.22036888546838621 0.08395132393550854 0 0.235738679494647 0.068187906107944771 0 0.22091474839060199 0.070312076039673668 0 0.235738679494647 0.068187906107944771 0 0.2230481491931175 0.058433595357029411 0 0.22036888546838621 0.08395132393550854 0 0.23398853630743549 0.086253916778114711 0 0.235738679494647 0.068187906107944771 0 0.22225552855294661 0.10224843948606641 0 0.22036888546838621 0.08395132393550854 0 0.23398853630743549 0.086253916778114711 0 0.235738679494647 0.068187906107944771 0 0.25128065365224361 0.093692309096531284 0 0.235738679494647 0.068187906107944771 0 0.25238188953861429 0.075425586252555951 0 0.25128065365224361 0.093692309096531284 0 0.23398853630743549 0.086253916778114711 0 0.235738679494647 0.068187906107944771 0 0.25128065365224361 0.093692309096531284 0 0.23806309138844781 0.054450541851844808 0 0.25238188953861429 0.075425586252555951 0 0.235738679494647 0.068187906107944771 0 0.23806309138844781 0.054450541851844808 0 0.25238188953861429 0.075425586252555951 0 0.23806309138844781 0.054450541851844808 0 0.2446939278125477 0.02481034341253633 0 0.26071722025823418 0.038277066336702907 0 0.23806309138844781 0.054450541851844808 0 0.22374429323828121 0.033475497451133672 0 0.2446939278125477 0.02481034341253633 0 0.23806309138844781 0.054450541851844808 0 0.22374429323828121 0.033475497451133672 0 0.2201967053370511 0.042683503119357973 0 0.23806309138844781 0.054450541851844808 0 0.22374429323828121 0.033475497451133672 0 0.235738679494647 0.068187906107944771 0 0.23806309138844781 0.054450541851844808 0 0.2201967053370511 0.042683503119357973 0 0.235738679494647 0.068187906107944771 0 0.2201967053370511 0.042683503119357973 0 0.2230481491931175 0.058433595357029411 0 0.2201967053370511 0.042683503119357973 0 0.2230481491931175 0.058433595357029411 0 0.21619257205119419 0.050016302920798762 0 0.235738679494647 0.068187906107944771 0 0.2201967053370511 0.042683503119357973 0 0.24942856085965889 0.00090749762840000299 0 0.23142822906705951 0.01207947695404012 0 0.2348408711428675 -0.0072894450365570476 0 0.24942856085965889 0.00090749762840000299 0 0.2446939278125477 0.02481034341253633 0 0.23142822906705951 0.01207947695404012 0 0.22374429323828121 0.033475497451133672 0 0.23142822906705951 0.01207947695404012 0 0.20942549508811459 0.01250045305042244 0 0.22374429323828121 0.033475497451133672 0 0.2446939278125477 0.02481034341253633 0 0.23142822906705951 0.01207947695404012 0 0.23142822906705951 0.01207947695404012 0 0.2348408711428675 -0.0072894450365570476 0 0.22130978995272199 -0.00090614564100172101 0 0.23142822906705951 0.01207947695404012 0 0.20942549508811459 0.01250045305042244 0 0.22130978995272199 -0.00090614564100172101 0 0.20942549508811459 0.01250045305042244 0 0.20647051946502179 -0.0051953043201833577 0 0.22130978995272199 -0.00090614564100172101 0 0.22374429323828121 0.033475497451133672 0 0.20942549508811459 0.01250045305042244 0 0.2201967053370511 0.042683503119357973 0 0.20465473117945521 0.017179100130771119 0 0.2071252116354152 0.028331762573984301 0 0.2201967053370511 0.042683503119357973 0 0.20465473117945521 0.017179100130771119 0 0.22374429323828121 0.033475497451133672 0 0.20942549508811459 0.01250045305042244 0 0.20465473117945521 0.017179100130771119 0 0.22374429323828121 0.033475497451133672 0 0.2201967053370511 0.042683503119357973 0 0.20465473117945521 0.017179100130771119 0 0.20465473117945521 0.017179100130771119 0 0.2071252116354152 0.028331762573984301 0 0.2024856820413346 0.0232568097123836 0 0.2071252116354152 0.028331762573984301 0 0.2006808569538808 0.02715246050288098 0 0.2024856820413346 0.0232568097123836 0 0.2071252116354152 0.028331762573984301 0 0.2006808569538808 0.02715246050288098 0 0.20210031104199111 0.032643423914230418 0 0.2006808569538808 0.02715246050288098 0 0.19015111293296061 0.025835817791527639 0 0.1974819283965871 0.020363915641897979 0 0.2006808569538808 0.02715246050288098 0 0.1974819283965871 0.020363915641897979 0 0.2024856820413346 0.0232568097123836 0 0.2006808569538808 0.02715246050288098 0 0.20210031104199111 0.032643423914230418 0 0.19477625403304541 0.031600246958112622 0 0.2006808569538808 0.02715246050288098 0 0.19015111293296061 0.025835817791527639 0 0.19477625403304541 0.031600246958112622 0 0.19015111293296061 0.025835817791527639 0 0.1974819283965871 0.020363915641897979 0 0.19242469403889681 0.011871491654674819 0 0.20465473117945521 0.017179100130771119 0 0.1974819283965871 0.020363915641897979 0 0.19242469403889681 0.011871491654674819 0 0.20465473117945521 0.017179100130771119 0 0.1974819283965871 0.020363915641897979 0 0.2024856820413346 0.0232568097123836 0 0.19242469403889681 0.011871491654674819 0 0.1766932410735671 0.0087056689283906211 0 0.1951066969379473 -0.0084745913502882377 0 0.20942549508811459 0.01250045305042244 0 0.19242469403889681 0.011871491654674819 0 0.1951066969379473 -0.0084745913502882377 0 0.20942549508811459 0.01250045305042244 0 0.1951066969379473 -0.0084745913502882377 0 0.20942549508811459 0.01250045305042244 0 0.20465473117945521 0.017179100130771119 0 0.19242469403889681 0.011871491654674819 0 0.21259937983725349 0.054645428039506422 0 0.20892605383735449 0.044302685167301223 0 0.20201088133649489 0.053423600019330157 0 0.20892605383735449 0.044302685167301223 0 0.20112629445936309 0.045724939563882717 0 0.20201088133649489 0.053423600019330157 0 0.2090694085574826 0.066204554383094569 0 0.21259937983725349 0.054645428039506422 0 0.20201088133649489 0.053423600019330157 0 0.2090694085574826 0.066204554383094569 0 0.2230481491931175 0.058433595357029411 0 0.21259937983725349 0.054645428039506422 0 0.2230481491931175 0.058433595357029411 0 0.21259937983725349 0.054645428039506422 0 0.21619257205119419 0.050016302920798762 0 0.21259937983725349 0.054645428039506422 0 0.21619257205119419 0.050016302920798762 0 0.20892605383735449 0.044302685167301223 0 0.2201967053370511 0.042683503119357973 0 0.20791772972125011 0.037397795203610078 0 0.20892605383735449 0.044302685167301223 0 0.2201967053370511 0.042683503119357973 0 0.21619257205119419 0.050016302920798762 0 0.20892605383735449 0.044302685167301223 0 0.2201967053370511 0.042683503119357973 0 0.2071252116354152 0.028331762573984301 0 0.20791772972125011 0.037397795203610078 0 0.20791772972125011 0.037397795203610078 0 0.20210031104199111 0.032643423914230418 0 0.20000150286636409 0.038734854332564142 0 0.2071252116354152 0.028331762573984301 0 0.20791772972125011 0.037397795203610078 0 0.20210031104199111 0.032643423914230418 0 0.20791772972125011 0.037397795203610078 0 0.20892605383735449 0.044302685167301223 0 0.20000150286636409 0.038734854332564142 0 0.20892605383735449 0.044302685167301223 0 0.20112629445936309 0.045724939563882717 0 0.20000150286636409 0.038734854332564142 0 0.20112629445936309 0.045724939563882717 0 0.20000150286636409 0.038734854332564142 0 0.1935667397972389 0.046438618736335341 0 0.20210031104199111 0.032643423914230418 0 0.20000150286636409 0.038734854332564142 0 0.19477625403304541 0.031600246958112622 0 0.19015111293296061 0.025835817791527639 0 0.18883493742938359 0.036681122573980228 0 0.19477625403304541 0.031600246958112622 0 0.20000150286636409 0.038734854332564142 0 0.18883493742938359 0.036681122573980228 0 0.19477625403304541 0.031600246958112622 0 0.20000150286636409 0.038734854332564142 0 0.18883493742938359 0.036681122573980228 0 0.1935667397972389 0.046438618736335341 0 0.18883493742938359 0.036681122573980228 0 0.1935667397972389 0.046438618736335341 0 0.18269783630043601 0.044372967648159123 0 0.1935667397972389 0.046438618736335341 0 0.19408649550885981 0.054190775298764871 0 0.18622072511611329 0.054095237513972168 0 0.20112629445936309 0.045724939563882717 0 0.1935667397972389 0.046438618736335341 0 0.20201088133649489 0.053423600019330157 0 0.1935667397972389 0.046438618736335341 0 0.19408649550885981 0.054190775298764871 0 0.20201088133649489 0.053423600019330157 0 0.19454763578559209 0.062805644925421775 0 0.2090694085574826 0.066204554383094569 0 0.20201088133649489 0.053423600019330157 0 0.19454763578559209 0.062805644925421775 0 0.19408649550885981 0.054190775298764871 0 0.20201088133649489 0.053423600019330157 0 0.19454763578559209 0.062805644925421775 0 0.18622072511611329 0.054095237513972168 0 0.1832131670766361 0.065121180868306122 0 0.19454763578559209 0.062805644925421775 0 0.19408649550885981 0.054190775298764871 0 0.18622072511611329 0.054095237513972168 0 0.17869986306313099 0.058755704827097653 0 0.18622072511611329 0.054095237513972168 0 0.1832131670766361 0.065121180868306122 0 0.17869986306313099 0.058755704827097653 0 0.17263766581968201 0.051754169108700579 0 0.18622072511611329 0.054095237513972168 0 0.17869986306313099 0.058755704827097653 0 0.17263766581968201 0.051754169108700579 0 0.1727278942400928 0.064052231817411737 0 0.1935667397972389 0.046438618736335341 0 0.18622072511611329 0.054095237513972168 0 0.18269783630043601 0.044372967648159123 0 0.17263766581968201 0.051754169108700579 0 0.18622072511611329 0.054095237513972168 0 0.18269783630043601 0.044372967648159123 0 0.19015111293296061 0.025835817791527639 0 0.18883493742938359 0.036681122573980228 0 0.17833719360679129 0.033961552820868247 0 0.18883493742938359 0.036681122573980228 0 0.18269783630043601 0.044372967648159123 0 0.17833719360679129 0.033961552820868247 0 0.18269783630043601 0.044372967648159123 0 0.17833719360679129 0.033961552820868247 0 0.1680497723641344 0.040330284497189332 0 0.17263766581968201 0.051754169108700579 0 0.18269783630043601 0.044372967648159123 0 0.1680497723641344 0.040330284497189332 0 0.17263766581968201 0.051754169108700579 0 0.1680497723641344 0.040330284497189332 0 0.15843240085632729 0.04686262016666666 0 0.17833719360679129 0.033961552820868247 0 0.1680497723641344 0.040330284497189332 0 0.15827978520919109 0.025885929207073919 0 0.1680497723641344 0.040330284497189332 0 0.15843240085632729 0.04686262016666666 0 0.15827978520919109 0.025885929207073919 0 0.15843240085632729 0.04686262016666666 0 0.16201833929180781 0.060287964545926373 0 0.15108493366717751 0.059317239926398688 0 0.17263766581968201 0.051754169108700579 0 0.16201833929180781 0.060287964545926373 0 0.1727278942400928 0.064052231817411737 0 0.17263766581968201 0.051754169108700579 0 0.15843240085632729 0.04686262016666666 0 0.16201833929180781 0.060287964545926373 0 0.19242469403889681 0.011871491654674819 0 0.1766932410735671 0.0087056689283906211 0 0.17917720537228141 0.021252092080507049 0 0.1766932410735671 0.0087056689283906211 0 0.1951066969379473 -0.0084745913502882377 0 0.17833719360679129 0.033961552820868247 0 0.17917720537228141 0.021252092080507049 0 0.15827978520919109 0.025885929207073919 0 0.19015111293296061 0.025835817791527639 0 0.19242469403889681 0.011871491654674819 0 0.17917720537228141 0.021252092080507049 0 0.19015111293296061 0.025835817791527639 0 0.17833719360679129 0.033961552820868247 0 0.17917720537228141 0.021252092080507049 0 0.1766932410735671 0.0087056689283906211 0 0.15827978520919109 0.025885929207073919 0 0.1766932410735671 0.0087056689283906211 0 0.17917720537228141 0.021252092080507049 0 0.15827978520919109 0.025885929207073919 0 0.1766932410735671 0.0087056689283906211 0 0.15827978520919109 0.025885929207073919 0 0.15834286245691501 0.0030565393019177712 0 0.1766932410735671 0.0087056689283906211 0 0.15834286245691501 0.0030565393019177712 0 0.17370449856314829 -0.0112133245677503 0 0.15834286245691501 0.0030565393019177712 0 0.1375555982494632 0.0181703931889244 0 0.14363760820126389 -0.0065168637453057706 0 0.15827978520919109 0.025885929207073919 0 0.1375555982494632 0.0181703931889244 0 0.13986632934481499 0.043066189485757259 0 0.15827978520919109 0.025885929207073919 0 0.15834286245691501 0.0030565393019177712 0 0.1375555982494632 0.0181703931889244 0 0.12426482289195009 0.036307645588544803 0 0.11668898874298381 0.021118874442581068 0 0.1375555982494632 0.0181703931889244 0 0.1375555982494632 0.0181703931889244 0 0.1228652333266796 -0.0028958187831469389 0 0.14363760820126389 -0.0065168637453057706 0 0.11668898874298381 0.021118874442581068 0 0.1375555982494632 0.0181703931889244 0 0.1228652333266796 -0.0028958187831469389 0 0.1406886122176606 0.058530438534834722 0 0.15108493366717751 0.059317239926398688 0 0.13986632934481499 0.043066189485757259 0 0.15843240085632729 0.04686262016666666 0 0.15108493366717751 0.059317239926398688 0 0.13986632934481499 0.043066189485757259 0 0.15827978520919109 0.025885929207073919 0 0.13986632934481499 0.043066189485757259 0 0.15843240085632729 0.04686262016666666 0 0.15827978520919109 0.025885929207073919 0 0.13986632934481499 0.043066189485757259 0 0.1214528734804383 0.060246449764440102 0 0.12426482289195009 0.036307645588544803 0 0.13986632934481499 0.043066189485757259 0 0.12426482289195009 0.036307645588544803 0 0.1375555982494632 0.0181703931889244 0 0.13986632934481499 0.043066189485757259 0 0.1406886122176606 0.058530438534834722 0 0.13986632934481499 0.043066189485757259 0 0.12521616871798261 0.059180546159879617 0 0.1214528734804383 0.060246449764440102 0 0.13986632934481499 0.043066189485757259 0 0.1214528734804383 0.060246449764440102 0 0.13986632934481499 0.043066189485757259 0 0.12521616871798261 0.059180546159879617 0 0.12669762268706819 0.067368701335009051 0 0.1475320974699755 0.072422373510791282 0 0.13402273224157091 0.078970454842627297 0 0.1406886122176606 0.058530438534834722 0 0.12521616871798261 0.059180546159879617 0 0.1475320974699755 0.072422373510791282 0 0.1099844811484131 0.070946774933894646 0 0.13402273224157091 0.078970454842627297 0 0.1321124080407983 0.079896401993016425 0 0.12521616871798261 0.059180546159879617 0 0.1475320974699755 0.072422373510791282 0 0.12521616871798261 0.059180546159879617 0 0.12669762268706819 0.067368701335009051 0 0.1475320974699755 0.072422373510791282 0 0.1475320974699755 0.072422373510791282 0 0.16388548194449959 0.08212614592471866 0 0.1406886122176606 0.058530438534834722 0 0.15108493366717751 0.059317239926398688 0 0.1475320974699755 0.072422373510791282 0 0.1475320974699755 0.072422373510791282 0 0.15380330505275391 0.069382676485313044 0 0.16388548194449959 0.08212614592471866 0 0.1475320974699755 0.072422373510791282 0 0.13402273224157091 0.078970454842627297 0 0.1475320974699755 0.072422373510791282 0 0.15380330505275391 0.069382676485313044 0 0.15108493366717751 0.059317239926398688 0 0.1475320974699755 0.072422373510791282 0 0.15380330505275391 0.069382676485313044 0 0.16201833929180781 0.060287964545926373 0 0.15108493366717751 0.059317239926398688 0 0.15380330505275391 0.069382676485313044 0 0.15033047814643141 0.084413784836416136 0 0.13402273224157091 0.078970454842627297 0 0.1475320974699755 0.072422373510791282 0 0.15033047814643141 0.084413784836416136 0 0.13402273224157091 0.078970454842627297 0 0.1417268227701402 0.090721346375906842 0 0.15033047814643141 0.084413784836416136 0 0.1321124080407983 0.079896401993016425 0 0.1417268227701402 0.090721346375906842 0 0.15033047814643141 0.084413784836416136 0 0.1537762799320733 0.1001356092556234 0 0.15033047814643141 0.084413784836416136 0 0.1321124080407983 0.079896401993016425 0 0.1475320974699755 0.072422373510791282 0 0.15033047814643141 0.084413784836416136 0 0.16388548194449959 0.08212614592471866 0 0.1178529336810798 0.08680806632942531 0 0.1321124080407983 0.079896401993016425 0 0.1306881249612577 0.098439589418572074 0 0.15033047814643141 0.084413784836416136 0 0.13402273224157091 0.078970454842627297 0 0.1321124080407983 0.079896401993016425 0 0.1417268227701402 0.090721346375906842 0 0.1321124080407983 0.079896401993016425 0 0.1306881249612577 0.098439589418572074 0 0.13402273224157091 0.078970454842627297 0 0.1321124080407983 0.079896401993016425 0 0.1235265639249548 0.1090055056319673 0 0.1306881249612577 0.098439589418572074 0 0.1407420767694488 0.1129641471931679 0 0.1235265639249548 0.1090055056319673 0 0.12971334191947209 0.1181933120670165 0 0.1407420767694488 0.1129641471931679 0 0.11993223338676121 0.1225747154163979 0 0.1346524935967234 0.1282288800265329 0 0.12971334191947209 0.1181933120670165 0 0.1346524935967234 0.1282288800265329 0 0.12971334191947209 0.1181933120670165 0 0.1407420767694488 0.1129641471931679 0 0.1346524935967234 0.1282288800265329 0 0.15204367640966071 0.12844907648069681 0 0.1407420767694488 0.1129641471931679 0 0.15204367640966071 0.12844907648069681 0 0.1407420767694488 0.1129641471931679 0 0.16259765309528881 0.1144516735182959 0 0.1407420767694488 0.1129641471931679 0 0.1537762799320733 0.1001356092556234 0 0.16259765309528881 0.1144516735182959 0 0.1306881249612577 0.098439589418572074 0 0.1537762799320733 0.1001356092556234 0 0.1306881249612577 0.098439589418572074 0 0.1407420767694488 0.1129641471931679 0 0.1537762799320733 0.1001356092556234 0 0.1417268227701402 0.090721346375906842 0 0.1306881249612577 0.098439589418572074 0 0.1537762799320733 0.1001356092556234 0 0.1537762799320733 0.1001356092556234 0 0.17686443490288881 0.10183162909267469 0 0.1537762799320733 0.1001356092556234 0 0.16259765309528881 0.1144516735182959 0 0.17686443490288881 0.10183162909267469 0 0.1537762799320733 0.1001356092556234 0 0.17686443490288881 0.10183162909267469 0 0.17022882920899271 0.091055615767413819 0 0.15204367640966071 0.12844907648069681 0 0.16909658724674689 0.12826734179695071 0 0.16259765309528881 0.1144516735182959 0 0.16909658724674689 0.12826734179695071 0 0.16259765309528881 0.1144516735182959 0 0.17940787380908471 0.11487922469784401 0 0.16259765309528881 0.1144516735182959 0 0.17940787380908471 0.11487922469784401 0 0.17686443490288881 0.10183162909267469 0 0.18345163330088671 0.12903885324715189 0 0.19659124785685689 0.1235416929741488 0 0.17940787380908471 0.11487922469784401 0 0.18345163330088671 0.12903885324715189 0 0.16909658724674689 0.12826734179695071 0 0.17940787380908471 0.11487922469784401 0 0.19012718027155401 0.09769744669841153 0 0.17686443490288881 0.10183162909267469 0 0.17022882920899271 0.091055615767413819 0 0.19995258987370429 0.10352764892972501 0 0.17940787380908471 0.11487922469784401 0 0.17686443490288881 0.10183162909267469 0 0.19012718027155401 0.09769744669841153 0 0.17022882920899271 0.091055615767413819 0 0.19012718027155401 0.09769744669841153 0 0.18023886641902381 0.091829918338645983 0 0.1903042708281476 0.07408405316456812 0 0.18023886641902381 0.091829918338645983 0 0.17563225277053551 0.074595396647453127 0 0.18023886641902381 0.091829918338645983 0 0.16388548194449959 0.08212614592471866 0 0.19012718027155401 0.09769744669841153 0 0.18023886641902381 0.091829918338645983 0 0.17022882920899271 0.091055615767413819 0 0.18023886641902381 0.091829918338645983 0 0.17563225277053551 0.074595396647453127 0 0.16388548194449959 0.08212614592471866 0 0.18023886641902381 0.091829918338645983 0 0.1652846722827275 0.088121851587531358 0 0.18023886641902381 0.091829918338645983 0 0.1652846722827275 0.088121851587531358 0 0.17022882920899271 0.091055615767413819 0 0.1903042708281476 0.07408405316456812 0 0.1832131670766361 0.065121180868306122 0 0.17563225277053551 0.074595396647453127 0 0.17869986306313099 0.058755704827097653 0 0.1832131670766361 0.065121180868306122 0 0.1727278942400928 0.064052231817411737 0 0.1832131670766361 0.065121180868306122 0 0.1727278942400928 0.064052231817411737 0 0.17563225277053551 0.074595396647453127 0 0.17563225277053551 0.074595396647453127 0 0.1656134546599379 0.070088883084164597 0 0.16388548194449959 0.08212614592471866 0 0.1727278942400928 0.064052231817411737 0 0.17563225277053551 0.074595396647453127 0 0.1656134546599379 0.070088883084164597 0 0.16201833929180781 0.060287964545926373 0 0.1727278942400928 0.064052231817411737 0 0.1656134546599379 0.070088883084164597 0 0.16201833929180781 0.060287964545926373 0 0.15380330505275391 0.069382676485313044 0 0.1656134546599379 0.070088883084164597 0 0.15380330505275391 0.069382676485313044 0 0.1656134546599379 0.070088883084164597 0 0.16388548194449959 0.08212614592471866 0 0.15033047814643141 0.084413784836416136 0 0.1537762799320733 0.1001356092556234 0 0.17022882920899271 0.091055615767413819 0 0.15033047814643141 0.084413784836416136 0 0.17022882920899271 0.091055615767413819 0 0.18023886641902381 0.091829918338645983 0 0.16388548194449959 0.08212614592471866 0 0.1652846722827275 0.088121851587531358 0 0.15033047814643141 0.084413784836416136 0 0.1652846722827275 0.088121851587531358 0 0.17022882920899271 0.091055615767413819 0 0.15033047814643141 0.084413784836416136 0 0.16388548194449959 0.08212614592471866 0 0.1652846722827275 0.088121851587531358 0 0.15033047814643141 0.084413784836416136 0 0.1652846722827275 0.088121851587531358 0 0.1111987302287105 0.5 0 0.1093958327194873 0.46769221481424872 0 0.09261632440573303 0.48207951026129858 0 0.1111987302287105 0.5 0 0.1093958327194873 0.46769221481424872 0 0.13451055274056281 0.47271148197849489 0 0.1111987302287105 0.5 0 0.09261632440573303 0.48207951026129858 0 0.081473551139992884 0.5 0 0.1093958327194873 0.46769221481424872 0 0.1130279951095053 0.4412497667299235 0 0.12513602056264561 0.45729781275228681 0 0.1093958327194873 0.46769221481424872 0 0.12513602056264561 0.45729781275228681 0 0.13451055274056281 0.47271148197849489 0 0.1130279951095053 0.4412497667299235 0 0.086637926858418923 0.45462213123419293 0 0.094421088392659169 0.43358088626760199 0 0.1093958327194873 0.46769221481424872 0 0.1130279951095053 0.4412497667299235 0 0.086637926858418923 0.45462213123419293 0 0.1093958327194873 0.46769221481424872 0 0.086637926858418923 0.45462213123419293 0 0.09261632440573303 0.48207951026129858 0 0.086637926858418923 0.45462213123419293 0 0.076862447443479864 0.42642019475865273 0 0.094421088392659169 0.43358088626760199 0 0.086637926858418923 0.45462213123419293 0 0.056041018068983463 0.45218737131764752 0 0.076862447443479864 0.42642019475865273 0 0.086637926858418923 0.45462213123419293 0 0.071933786493881158 0.47637007547789362 0 0.056041018068983463 0.45218737131764752 0 0.086637926858418923 0.45462213123419293 0 0.071933786493881158 0.47637007547789362 0 0.09261632440573303 0.48207951026129858 0 0.071933786493881158 0.47637007547789362 0 0.09261632440573303 0.48207951026129858 0 0.081473551139992884 0.5 0 0.071933786493881158 0.47637007547789362 0 0.081473551139992884 0.5 0 0.061431694846376339 0.48769805551791129 0 0.081473551139992884 0.5 0 0.061431694846376339 0.48769805551791129 0 0.051748372051275297 0.5 0 0.061431694846376339 0.48769805551791129 0 0.051748372051275297 0.5 0 0.047366009260931381 0.48082338698728921 0 0.071933786493881158 0.47637007547789362 0 0.061431694846376339 0.48769805551791129 0 0.047366009260931381 0.48082338698728921 0 0.071933786493881158 0.47637007547789362 0 0.047366009260931381 0.48082338698728921 0 0.056041018068983463 0.45218737131764752 0 0.047366009260931381 0.48082338698728921 0 0.027893044606473839 0.46320735040269428 0 0.047366009260931381 0.48082338698728921 0 0.030476318926546501 0.48303506598143769 0 0.027893044606473839 0.46320735040269428 0 0.051748372051275297 0.5 0 0.047366009260931381 0.48082338698728921 0 0.030476318926546501 0.48303506598143769 0 0.051748372051275297 0.5 0 0.022023192962557721 0.5 0 0.030476318926546501 0.48303506598143769 0 0.022023192962557721 0.5 0 0.030476318926546501 0.48303506598143769 0 0.0033509757514942431 0.47114459251720497 0 0.030476318926546501 0.48303506598143769 0 0.0033509757514942431 0.47114459251720497 0 0.027893044606473839 0.46320735040269428 0 -0.0077019861261599099 0.5 0 0.022023192962557721 0.5 0 0.0033509757514942431 0.47114459251720497 0 -0.0078939568385715843 0.44642137318155689 0 0.0033509757514942431 0.47114459251720497 0 0.0084200799520162371 0.44559131381809941 0 0.0033509757514942431 0.47114459251720497 0 0.0084200799520162371 0.44559131381809941 0 0.027893044606473839 0.46320735040269428 0 0.0084200799520162371 0.44559131381809941 0 0.027893044606473839 0.46320735040269428 0 0.0084200799520162371 0.44559131381809941 0 0.027893044606473839 0.46320735040269428 0 0.034231783224206058 0.44127504450797778 0 0.034231783224206058 0.44127504450797778 0 0.056041018068983463 0.45218737131764752 0 0.0482125949295477 0.42184382925685782 0 0.027893044606473839 0.46320735040269428 0 0.034231783224206058 0.44127504450797778 0 0.056041018068983463 0.45218737131764752 0 0.047366009260931381 0.48082338698728921 0 0.027893044606473839 0.46320735040269428 0 0.056041018068983463 0.45218737131764752 0 0.056041018068983463 0.45218737131764752 0 0.0482125949295477 0.42184382925685782 0 0.076862447443479864 0.42642019475865273 0 0.0482125949295477 0.42184382925685782 0 0.036800316608331288 0.39463767848667702 0 0.058198502347788422 0.40227412994714368 0 0.0482125949295477 0.42184382925685782 0 0.058198502347788422 0.40227412994714368 0 0.076862447443479864 0.42642019475865273 0 0.0482125949295477 0.42184382925685782 0 0.019389750499420069 0.40696377169859621 0 0.036800316608331288 0.39463767848667702 0 0.034231783224206058 0.44127504450797778 0 0.0482125949295477 0.42184382925685782 0 0.018579855113553 0.42490955324518159 0 0.0482125949295477 0.42184382925685782 0 0.018579855113553 0.42490955324518159 0 0.0084200799520162371 0.44559131381809941 0 0.034231783224206058 0.44127504450797778 0 0.018579855113553 0.42490955324518159 0 0.018579855113553 0.42490955324518159 0 0.019389750499420069 0.40696377169859621 0 0.0091374866605647299 0.41659588948095411 0 0.0482125949295477 0.42184382925685782 0 0.018579855113553 0.42490955324518159 0 0.019389750499420069 0.40696377169859621 0 -0.00037575452869264192 0.42146722834861489 0 0.018579855113553 0.42490955324518159 0 0.0091374866605647299 0.41659588948095411 0 0.019389750499420069 0.40696377169859621 0 0.0091374866605647299 0.41659588948095411 0 0.007916848402720545 0.40881351529456039 0 -0.00014566007642066191 0.41506108244244988 0 -0.0030751309422814908 0.40732012660286121 0 0.007916848402720545 0.40881351529456039 0 -0.00014566007642066191 0.41506108244244988 0 0.0091374866605647299 0.41659588948095411 0 0.007916848402720545 0.40881351529456039 0 -0.00037575452869264192 0.42146722834861489 0 -0.00014566007642066191 0.41506108244244988 0 0.0091374866605647299 0.41659588948095411 0 -0.01105288470244176 0.42797527723350481 0 0.018579855113553 0.42490955324518159 0 -0.01105288470244176 0.42797527723350481 0 0.0084200799520162371 0.44559131381809941 0 0.018579855113553 0.42490955324518159 0 -0.01105288470244176 0.42797527723350481 0 -0.00037575452869264192 0.42146722834861489 0 0.018579855113553 0.42490955324518159 0 0.01238192555394964 0.3857924266703302 0 0.0066133638244578758 0.37754421042901509 0 0.0053399165095943078 0.38510569171500159 0 0.01238192555394964 0.3857924266703302 0 0.012239554712370119 0.39489280460943138 0 0.019844647448805621 0.38886297501198669 0 0.01526218241613444 0.37799846230620471 0 0.0066133638244578758 0.37754421042901509 0 0.0064294080337412088 0.36987845361255461 0 0.01238192555394964 0.3857924266703302 0 0.01526218241613444 0.37799846230620471 0 0.0066133638244578758 0.37754421042901509 0 -0.0040003650468491726 0.37678481023003718 0 0.0066133638244578758 0.37754421042901509 0 0.0053399165095943078 0.38510569171500159 0 -0.0012755702951004241 0.38734001269042828 0 -0.0040003650468491726 0.37678481023003718 0 0.0053399165095943078 0.38510569171500159 0 0.01238192555394964 0.3857924266703302 0 0.0053399165095943078 0.38510569171500159 0 0.0046529662770235253 0.3927288321044346 0 -0.0012755702951004241 0.38734001269042828 0 0.0053399165095943078 0.38510569171500159 0 0.0046529662770235253 0.3927288321044346 0 -0.0031430655094493642 0.39406554551191331 0 -0.0012755702951004241 0.38734001269042828 0 0.0046529662770235253 0.3927288321044346 0 0.0046529662770235253 0.3927288321044346 0 0.0010753368538949099 0.40034504048298852 0 0.0085917571956661033 0.40145745456510751 0 -0.0031430655094493642 0.39406554551191331 0 0.0046529662770235253 0.3927288321044346 0 0.0010753368538949099 0.40034504048298852 0 -0.0030751309422814908 0.40732012660286121 0 0.007916848402720545 0.40881351529456039 0 0.0010753368538949099 0.40034504048298852 0 0.007916848402720545 0.40881351529456039 0 0.0010753368538949099 0.40034504048298852 0 0.0085917571956661033 0.40145745456510751 0 0.019389750499420069 0.40696377169859621 0 0.007916848402720545 0.40881351529456039 0 0.0085917571956661033 0.40145745456510751 0 0.019389750499420069 0.40696377169859621 0 0.0085917571956661033 0.40145745456510751 0 0.012239554712370119 0.39489280460943138 0 0.01238192555394964 0.3857924266703302 0 0.0046529662770235253 0.3927288321044346 0 0.012239554712370119 0.39489280460943138 0 0.0046529662770235253 0.3927288321044346 0 0.0085917571956661033 0.40145745456510751 0 0.012239554712370119 0.39489280460943138 0 0.019389750499420069 0.40696377169859621 0 0.012239554712370119 0.39489280460943138 0 0.019844647448805621 0.38886297501198669 0 0.019389750499420069 0.40696377169859621 0 0.019844647448805621 0.38886297501198669 0 0.036800316608331288 0.39463767848667702 0 0.019844647448805621 0.38886297501198669 0 0.025987696079011361 0.37872196396921448 0 0.036800316608331288 0.39463767848667702 0 0.01238192555394964 0.3857924266703302 0 0.01526218241613444 0.37799846230620471 0 0.019844647448805621 0.38886297501198669 0 0.01526218241613444 0.37799846230620471 0 0.019844647448805621 0.38886297501198669 0 0.025987696079011361 0.37872196396921448 0 0.038956518809291067 0.37798655402474712 0 0.036800316608331288 0.39463767848667702 0 0.048994341458475657 0.38516731519841979 0 0.025987696079011361 0.37872196396921448 0 0.038956518809291067 0.37798655402474712 0 0.036800316608331288 0.39463767848667702 0 0.036800316608331288 0.39463767848667702 0 0.058198502347788422 0.40227412994714368 0 0.048994341458475657 0.38516731519841979 0 0.048994341458475657 0.38516731519841979 0 0.068246796614523764 0.38301046814044182 0 0.054805834285492461 0.36510468533767942 0 0.038956518809291067 0.37798655402474712 0 0.048994341458475657 0.38516731519841979 0 0.054805834285492461 0.36510468533767942 0 0.058198502347788422 0.40227412994714368 0 0.048994341458475657 0.38516731519841979 0 0.068246796614523764 0.38301046814044182 0 0.068246796614523764 0.38301046814044182 0 0.090594333006964539 0.38204169968969881 0 0.078994047411367938 0.36271780120024177 0 0.068246796614523764 0.38301046814044182 0 0.090594333006964539 0.38204169968969881 0 0.07789372117705351 0.40075717746946787 0 0.090594333006964539 0.38204169968969881 0 0.07789372117705351 0.40075717746946787 0 0.1011559841592326 0.41203145234763883 0 0.058198502347788422 0.40227412994714368 0 0.068246796614523764 0.38301046814044182 0 0.07789372117705351 0.40075717746946787 0 0.058198502347788422 0.40227412994714368 0 0.07789372117705351 0.40075717746946787 0 0.076862447443479864 0.42642019475865273 0 0.076862447443479864 0.42642019475865273 0 0.1011559841592326 0.41203145234763883 0 0.094421088392659169 0.43358088626760199 0 0.07789372117705351 0.40075717746946787 0 0.076862447443479864 0.42642019475865273 0 0.1011559841592326 0.41203145234763883 0 0.1130279951095053 0.4412497667299235 0 0.1011559841592326 0.41203145234763883 0 0.094421088392659169 0.43358088626760199 0 0.1130279951095053 0.4412497667299235 0 0.1011559841592326 0.41203145234763883 0 0.12693943672879909 0.41934948484231022 0 0.1011559841592326 0.41203145234763883 0 0.11343162148586899 0.38646879140433998 0 0.12693943672879909 0.41934948484231022 0 0.090594333006964539 0.38204169968969881 0 0.11343162148586899 0.38646879140433998 0 0.1031822605372435 0.36033091706280418 0 0.090594333006964539 0.38204169968969881 0 0.1011559841592326 0.41203145234763883 0 0.11343162148586899 0.38646879140433998 0 0.1031822605372435 0.36033091706280418 0 0.119173819711708 0.34634572694000981 0 0.1055161516551974 0.34138303275902598 0 0.1031822605372435 0.36033091706280418 0 0.1055161516551974 0.34138303275902598 0 0.089683456093427386 0.33874778920015719 0 0.11343162148586899 0.38646879140433998 0 0.1031822605372435 0.36033091706280418 0 0.1225787608290812 0.3623665261946129 0 0.11343162148586899 0.38646879140433998 0 0.1225787608290812 0.3623665261946129 0 0.13666980268416831 0.3736194995258153 0 0.1031822605372435 0.36033091706280418 0 0.1225787608290812 0.3623665261946129 0 0.119173819711708 0.34634572694000981 0 0.119173819711708 0.34634572694000981 0 0.1107871370849768 0.32493752066419102 0 0.1289966492202517 0.32961604968348063 0 0.119173819711708 0.34634572694000981 0 0.1107871370849768 0.32493752066419102 0 0.1055161516551974 0.34138303275902598 0 0.1107871370849768 0.32493752066419102 0 0.1175247610465268 0.30537486783934109 0 0.13005571184506001 0.31449308373837909 0 0.1107871370849768 0.32493752066419102 0 0.13005571184506001 0.31449308373837909 0 0.1289966492202517 0.32961604968348063 0 0.1107871370849768 0.32493752066419102 0 0.087242514959363041 0.31636030261297832 0 0.1019644679318389 0.3070470385087834 0 0.1107871370849768 0.32493752066419102 0 0.089683456093427386 0.33874778920015719 0 0.087242514959363041 0.31636030261297832 0 0.1107871370849768 0.32493752066419102 0 0.1055161516551974 0.34138303275902598 0 0.089683456093427386 0.33874778920015719 0 0.089683456093427386 0.33874778920015719 0 0.087242514959363041 0.31636030261297832 0 0.068461138325553117 0.32588987494301158 0 0.068461138325553117 0.32588987494301158 0 0.052559295811563413 0.31906870236090412 0 0.068128831547928495 0.30862249730891078 0 0.087242514959363041 0.31636030261297832 0 0.068461138325553117 0.32588987494301158 0 0.068128831547928495 0.30862249730891078 0 0.089683456093427386 0.33874778920015719 0 0.068461138325553117 0.32588987494301158 0 0.063387133318034153 0.34813896028201707 0 0.063387133318034153 0.34813896028201707 0 0.078994047411367938 0.36271780120024177 0 0.054805834285492461 0.36510468533767942 0 0.089683456093427386 0.33874778920015719 0 0.063387133318034153 0.34813896028201707 0 0.078994047411367938 0.36271780120024177 0 0.1031822605372435 0.36033091706280418 0 0.089683456093427386 0.33874778920015719 0 0.078994047411367938 0.36271780120024177 0 0.090594333006964539 0.38204169968969881 0 0.1031822605372435 0.36033091706280418 0 0.078994047411367938 0.36271780120024177 0 0.1031822605372435 0.36033091706280418 0 0.078994047411367938 0.36271780120024177 0 0.078994047411367938 0.36271780120024177 0 0.054805834285492461 0.36510468533767942 0 0.068246796614523764 0.38301046814044182 0 0.078994047411367938 0.36271780120024177 0 0.054805834285492461 0.36510468533767942 0 0.063387133318034153 0.34813896028201707 0 0.054805834285492461 0.36510468533767942 0 0.041876718539310902 0.35783630901748692 0 0.063387133318034153 0.34813896028201707 0 0.041876718539310902 0.35783630901748692 0 0.046501605253053122 0.33853730199352539 0 0.02454207218055313 0.35118472904403902 0 0.046501605253053122 0.33853730199352539 0 0.027539693840490761 0.35403617071795851 0 0.02454207218055313 0.35118472904403902 0 0.046501605253053122 0.33853730199352539 0 0.041876718539310902 0.35783630901748692 0 0.027539693840490761 0.35403617071795851 0 0.046501605253053122 0.33853730199352539 0 0.041876718539310902 0.35783630901748692 0 0.027577745265714639 0.36110720431152932 0 0.027539693840490761 0.35403617071795851 0 0.038956518809291067 0.37798655402474712 0 0.054805834285492461 0.36510468533767942 0 0.03061762115961689 0.36749156947511702 0 0.054805834285492461 0.36510468533767942 0 0.03061762115961689 0.36749156947511702 0 0.054805834285492461 0.36510468533767942 0 0.041876718539310902 0.35783630901748692 0 0.03061762115961689 0.36749156947511702 0 0.041876718539310902 0.35783630901748692 0 0.03061762115961689 0.36749156947511702 0 0.027577745265714639 0.36110720431152932 0 0.025987696079011361 0.37872196396921448 0 0.038956518809291067 0.37798655402474712 0 0.03061762115961689 0.36749156947511702 0 0.03061762115961689 0.36749156947511702 0 0.021023720302544908 0.36325505635663929 0 0.0064294080337412088 0.36987845361255461 0 0.01526218241613444 0.37799846230620471 0 0.03061762115961689 0.36749156947511702 0 0.0064294080337412088 0.36987845361255461 0 0.01526218241613444 0.37799846230620471 0 0.025987696079011361 0.37872196396921448 0 0.03061762115961689 0.36749156947511702 0 0.03061762115961689 0.36749156947511702 0 0.0064294080337412088 0.36987845361255461 0 0.021023720302544908 0.36325505635663929 0 0.02006204657350184 0.35864712130940912 0 0.013667211724010451 0.36310871341549711 0 0.021023720302544908 0.36325505635663929 0 0.027577745265714639 0.36110720431152932 0 0.02006204657350184 0.35864712130940912 0 0.03061762115961689 0.36749156947511702 0 0.021023720302544908 0.36325505635663929 0 0.027577745265714639 0.36110720431152932 0 0.02454207218055313 0.35118472904403902 0 0.02006204657350184 0.35864712130940912 0 0.0041012391354052387 0.36295747229576109 0 0.027539693840490761 0.35403617071795851 0 0.024930389465065091 0.35624380634573399 0 0.02454207218055313 0.35118472904403902 0 0.027539693840490761 0.35403617071795851 0 0.02454207218055313 0.35118472904403902 0 0.027577745265714639 0.36110720431152932 0 0.024930389465065091 0.35624380634573399 0 0.02006204657350184 0.35864712130940912 0 0.027577745265714639 0.36110720431152932 0 0.027539693840490761 0.35403617071795851 0 0.024930389465065091 0.35624380634573399 0 0.024930389465065091 0.35624380634573399 0 0.02454207218055313 0.35118472904403902 0 0.02006204657350184 0.35864712130940912 0 0.02454207218055313 0.35118472904403902 0 0.006063579509959287 0.34913786842647748 0 0.0039219051409631941 0.33157011109351803 0 0.02454207218055313 0.35118472904403902 0 0.006063579509959287 0.34913786842647748 0 0.0041012391354052387 0.36295747229576109 0 0.02454207218055313 0.35118472904403902 0 0.0041012391354052387 0.36295747229576109 0 0.02006204657350184 0.35864712130940912 0 0.0041012391354052387 0.36295747229576109 0 0.013667211724010451 0.36310871341549711 0 -0.0040003650468491726 0.37678481023003718 0 0.0041012391354052387 0.36295747229576109 0 0.0064294080337412088 0.36987845361255461 0 -0.0040003650468491726 0.37678481023003718 0 0.0066133638244578758 0.37754421042901509 0 0.0064294080337412088 0.36987845361255461 0 0.0041012391354052387 0.36295747229576109 0 0.0064294080337412088 0.36987845361255461 0 0.013667211724010451 0.36310871341549711 0 0.021023720302544908 0.36325505635663929 0 0.0064294080337412088 0.36987845361255461 0 0.013667211724010451 0.36310871341549711 0 0.015041644011139889 0.31317164362882682 0 0.0039219051409631941 0.33157011109351803 0 0.00048632796560877181 0.30625335544440752 0 0.015041644011139889 0.31317164362882682 0 0.0039219051409631941 0.33157011109351803 0 0.02400255161628731 0.3313157921906158 0 0.02454207218055313 0.35118472904403902 0 0.0039219051409631941 0.33157011109351803 0 0.02454207218055313 0.35118472904403902 0 0.0039219051409631941 0.33157011109351803 0 0.02400255161628731 0.3313157921906158 0 0.015041644011139889 0.31317164362882682 0 0.035172661711871889 0.31769031451227481 0 0.02655377603101599 0.30898616434895482 0 0.015041644011139889 0.31317164362882682 0 0.02400255161628731 0.3313157921906158 0 0.035172661711871889 0.31769031451227481 0 0.035172661711871889 0.31769031451227481 0 0.052559295811563413 0.31906870236090412 0 0.047729028853920358 0.30463279862621639 0 0.035172661711871889 0.31769031451227481 0 0.046501605253053122 0.33853730199352539 0 0.052559295811563413 0.31906870236090412 0 0.02400255161628731 0.3313157921906158 0 0.035172661711871889 0.31769031451227481 0 0.046501605253053122 0.33853730199352539 0 0.02454207218055313 0.35118472904403902 0 0.02400255161628731 0.3313157921906158 0 0.046501605253053122 0.33853730199352539 0 0.068461138325553117 0.32588987494301158 0 0.046501605253053122 0.33853730199352539 0 0.068461138325553117 0.32588987494301158 0 0.063387133318034153 0.34813896028201707 0 0.046501605253053122 0.33853730199352539 0 0.068461138325553117 0.32588987494301158 0 0.046501605253053122 0.33853730199352539 0 0.052559295811563413 0.31906870236090412 0 0.052559295811563413 0.31906870236090412 0 0.047729028853920358 0.30463279862621639 0 0.068128831547928495 0.30862249730891078 0 0.047729028853920358 0.30463279862621639 0 0.065303264840990041 0.29094411669649728 0 0.068128831547928495 0.30862249730891078 0 0.04687319554377762 0.28903110510977481 0 0.050505350301504347 0.27220527540350792 0 0.065303264840990041 0.29094411669649728 0 0.047729028853920358 0.30463279862621639 0 0.04687319554377762 0.28903110510977481 0 0.065303264840990041 0.29094411669649728 0 0.050505350301504347 0.27220527540350792 0 0.065303264840990041 0.29094411669649728 0 0.035316410560977007 0.30042674517826201 0 0.035511923161496338 0.27694658964439051 0 0.04687319554377762 0.28903110510977481 0 0.035316410560977007 0.30042674517826201 0 0.035511923161496338 0.27694658964439051 0 0.035316410560977007 0.30042674517826201 0 0.026582037638235741 0.28809643677184149 0 0.035511923161496338 0.27694658964439051 0 0.035172661711871889 0.31769031451227481 0 0.047729028853920358 0.30463279862621639 0 0.035316410560977007 0.30042674517826201 0 0.035172661711871889 0.31769031451227481 0 0.035316410560977007 0.30042674517826201 0 0.02655377603101599 0.30898616434895482 0 0.035172661711871889 0.31769031451227481 0 0.035316410560977007 0.30042674517826201 0 0.047729028853920358 0.30463279862621639 0 0.04687319554377762 0.28903110510977481 0 0.035316410560977007 0.30042674517826201 0 0.047729028853920358 0.30463279862621639 0 0.035316410560977007 0.30042674517826201 0 0.035316410560977007 0.30042674517826201 0 0.02655377603101599 0.30898616434895482 0 0.01250331841172328 0.29269645954243922 0 0.015041644011139889 0.31317164362882682 0 0.02655377603101599 0.30898616434895482 0 0.01250331841172328 0.29269645954243922 0 0.035316410560977007 0.30042674517826201 0 0.01250331841172328 0.29269645954243922 0 0.035316410560977007 0.30042674517826201 0 0.026582037638235741 0.28809643677184149 0 0.01250331841172328 0.29269645954243922 0 0.026582037638235741 0.28809643677184149 0 0.02086176117852075 0.27893679772789631 0 0.035511923161496338 0.27694658964439051 0 0.026582037638235741 0.28809643677184149 0 0.01250331841172328 0.29269645954243922 0 0.02086176117852075 0.27893679772789631 0 -0.010309773737530019 0.28496617390661522 0 0.01250331841172328 0.29269645954243922 0 0.01250331841172328 0.29269645954243922 0 0.0070266906870940019 0.27647173113642831 0 0.02086176117852075 0.27893679772789631 0 -0.010309773737530019 0.28496617390661522 0 0.01250331841172328 0.29269645954243922 0 0.00048632796560877181 0.30625335544440752 0 -0.010309773737530019 0.28496617390661522 0 0.01250331841172328 0.29269645954243922 0 0.0070266906870940019 0.27647173113642831 0 0.015041644011139889 0.31317164362882682 0 0.01250331841172328 0.29269645954243922 0 0.00048632796560877181 0.30625335544440752 0 -0.0046720592673639514 0.26114863339281791 0 -0.0040594279863269559 0.2411688980649096 0 0.012596111222701781 0.25023258242042362 0 -0.0046720592673639514 0.26114863339281791 0 0.012596111222701781 0.25023258242042362 0 0.01889577416666267 0.26546422684105209 0 -0.0046720592673639514 0.26114863339281791 0 0.0070266906870940019 0.27647173113642831 0 0.01889577416666267 0.26546422684105209 0 0.0070266906870940019 0.27647173113642831 0 0.02086176117852075 0.27893679772789631 0 0.01889577416666267 0.26546422684105209 0 0.02086176117852075 0.27893679772789631 0 0.01889577416666267 0.26546422684105209 0 0.035511923161496338 0.27694658964439051 0 0.01889577416666267 0.26546422684105209 0 0.035707435762018173 0.25346643411051889 0 0.035511923161496338 0.27694658964439051 0 0.012596111222701781 0.25023258242042362 0 0.01889577416666267 0.26546422684105209 0 0.035707435762018173 0.25346643411051889 0 0.035707435762018173 0.25346643411051889 0 0.035511923161496338 0.27694658964439051 0 0.035707435762018173 0.25346643411051889 0 0.050505350301504347 0.27220527540350792 0 0.035707435762018173 0.25346643411051889 0 0.035511923161496338 0.27694658964439051 0 0.050505350301504347 0.27220527540350792 0 0.04687319554377762 0.28903110510977481 0 0.035511923161496338 0.27694658964439051 0 0.050505350301504347 0.27220527540350792 0 0.050505350301504347 0.27220527540350792 0 0.068389500910289544 0.26837853747561319 0 0.065303264840990041 0.29094411669649728 0 0.035707435762018173 0.25346643411051889 0 0.050505350301504347 0.27220527540350792 0 0.057857820753778468 0.25118676913038562 0 0.050505350301504347 0.27220527540350792 0 0.057857820753778468 0.25118676913038562 0 0.068389500910289544 0.26837853747561319 0 0.057857820753778468 0.25118676913038562 0 0.07918974385725501 0.25702135662873871 0 0.068389500910289544 0.26837853747561319 0 0.08323402177701604 0.2383187253987161 0 0.07918974385725501 0.25702135662873871 0 0.095655653454541537 0.25871883881996383 0 0.07918974385725501 0.25702135662873871 0 0.087370927205190185 0.27256642671885811 0 0.095655653454541537 0.25871883881996383 0 0.07918974385725501 0.25702135662873871 0 0.087370927205190185 0.27256642671885811 0 0.068389500910289544 0.26837853747561319 0 0.087370927205190185 0.27256642671885811 0 0.068389500910289544 0.26837853747561319 0 0.065303264840990041 0.29094411669649728 0 0.065303264840990041 0.29094411669649728 0 0.068128831547928495 0.30862249730891078 0 0.087477746496181036 0.29483918861385738 0 0.087242514959363041 0.31636030261297832 0 0.087477746496181036 0.29483918861385738 0 0.1019644679318389 0.3070470385087834 0 0.087242514959363041 0.31636030261297832 0 0.068128831547928495 0.30862249730891078 0 0.087477746496181036 0.29483918861385738 0 0.087370927205190185 0.27256642671885811 0 0.087477746496181036 0.29483918861385738 0 0.1028338282526224 0.27721219732535901 0 0.087370927205190185 0.27256642671885811 0 0.065303264840990041 0.29094411669649728 0 0.087477746496181036 0.29483918861385738 0 0.087477746496181036 0.29483918861385738 0 0.1067901800721469 0.2937233128135493 0 0.1028338282526224 0.27721219732535901 0 0.1067901800721469 0.2937233128135493 0 0.11375310872907329 0.28313416969737382 0 0.1028338282526224 0.27721219732535901 0 0.087477746496181036 0.29483918861385738 0 0.1067901800721469 0.2937233128135493 0 0.1019644679318389 0.3070470385087834 0 0.1067901800721469 0.2937233128135493 0 0.1019644679318389 0.3070470385087834 0 0.1175247610465268 0.30537486783934109 0 0.1107871370849768 0.32493752066419102 0 0.1019644679318389 0.3070470385087834 0 0.1175247610465268 0.30537486783934109 0 0.1175247610465268 0.30537486783934109 0 0.1235200691258435 0.29009437264365229 0 0.13306182646336209 0.300521861807444 0 0.1067901800721469 0.2937233128135493 0 0.11375310872907329 0.28313416969737382 0 0.1235200691258435 0.29009437264365229 0 0.1067901800721469 0.2937233128135493 0 0.1175247610465268 0.30537486783934109 0 0.1235200691258435 0.29009437264365229 0 0.11375310872907329 0.28313416969737382 0 0.1235200691258435 0.29009437264365229 0 0.123522968880051 0.27754992244402621 0 0.11375310872907329 0.28313416969737382 0 0.123522968880051 0.27754992244402621 0 0.11568143207670339 0.27342847278903432 0 0.11568143207670339 0.27342847278903432 0 0.11272844235301149 0.26157667962783382 0 0.1028338282526224 0.27721219732535901 0 0.11375310872907329 0.28313416969737382 0 0.11568143207670339 0.27342847278903432 0 0.1028338282526224 0.27721219732535901 0 0.11568143207670339 0.27342847278903432 0 0.1241971919740205 0.26669421358974349 0 0.11272844235301149 0.26157667962783382 0 0.123522968880051 0.27754992244402621 0 0.11568143207670339 0.27342847278903432 0 0.1241971919740205 0.26669421358974349 0 0.1068565596894244 0.2476489044201986 0 0.13047909760183279 0.25697908344168108 0 0.1068565596894244 0.2476489044201986 0 0.11272844235301149 0.26157667962783382 0 0.13047909760183279 0.25697908344168108 0 0.1241971919740205 0.26669421358974349 0 0.11272844235301149 0.26157667962783382 0 0.13047909760183279 0.25697908344168108 0 0.1068565596894244 0.2476489044201986 0 0.11272844235301149 0.26157667962783382 0 0.095655653454541537 0.25871883881996383 0 0.087370927205190185 0.27256642671885811 0 0.095655653454541537 0.25871883881996383 0 0.1028338282526224 0.27721219732535901 0 0.11272844235301149 0.26157667962783382 0 0.095655653454541537 0.25871883881996383 0 0.1028338282526224 0.27721219732535901 0 0.14555672290489241 0.26292910109817408 0 0.15732110303263741 0.27520782299299101 0 0.1577805414346711 0.27879638994929001 0 0.14073757664890929 0.2634915930681036 0 0.15776175952592841 0.28629617518609191 0 0.1578586769074157 0.2879526253269391 0 0.14115105818472901 0.27684095427746058 0 0.14073757664890929 0.2634915930681036 0 0.1578586769074157 0.2879526253269391 0 0.14555672290489241 0.26292910109817408 0 0.1577805414346711 0.27879638994929001 0 0.14555672290489241 0.26292910109817408 0 0.14073757664890929 0.2634915930681036 0 0.1577805414346711 0.27879638994929001 0 0.14073757664890929 0.2634915930681036 0 0.1578586769074157 0.2879526253269391 0 0.14073757664890929 0.2634915930681036 0 0.15776175952592841 0.28629617518609191 0 0.1577805414346711 0.27879638994929001 0 0.15559901121997979 0.26175696266598958 0 0.14555672290489241 0.26292910109817408 0 0.15732110303263741 0.27520782299299101 0 0.15381176409993219 0.24147830296982939 0 0.15559901121997979 0.26175696266598958 0 0.1496967195985302 0.25479380677548891 0 0.15381176409993219 0.24147830296982939 0 0.15559901121997979 0.26175696266598958 0 0.15559901121997979 0.26175696266598958 0 0.1496967195985302 0.25479380677548891 0 0.14555672290489241 0.26292910109817408 0 0.15559901121997979 0.26175696266598958 0 0.14555672290489241 0.26292910109817408 0 0.14234723223993859 0.24938015533621449 0 0.1496967195985302 0.25479380677548891 0 0.14555672290489241 0.26292910109817408 0 0.14730232733989729 0.24723517821230351 0 0.14234723223993859 0.24938015533621449 0 0.1496967195985302 0.25479380677548891 0 0.14555672290489241 0.26292910109817408 0 0.14073757664890929 0.2634915930681036 0 0.12743254065288101 0.24448259774712991 0 0.14073757664890929 0.2634915930681036 0 0.13047909760183279 0.25697908344168108 0 0.14073757664890929 0.2634915930681036 0 0.13592103870056119 0.26405378059570722 0 0.12743254065288101 0.24448259774712991 0 0.13006538141837959 0.24282036098075471 0 0.14073757664890929 0.2634915930681036 0 0.12743254065288101 0.24448259774712991 0 0.14073757664890929 0.2634915930681036 0 0.14073757664890929 0.2634915930681036 0 0.13592103870056119 0.26405378059570722 0 0.13047909760183279 0.25697908344168108 0 0.14234723223993859 0.24938015533621449 0 0.13006538141837959 0.24282036098075471 0 0.14555672290489241 0.26292910109817408 0 0.13006538141837959 0.24282036098075471 0 0.14555672290489241 0.26292910109817408 0 0.14073757664890929 0.2634915930681036 0 0.13006538141837959 0.24282036098075471 0 0.14555672290489241 0.26292910109817408 0 0.1241971919740205 0.26669421358974349 0 0.13047909760183279 0.25697908344168108 0 0.1304918118756008 0.26471759076437551 0 0.13592103870056119 0.26405378059570722 0 0.13047909760183279 0.25697908344168108 0 0.1304918118756008 0.26471759076437551 0 0.123522968880051 0.27754992244402621 0 0.1241971919740205 0.26669421358974349 0 0.13136991922598881 0.27114328543036997 0 0.1241971919740205 0.26669421358974349 0 0.1304918118756008 0.26471759076437551 0 0.13136991922598881 0.27114328543036997 0 0.13592103870056119 0.26405378059570722 0 0.1304918118756008 0.26471759076437551 0 0.13136991922598881 0.27114328543036997 0 0.14115105818472901 0.27684095427746058 0 0.13592103870056119 0.26405378059570722 0 0.13136991922598881 0.27114328543036997 0 0.14115105818472901 0.27684095427746058 0 0.14073757664890929 0.2634915930681036 0 0.13592103870056119 0.26405378059570722 0 0.14115105818472901 0.27684095427746058 0 0.13261609214867631 0.28080502051398298 0 0.1393455228704342 0.28349820714606372 0 0.14115105818472901 0.27684095427746058 0 0.13136991922598881 0.27114328543036997 0 0.13261609214867631 0.28080502051398298 0 0.123522968880051 0.27754992244402621 0 0.13136991922598881 0.27114328543036997 0 0.13261609214867631 0.28080502051398298 0 0.1235200691258435 0.29009437264365229 0 0.123522968880051 0.27754992244402621 0 0.13261609214867631 0.28080502051398298 0 0.1235200691258435 0.29009437264365229 0 0.13261609214867631 0.28080502051398298 0 0.13564564733741541 0.28838276472415608 0 0.1235200691258435 0.29009437264365229 0 0.13564564733741541 0.28838276472415608 0 0.13306182646336209 0.300521861807444 0 0.13564564733741541 0.28838276472415608 0 0.13306182646336209 0.300521861807444 0 0.147969293810916 0.287964089068655 0 0.13261609214867631 0.28080502051398298 0 0.1393455228704342 0.28349820714606372 0 0.13564564733741541 0.28838276472415608 0 0.13306182646336209 0.300521861807444 0 0.14420279676866671 0.31651589255437512 0 0.13005571184506001 0.31449308373837909 0 0.1175247610465268 0.30537486783934109 0 0.13306182646336209 0.300521861807444 0 0.13005571184506001 0.31449308373837909 0 0.147969293810916 0.287964089068655 0 0.15806429650278889 0.31204797341143953 0 0.14420279676866671 0.31651589255437512 0 0.13306182646336209 0.300521861807444 0 0.147969293810916 0.287964089068655 0 0.14420279676866671 0.31651589255437512 0 0.147969293810916 0.287964089068655 0 0.14420279676866671 0.31651589255437512 0 0.14115105818472901 0.27684095427746058 0 0.147969293810916 0.287964089068655 0 0.1578586769074157 0.2879526253269391 0 0.147969293810916 0.287964089068655 0 0.1578586769074157 0.2879526253269391 0 0.15806429650278889 0.31204797341143953 0 0.14115105818472901 0.27684095427746058 0 0.1393455228704342 0.28349820714606372 0 0.147969293810916 0.287964089068655 0 0.1393455228704342 0.28349820714606372 0 0.13564564733741541 0.28838276472415608 0 0.147969293810916 0.287964089068655 0 0.15776175952592841 0.28629617518609191 0 0.1577805414346711 0.27879638994929001 0 0.16374742206918819 0.28405901968340092 0 0.1578586769074157 0.2879526253269391 0 0.1679014566534531 0.29000595208060292 0 0.16051762826030541 0.28253419563933252 0 0.15776175952592841 0.28629617518609191 0 0.1577805414346711 0.27879638994929001 0 0.16051762826030541 0.28253419563933252 0 0.16374742206918819 0.28405901968340092 0 0.15776175952592841 0.28629617518609191 0 0.16051762826030541 0.28253419563933252 0 0.16374742206918819 0.28405901968340092 0 0.16207028209899191 0.28017106829965222 0 0.16374742206918819 0.28405901968340092 0 0.15776175952592841 0.28629617518609191 0 0.1578586769074157 0.2879526253269391 0 0.15776175952592841 0.28629617518609191 0 0.1578586769074157 0.2879526253269391 0 0.1578586769074157 0.2879526253269391 0 0.16304758608671091 0.29536605512446812 0 0.1679014566534531 0.29000595208060292 0 0.1578586769074157 0.2879526253269391 0 0.16304758608671091 0.29536605512446812 0 0.16304758608671091 0.29536605512446812 0 0.1679014566534531 0.29000595208060292 0 0.17491408587654339 0.29567084822099898 0 0.16374742206918819 0.28405901968340092 0 0.17344456090561419 0.28422712907396558 0 0.16760242837283371 0.27621852327059199 0 0.16374742206918819 0.28405901968340092 0 0.1679014566534531 0.29000595208060292 0 0.17344456090561419 0.28422712907396558 0 0.16304758608671091 0.29536605512446812 0 0.15806429650278889 0.31204797341143953 0 0.1753230484314979 0.30817557001324808 0 0.1578586769074157 0.2879526253269391 0 0.16304758608671091 0.29536605512446812 0 0.15806429650278889 0.31204797341143953 0 0.1578586769074157 0.2879526253269391 0 0.15806429650278889 0.31204797341143953 0 0.16304758608671091 0.29536605512446812 0 0.1753230484314979 0.30817557001324808 0 0.17491408587654339 0.29567084822099898 0 0.1753230484314979 0.30817557001324808 0 0.18900542273931961 0.30090339233614882 0 0.1956986890932515 0.32259850607448548 0 0.1753230484314979 0.30817557001324808 0 0.17491408587654339 0.29567084822099898 0 0.18900542273931961 0.30090339233614882 0 0.1679014566534531 0.29000595208060292 0 0.17344456090561419 0.28422712907396558 0 0.17491408587654339 0.29567084822099898 0 0.17344456090561419 0.28422712907396558 0 0.17491408587654339 0.29567084822099898 0 0.1858595357773048 0.28807699352370081 0 0.17491408587654339 0.29567084822099898 0 0.1858595357773048 0.28807699352370081 0 0.18900542273931961 0.30090339233614882 0 0.17344456090561419 0.28422712907396558 0 0.1858595357773048 0.28807699352370081 0 0.18130021894910051 0.27342988041722871 0 0.18130021894910051 0.27342988041722871 0 0.17582734211988299 0.25939590676689711 0 0.19272208880571221 0.268602358130131 0 0.18130021894910051 0.27342988041722871 0 0.17194567794240509 0.26960057887039551 0 0.16760242837283371 0.27621852327059199 0 0.18130021894910051 0.27342988041722871 0 0.17194567794240509 0.26960057887039551 0 0.17582734211988299 0.25939590676689711 0 0.17344456090561419 0.28422712907396558 0 0.18130021894910051 0.27342988041722871 0 0.16760242837283371 0.27621852327059199 0 0.16374742206918819 0.28405901968340092 0 0.16760242837283371 0.27621852327059199 0 0.16207028209899191 0.28017106829965222 0 0.17194567794240509 0.26960057887039551 0 0.16760242837283371 0.27621852327059199 0 0.1630527223278031 0.26935800502686408 0 0.17194567794240509 0.26960057887039551 0 0.1630527223278031 0.26935800502686408 0 0.17582734211988299 0.25939590676689711 0 0.15559901121997979 0.26175696266598958 0 0.15732110303263741 0.27520782299299101 0 0.15559901121997979 0.26175696266598958 0 0.1630527223278031 0.26935800502686408 0 0.15732110303263741 0.27520782299299101 0 0.15732110303263741 0.27520782299299101 0 0.1577805414346711 0.27879638994929001 0 0.161024049177206 0.27694687478492919 0 0.15732110303263741 0.27520782299299101 0 0.1577805414346711 0.27879638994929001 0 0.16051762826030541 0.28253419563933252 0 0.1577805414346711 0.27879638994929001 0 0.16207028209899191 0.28017106829965222 0 0.16760242837283371 0.27621852327059199 0 0.16207028209899191 0.28017106829965222 0 0.161024049177206 0.27694687478492919 0 0.1577805414346711 0.27879638994929001 0 0.16207028209899191 0.28017106829965222 0 0.161024049177206 0.27694687478492919 0 0.16760242837283371 0.27621852327059199 0 0.1630527223278031 0.26935800502686408 0 0.161024049177206 0.27694687478492919 0 0.1630527223278031 0.26935800502686408 0 0.15732110303263741 0.27520782299299101 0 0.161024049177206 0.27694687478492919 0 0.15559901121997979 0.26175696266598958 0 0.17582734211988299 0.25939590676689711 0 0.15381176409993219 0.24147830296982939 0 0.15559901121997979 0.26175696266598958 0 0.1639321141411299 0.25081606703310272 0 0.15559901121997979 0.26175696266598958 0 0.1639321141411299 0.25081606703310272 0 0.17582734211988299 0.25939590676689711 0 0.15559901121997979 0.26175696266598958 0 0.1630527223278031 0.26935800502686408 0 0.17582734211988299 0.25939590676689711 0 0.17821534512342471 0.2442019642551809 0 0.1639321141411299 0.25081606703310272 0 0.17582734211988299 0.25939590676689711 0 0.17582734211988299 0.25939590676689711 0 0.19605567301978619 0.25703485086780442 0 0.17821534512342471 0.2442019642551809 0 0.17582734211988299 0.25939590676689711 0 0.19605567301978619 0.25703485086780442 0 0.17582734211988299 0.25939590676689711 0 0.19605567301978619 0.25703485086780442 0 0.19272208880571221 0.268602358130131 0 0.19605567301978619 0.25703485086780442 0 0.19272208880571221 0.268602358130131 0 0.20530680421580469 0.26742169446240421 0 0.1858595357773048 0.28807699352370081 0 0.18130021894910051 0.27342988041722871 0 0.19920461975298701 0.28090650507995979 0 0.18130021894910051 0.27342988041722871 0 0.19272208880571221 0.268602358130131 0 0.19920461975298701 0.28090650507995979 0 0.19272208880571221 0.268602358130131 0 0.19920461975298701 0.28090650507995979 0 0.20530680421580469 0.26742169446240421 0 0.19920461975298701 0.28090650507995979 0 0.20530680421580469 0.26742169446240421 0 0.22226763558084889 0.27589096326541401 0 0.20530680421580469 0.26742169446240421 0 0.21628400391968941 0.25467379496871179 0 0.22226763558084889 0.27589096326541401 0 0.19605567301978619 0.25703485086780442 0 0.20530680421580469 0.26742169446240421 0 0.21628400391968941 0.25467379496871179 0 0.19605567301978619 0.25703485086780442 0 0.21628400391968941 0.25467379496871179 0 0.23353594525675181 0.2447341081796178 0 0.21628400391968941 0.25467379496871179 0 0.2389805633183727 0.26604417915917561 0 0.21628400391968941 0.25467379496871179 0 0.22226763558084889 0.27589096326541401 0 0.2389805633183727 0.26604417915917561 0 0.22226763558084889 0.27589096326541401 0 0.2389805633183727 0.26604417915917561 0 0.23808061335872341 0.29120163147674988 0 0.2389805633183727 0.26604417915917561 0 0.23808061335872341 0.29120163147674988 0 0.2578973101864348 0.28090069475218987 0 0.2389805633183727 0.26604417915917561 0 0.24766219088804209 0.25228471583829248 0 0.25447641887271633 0.26298743253310047 0 0.23353594525675181 0.2447341081796178 0 0.2389805633183727 0.26604417915917561 0 0.24766219088804209 0.25228471583829248 0 0.23808061335872341 0.29120163147674988 0 0.24244588913505211 0.31271612569254742 0 0.26272015396501308 0.30525215465330102 0 0.22226763558084889 0.27589096326541401 0 0.23808061335872341 0.29120163147674988 0 0.22288759824241869 0.29342543001615229 0 0.23808061335872341 0.29120163147674988 0 0.22221898169305221 0.30736439065249538 0 0.24244588913505211 0.31271612569254742 0 0.23808061335872341 0.29120163147674988 0 0.22288759824241869 0.29342543001615229 0 0.22221898169305221 0.30736439065249538 0 0.22221898169305221 0.30736439065249538 0 0.20898316233705019 0.29924473466994977 0 0.21367552844368479 0.32423603019498642 0 0.22288759824241869 0.29342543001615229 0 0.22221898169305221 0.30736439065249538 0 0.20898316233705019 0.29924473466994977 0 0.19920461975298701 0.28090650507995979 0 0.22226763558084889 0.27589096326541401 0 0.20898316233705019 0.29924473466994977 0 0.22226763558084889 0.27589096326541401 0 0.22288759824241869 0.29342543001615229 0 0.20898316233705019 0.29924473466994977 0 0.22226763558084889 0.27589096326541401 0 0.20898316233705019 0.29924473466994977 0 0.19920461975298701 0.28090650507995979 0 0.20898316233705019 0.29924473466994977 0 0.19576318515166541 0.29228290640243981 0 0.1858595357773048 0.28807699352370081 0 0.19576318515166541 0.29228290640243981 0 0.18900542273931961 0.30090339233614882 0 0.1858595357773048 0.28807699352370081 0 0.19920461975298701 0.28090650507995979 0 0.19576318515166541 0.29228290640243981 0 0.20898316233705019 0.29924473466994977 0 0.1956986890932515 0.32259850607448548 0 0.20898316233705019 0.29924473466994977 0 0.19576318515166541 0.29228290640243981 0 0.18900542273931961 0.30090339233614882 0 0.20898316233705019 0.29924473466994977 0 0.18900542273931961 0.30090339233614882 0 0.1956986890932515 0.32259850607448548 0 0.1956986890932515 0.32259850607448548 0 0.1824142158494528 0.3459522774790213 0 0.1956986890932515 0.32259850607448548 0 0.20331763512769771 0.33869166270855933 0 0.1824142158494528 0.3459522774790213 0 0.1956986890932515 0.32259850607448548 0 0.20331763512769771 0.33869166270855933 0 0.21367552844368479 0.32423603019498642 0 0.20331763512769771 0.33869166270855933 0 0.21367552844368479 0.32423603019498642 0 0.2200697587007375 0.34581473068230301 0 0.20898316233705019 0.29924473466994977 0 0.1956986890932515 0.32259850607448548 0 0.21367552844368479 0.32423603019498642 0 0.22221898169305221 0.30736439065249538 0 0.21367552844368479 0.32423603019498642 0 0.2317649437103198 0.33170215638212541 0 0.22221898169305221 0.30736439065249538 0 0.2317649437103198 0.33170215638212541 0 0.24244588913505211 0.31271612569254742 0 0.22221898169305221 0.30736439065249538 0 0.2317649437103198 0.33170215638212541 0 0.21367552844368479 0.32423603019498642 0 0.2317649437103198 0.33170215638212541 0 0.2200697587007375 0.34581473068230301 0 0.2317649437103198 0.33170215638212541 0 0.25220869141264479 0.34539548406120119 0 0.25744475294815189 0.32806029529806507 0 0.2317649437103198 0.33170215638212541 0 0.24244588913505211 0.31271612569254742 0 0.25744475294815189 0.32806029529806507 0 0.24750532938186451 0.37183282296922449 0 0.2413109057275874 0.35603992211175528 0 0.24750532938186451 0.37183282296922449 0 0.2255794577857306 0.363295729560492 0 0.24750532938186451 0.37183282296922449 0 0.2255794577857306 0.363295729560492 0 0.23402867389178289 0.37455425097298239 0 0.24750532938186451 0.37183282296922449 0 0.2413109057275874 0.35603992211175528 0 0.25866471842402639 0.36232890839631798 0 0.24750532938186451 0.37183282296922449 0 0.2413109057275874 0.35603992211175528 0 0.2255794577857306 0.363295729560492 0 0.2317649437103198 0.33170215638212541 0 0.2413109057275874 0.35603992211175528 0 0.25220869141264479 0.34539548406120119 0 0.2317649437103198 0.33170215638212541 0 0.2413109057275874 0.35603992211175528 0 0.2317649437103198 0.33170215638212541 0 0.2413109057275874 0.35603992211175528 0 0.2200697587007375 0.34581473068230301 0 0.2413109057275874 0.35603992211175528 0 0.2200697587007375 0.34581473068230301 0 0.2255794577857306 0.363295729560492 0 0.2255794577857306 0.363295729560492 0 0.209073551154598 0.37021849510992733 0 0.2229194766641043 0.3756313625258646 0 0.2255794577857306 0.363295729560492 0 0.23402867389178289 0.37455425097298239 0 0.2229194766641043 0.3756313625258646 0 0.2255794577857306 0.363295729560492 0 0.209073551154598 0.37021849510992733 0 0.20399683681759159 0.35462400351975693 0 0.2255794577857306 0.363295729560492 0 0.20399683681759159 0.35462400351975693 0 0.2200697587007375 0.34581473068230301 0 0.2255794577857306 0.363295729560492 0 0.20399683681759159 0.35462400351975693 0 0.20331763512769771 0.33869166270855933 0 0.2200697587007375 0.34581473068230301 0 0.20399683681759159 0.35462400351975693 0 0.20331763512769771 0.33869166270855933 0 0.20399683681759159 0.35462400351975693 0 0.1824142158494528 0.3459522774790213 0 0.20399683681759159 0.35462400351975693 0 0.18446466746806581 0.35968655317990578 0 0.1824142158494528 0.3459522774790213 0 0.20399683681759159 0.35462400351975693 0 0.1824142158494528 0.3459522774790213 0 0.20399683681759159 0.35462400351975693 0 0.19485269142312431 0.36600409390999178 0 0.18446466746806581 0.35968655317990578 0 0.209073551154598 0.37021849510992733 0 0.19485269142312431 0.36600409390999178 0 0.1976525352954687 0.3782741795654852 0 0.209073551154598 0.37021849510992733 0 0.20399683681759159 0.35462400351975693 0 0.19485269142312431 0.36600409390999178 0 0.19485269142312431 0.36600409390999178 0 0.18478162004970339 0.37286642925981678 0 0.18446466746806581 0.35968655317990578 0 0.19485269142312431 0.36600409390999178 0 0.18478162004970339 0.37286642925981678 0 0.1976525352954687 0.3782741795654852 0 0.18478162004970339 0.37286642925981678 0 0.18446466746806581 0.35968655317990578 0 0.17137778989972111 0.36535403801728228 0 0.18478162004970339 0.37286642925981678 0 0.17137778989972111 0.36535403801728228 0 0.17565721776385479 0.38064495230390327 0 0.1584755356935364 0.36023866958044037 0 0.1622189612080393 0.37367063095455177 0 0.15868115528891019 0.38433401766494091 0 0.17137778989972111 0.36535403801728228 0 0.1622189612080393 0.37367063095455177 0 0.16034136394998949 0.38475579855554348 0 0.1584755356935364 0.36023866958044037 0 0.15868115528891019 0.38433401766494091 0 0.17137778989972111 0.36535403801728228 0 0.1584755356935364 0.36023866958044037 0 0.1622189612080393 0.37367063095455177 0 0.1584755356935364 0.36023866958044037 0 0.16672176670437461 0.34460417453513742 0 0.15826991609816271 0.3361433214959399 0 0.1584755356935364 0.36023866958044037 0 0.15826991609816271 0.3361433214959399 0 0.1584755356935364 0.36023866958044037 0 0.17089286032104151 0.35165644337290919 0 0.16672176670437461 0.34460417453513742 0 0.17137778989972111 0.36535403801728228 0 0.1584755356935364 0.36023866958044037 0 0.17089286032104151 0.35165644337290919 0 0.17089286032104151 0.35165644337290919 0 0.16672176670437461 0.34460417453513742 0 0.17630416460430681 0.34349730731710421 0 0.17137778989972111 0.36535403801728228 0 0.17089286032104151 0.35165644337290919 0 0.1824142158494528 0.3459522774790213 0 0.18446466746806581 0.35968655317990578 0 0.17137778989972111 0.36535403801728228 0 0.1824142158494528 0.3459522774790213 0 0.17089286032104151 0.35165644337290919 0 0.1824142158494528 0.3459522774790213 0 0.17630416460430681 0.34349730731710421 0 0.17137778989972111 0.36535403801728228 0 0.1824142158494528 0.3459522774790213 0 0.1824142158494528 0.3459522774790213 0 0.17630416460430681 0.34349730731710421 0 0.1956986890932515 0.32259850607448548 0 0.1824142158494528 0.3459522774790213 0 0.17510282710665359 0.33587703863560592 0 0.1824142158494528 0.3459522774790213 0 0.17510282710665359 0.33587703863560592 0 0.17630416460430681 0.34349730731710421 0 0.16672176670437461 0.34460417453513742 0 0.17510282710665359 0.33587703863560592 0 0.17630416460430681 0.34349730731710421 0 0.1753230484314979 0.30817557001324808 0 0.1956986890932515 0.32259850607448548 0 0.17120821029037309 0.32246664491194782 0 0.1956986890932515 0.32259850607448548 0 0.17510282710665359 0.33587703863560592 0 0.17120821029037309 0.32246664491194782 0 0.15806429650278889 0.31204797341143953 0 0.1753230484314979 0.30817557001324808 0 0.17120821029037309 0.32246664491194782 0 0.15806429650278889 0.31204797341143953 0 0.17120821029037309 0.32246664491194782 0 0.15826991609816271 0.3361433214959399 0 0.15806429650278889 0.31204797341143953 0 0.15826991609816271 0.3361433214959399 0 0.16672176670437461 0.34460417453513742 0 0.17510282710665359 0.33587703863560592 0 0.15826991609816271 0.3361433214959399 0 0.17510282710665359 0.33587703863560592 0 0.17120821029037309 0.32246664491194782 0 0.15826991609816271 0.3361433214959399 0 0.14420279676866671 0.31651589255437512 0 0.1404362997264175 0.34506769604009518 0 0.15826991609816271 0.3361433214959399 0 0.14420279676866671 0.31651589255437512 0 0.1404362997264175 0.34506769604009518 0 0.15806429650278889 0.31204797341143953 0 0.15826991609816271 0.3361433214959399 0 0.14420279676866671 0.31651589255437512 0 0.14420279676866671 0.31651589255437512 0 0.13005571184506001 0.31449308373837909 0 0.1289966492202517 0.32961604968348063 0 0.119173819711708 0.34634572694000981 0 0.1289966492202517 0.32961604968348063 0 0.1404362997264175 0.34506769604009518 0 0.14420279676866671 0.31651589255437512 0 0.1289966492202517 0.32961604968348063 0 0.1404362997264175 0.34506769604009518 0 0.1404362997264175 0.34506769604009518 0 0.13666980268416831 0.3736194995258153 0 0.1225787608290812 0.3623665261946129 0 0.119173819711708 0.34634572694000981 0 0.1404362997264175 0.34506769604009518 0 0.1225787608290812 0.3623665261946129 0 0.1404362997264175 0.34506769604009518 0 0.13666980268416831 0.3736194995258153 0 0.1404362997264175 0.34506769604009518 0 0.13666980268416831 0.3736194995258153 0 0.1509002941544742 0.3723518648927544 0 0.1584755356935364 0.36023866958044037 0 0.1509002941544742 0.3723518648927544 0 0.15868115528891019 0.38433401766494091 0 0.1584755356935364 0.36023866958044037 0 0.15826991609816271 0.3361433214959399 0 0.1404362997264175 0.34506769604009518 0 0.1584755356935364 0.36023866958044037 0 0.1404362997264175 0.34506769604009518 0 0.1509002941544742 0.3723518648927544 0 0.11343162148586899 0.38646879140433998 0 0.13771587181569231 0.39645837104520659 0 0.12693943672879909 0.41934948484231022 0 0.15212792585639751 0.39273628662070459 0 0.1527088506214915 0.42236409299446509 0 0.16180799956195591 0.39719039850245019 0 0.15212792585639751 0.39273628662070459 0 0.13771587181569231 0.39645837104520659 0 0.1527088506214915 0.42236409299446509 0 0.15212792585639751 0.39273628662070459 0 0.1467638836946519 0.38401263496211518 0 0.13771587181569231 0.39645837104520659 0 0.15212792585639751 0.39273628662070459 0 0.1467638836946519 0.38401263496211518 0 0.15868115528891019 0.38433401766494091 0 0.1509002941544742 0.3723518648927544 0 0.1467638836946519 0.38401263496211518 0 0.15868115528891019 0.38433401766494091 0 0.13666980268416831 0.3736194995258153 0 0.1509002941544742 0.3723518648927544 0 0.1467638836946519 0.38401263496211518 0 0.13666980268416831 0.3736194995258153 0 0.1467638836946519 0.38401263496211518 0 0.13771587181569231 0.39645837104520659 0 0.11343162148586899 0.38646879140433998 0 0.13666980268416831 0.3736194995258153 0 0.13771587181569231 0.39645837104520659 0 0.13771587181569231 0.39645837104520659 0 0.12693943672879909 0.41934948484231022 0 0.1527088506214915 0.42236409299446509 0 0.1130279951095053 0.4412497667299235 0 0.12693943672879909 0.41934948484231022 0 0.14360970168102721 0.44753778748647999 0 0.1527088506214915 0.42236409299446509 0 0.16258603392158039 0.44012864741666557 0 0.14360970168102721 0.44753778748647999 0 0.1527088506214915 0.42236409299446509 0 0.14360970168102721 0.44753778748647999 0 0.12693943672879909 0.41934948484231022 0 0.1527088506214915 0.42236409299446509 0 0.14360970168102721 0.44753778748647999 0 0.1527088506214915 0.42236409299446509 0 0.16180799956195591 0.39719039850245019 0 0.1527088506214915 0.42236409299446509 0 0.16545824115364499 0.41274110739600062 0 0.16180799956195591 0.39719039850245019 0 0.1527088506214915 0.42236409299446509 0 0.16545824115364499 0.41274110739600062 0 0.1746685548963792 0.42657938328040562 0 0.1527088506214915 0.42236409299446509 0 0.1746685548963792 0.42657938328040562 0 0.16258603392158039 0.44012864741666557 0 0.1746685548963792 0.42657938328040562 0 0.19353154563548119 0.431523836109239 0 0.1840640514075812 0.44765725271654222 0 0.1746685548963792 0.42657938328040562 0 0.19343858825060689 0.41497807558094529 0 0.19353154563548119 0.431523836109239 0 0.1746685548963792 0.42657938328040562 0 0.1790301668502452 0.4087130882910906 0 0.19343858825060689 0.41497807558094529 0 0.16545824115364499 0.41274110739600062 0 0.1746685548963792 0.42657938328040562 0 0.1790301668502452 0.4087130882910906 0 0.16545824115364499 0.41274110739600062 0 0.1790301668502452 0.4087130882910906 0 0.17149149195757421 0.40097439476251329 0 0.1790301668502452 0.4087130882910906 0 0.1797285929016586 0.39584908800170071 0 0.19053112438558861 0.39997557039392478 0 0.1797285929016586 0.39584908800170071 0 0.18604797622032049 0.38651678913942072 0 0.19053112438558861 0.39997557039392478 0 0.1797285929016586 0.39584908800170071 0 0.1714324593203666 0.3903782916213247 0 0.17821656155155011 0.38834728026658738 0 0.1797285929016586 0.39584908800170071 0 0.17149149195757421 0.40097439476251329 0 0.1714324593203666 0.3903782916213247 0 0.1790301668502452 0.4087130882910906 0 0.1797285929016586 0.39584908800170071 0 0.17149149195757421 0.40097439476251329 0 0.16545824115364499 0.41274110739600062 0 0.17149149195757421 0.40097439476251329 0 0.16180799956195591 0.39719039850245019 0 0.17149149195757421 0.40097439476251329 0 0.16180799956195591 0.39719039850245019 0 0.1714324593203666 0.3903782916213247 0 0.16180799956195591 0.39719039850245019 0 0.1714324593203666 0.3903782916213247 0 0.16509596776789789 0.38743505636871511 0 0.16180799956195591 0.39719039850245019 0 0.15961088248503019 0.38929031154247079 0 0.16509596776789789 0.38743505636871511 0 0.15212792585639751 0.39273628662070459 0 0.16180799956195591 0.39719039850245019 0 0.15961088248503019 0.38929031154247079 0 0.17137778989972111 0.36535403801728228 0 0.16034136394998949 0.38475579855554348 0 0.17137778989972111 0.36535403801728228 0 0.16034136394998949 0.38475579855554348 0 0.168780959740366 0.38171362737335379 0 0.1622189612080393 0.37367063095455177 0 0.15868115528891019 0.38433401766494091 0 0.16034136394998949 0.38475579855554348 0 0.15868115528891019 0.38433401766494091 0 0.15961088248503019 0.38929031154247079 0 0.16034136394998949 0.38475579855554348 0 0.15212792585639751 0.39273628662070459 0 0.15868115528891019 0.38433401766494091 0 0.15961088248503019 0.38929031154247079 0 0.15961088248503019 0.38929031154247079 0 0.16034136394998949 0.38475579855554348 0 0.16509596776789789 0.38743505636871511 0 0.16034136394998949 0.38475579855554348 0 0.16509596776789789 0.38743505636871511 0 0.168780959740366 0.38171362737335379 0 0.1714324593203666 0.3903782916213247 0 0.16509596776789789 0.38743505636871511 0 0.168780959740366 0.38171362737335379 0 0.17137778989972111 0.36535403801728228 0 0.168780959740366 0.38171362737335379 0 0.17565721776385479 0.38064495230390327 0 0.1714324593203666 0.3903782916213247 0 0.17565721776385479 0.38064495230390327 0 0.17821656155155011 0.38834728026658738 0 0.1714324593203666 0.3903782916213247 0 0.168780959740366 0.38171362737335379 0 0.17565721776385479 0.38064495230390327 0 0.17565721776385479 0.38064495230390327 0 0.17821656155155011 0.38834728026658738 0 0.18604797622032049 0.38651678913942072 0 0.1797285929016586 0.39584908800170071 0 0.17821656155155011 0.38834728026658738 0 0.18604797622032049 0.38651678913942072 0 0.18478162004970339 0.37286642925981678 0 0.17565721776385479 0.38064495230390327 0 0.18604797622032049 0.38651678913942072 0 0.18478162004970339 0.37286642925981678 0 0.18604797622032049 0.38651678913942072 0 0.1976525352954687 0.3782741795654852 0 0.18604797622032049 0.38651678913942072 0 0.1976525352954687 0.3782741795654852 0 0.20035590621116309 0.39127563783869329 0 0.1976525352954687 0.3782741795654852 0 0.20035590621116309 0.39127563783869329 0 0.21080346671390299 0.38276363213506148 0 0.18604797622032049 0.38651678913942072 0 0.19053112438558861 0.39997557039392478 0 0.20035590621116309 0.39127563783869329 0 0.19053112438558861 0.39997557039392478 0 0.20035590621116309 0.39127563783869329 0 0.20267062867123339 0.4055910365789589 0 0.20267062867123339 0.4055910365789589 0 0.2106477956775403 0.39694291166584628 0 0.21536973157745379 0.40970916488486259 0 0.20035590621116309 0.39127563783869329 0 0.20267062867123339 0.4055910365789589 0 0.2106477956775403 0.39694291166584628 0 0.2106477956775403 0.39694291166584628 0 0.2232268906100395 0.3874464697912533 0 0.22224443993862639 0.39963949898402151 0 0.2106477956775403 0.39694291166584628 0 0.22224443993862639 0.39963949898402151 0 0.21536973157745379 0.40970916488486259 0 0.209073551154598 0.37021849510992733 0 0.1976525352954687 0.3782741795654852 0 0.21080346671390299 0.38276363213506148 0 0.20035590621116309 0.39127563783869329 0 0.2106477956775403 0.39694291166584628 0 0.21080346671390299 0.38276363213506148 0 0.2106477956775403 0.39694291166584628 0 0.21080346671390299 0.38276363213506148 0 0.2232268906100395 0.3874464697912533 0 0.209073551154598 0.37021849510992733 0 0.21080346671390299 0.38276363213506148 0 0.2229194766641043 0.3756313625258646 0 0.21080346671390299 0.38276363213506148 0 0.2229194766641043 0.3756313625258646 0 0.2232268906100395 0.3874464697912533 0 0.23402867389178289 0.37455425097298239 0 0.2229194766641043 0.3756313625258646 0 0.23357415205588081 0.38271993571174889 0 0.2229194766641043 0.3756313625258646 0 0.23357415205588081 0.38271993571174889 0 0.2232268906100395 0.3874464697912533 0 0.23357415205588081 0.38271993571174889 0 0.2232268906100395 0.3874464697912533 0 0.23211078264985971 0.39430372567010841 0 0.2232268906100395 0.3874464697912533 0 0.22224443993862639 0.39963949898402151 0 0.23211078264985971 0.39430372567010841 0 0.22224443993862639 0.39963949898402151 0 0.23211078264985971 0.39430372567010841 0 0.2305434531036484 0.41070849953345978 0 0.23211078264985971 0.39430372567010841 0 0.2419465683783695 0.40033978565932288 0 0.2305434531036484 0.41070849953345978 0 0.23211078264985971 0.39430372567010841 0 0.2419465683783695 0.40033978565932288 0 0.24152929470275389 0.38839047039539942 0 0.2419465683783695 0.40033978565932288 0 0.2490057067067592 0.3953733282442633 0 0.25029297294569308 0.40304324375419459 0 0.2419465683783695 0.40033978565932288 0 0.24657344196448511 0.41105285926840218 0 0.25029297294569308 0.40304324375419459 0 0.2419465683783695 0.40033978565932288 0 0.2490057067067592 0.3953733282442633 0 0.24152929470275389 0.38839047039539942 0 0.2490057067067592 0.3953733282442633 0 0.24152929470275389 0.38839047039539942 0 0.25085686774485499 0.38037768784138509 0 0.24750532938186451 0.37183282296922449 0 0.25085686774485499 0.38037768784138509 0 0.24750532938186451 0.37183282296922449 0 0.2409082041993296 0.37915677146557991 0 0.25085686774485499 0.38037768784138509 0 0.2409082041993296 0.37915677146557991 0 0.24152929470275389 0.38839047039539942 0 0.25085686774485499 0.38037768784138509 0 0.23402867389178289 0.37455425097298239 0 0.23357415205588081 0.38271993571174889 0 0.2409082041993296 0.37915677146557991 0 0.24750532938186451 0.37183282296922449 0 0.23402867389178289 0.37455425097298239 0 0.2409082041993296 0.37915677146557991 0 0.23357415205588081 0.38271993571174889 0 0.23211078264985971 0.39430372567010841 0 0.24152929470275389 0.38839047039539942 0 0.23357415205588081 0.38271993571174889 0 0.2409082041993296 0.37915677146557991 0 0.24152929470275389 0.38839047039539942 0 0.24773726858269521 0.42836090581406838 0 0.2305434531036484 0.41070849953345978 0 0.23195615857802779 0.43455605614270448 0 0.2419465683783695 0.40033978565932288 0 0.24657344196448511 0.41105285926840218 0 0.2305434531036484 0.41070849953345978 0 0.24773726858269521 0.42836090581406838 0 0.24657344196448511 0.41105285926840218 0 0.2305434531036484 0.41070849953345978 0 0.22224443993862639 0.39963949898402151 0 0.2305434531036484 0.41070849953345978 0 0.21536973157745379 0.40970916488486259 0 0.2305434531036484 0.41070849953345978 0 0.22104881614266511 0.42420130780994669 0 0.21536973157745379 0.40970916488486259 0 0.23195615857802779 0.43455605614270448 0 0.22104881614266511 0.42420130780994669 0 0.21149449447252719 0.44201510066305638 0 0.2305434531036484 0.41070849953345978 0 0.23195615857802779 0.43455605614270448 0 0.22104881614266511 0.42420130780994669 0 0.20569578042760589 0.4208648636207743 0 0.19353154563548119 0.431523836109239 0 0.21149449447252719 0.44201510066305638 0 0.22104881614266511 0.42420130780994669 0 0.20569578042760589 0.4208648636207743 0 0.21149449447252719 0.44201510066305638 0 0.22104881614266511 0.42420130780994669 0 0.21536973157745379 0.40970916488486259 0 0.20569578042760589 0.4208648636207743 0 0.20267062867123339 0.4055910365789589 0 0.21536973157745379 0.40970916488486259 0 0.20569578042760589 0.4208648636207743 0 0.20267062867123339 0.4055910365789589 0 0.20569578042760589 0.4208648636207743 0 0.19343858825060689 0.41497807558094529 0 0.19053112438558861 0.39997557039392478 0 0.20267062867123339 0.4055910365789589 0 0.19343858825060689 0.41497807558094529 0 0.1790301668502452 0.4087130882910906 0 0.19053112438558861 0.39997557039392478 0 0.19343858825060689 0.41497807558094529 0 0.20569578042760589 0.4208648636207743 0 0.19343858825060689 0.41497807558094529 0 0.19353154563548119 0.431523836109239 0 0.19983336502778301 0.46326245291113832 0 0.21149449447252719 0.44201510066305638 0 0.1840640514075812 0.44765725271654222 0 0.19353154563548119 0.431523836109239 0 0.21149449447252719 0.44201510066305638 0 0.1840640514075812 0.44765725271654222 0 0.19983336502778301 0.46326245291113832 0 0.18031225261109809 0.46516504812167442 0 0.1840640514075812 0.44765725271654222 0 0.19983336502778301 0.46326245291113832 0 0.21792030870895909 0.46237806092538131 0 0.21149449447252719 0.44201510066305638 0 0.19983336502778301 0.46326245291113832 0 0.21792030870895909 0.46237806092538131 0 0.208844752478613 0.48040908698558038 0 0.23195615857802779 0.43455605614270448 0 0.21149449447252719 0.44201510066305638 0 0.23507170740326461 0.45200635805712203 0 0.21792030870895909 0.46237806092538131 0 0.21149449447252719 0.44201510066305638 0 0.23507170740326461 0.45200635805712203 0 0.21792030870895909 0.46237806092538131 0 0.23507170740326461 0.45200635805712203 0 0.2327528236600783 0.4787006388425355 0 0.23507170740326461 0.45200635805712203 0 0.24720809033819999 0.47026556702617522 0 0.25691653141962201 0.45904158428634018 0 0.23507170740326461 0.45200635805712203 0 0.24720809033819999 0.47026556702617522 0 0.2327528236600783 0.4787006388425355 0 0.23507170740326461 0.45200635805712203 0 0.25021712143576658 0.44621207097134707 0 0.25691653141962201 0.45904158428634018 0 0.24773726858269521 0.42836090581406838 0 0.23507170740326461 0.45200635805712203 0 0.25021712143576658 0.44621207097134707 0 0.24773726858269521 0.42836090581406838 0 0.23195615857802779 0.43455605614270448 0 0.23507170740326461 0.45200635805712203 0 0.24773726858269521 0.42836090581406838 0 0.23507170740326461 0.45200635805712203 0 0.24292586912927541 0.5 0 0.2327528236600783 0.4787006388425355 0 0.252332931396414 0.4879906031540146 0 0.24720809033819999 0.47026556702617522 0 0.2327528236600783 0.4787006388425355 0 0.252332931396414 0.4879906031540146 0 0.21792030870895909 0.46237806092538131 0 0.2327528236600783 0.4787006388425355 0 0.208844752478613 0.48040908698558038 0 0.2327528236600783 0.4787006388425355 0 0.2188336088882322 0.5 0 0.208844752478613 0.48040908698558038 0 0.24292586912927541 0.5 0 0.2327528236600783 0.4787006388425355 0 0.2188336088882322 0.5 0 0.2188336088882322 0.5 0 0.208844752478613 0.48040908698558038 0 0.19474134864718889 0.5 0 0.19983336502778301 0.46326245291113832 0 0.208844752478613 0.48040908698558038 0 0.18818485968817239 0.48036503565069022 0 0.19983336502778301 0.46326245291113832 0 0.18818485968817239 0.48036503565069022 0 0.18031225261109809 0.46516504812167442 0 0.208844752478613 0.48040908698558038 0 0.18818485968817239 0.48036503565069022 0 0.19474134864718889 0.5 0 0.18818485968817239 0.48036503565069022 0 0.19474134864718889 0.5 0 0.1706490884061457 0.49999999999999928 0 0.18818485968817239 0.48036503565069022 0 0.1706490884061457 0.49999999999999928 0 0.16758735393704591 0.47830054314629811 0 0.1706490884061457 0.49999999999999928 0 0.16758735393704591 0.47830054314629811 0 0.1409239093174281 0.5 0 0.1706490884061457 0.49999999999999928 0 0.16758735393704591 0.47830054314629811 0 0.18818485968817239 0.48036503565069022 0 0.16758735393704591 0.47830054314629811 0 0.18031225261109809 0.46516504812167442 0 0.18031225261109809 0.46516504812167442 0 0.1840640514075812 0.44765725271654222 0 0.164525619467946 0.45660108629259699 0 0.1746685548963792 0.42657938328040562 0 0.1840640514075812 0.44765725271654222 0 0.16258603392158039 0.44012864741666557 0 0.16258603392158039 0.44012864741666557 0 0.164525619467946 0.45660108629259699 0 0.14360970168102721 0.44753778748647999 0 0.1840640514075812 0.44765725271654222 0 0.16258603392158039 0.44012864741666557 0 0.164525619467946 0.45660108629259699 0 0.16758735393704591 0.47830054314629811 0 0.164525619467946 0.45660108629259699 0 0.151135263871295 0.47024314455382737 0 0.16758735393704591 0.47830054314629811 0 0.164525619467946 0.45660108629259699 0 0.16758735393704591 0.47830054314629811 0 0.18031225261109809 0.46516504812167442 0 0.164525619467946 0.45660108629259699 0 0.14360970168102721 0.44753778748647999 0 0.13451055274056281 0.47271148197849489 0 0.151135263871295 0.47024314455382737 0 0.164525619467946 0.45660108629259699 0 0.14360970168102721 0.44753778748647999 0 0.151135263871295 0.47024314455382737 0 0.1130279951095053 0.4412497667299235 0 0.14360970168102721 0.44753778748647999 0 0.12513602056264561 0.45729781275228681 0 0.14360970168102721 0.44753778748647999 0 0.13451055274056281 0.47271148197849489 0 0.14360970168102721 0.44753778748647999 0 0.12513602056264561 0.45729781275228681 0 0.13451055274056281 0.47271148197849489 0 0.1111987302287105 0.5 0 0.13451055274056281 0.47271148197849489 0 0.1409239093174281 0.5 0 0.13451055274056281 0.47271148197849489 0 0.1409239093174281 0.5 0 0.151135263871295 0.47024314455382737 0 0.16758735393704591 0.47830054314629811 0 0.1409239093174281 0.5 0 0.151135263871295 0.47024314455382737 0 0.35504807128684651 0.47766714317499243 0 0.36517481377563171 0.4692066131587892 0 0.35649965752845492 0.46074140972921152 0 0.35504807128684651 0.47766714317499243 0 0.33923112197139649 0.46174174868225398 0 0.33783045894269592 0.47984602179047031 0 0.35504807128684651 0.47766714317499243 0 0.33783045894269592 0.47984602179047031 0 0.3426070396120745 0.5 0 0.35504807128684651 0.47766714317499243 0 0.36865220707346469 0.5 0 0.3426070396120745 0.5 0 0.35504807128684651 0.47766714317499243 0 0.36865220707346469 0.5 0 0.37417122683245518 0.48341416476441912 0 0.35504807128684651 0.47766714317499243 0 0.37417122683245518 0.48341416476441912 0 0.36517481377563171 0.4692066131587892 0 0.37417122683245518 0.48341416476441912 0 0.36517481377563171 0.4692066131587892 0 0.37692514397370391 0.46690826841809191 0 0.36517481377563171 0.4692066131587892 0 0.36795953881733778 0.45837173672860049 0 0.37692514397370391 0.46690826841809191 0 0.36795953881733778 0.45837173672860049 0 0.37925038153383278 0.45652639185801469 0 0.37692514397370391 0.46690826841809191 0 0.36795953881733778 0.45837173672860049 0 0.37319740984333882 0.45120244108891899 0 0.36390380205439188 0.45231435650271051 0 0.36795953881733778 0.45837173672860049 0 0.37319740984333882 0.45120244108891899 0 0.37925038153383278 0.45652639185801469 0 0.36795953881733778 0.45837173672860049 0 0.36390380205439188 0.45231435650271051 0 0.35649965752845492 0.46074140972921152 0 0.36517481377563171 0.4692066131587892 0 0.36795953881733778 0.45837173672860049 0 0.35649965752845492 0.46074140972921152 0 0.37319740984333882 0.45120244108891899 0 0.36390380205439188 0.45231435650271051 0 0.3644685226540465 0.44395469650240532 0 0.36390380205439188 0.45231435650271051 0 0.3644685226540465 0.44395469650240532 0 0.35739388142878148 0.44730149846441569 0 0.35739388142878148 0.44730149846441569 0 0.33923112197139649 0.46174174868225398 0 0.33813712331144152 0.44182652382678822 0 0.3644685226540465 0.44395469650240532 0 0.33813712331144152 0.44182652382678822 0 0.35535976019357579 0.4356141233410088 0 0.3644685226540465 0.44395469650240532 0 0.35739388142878148 0.44730149846441569 0 0.33813712331144152 0.44182652382678822 0 0.3644685226540465 0.44395469650240532 0 0.33813712331144152 0.44182652382678822 0 0.35739388142878148 0.44730149846441569 0 0.35649965752845492 0.46074140972921152 0 0.33923112197139649 0.46174174868225398 0 0.35739388142878148 0.44730149846441569 0 0.33923112197139649 0.46174174868225398 0 0.35504807128684651 0.47766714317499243 0 0.35649965752845492 0.46074140972921152 0 0.33923112197139649 0.46174174868225398 0 0.36390380205439188 0.45231435650271051 0 0.35739388142878148 0.44730149846441569 0 0.35649965752845492 0.46074140972921152 0 0.33923112197139649 0.46174174868225398 0 0.33813712331144152 0.44182652382678822 0 0.32345115977055588 0.45823905247599622 0 0.33813712331144152 0.44182652382678822 0 0.32345115977055588 0.45823905247599622 0 0.31242513988058102 0.44467125413976949 0 0.32345115977055588 0.45823905247599622 0 0.32106836251401139 0.47618199890009227 0 0.3063940511753489 0.46677373683107709 0 0.32345115977055588 0.45823905247599622 0 0.3063940511753489 0.46677373683107709 0 0.31242513988058102 0.44467125413976949 0 0.33923112197139649 0.46174174868225398 0 0.32345115977055588 0.45823905247599622 0 0.32106836251401139 0.47618199890009227 0 0.32106836251401139 0.47618199890009227 0 0.33783045894269592 0.47984602179047031 0 0.32757253470992698 0.48974794861442639 0 0.33923112197139649 0.46174174868225398 0 0.32106836251401139 0.47618199890009227 0 0.33783045894269592 0.47984602179047031 0 0.33923112197139649 0.46174174868225398 0 0.32106836251401139 0.47618199890009227 0 0.33783045894269592 0.47984602179047031 0 0.3426070396120745 0.5 0 0.32757253470992698 0.48974794861442639 0 0.3426070396120745 0.5 0 0.32757253470992698 0.48974794861442639 0 0.31656187215068432 0.49999999999999889 0 0.32757253470992698 0.48974794861442639 0 0.31656187215068432 0.49999999999999889 0 0.30290560305662539 0.49062224911792918 0 0.32106836251401139 0.47618199890009227 0 0.32757253470992698 0.48974794861442639 0 0.30290560305662539 0.49062224911792918 0 0.31151404167326913 0.49999999999999822 0 0.29905009559924811 0.49368755934966718 0 0.32106836251401139 0.47618199890009227 0 0.30290560305662539 0.49062224911792918 0 0.30036296247011501 0.4888762195223843 0 0.31656187215068432 0.49999999999999889 0 0.31151404167326913 0.49999999999999822 0 0.30290560305662539 0.49062224911792918 0 0.31656187215068432 0.49999999999999889 0 0.30290560305662539 0.49062224911792918 0 0.30290560305662539 0.49062224911792918 0 0.30036296247011501 0.4888762195223843 0 0.30290560305662539 0.49062224911792918 0 0.29905009559924811 0.49368755934966718 0 0.30290560305662539 0.49062224911792918 0 0.30036296247011501 0.4888762195223843 0 0.29905009559924811 0.49368755934966718 0 0.30036296247011501 0.4888762195223843 0 0.29905009559924811 0.49368755934966718 0 0.31151404167326913 0.49999999999999822 0 0.29905009559924811 0.49368755934966718 0 0.29732762441624289 0.49999999999999911 0 0.31151404167326913 0.49999999999999822 0 0.30290560305662539 0.49062224911792918 0 0.29905009559924811 0.49368755934966718 0 0.29905009559924811 0.49368755934966718 0 0.29732762441624289 0.49999999999999911 0 0.30036296247011501 0.4888762195223843 0 0.3063940511753489 0.46677373683107709 0 0.30036296247011501 0.4888762195223843 0 0.29376900003022072 0.47520283890447812 0 0.3063940511753489 0.46677373683107709 0 0.32106836251401139 0.47618199890009227 0 0.30290560305662539 0.49062224911792918 0 0.32106836251401139 0.47618199890009227 0 0.30036296247011501 0.4888762195223843 0 0.3063940511753489 0.46677373683107709 0 0.30036296247011501 0.4888762195223843 0 0.27863974694486843 0.47395890190436252 0 0.29376900003022072 0.47520283890447812 0 0.28747333753643239 0.46648159293088881 0 0.3063940511753489 0.46677373683107709 0 0.30036296247011501 0.4888762195223843 0 0.27888162718845222 0.48562631093916381 0 0.27863974694486843 0.47395890190436252 0 0.30036296247011501 0.4888762195223843 0 0.29376900003022072 0.47520283890447812 0 0.27863974694486843 0.47395890190436252 0 0.29376900003022072 0.47520283890447812 0 0.27863974694486843 0.47395890190436252 0 0.28747333753643239 0.46648159293088881 0 0.29905009559924811 0.49368755934966718 0 0.29111038961136182 0.50000000000000344 0 0.27888162718845222 0.48562631093916381 0 0.30036296247011501 0.4888762195223843 0 0.29905009559924811 0.49368755934966718 0 0.27888162718845222 0.48562631093916381 0 0.29905009559924811 0.49368755934966718 0 0.27888162718845222 0.48562631093916381 0 0.29905009559924811 0.49368755934966718 0 0.29732762441624289 0.49999999999999911 0 0.29111038961136182 0.50000000000000344 0 0.29905009559924811 0.49368755934966718 0 0.29111038961136182 0.50000000000000344 0 0.29111038961136182 0.50000000000000344 0 0.26701812937031871 0.5 0 0.27888162718845222 0.48562631093916381 0 0.26701812937031871 0.5 0 0.27888162718845222 0.48562631093916381 0 0.26441213328524721 0.48801311888633891 0 0.27888162718845222 0.48562631093916381 0 0.25937879933897079 0.47703584689471412 0 0.27888162718845222 0.48562631093916381 0 0.27863974694486843 0.47395890190436252 0 0.25937879933897079 0.47703584689471412 0 0.27888162718845222 0.48562631093916381 0 0.25937879933897079 0.47703584689471412 0 0.26441213328524721 0.48801311888633891 0 0.25937879933897079 0.47703584689471412 0 0.252332931396414 0.4879906031540146 0 0.26441213328524721 0.48801311888633891 0 0.24720809033819999 0.47026556702617522 0 0.25937879933897079 0.47703584689471412 0 0.252332931396414 0.4879906031540146 0 0.27863974694486843 0.47395890190436252 0 0.25937879933897079 0.47703584689471412 0 0.25691653141962201 0.45904158428634018 0 0.24720809033819999 0.47026556702617522 0 0.25937879933897079 0.47703584689471412 0 0.25691653141962201 0.45904158428634018 0 0.24292586912927541 0.5 0 0.26701812937031871 0.5 0 0.252332931396414 0.4879906031540146 0 0.26701812937031871 0.5 0 0.252332931396414 0.4879906031540146 0 0.26441213328524721 0.48801311888633891 0 0.24773726858269521 0.42836090581406838 0 0.2633783415103006 0.44457975381966969 0 0.25021712143576658 0.44621207097134707 0 0.2633783415103006 0.44457975381966969 0 0.25021712143576658 0.44621207097134707 0 0.25691653141962201 0.45904158428634018 0 0.2633783415103006 0.44457975381966969 0 0.25691653141962201 0.45904158428634018 0 0.27434511230771408 0.45761381158781572 0 0.27863974694486843 0.47395890190436252 0 0.27434511230771408 0.45761381158781572 0 0.28747333753643239 0.46648159293088881 0 0.27863974694486843 0.47395890190436252 0 0.25691653141962201 0.45904158428634018 0 0.27863974694486843 0.47395890190436252 0 0.25691653141962201 0.45904158428634018 0 0.27434511230771408 0.45761381158781572 0 0.2633783415103006 0.44457975381966969 0 0.27434511230771408 0.45761381158781572 0 0.27821571879697288 0.43903432639271112 0 0.27434511230771408 0.45761381158781572 0 0.27821571879697288 0.43903432639271112 0 0.28981382815272999 0.454765114400145 0 0.27821571879697288 0.43903432639271112 0 0.29466895046415359 0.43889957217383879 0 0.28981382815272999 0.454765114400145 0 0.29466895046415359 0.43889957217383879 0 0.28981382815272999 0.454765114400145 0 0.30103764670185629 0.45158343683146768 0 0.28747333753643239 0.46648159293088881 0 0.28981382815272999 0.454765114400145 0 0.3063940511753489 0.46677373683107709 0 0.27434511230771408 0.45761381158781572 0 0.28747333753643239 0.46648159293088881 0 0.28981382815272999 0.454765114400145 0 0.3063940511753489 0.46677373683107709 0 0.30103764670185629 0.45158343683146768 0 0.31242513988058102 0.44467125413976949 0 0.3063940511753489 0.46677373683107709 0 0.31242513988058102 0.44467125413976949 0 0.28981382815272999 0.454765114400145 0 0.3063940511753489 0.46677373683107709 0 0.30103764670185629 0.45158343683146768 0 0.29466895046415359 0.43889957217383879 0 0.30103764670185629 0.45158343683146768 0 0.31242513988058102 0.44467125413976949 0 0.31242513988058102 0.44467125413976949 0 0.30488762474578601 0.4270946788093295 0 0.31845622858581302 0.42256877144846178 0 0.29466895046415359 0.43889957217383879 0 0.31242513988058102 0.44467125413976949 0 0.30488762474578601 0.4270946788093295 0 0.30488762474578601 0.4270946788093295 0 0.31122251852354088 0.41813249572709882 0 0.31845622858581302 0.42256877144846178 0 0.30488762474578601 0.4270946788093295 0 0.31845622858581302 0.42256877144846178 0 0.30488762474578601 0.4270946788093295 0 0.30103871940647692 0.41540525625435332 0 0.29248441999204822 0.42382112036023528 0 0.29466895046415359 0.43889957217383879 0 0.30488762474578601 0.4270946788093295 0 0.29248441999204822 0.42382112036023528 0 0.30488762474578601 0.4270946788093295 0 0.31122251852354088 0.41813249572709882 0 0.30103871940647692 0.41540525625435332 0 0.31136009676675291 0.41003822867203998 0 0.31122251852354088 0.41813249572709882 0 0.30103871940647692 0.41540525625435332 0 0.31136009676675291 0.41003822867203998 0 0.30103871940647692 0.41540525625435332 0 0.29687428789102699 0.40338640037363488 0 0.30103871940647692 0.41540525625435332 0 0.28754023209780383 0.41075551069511967 0 0.29687428789102699 0.40338640037363488 0 0.30103871940647692 0.41540525625435332 0 0.28754023209780383 0.41075551069511967 0 0.29248441999204822 0.42382112036023528 0 0.28279989132684907 0.42075883897402783 0 0.28754023209780383 0.41075551069511967 0 0.27462389484001032 0.41404293347160309 0 0.28279989132684907 0.42075883897402783 0 0.28754023209780383 0.41075551069511967 0 0.29248441999204822 0.42382112036023528 0 0.27821571879697288 0.43903432639271112 0 0.29466895046415359 0.43889957217383879 0 0.28416909582491939 0.4298550546242747 0 0.29466895046415359 0.43889957217383879 0 0.29248441999204822 0.42382112036023528 0 0.28416909582491939 0.4298550546242747 0 0.28279989132684907 0.42075883897402783 0 0.29248441999204822 0.42382112036023528 0 0.28416909582491939 0.4298550546242747 0 0.2633783415103006 0.44457975381966969 0 0.27821571879697288 0.43903432639271112 0 0.2629357507310533 0.42874612999260969 0 0.27821571879697288 0.43903432639271112 0 0.28416909582491939 0.4298550546242747 0 0.275181813879464 0.42531957571890588 0 0.27821571879697288 0.43903432639271112 0 0.275181813879464 0.42531957571890588 0 0.2629357507310533 0.42874612999260969 0 0.275181813879464 0.42531957571890588 0 0.26915451019446751 0.42042013612037632 0 0.2629357507310533 0.42874612999260969 0 0.28279989132684907 0.42075883897402783 0 0.28416909582491939 0.4298550546242747 0 0.275181813879464 0.42531957571890588 0 0.28279989132684907 0.42075883897402783 0 0.275181813879464 0.42531957571890588 0 0.27462389484001032 0.41404293347160309 0 0.28754023209780383 0.41075551069511967 0 0.27462389484001032 0.41404293347160309 0 0.27503890928952318 0.40195072893460349 0 0.27462389484001032 0.41404293347160309 0 0.26848555380474998 0.40857025531890179 0 0.27503890928952318 0.40195072893460349 0 0.27462389484001032 0.41404293347160309 0 0.26848555380474998 0.40857025531890179 0 0.26387658132734232 0.41357190529838639 0 0.275181813879464 0.42531957571890588 0 0.27462389484001032 0.41404293347160309 0 0.26915451019446751 0.42042013612037632 0 0.27462389484001032 0.41404293347160309 0 0.26915451019446751 0.42042013612037632 0 0.26387658132734232 0.41357190529838639 0 0.24773726858269521 0.42836090581406838 0 0.24657344196448511 0.41105285926840218 0 0.26040282976212448 0.40471545357101429 0 0.24773726858269521 0.42836090581406838 0 0.26040282976212448 0.40471545357101429 0 0.24773726858269521 0.42836090581406838 0 0.26387658132734232 0.41357190529838639 0 0.26040282976212448 0.40471545357101429 0 0.26915451019446751 0.42042013612037632 0 0.26387658132734232 0.41357190529838639 0 0.2629357507310533 0.42874612999260969 0 0.26387658132734232 0.41357190529838639 0 0.26040282976212448 0.40471545357101429 0 0.26848555380474998 0.40857025531890179 0 0.26387658132734232 0.41357190529838639 0 0.26040282976212448 0.40471545357101429 0 0.24657344196448511 0.41105285926840218 0 0.25029297294569308 0.40304324375419459 0 0.26040282976212448 0.40471545357101429 0 0.24773726858269521 0.42836090581406838 0 0.26387658132734232 0.41357190529838639 0 0.2629357507310533 0.42874612999260969 0 0.24773726858269521 0.42836090581406838 0 0.2633783415103006 0.44457975381966969 0 0.2629357507310533 0.42874612999260969 0 0.25085686774485499 0.38037768784138509 0 0.26040282976212448 0.40471545357101429 0 0.27458820253811778 0.37823265112959048 0 0.2490057067067592 0.3953733282442633 0 0.25085686774485499 0.38037768784138509 0 0.26040282976212448 0.40471545357101429 0 0.25085686774485499 0.38037768784138509 0 0.26040282976212448 0.40471545357101429 0 0.2490057067067592 0.3953733282442633 0 0.25029297294569308 0.40304324375419459 0 0.26040282976212448 0.40471545357101429 0 0.26040282976212448 0.40471545357101429 0 0.27458820253811778 0.37823265112959048 0 0.26040282976212448 0.40471545357101429 0 0.27503890928952318 0.40195072893460349 0 0.27458820253811778 0.37823265112959048 0 0.27503890928952318 0.40195072893460349 0 0.27458820253811778 0.37823265112959048 0 0.28667453375818308 0.39552894366931612 0 0.26848555380474998 0.40857025531890179 0 0.26040282976212448 0.40471545357101429 0 0.27503890928952318 0.40195072893460349 0 0.28769516886593283 0.38321614202115328 0 0.29888610920291342 0.39166543797755737 0 0.29702537850857358 0.37089806068114722 0 0.27458820253811778 0.37823265112959048 0 0.28769516886593283 0.38321614202115328 0 0.28667453375818308 0.39552894366931612 0 0.27458820253811778 0.37823265112959048 0 0.28769516886593283 0.38321614202115328 0 0.29702537850857358 0.37089806068114722 0 0.28769516886593283 0.38321614202115328 0 0.28667453375818308 0.39552894366931612 0 0.29888610920291342 0.39166543797755737 0 0.28754023209780383 0.41075551069511967 0 0.27503890928952318 0.40195072893460349 0 0.28667453375818308 0.39552894366931612 0 0.28667453375818308 0.39552894366931612 0 0.29687428789102699 0.40338640037363488 0 0.29888610920291342 0.39166543797755737 0 0.28754023209780383 0.41075551069511967 0 0.28667453375818308 0.39552894366931612 0 0.29687428789102699 0.40338640037363488 0 0.29687428789102699 0.40338640037363488 0 0.29888610920291342 0.39166543797755737 0 0.30759598780014658 0.39673212856160212 0 0.31136009676675291 0.41003822867203998 0 0.29687428789102699 0.40338640037363488 0 0.30759598780014658 0.39673212856160212 0 0.29888610920291342 0.39166543797755737 0 0.3098186101547396 0.38240551270794548 0 0.29702537850857358 0.37089806068114722 0 0.29888610920291342 0.39166543797755737 0 0.30759598780014658 0.39673212856160212 0 0.3098186101547396 0.38240551270794548 0 0.3098186101547396 0.38240551270794548 0 0.32108943449702221 0.39125052891515988 0 0.31787315717061748 0.37055688133425962 0 0.32108943449702221 0.39125052891515988 0 0.3308187722272885 0.37246282915827822 0 0.32108943449702221 0.39125052891515988 0 0.3308187722272885 0.37246282915827822 0 0.31787315717061748 0.37055688133425962 0 0.30759598780014658 0.39673212856160212 0 0.3098186101547396 0.38240551270794548 0 0.32108943449702221 0.39125052891515988 0 0.33847263705878422 0.3851049098980015 0 0.32108943449702221 0.39125052891515988 0 0.3308187722272885 0.37246282915827822 0 0.33847263705878422 0.3851049098980015 0 0.34952417698659038 0.37521677521200197 0 0.3308187722272885 0.37246282915827822 0 0.33847263705878422 0.3851049098980015 0 0.32906483426729699 0.4022751291713127 0 0.34358994351883643 0.39714676447161479 0 0.32906483426729699 0.4022751291713127 0 0.34358994351883643 0.39714676447161479 0 0.33931093756705438 0.41561253026110251 0 0.33847263705878422 0.3851049098980015 0 0.32906483426729699 0.4022751291713127 0 0.32108943449702221 0.39125052891515988 0 0.31136009676675291 0.41003822867203998 0 0.32108943449702221 0.39125052891515988 0 0.31136009676675291 0.41003822867203998 0 0.32906483426729699 0.4022751291713127 0 0.32108943449702221 0.39125052891515988 0 0.31136009676675291 0.41003822867203998 0 0.30759598780014658 0.39673212856160212 0 0.32108943449702221 0.39125052891515988 0 0.31136009676675291 0.41003822867203998 0 0.32906483426729699 0.4022751291713127 0 0.32036992311287538 0.41555554345130918 0 0.32036992311287538 0.41555554345130918 0 0.31845622858581302 0.42256877144846178 0 0.33931093756705438 0.41561253026110251 0 0.31136009676675291 0.41003822867203998 0 0.31122251852354088 0.41813249572709882 0 0.32036992311287538 0.41555554345130918 0 0.31122251852354088 0.41813249572709882 0 0.32036992311287538 0.41555554345130918 0 0.31845622858581302 0.42256877144846178 0 0.32036992311287538 0.41555554345130918 0 0.31845622858581302 0.42256877144846178 0 0.33813712331144152 0.44182652382678822 0 0.31242513988058102 0.44467125413976949 0 0.31845622858581302 0.42256877144846178 0 0.31242513988058102 0.44467125413976949 0 0.31845622858581302 0.42256877144846178 0 0.33813712331144152 0.44182652382678822 0 0.31845622858581302 0.42256877144846178 0 0.33931093756705438 0.41561253026110251 0 0.33813712331144152 0.44182652382678822 0 0.33931093756705438 0.41561253026110251 0 0.35256450891143332 0.4264993238627115 0 0.31845622858581302 0.42256877144846178 0 0.33931093756705438 0.41561253026110251 0 0.32906483426729699 0.4022751291713127 0 0.32036992311287538 0.41555554345130918 0 0.33931093756705438 0.41561253026110251 0 0.33931093756705438 0.41561253026110251 0 0.36016564654829569 0.40865628907374257 0 0.33931093756705438 0.41561253026110251 0 0.35256450891143332 0.4264993238627115 0 0.36016564654829569 0.40865628907374257 0 0.34358994351883643 0.39714676447161479 0 0.33931093756705438 0.41561253026110251 0 0.36016564654829569 0.40865628907374257 0 0.33813712331144152 0.44182652382678822 0 0.35256450891143332 0.4264993238627115 0 0.35535976019357579 0.4356141233410088 0 0.35256450891143332 0.4264993238627115 0 0.35535976019357579 0.4356141233410088 0 0.36626888589738221 0.43017594917213009 0 0.3644685226540465 0.44395469650240532 0 0.35535976019357579 0.4356141233410088 0 0.36626888589738221 0.43017594917213009 0 0.36626888589738221 0.43017594917213009 0 0.37915420481194928 0.42184120666704189 0 0.3777860440165845 0.43569401563575472 0 0.3644685226540465 0.44395469650240532 0 0.36626888589738221 0.43017594917213009 0 0.3777860440165845 0.43569401563575472 0 0.36626888589738221 0.43017594917213009 0 0.36016564654829569 0.40865628907374257 0 0.37915420481194928 0.42184120666704189 0 0.35256450891143332 0.4264993238627115 0 0.36626888589738221 0.43017594917213009 0 0.36016564654829569 0.40865628907374257 0 0.36016564654829569 0.40865628907374257 0 0.37915420481194928 0.42184120666704189 0 0.36016564654829569 0.40865628907374257 0 0.38331503079105123 0.40093464211735041 0 0.37915420481194928 0.42184120666704189 0 0.36016564654829569 0.40865628907374257 0 0.37384665041113918 0.38667765304202451 0 0.36227820635493252 0.38725312005906198 0 0.36016564654829569 0.40865628907374257 0 0.37384665041113918 0.38667765304202451 0 0.38331503079105123 0.40093464211735041 0 0.36016564654829569 0.40865628907374257 0 0.38331503079105123 0.40093464211735041 0 0.37384665041113918 0.38667765304202451 0 0.36822958174589149 0.37797072126573161 0 0.36227820635493252 0.38725312005906198 0 0.36822958174589149 0.37797072126573161 0 0.36227820635493252 0.38725312005906198 0 0.34952417698659038 0.37521677521200197 0 0.37384665041113918 0.38667765304202451 0 0.36822958174589149 0.37797072126573161 0 0.36227820635493252 0.38725312005906198 0 0.35340637521301449 0.39031131680242942 0 0.34952417698659038 0.37521677521200197 0 0.36822958174589149 0.37797072126573161 0 0.34952417698659038 0.37521677521200197 0 0.33847263705878422 0.3851049098980015 0 0.35340637521301449 0.39031131680242942 0 0.34952417698659038 0.37521677521200197 0 0.34358994351883643 0.39714676447161479 0 0.36016564654829569 0.40865628907374257 0 0.36016564654829569 0.40865628907374257 0 0.36227820635493252 0.38725312005906198 0 0.35340637521301449 0.39031131680242942 0 0.33847263705878422 0.3851049098980015 0 0.34358994351883643 0.39714676447161479 0 0.35340637521301449 0.39031131680242942 0 0.34358994351883643 0.39714676447161479 0 0.36016564654829569 0.40865628907374257 0 0.35340637521301449 0.39031131680242942 0 0.35706227129001888 0.36066044502406169 0 0.34589496083414778 0.34335016878239089 0 0.35706227129001888 0.36066044502406169 0 0.36024724386925611 0.34512304788262599 0 0.34589496083414778 0.34335016878239089 0 0.35706227129001888 0.36066044502406169 0 0.34589496083414778 0.34335016878239089 0 0.33835686653071828 0.35790649897033461 0 0.36822958174589149 0.37797072126573161 0 0.34952417698659038 0.37521677521200197 0 0.35706227129001888 0.36066044502406169 0 0.34952417698659038 0.37521677521200197 0 0.35706227129001888 0.36066044502406169 0 0.33835686653071828 0.35790649897033461 0 0.35706227129001888 0.36066044502406169 0 0.36914410845300438 0.36535089061084708 0 0.37103413011272052 0.35510739256526791 0 0.36822958174589149 0.37797072126573161 0 0.35706227129001888 0.36066044502406169 0 0.36822958174589149 0.37797072126573161 0 0.35706227129001888 0.36066044502406169 0 0.36914410845300438 0.36535089061084708 0 0.36822958174589149 0.37797072126573161 0 0.36914410845300438 0.36535089061084708 0 0.38025045066338969 0.36766500358832549 0 0.36914410845300438 0.36535089061084708 0 0.37103413011272052 0.35510739256526791 0 0.38025045066338969 0.36766500358832549 0 0.37103413011272052 0.35510739256526791 0 0.36024724386925611 0.34512304788262599 0 0.37388109241630801 0.33756959211600063 0 0.35706227129001888 0.36066044502406169 0 0.37103413011272052 0.35510739256526791 0 0.36024724386925611 0.34512304788262599 0 0.36024724386925611 0.34512304788262599 0 0.37388109241630801 0.33756959211600063 0 0.35336376469308411 0.32892764092540988 0 0.37388109241630801 0.33756959211600063 0 0.36776777050364717 0.31819125134612941 0 0.35336376469308411 0.32892764092540988 0 0.35336376469308411 0.32892764092540988 0 0.3315196408501182 0.32106720629385321 0 0.34762663099419228 0.31093180675930399 0 0.36776777050364717 0.31819125134612941 0 0.35336376469308411 0.32892764092540988 0 0.34762663099419228 0.31093180675930399 0 0.36024724386925611 0.34512304788262599 0 0.35336376469308411 0.32892764092540988 0 0.34589496083414778 0.34335016878239089 0 0.35336376469308411 0.32892764092540988 0 0.34589496083414778 0.34335016878239089 0 0.34589496083414778 0.34335016878239089 0 0.3315196408501182 0.32106720629385321 0 0.33075752768689259 0.34482709851904703 0 0.35336376469308411 0.32892764092540988 0 0.34589496083414778 0.34335016878239089 0 0.3315196408501182 0.32106720629385321 0 0.34589496083414778 0.34335016878239089 0 0.3315196408501182 0.32106720629385321 0 0.3315196408501182 0.32106720629385321 0 0.3029589480901021 0.32526704624674158 0 0.31714432086608962 0.29878424380531471 0 0.3315196408501182 0.32106720629385321 0 0.31463362869344741 0.34374863611214912 0 0.33075752768689259 0.34482709851904703 0 0.3315196408501182 0.32106720629385321 0 0.31463362869344741 0.34374863611214912 0 0.3029589480901021 0.32526704624674158 0 0.31463362869344741 0.34374863611214912 0 0.32338254152602958 0.3580629824365078 0 0.30725160517065742 0.35864928512289362 0 0.31463362869344741 0.34374863611214912 0 0.32338254152602958 0.3580629824365078 0 0.33075752768689259 0.34482709851904703 0 0.32338254152602958 0.3580629824365078 0 0.33075752768689259 0.34482709851904703 0 0.33835686653071828 0.35790649897033461 0 0.34589496083414778 0.34335016878239089 0 0.33075752768689259 0.34482709851904703 0 0.33835686653071828 0.35790649897033461 0 0.34589496083414778 0.34335016878239089 0 0.33835686653071828 0.35790649897033461 0 0.34952417698659038 0.37521677521200197 0 0.33835686653071828 0.35790649897033461 0 0.3308187722272885 0.37246282915827822 0 0.34952417698659038 0.37521677521200197 0 0.3308187722272885 0.37246282915827822 0 0.33835686653071828 0.35790649897033461 0 0.3308187722272885 0.37246282915827822 0 0.32338254152602958 0.3580629824365078 0 0.33835686653071828 0.35790649897033461 0 0.3308187722272885 0.37246282915827822 0 0.32338254152602958 0.3580629824365078 0 0.31787315717061748 0.37055688133425962 0 0.30725160517065742 0.35864928512289362 0 0.3308187722272885 0.37246282915827822 0 0.31787315717061748 0.37055688133425962 0 0.32338254152602958 0.3580629824365078 0 0.3308187722272885 0.37246282915827822 0 0.31787315717061748 0.37055688133425962 0 0.31787315717061748 0.37055688133425962 0 0.29702537850857358 0.37089806068114722 0 0.30725160517065742 0.35864928512289362 0 0.3098186101547396 0.38240551270794548 0 0.31787315717061748 0.37055688133425962 0 0.29702537850857358 0.37089806068114722 0 0.29702537850857358 0.37089806068114722 0 0.30725160517065742 0.35864928512289362 0 0.28877357531411002 0.35174984868816611 0 0.31463362869344741 0.34374863611214912 0 0.30725160517065742 0.35864928512289362 0 0.28877357531411002 0.35174984868816611 0 0.27458820253811778 0.37823265112959048 0 0.28877357531411002 0.35174984868816611 0 0.27458820253811778 0.37823265112959048 0 0.29702537850857358 0.37089806068114722 0 0.28877357531411002 0.35174984868816611 0 0.27458820253811778 0.37823265112959048 0 0.28877357531411002 0.35174984868816611 0 0.2701629944790907 0.34842256677433092 0 0.27458820253811778 0.37823265112959048 0 0.2701629944790907 0.34842256677433092 0 0.25866471842402639 0.36232890839631798 0 0.2413109057275874 0.35603992211175528 0 0.25220869141264479 0.34539548406120119 0 0.25866471842402639 0.36232890839631798 0 0.2701629944790907 0.34842256677433092 0 0.25220869141264479 0.34539548406120119 0 0.25866471842402639 0.36232890839631798 0 0.24750532938186451 0.37183282296922449 0 0.25085686774485499 0.38037768784138509 0 0.25866471842402639 0.36232890839631798 0 0.25085686774485499 0.38037768784138509 0 0.27458820253811778 0.37823265112959048 0 0.25866471842402639 0.36232890839631798 0 0.24244588913505211 0.31271612569254742 0 0.25744475294815189 0.32806029529806507 0 0.26272015396501308 0.30525215465330102 0 0.2701629944790907 0.34842256677433092 0 0.25220869141264479 0.34539548406120119 0 0.25744475294815189 0.32806029529806507 0 0.28877357531411002 0.35174984868816611 0 0.2701629944790907 0.34842256677433092 0 0.27953400961897751 0.32232844213459411 0 0.2701629944790907 0.34842256677433092 0 0.25744475294815189 0.32806029529806507 0 0.27953400961897751 0.32232844213459411 0 0.25744475294815189 0.32806029529806507 0 0.27953400961897751 0.32232844213459411 0 0.26272015396501308 0.30525215465330102 0 0.27953400961897751 0.32232844213459411 0 0.3029589480901021 0.32526704624674158 0 0.29529108867673398 0.30295252616943857 0 0.28877357531411002 0.35174984868816611 0 0.27953400961897751 0.32232844213459411 0 0.3029589480901021 0.32526704624674158 0 0.28877357531411002 0.35174984868816611 0 0.3029589480901021 0.32526704624674158 0 0.31463362869344741 0.34374863611214912 0 0.28877357531411002 0.35174984868816611 0 0.3029589480901021 0.32526704624674158 0 0.3029589480901021 0.32526704624674158 0 0.29529108867673398 0.30295252616943857 0 0.31714432086608962 0.29878424380531471 0 0.30350336080860368 0.29291642446333621 0 0.29529108867673398 0.30295252616943857 0 0.31714432086608962 0.29878424380531471 0 0.3029589480901021 0.32526704624674158 0 0.31714432086608962 0.29878424380531471 0 0.30350336080860368 0.29291642446333621 0 0.30378072135668188 0.27806953366942272 0 0.31714432086608962 0.29878424380531471 0 0.30378072135668188 0.27806953366942272 0 0.31714432086608962 0.29878424380531471 0 0.30350336080860368 0.29291642446333621 0 0.29050346549478212 0.28646843660284182 0 0.30378072135668188 0.27806953366942272 0 0.30350336080860368 0.29291642446333621 0 0.29050346549478212 0.28646843660284182 0 0.29529108867673398 0.30295252616943857 0 0.29050346549478212 0.28646843660284182 0 0.29529108867673398 0.30295252616943857 0 0.27737058767822281 0.29491608170673778 0 0.27953400961897751 0.32232844213459411 0 0.29529108867673398 0.30295252616943857 0 0.27737058767822281 0.29491608170673778 0 0.27953400961897751 0.32232844213459411 0 0.27737058767822281 0.29491608170673778 0 0.26272015396501308 0.30525215465330102 0 0.27737058767822281 0.29491608170673778 0 0.26272015396501308 0.30525215465330102 0 0.2578973101864348 0.28090069475218987 0 0.27737058767822281 0.29491608170673778 0 0.2578973101864348 0.28090069475218987 0 0.2754561498726123 0.27937345775456762 0 0.29050346549478212 0.28646843660284182 0 0.27737058767822281 0.29491608170673778 0 0.2754561498726123 0.27937345775456762 0 0.23808061335872341 0.29120163147674988 0 0.26272015396501308 0.30525215465330102 0 0.2578973101864348 0.28090069475218987 0 0.25447641887271633 0.26298743253310047 0 0.26833693412626469 0.26613878313922518 0 0.26005917609230239 0.24950389444376561 0 0.24766219088804209 0.25228471583829248 0 0.25447641887271633 0.26298743253310047 0 0.26005917609230239 0.24950389444376561 0 0.2389805633183727 0.26604417915917561 0 0.25447641887271633 0.26298743253310047 0 0.2578973101864348 0.28090069475218987 0 0.25447641887271633 0.26298743253310047 0 0.2578973101864348 0.28090069475218987 0 0.26833693412626469 0.26613878313922518 0 0.2578973101864348 0.28090069475218987 0 0.26833693412626469 0.26613878313922518 0 0.2754561498726123 0.27937345775456762 0 0.26833693412626469 0.26613878313922518 0 0.2754561498726123 0.27937345775456762 0 0.28388814704377863 0.27002411037662211 0 0.26833693412626469 0.26613878313922518 0 0.27483448956505457 0.25273962756014617 0 0.28388814704377863 0.27002411037662211 0 0.26833693412626469 0.26613878313922518 0 0.27483448956505457 0.25273962756014617 0 0.26005917609230239 0.24950389444376561 0 0.27483448956505457 0.25273962756014617 0 0.29041712184727653 0.25735482353352951 0 0.28388814704377863 0.27002411037662211 0 0.29041712184727653 0.25735482353352951 0 0.28388814704377863 0.27002411037662211 0 0.30378072135668188 0.27806953366942272 0 0.29050346549478212 0.28646843660284182 0 0.2754561498726123 0.27937345775456762 0 0.28388814704377863 0.27002411037662211 0 0.29050346549478212 0.28646843660284182 0 0.28388814704377863 0.27002411037662211 0 0.30378072135668188 0.27806953366942272 0 0.30378072135668188 0.27806953366942272 0 0.31071735710554721 0.26111241360551762 0 0.32149193002550081 0.27083327320070211 0 0.29041712184727653 0.25735482353352951 0 0.30378072135668188 0.27806953366942272 0 0.29041712184727653 0.25735482353352951 0 0.30378072135668188 0.27806953366942272 0 0.31071735710554721 0.26111241360551762 0 0.29041712184727653 0.25735482353352951 0 0.31071735710554721 0.26111241360551762 0 0.30230962191087901 0.24709211077672649 0 0.31071735710554721 0.26111241360551762 0 0.31643702991621242 0.25077843285604101 0 0.30230962191087901 0.24709211077672649 0 0.31071735710554721 0.26111241360551762 0 0.31643702991621242 0.25077843285604101 0 0.32646788867963189 0.26174292816022332 0 0.31071735710554721 0.26111241360551762 0 0.32646788867963189 0.26174292816022332 0 0.32149193002550081 0.27083327320070211 0 0.31643702991621242 0.25077843285604101 0 0.32646788867963189 0.26174292816022332 0 0.33188189819579628 0.24816181783024591 0 0.35295541270238462 0.26054074175300151 0 0.33188189819579628 0.24816181783024591 0 0.33778853531177971 0.26176924675462981 0 0.35295541270238462 0.26054074175300151 0 0.33188189819579628 0.24816181783024591 0 0.32646788867963189 0.26174292816022332 0 0.33778853531177971 0.26176924675462981 0 0.33188189819579628 0.24816181783024591 0 0.35295541270238462 0.26054074175300151 0 0.34226983904957931 0.24300569930331781 0 0.33188189819579628 0.24816181783024591 0 0.32646788867963189 0.26174292816022332 0 0.33778853531177971 0.26176924675462981 0 0.33232709879558242 0.27198849542510239 0 0.33232709879558242 0.27198849542510239 0 0.32746570783943119 0.28052308662630437 0 0.34418343173740262 0.28016254147044889 0 0.34181361963678702 0.26861525635079581 0 0.33232709879558242 0.27198849542510239 0 0.34418343173740262 0.28016254147044889 0 0.33778853531177971 0.26176924675462981 0 0.34181361963678702 0.26861525635079581 0 0.33232709879558242 0.27198849542510239 0 0.30378072135668188 0.27806953366942272 0 0.32149193002550081 0.27083327320070211 0 0.31919985938329659 0.28176485936942258 0 0.32746570783943119 0.28052308662630437 0 0.32149193002550081 0.27083327320070211 0 0.31919985938329659 0.28176485936942258 0 0.33232709879558242 0.27198849542510239 0 0.32746570783943119 0.28052308662630437 0 0.32149193002550081 0.27083327320070211 0 0.32646788867963189 0.26174292816022332 0 0.33232709879558242 0.27198849542510239 0 0.32149193002550081 0.27083327320070211 0 0.30378072135668188 0.27806953366942272 0 0.3191543478354722 0.29503170603471568 0 0.31714432086608962 0.29878424380531471 0 0.30378072135668188 0.27806953366942272 0 0.31919985938329659 0.28176485936942258 0 0.3191543478354722 0.29503170603471568 0 0.3191543478354722 0.29503170603471568 0 0.32551966381172809 0.28830380000597888 0 0.32813699700446969 0.29600518509463147 0 0.3191543478354722 0.29503170603471568 0 0.31714432086608962 0.29878424380531471 0 0.32813699700446969 0.29600518509463147 0 0.31919985938329659 0.28176485936942258 0 0.3191543478354722 0.29503170603471568 0 0.32551966381172809 0.28830380000597888 0 0.32746570783943119 0.28052308662630437 0 0.31919985938329659 0.28176485936942258 0 0.32551966381172809 0.28830380000597888 0 0.3315196408501182 0.32106720629385321 0 0.31714432086608962 0.29878424380531471 0 0.3315196408501182 0.32106720629385321 0 0.31714432086608962 0.29878424380531471 0 0.33233399838220912 0.30432760857106689 0 0.3191543478354722 0.29503170603471568 0 0.31714432086608962 0.29878424380531471 0 0.31714432086608962 0.29878424380531471 0 0.33233399838220912 0.30432760857106689 0 0.32813699700446969 0.29600518509463147 0 0.3315196408501182 0.32106720629385321 0 0.33233399838220912 0.30432760857106689 0 0.34762663099419228 0.31093180675930399 0 0.33233399838220912 0.30432760857106689 0 0.32813699700446969 0.29600518509463147 0 0.34411944618553608 0.29481267700484509 0 0.33233399838220912 0.30432760857106689 0 0.34411944618553608 0.29481267700484509 0 0.34762663099419228 0.31093180675930399 0 0.33364140699597111 0.28819416290482031 0 0.32813699700446969 0.29600518509463147 0 0.34411944618553608 0.29481267700484509 0 0.32746570783943119 0.28052308662630437 0 0.33364140699597111 0.28819416290482031 0 0.34418343173740262 0.28016254147044889 0 0.32746570783943119 0.28052308662630437 0 0.32551966381172809 0.28830380000597888 0 0.33364140699597111 0.28819416290482031 0 0.32551966381172809 0.28830380000597888 0 0.33364140699597111 0.28819416290482031 0 0.32813699700446969 0.29600518509463147 0 0.33364140699597111 0.28819416290482031 0 0.34411944618553608 0.29481267700484509 0 0.34418343173740262 0.28016254147044889 0 0.34411944618553608 0.29481267700484509 0 0.36110532023304431 0.3021649085915698 0 0.36632272206140992 0.28247651653352412 0 0.34411944618553608 0.29481267700484509 0 0.36632272206140992 0.28247651653352412 0 0.34418343173740262 0.28016254147044889 0 0.36776777050364717 0.31819125134612941 0 0.34762663099419228 0.31093180675930399 0 0.36110532023304431 0.3021649085915698 0 0.34411944618553608 0.29481267700484509 0 0.34762663099419228 0.31093180675930399 0 0.36110532023304431 0.3021649085915698 0 0.36776777050364717 0.31819125134612941 0 0.36110532023304431 0.3021649085915698 0 0.37969003142043622 0.30441229131404612 0 0.36110532023304431 0.3021649085915698 0 0.36632272206140992 0.28247651653352412 0 0.37969003142043622 0.30441229131404612 0 0.36632272206140992 0.28247651653352412 0 0.37969003142043622 0.30441229131404612 0 0.36632272206140992 0.28247651653352412 0 0.35295541270238462 0.26054074175300151 0 0.3715899104263094 0.26116310017817329 0 0.35295541270238462 0.26054074175300151 0 0.37852634528061391 0.27556152193282302 0 0.36632272206140992 0.28247651653352412 0 0.35295541270238462 0.26054074175300151 0 0.37852634528061391 0.27556152193282302 0 0.35295541270238462 0.26054074175300151 0 0.37852634528061391 0.27556152193282302 0 0.3715899104263094 0.26116310017817329 0 0.35295541270238462 0.26054074175300151 0 0.36846444383432581 0.24944549940237129 0 0.35295541270238462 0.26054074175300151 0 0.34226983904957931 0.24300569930331781 0 0.35295541270238462 0.26054074175300151 0 0.34226983904957931 0.24300569930331781 0 0.36846444383432581 0.24944549940237129 0 0.33778853531177971 0.26176924675462981 0 0.34181361963678702 0.26861525635079581 0 0.35295541270238462 0.26054074175300151 0 0.34181361963678702 0.26861525635079581 0 0.35295541270238462 0.26054074175300151 0 0.34418343173740262 0.28016254147044889 0 0.36632272206140992 0.28247651653352412 0 0.35295541270238462 0.26054074175300151 0 0.34418343173740262 0.28016254147044889 0 0.40505896000103842 0.27587442847641452 0 0.38641343988791438 0.25910463762449681 0 0.40831992622687607 0.266423202110458 0 0.40505896000103842 0.27587442847641452 0 0.38641343988791438 0.25910463762449681 0 0.38996672139200911 0.2739348950387151 0 0.40505896000103842 0.27587442847641452 0 0.38641343988791438 0.25910463762449681 0 0.40505896000103842 0.27587442847641452 0 0.38996672139200911 0.2739348950387151 0 0.38986814039846962 0.28519899212112609 0 0.38641343988791438 0.25910463762449681 0 0.40771553153888013 0.25644350834723412 0 0.39966778000089981 0.24997367264765119 0 0.38641343988791438 0.25910463762449681 0 0.40831992622687607 0.266423202110458 0 0.40771553153888013 0.25644350834723412 0 0.3715899104263094 0.26116310017817329 0 0.38641343988791438 0.25910463762449681 0 0.36846444383432581 0.24944549940237129 0 0.3715899104263094 0.26116310017817329 0 0.38641343988791438 0.25910463762449681 0 0.37852634528061391 0.27556152193282302 0 0.38641343988791438 0.25910463762449681 0 0.38996672139200911 0.2739348950387151 0 0.37852634528061391 0.27556152193282302 0 0.36632272206140992 0.28247651653352412 0 0.37852634528061391 0.27556152193282302 0 0.38986814039846962 0.28519899212112609 0 0.38996672139200911 0.2739348950387151 0 0.37852634528061391 0.27556152193282302 0 0.38986814039846962 0.28519899212112609 0 0.36632272206140992 0.28247651653352412 0 0.38986814039846962 0.28519899212112609 0 0.37969003142043622 0.30441229131404612 0 0.37969003142043622 0.30441229131404612 0 0.40490033305765549 0.29926998712966429 0 0.40633745104732222 0.31613823155615478 0 0.38986814039846962 0.28519899212112609 0 0.40490033305765549 0.29926998712966429 0 0.40588297839283138 0.28824690676388431 0 0.38986814039846962 0.28519899212112609 0 0.37969003142043622 0.30441229131404612 0 0.40490033305765549 0.29926998712966429 0 0.40505896000103842 0.27587442847641452 0 0.38986814039846962 0.28519899212112609 0 0.40588297839283138 0.28824690676388431 0 0.40505896000103842 0.27587442847641452 0 0.42370448011416217 0.29264421932833218 0 0.41365023052369332 0.28026056039027192 0 0.40505896000103842 0.27587442847641452 0 0.42370448011416217 0.29264421932833218 0 0.40505896000103842 0.27587442847641452 0 0.40588297839283138 0.28824690676388431 0 0.42370448011416217 0.29264421932833218 0 0.40490033305765549 0.29926998712966429 0 0.40588297839283138 0.28824690676388431 0 0.42370448011416217 0.29264421932833218 0 0.40490033305765549 0.29926998712966429 0 0.42330091359992139 0.31031696823120308 0 0.42370448011416217 0.29264421932833218 0 0.40490033305765549 0.29926998712966429 0 0.42330091359992139 0.31031696823120308 0 0.40633745104732222 0.31613823155615478 0 0.42370448011416217 0.29264421932833218 0 0.44235000022728588 0.30941401018025028 0 0.42330091359992139 0.31031696823120308 0 0.42370448011416217 0.29264421932833218 0 0.44235000022728588 0.30941401018025028 0 0.42370448011416217 0.29264421932833218 0 0.44052035308083137 0.29566143786266558 0 0.44235000022728588 0.30941401018025028 0 0.42370448011416217 0.29264421932833218 0 0.43712296010953361 0.28672026714770971 0 0.44052035308083137 0.29566143786266558 0 0.42370448011416217 0.29264421932833218 0 0.42912889558607509 0.28115032045778898 0 0.41365023052369332 0.28026056039027192 0 0.42370448011416217 0.29264421932833218 0 0.43712296010953361 0.28672026714770971 0 0.42912889558607509 0.28115032045778898 0 0.43712296010953361 0.28672026714770971 0 0.42912889558607509 0.28115032045778898 0 0.43824947540728337 0.27850485465858882 0 0.43260880043840599 0.26933052137308849 0 0.42912889558607509 0.28115032045778898 0 0.41365023052369332 0.28026056039027192 0 0.43260880043840599 0.26933052137308849 0 0.41365023052369332 0.28026056039027192 0 0.43260880043840599 0.26933052137308849 0 0.42912889558607509 0.28115032045778898 0 0.43824947540728337 0.27850485465858882 0 0.43260880043840599 0.26933052137308849 0 0.4173074240073199 0.26706834764219389 0 0.41365023052369332 0.28026056039027192 0 0.4173074240073199 0.26706834764219389 0 0.40831992622687607 0.266423202110458 0 0.41108413518973203 0.27240663465483461 0 0.40505896000103842 0.27587442847641452 0 0.40831992622687607 0.266423202110458 0 0.41108413518973203 0.27240663465483461 0 0.4173074240073199 0.26706834764219389 0 0.41108413518973203 0.27240663465483461 0 0.41365023052369332 0.28026056039027192 0 0.40505896000103842 0.27587442847641452 0 0.41108413518973203 0.27240663465483461 0 0.41365023052369332 0.28026056039027192 0 0.40771553153888013 0.25644350834723412 0 0.42959141142387031 0.25698544064603479 0 0.41640843606673078 0.2455137954005927 0 0.4173074240073199 0.26706834764219389 0 0.40771553153888013 0.25644350834723412 0 0.42959141142387031 0.25698544064603479 0 0.40771553153888013 0.25644350834723412 0 0.39966778000089981 0.24997367264765119 0 0.41640843606673078 0.2455137954005927 0 0.40771553153888013 0.25644350834723412 0 0.42959141142387031 0.25698544064603479 0 0.4173074240073199 0.26706834764219389 0 0.40831992622687607 0.266423202110458 0 0.40771553153888013 0.25644350834723412 0 0.42959141142387031 0.25698544064603479 0 0.444683159623388 0.25219484158290401 0 0.41640843606673078 0.2455137954005927 0 0.43260880043840599 0.26933052137308849 0 0.4173074240073199 0.26706834764219389 0 0.42959141142387031 0.25698544064603479 0 0.43260880043840599 0.26933052137308849 0 0.42959141142387031 0.25698544064603479 0 0.4413087183810635 0.2605609543299654 0 0.42959141142387031 0.25698544064603479 0 0.45146729130886049 0.25752737294483441 0 0.43260880043840599 0.26933052137308849 0 0.4413087183810635 0.2605609543299654 0 0.45146729130886049 0.25752737294483441 0 0.43260880043840599 0.26933052137308849 0 0.45146729130886049 0.25752737294483441 0 0.42959141142387031 0.25698544064603479 0 0.4413087183810635 0.2605609543299654 0 0.45146729130886049 0.25752737294483441 0 0.42959141142387031 0.25698544064603479 0 0.444683159623388 0.25219484158290401 0 0.45146729130886049 0.25752737294483441 0 0.45146729130886049 0.25752737294483441 0 0.45384357045310791 0.25708820215673173 0 0.45146729130886049 0.25752737294483441 0 0.45118794722174288 0.25509031978149482 0 0.45384357045310791 0.25708820215673173 0 0.45118794722174288 0.25509031978149482 0 0.45384357045310791 0.25708820215673173 0 0.45146729130886049 0.25752737294483441 0 0.45118794722174288 0.25509031978149482 0 0.444683159623388 0.25219484158290401 0 0.45118794722174288 0.25509031978149482 0 0.44352297314562472 0.24932379521111561 0 0.45118794722174288 0.25509031978149482 0 0.44352297314562472 0.24932379521111561 0 0.444683159623388 0.25219484158290401 0 0.45146729130886049 0.25752737294483441 0 0.45118794722174288 0.25509031978149482 0 0.45146729130886049 0.25752737294483441 0 0.44594984246735081 0.27355509001816269 0 0.45468743260686217 0.28562052364534141 0 0.43260880043840599 0.26933052137308849 0 0.45146729130886049 0.25752737294483441 0 0.44594984246735081 0.27355509001816269 0 0.45146729130886049 0.25752737294483441 0 0.45468743260686217 0.28562052364534141 0 0.43824947540728337 0.27850485465858882 0 0.44594984246735081 0.27355509001816269 0 0.44460298659455022 0.283081958965059 0 0.43260880043840599 0.26933052137308849 0 0.43824947540728337 0.27850485465858882 0 0.44594984246735081 0.27355509001816269 0 0.44594984246735081 0.27355509001816269 0 0.45468743260686217 0.28562052364534141 0 0.44460298659455022 0.283081958965059 0 0.45384357045310791 0.25708820215673173 0 0.47726405693005941 0.27470793698928381 0 0.45384357045310791 0.25708820215673173 0 0.47726405693005941 0.27470793698928381 0 0.45468743260686217 0.28562052364534141 0 0.45146729130886049 0.25752737294483441 0 0.45384357045310791 0.25708820215673173 0 0.45468743260686217 0.28562052364534141 0 0.45384357045310791 0.25708820215673173 0 0.47239180146685589 0.2580457369124024 0 0.47850148661175629 0.24287236272849491 0 0.45384357045310791 0.25708820215673173 0 0.47239180146685589 0.2580457369124024 0 0.45384357045310791 0.25708820215673173 0 0.47239180146685589 0.2580457369124024 0 0.47726405693005941 0.27470793698928381 0 0.45118794722174288 0.25509031978149482 0 0.45384357045310791 0.25708820215673173 0 0.45996561160836291 0.24618677505004871 0 0.47239180146685589 0.2580457369124024 0 0.49025548907359201 0.2584882749653023 0 0.47239180146685589 0.2580457369124024 0 0.47830859229746159 0.24976786564974621 0 0.47850148661175629 0.24287236272849491 0 0.48152502803388292 0.26510511168302991 0 0.47239180146685589 0.2580457369124024 0 0.49025548907359201 0.2584882749653023 0 0.48214404592933657 0.25387201281925031 0 0.47239180146685589 0.2580457369124024 0 0.49025548907359201 0.2584882749653023 0 0.48214404592933657 0.25387201281925031 0 0.47239180146685589 0.2580457369124024 0 0.47830859229746159 0.24976786564974621 0 0.48214404592933657 0.25387201281925031 0 0.48762030087943692 0.24918617374955029 0 0.47830859229746159 0.24976786564974621 0 0.48152502803388292 0.26510511168302991 0 0.47239180146685589 0.2580457369124024 0 0.47726405693005941 0.27470793698928381 0 0.48152502803388292 0.26510511168302991 0 0.47726405693005941 0.27470793698928381 0 0.49011997127912621 0.27193565045290108 0 0.47726405693005941 0.27470793698928381 0 0.49011997127912621 0.27193565045290108 0 0.49999999999999939 0.29181267511906328 0 0.5 0.27526404306301239 0 0.49011997127912621 0.27193565045290108 0 0.49999999999999789 0.2587154110069616 0 0.5 0.27526404306301239 0 0.49011997127912621 0.27193565045290108 0 0.49999999999999939 0.29181267511906328 0 0.49011997127912621 0.27193565045290108 0 0.49999999999999789 0.2587154110069616 0 0.49025548907359201 0.2584882749653023 0 0.49999999999999789 0.2587154110069616 0 0.49025548907359201 0.2584882749653023 0 0.48762030087943692 0.24918617374955029 0 0.48214404592933657 0.25387201281925031 0 0.49025548907359201 0.2584882749653023 0 0.48762030087943692 0.24918617374955029 0 0.48152502803388292 0.26510511168302991 0 0.49011997127912621 0.27193565045290108 0 0.49025548907359201 0.2584882749653023 0 0.49609664704307149 0.30080817736718668 0 0.47702095537674211 0.30194815425719079 0 0.48397807660410508 0.30816702932441242 0 0.49609664704307149 0.30080817736718668 0 0.48397807660410508 0.30816702932441242 0 0.4866942000440978 0.31638899100200779 0 0.47726405693005941 0.27470793698928381 0 0.49999999999999939 0.29181267511906328 0 0.49609664704307149 0.30080817736718668 0 0.49999999999999939 0.29181267511906328 0 0.4762869935409621 0.29335097810041288 0 0.47726405693005941 0.27470793698928381 0 0.49999999999999939 0.29181267511906328 0 0.4762869935409621 0.29335097810041288 0 0.47726405693005941 0.27470793698928381 0 0.4762869935409621 0.29335097810041288 0 0.45468743260686217 0.28562052364534141 0 0.49609664704307149 0.30080817736718668 0 0.4762869935409621 0.29335097810041288 0 0.47702095537674211 0.30194815425719079 0 0.4762869935409621 0.29335097810041288 0 0.47702095537674211 0.30194815425719079 0 0.46829569182103808 0.30243448549940288 0 0.47702095537674211 0.30194815425719079 0 0.48397807660410508 0.30816702932441242 0 0.47610050395250908 0.31352279467126409 0 0.47702095537674211 0.30194815425719079 0 0.47013398077970819 0.30983107560185119 0 0.46829569182103808 0.30243448549940288 0 0.47702095537674211 0.30194815425719079 0 0.47013398077970819 0.30983107560185119 0 0.47610050395250908 0.31352279467126409 0 0.46064417100896171 0.29612489382542118 0 0.4637652241782837 0.31319070817875172 0 0.4762869935409621 0.29335097810041288 0 0.46829569182103808 0.30243448549940288 0 0.46064417100896171 0.29612489382542118 0 0.45468743260686217 0.28562052364534141 0 0.45780749486060729 0.31284056493477891 0 0.46064417100896171 0.29612489382542118 0 0.45468743260686217 0.28562052364534141 0 0.45780749486060729 0.31284056493477891 0 0.46829569182103808 0.30243448549940288 0 0.46064417100896171 0.29612489382542118 0 0.4637652241782837 0.31319070817875172 0 0.45468743260686217 0.28562052364534141 0 0.45241910257145429 0.29851963330154319 0 0.45780749486060729 0.31284056493477891 0 0.46064417100896171 0.29612489382542118 0 0.45780749486060729 0.31284056493477891 0 0.4637652241782837 0.31319070817875172 0 0.47013398077970819 0.30983107560185119 0 0.46829569182103808 0.30243448549940288 0 0.4637652241782837 0.31319070817875172 0 0.45052277082663739 0.30915799016246392 0 0.45241910257145429 0.29851963330154319 0 0.45780749486060729 0.31284056493477891 0 0.4762869935409621 0.29335097810041288 0 0.46064417100896171 0.29612489382542118 0 0.45468743260686217 0.28562052364534141 0 0.45468743260686217 0.28562052364534141 0 0.44700522238172108 0.29100905935549232 0 0.44460298659455022 0.283081958965059 0 0.45468743260686217 0.28562052364534141 0 0.44700522238172108 0.29100905935549232 0 0.45241910257145429 0.29851963330154319 0 0.44700522238172108 0.29100905935549232 0 0.44052035308083137 0.29566143786266558 0 0.45241910257145429 0.29851963330154319 0 0.43712296010953361 0.28672026714770971 0 0.44700522238172108 0.29100905935549232 0 0.44052035308083137 0.29566143786266558 0 0.43712296010953361 0.28672026714770971 0 0.43824947540728337 0.27850485465858882 0 0.44460298659455022 0.283081958965059 0 0.43712296010953361 0.28672026714770971 0 0.44700522238172108 0.29100905935549232 0 0.44460298659455022 0.283081958965059 0 0.45052277082663739 0.30915799016246392 0 0.44235000022728588 0.30941401018025028 0 0.44951448564720242 0.31585775223328311 0 0.45052277082663739 0.30915799016246392 0 0.45241910257145429 0.29851963330154319 0 0.44235000022728588 0.30941401018025028 0 0.45241910257145429 0.29851963330154319 0 0.44235000022728588 0.30941401018025028 0 0.44052035308083137 0.29566143786266558 0 0.45241910257145429 0.29851963330154319 0 0.44235000022728588 0.30941401018025028 0 0.49609664704307149 0.30080817736718668 0 0.49999999999999939 0.29181267511906328 0 0.5 0.3652217871934158 0 0.44235000022728588 0.30941401018025028 0 0.44184607822225241 0.32732017121087909 0 0.44951448564720242 0.31585775223328311 0 0.49609664704307149 0.30080817736718668 0 0.48358334303474287 0.32697068442130339 0 0.5 0.3652217871934158 0 0.44184607822225241 0.32732017121087909 0 0.44951448564720242 0.31585775223328311 0 0.45652028662786043 0.32427805991801362 0 0.45052277082663739 0.30915799016246392 0 0.44951448564720242 0.31585775223328311 0 0.45780749486060729 0.31284056493477891 0 0.44235000022728588 0.30941401018025028 0 0.44951448564720242 0.31585775223328311 0 0.44184607822225241 0.32732017121087909 0 0.45652028662786043 0.32427805991801362 0 0.44591096151945259 0.34494134627948431 0 0.44184607822225241 0.32732017121087909 0 0.44591096151945259 0.34494134627948431 0 0.43145012393266757 0.34158497397497573 0 0.46688627734760563 0.3302565225320821 0 0.45652028662786043 0.32427805991801362 0 0.44591096151945259 0.34494134627948431 0 0.46688627734760563 0.3302565225320821 0 0.44591096151945259 0.34494134627948431 0 0.46688627734760563 0.3302565225320821 0 0.45839389278738257 0.35094710818625657 0 0.44591096151945259 0.34494134627948431 0 0.46688627734760563 0.3302565225320821 0 0.45652028662786043 0.32427805991801362 0 0.4637652241782837 0.31319070817875172 0 0.46688627734760563 0.3302565225320821 0 0.4637652241782837 0.31319070817875172 0 0.46922149656452661 0.31670027524598732 0 0.46688627734760563 0.3302565225320821 0 0.4637652241782837 0.31319070817875172 0 0.44951448564720242 0.31585775223328311 0 0.45780749486060729 0.31284056493477891 0 0.45652028662786043 0.32427805991801362 0 0.45780749486060729 0.31284056493477891 0 0.45652028662786043 0.32427805991801362 0 0.4637652241782837 0.31319070817875172 0 0.47013398077970819 0.30983107560185119 0 0.4637652241782837 0.31319070817875172 0 0.46922149656452661 0.31670027524598732 0 0.46688627734760563 0.3302565225320821 0 0.47610050395250908 0.31352279467126409 0 0.4866942000440978 0.31638899100200779 0 0.46688627734760563 0.3302565225320821 0 0.46922149656452661 0.31670027524598732 0 0.47610050395250908 0.31352279467126409 0 0.46688627734760563 0.3302565225320821 0 0.4866942000440978 0.31638899100200779 0 0.47013398077970819 0.30983107560185119 0 0.46922149656452661 0.31670027524598732 0 0.47610050395250908 0.31352279467126409 0 0.46688627734760563 0.3302565225320821 0 0.48358334303474287 0.32697068442130339 0 0.4866942000440978 0.31638899100200779 0 0.48397807660410508 0.30816702932441242 0 0.47610050395250908 0.31352279467126409 0 0.4866942000440978 0.31638899100200779 0 0.48358334303474287 0.32697068442130339 0 0.47107003902641459 0.35313319147542022 0 0.46688627734760563 0.3302565225320821 0 0.48358334303474287 0.32697068442130339 0 0.47107003902641459 0.35313319147542022 0 0.46688627734760563 0.3302565225320821 0 0.47107003902641459 0.35313319147542022 0 0.49609664704307149 0.30080817736718668 0 0.48358334303474287 0.32697068442130339 0 0.49609664704307149 0.30080817736718668 0 0.48358334303474287 0.32697068442130339 0 0.4866942000440978 0.31638899100200779 0 0.48358334303474287 0.32697068442130339 0 0.5 0.3652217871934158 0 0.47107003902641459 0.35313319147542022 0 0.47107003902641459 0.35313319147542022 0 0.4749404758029554 0.37429661033159062 0 0.5 0.3652217871934158 0 0.47107003902641459 0.35313319147542022 0 0.4749404758029554 0.37429661033159062 0 0.47107003902641459 0.35313319147542022 0 0.4749404758029554 0.37429661033159062 0 0.46311047378997672 0.36977485394181592 0 0.47107003902641459 0.35313319147542022 0 0.46311047378997672 0.36977485394181592 0 0.46311047378997672 0.36977485394181592 0 0.45077336185387962 0.36179224807129651 0 0.44978625513143838 0.38342957727211058 0 0.46311047378997672 0.36977485394181592 0 0.45839389278738257 0.35094710818625657 0 0.45077336185387962 0.36179224807129651 0 0.47107003902641459 0.35313319147542022 0 0.46311047378997672 0.36977485394181592 0 0.45839389278738257 0.35094710818625657 0 0.46688627734760563 0.3302565225320821 0 0.47107003902641459 0.35313319147542022 0 0.45839389278738257 0.35094710818625657 0 0.44591096151945259 0.34494134627948431 0 0.45077336185387962 0.36179224807129651 0 0.42493564569129982 0.35962617002688679 0 0.45839389278738257 0.35094710818625657 0 0.44591096151945259 0.34494134627948431 0 0.45077336185387962 0.36179224807129651 0 0.45077336185387962 0.36179224807129651 0 0.42493564569129982 0.35962617002688679 0 0.45077336185387962 0.36179224807129651 0 0.43447679436096459 0.3714548796572526 0 0.44978625513143838 0.38342957727211058 0 0.43447679436096459 0.3714548796572526 0 0.41680518215462048 0.3653183095398056 0 0.43008352697359692 0.38710809337618107 0 0.43447679436096459 0.3714548796572526 0 0.42493564569129982 0.35962617002688679 0 0.41680518215462048 0.3653183095398056 0 0.45077336185387962 0.36179224807129651 0 0.43447679436096459 0.3714548796572526 0 0.42493564569129982 0.35962617002688679 0 0.42493564569129982 0.35962617002688679 0 0.41680518215462048 0.3653183095398056 0 0.41271201409572561 0.35860141459355649 0 0.42493564569129982 0.35962617002688679 0 0.41680518215462048 0.3653183095398056 0 0.41680518215462048 0.3653183095398056 0 0.41271201409572561 0.35860141459355649 0 0.41680518215462048 0.3653183095398056 0 0.41217921455149897 0.36855695059146021 0 0.40984511691469222 0.36496809117448581 0 0.41271201409572561 0.35860141459355649 0 0.40184954818508112 0.36301210320969141 0 0.41680518215462048 0.3653183095398056 0 0.40984511691469222 0.36496809117448581 0 0.41217921455149897 0.36855695059146021 0 0.41680518215462048 0.3653183095398056 0 0.40984511691469222 0.36496809117448581 0 0.41271201409572561 0.35860141459355649 0 0.40984511691469222 0.36496809117448581 0 0.41217921455149897 0.36855695059146021 0 0.4060551677626032 0.36916852792034321 0 0.41680518215462048 0.3653183095398056 0 0.41253320990238601 0.37483770254667997 0 0.41217921455149897 0.36855695059146021 0 0.41253320990238601 0.37483770254667997 0 0.40083827192721611 0.37462762952454559 0 0.4060551677626032 0.36916852792034321 0 0.41253320990238601 0.37483770254667997 0 0.41217921455149897 0.36855695059146021 0 0.4060551677626032 0.36916852792034321 0 0.40642465013848911 0.34828384087509018 0 0.41271201409572561 0.35860141459355649 0 0.42017060904744541 0.34718825682995802 0 0.40642465013848911 0.34828384087509018 0 0.41271201409572561 0.35860141459355649 0 0.40642465013848911 0.34828384087509018 0 0.41271201409572561 0.35860141459355649 0 0.40056229498255702 0.35462668100944889 0 0.42493564569129982 0.35962617002688679 0 0.41271201409572561 0.35860141459355649 0 0.42493564569129982 0.35962617002688679 0 0.41271201409572561 0.35860141459355649 0 0.42017060904744541 0.34718825682995802 0 0.44591096151945259 0.34494134627948431 0 0.42493564569129982 0.35962617002688679 0 0.42493564569129982 0.35962617002688679 0 0.42017060904744541 0.34718825682995802 0 0.43145012393266757 0.34158497397497573 0 0.44591096151945259 0.34494134627948431 0 0.42493564569129982 0.35962617002688679 0 0.43145012393266757 0.34158497397497573 0 0.44184607822225241 0.32732017121087909 0 0.42438732518288752 0.32884892552767031 0 0.43145012393266757 0.34158497397497573 0 0.42017060904744541 0.34718825682995802 0 0.42438732518288752 0.32884892552767031 0 0.43145012393266757 0.34158497397497573 0 0.44235000022728588 0.30941401018025028 0 0.44184607822225241 0.32732017121087909 0 0.42438732518288752 0.32884892552767031 0 0.42330091359992139 0.31031696823120308 0 0.44235000022728588 0.30941401018025028 0 0.42438732518288752 0.32884892552767031 0 0.44235000022728588 0.30941401018025028 0 0.42438732518288752 0.32884892552767031 0 0.42330091359992139 0.31031696823120308 0 0.42438732518288752 0.32884892552767031 0 0.40633745104732222 0.31613823155615478 0 0.42438732518288752 0.32884892552767031 0 0.40633745104732222 0.31613823155615478 0 0.40806937429044488 0.33127449223508498 0 0.40642465013848911 0.34828384087509018 0 0.42438732518288752 0.32884892552767031 0 0.40806937429044488 0.33127449223508498 0 0.40642465013848911 0.34828384087509018 0 0.42438732518288752 0.32884892552767031 0 0.40642465013848911 0.34828384087509018 0 0.42017060904744541 0.34718825682995802 0 0.42438732518288752 0.32884892552767031 0 0.40642465013848911 0.34828384087509018 0 0.39193873522716038 0.34354454278221402 0 0.39305734077946258 0.32634806609456812 0 0.40642465013848911 0.34828384087509018 0 0.39305734077946258 0.32634806609456812 0 0.40642465013848911 0.34828384087509018 0 0.40806937429044488 0.33127449223508498 0 0.39305734077946258 0.32634806609456812 0 0.37969003142043622 0.30441229131404612 0 0.40633745104732222 0.31613823155615478 0 0.39305734077946258 0.32634806609456812 0 0.40633745104732222 0.31613823155615478 0 0.40806937429044488 0.33127449223508498 0 0.39305734077946258 0.32634806609456812 0 0.37388109241630801 0.33756959211600063 0 0.36776777050364717 0.31819125134612941 0 0.39305734077946258 0.32634806609456812 0 0.37969003142043622 0.30441229131404612 0 0.39305734077946258 0.32634806609456812 0 0.36776777050364717 0.31819125134612941 0 0.37969003142043622 0.30441229131404612 0 0.39305734077946258 0.32634806609456812 0 0.37388109241630801 0.33756959211600063 0 0.39193873522716038 0.34354454278221402 0 0.3820915846762693 0.34862429625714608 0 0.37388109241630801 0.33756959211600063 0 0.39193873522716038 0.34354454278221402 0 0.39305734077946258 0.32634806609456812 0 0.37103413011272052 0.35510739256526791 0 0.37388109241630801 0.33756959211600063 0 0.3820915846762693 0.34862429625714608 0 0.37103413011272052 0.35510739256526791 0 0.39187307210422251 0.35685440357941839 0 0.37103413011272052 0.35510739256526791 0 0.3820915846762693 0.34862429625714608 0 0.39187307210422251 0.35685440357941839 0 0.39193873522716038 0.34354454278221402 0 0.3820915846762693 0.34862429625714608 0 0.39187307210422251 0.35685440357941839 0 0.37103413011272052 0.35510739256526791 0 0.38025045066338969 0.36766500358832549 0 0.39187307210422251 0.35685440357941839 0 0.38025045066338969 0.36766500358832549 0 0.39322420474758341 0.36854696733193898 0 0.38892150998337338 0.38101713778794782 0 0.38025045066338969 0.36766500358832549 0 0.39322420474758341 0.36854696733193898 0 0.39187307210422251 0.35685440357941839 0 0.39322420474758341 0.36854696733193898 0 0.40184954818508112 0.36301210320969141 0 0.39187307210422251 0.35685440357941839 0 0.41271201409572561 0.35860141459355649 0 0.40184954818508112 0.36301210320969141 0 0.39187307210422251 0.35685440357941839 0 0.39322420474758341 0.36854696733193898 0 0.40009004013822769 0.36888734513336308 0 0.40184954818508112 0.36301210320969141 0 0.39322420474758341 0.36854696733193898 0 0.40083827192721611 0.37462762952454559 0 0.38892150998337338 0.38101713778794782 0 0.39322420474758341 0.36854696733193898 0 0.40083827192721611 0.37462762952454559 0 0.40009004013822769 0.36888734513336308 0 0.40083827192721611 0.37462762952454559 0 0.40009004013822769 0.36888734513336308 0 0.4060551677626032 0.36916852792034321 0 0.40984511691469222 0.36496809117448581 0 0.4060551677626032 0.36916852792034321 0 0.40184954818508112 0.36301210320969141 0 0.40009004013822769 0.36888734513336308 0 0.4060551677626032 0.36916852792034321 0 0.40184954818508112 0.36301210320969141 0 0.41271201409572561 0.35860141459355649 0 0.39187307210422251 0.35685440357941839 0 0.41271201409572561 0.35860141459355649 0 0.40056229498255702 0.35462668100944889 0 0.39187307210422251 0.35685440357941839 0 0.40642465013848911 0.34828384087509018 0 0.40056229498255702 0.35462668100944889 0 0.40642465013848911 0.34828384087509018 0 0.39193873522716038 0.34354454278221402 0 0.40056229498255702 0.35462668100944889 0 0.39193873522716038 0.34354454278221402 0 0.40056229498255702 0.35462668100944889 0 0.39187307210422251 0.35685440357941839 0 0.39963474308350538 0.41129931946821402 0 0.4064644150338067 0.39321299516095748 0 0.41152314411380242 0.40390612998284642 0 0.38331503079105123 0.40093464211735041 0 0.39963474308350538 0.41129931946821402 0 0.4064644150338067 0.39321299516095748 0 0.39453768693550467 0.38987271654392441 0 0.38331503079105123 0.40093464211735041 0 0.4064644150338067 0.39321299516095748 0 0.38331503079105123 0.40093464211735041 0 0.4064644150338067 0.39321299516095748 0 0.39453768693550467 0.38987271654392441 0 0.4064644150338067 0.39321299516095748 0 0.40961343822085472 0.38406355431016881 0 0.38892150998337338 0.38101713778794782 0 0.40961343822085472 0.38406355431016881 0 0.40083827192721611 0.37462762952454559 0 0.38892150998337338 0.38101713778794782 0 0.40961343822085472 0.38406355431016881 0 0.39453768693550467 0.38987271654392441 0 0.38892150998337338 0.38101713778794782 0 0.40961343822085472 0.38406355431016881 0 0.36822958174589149 0.37797072126573161 0 0.38025045066338969 0.36766500358832549 0 0.38892150998337338 0.38101713778794782 0 0.37384665041113918 0.38667765304202451 0 0.36822958174589149 0.37797072126573161 0 0.38892150998337338 0.38101713778794782 0 0.39453768693550467 0.38987271654392441 0 0.38437404064843728 0.39013525334319749 0 0.38892150998337338 0.38101713778794782 0 0.36822958174589149 0.37797072126573161 0 0.38892150998337338 0.38101713778794782 0 0.37384665041113918 0.38667765304202451 0 0.38437404064843728 0.39013525334319749 0 0.38892150998337338 0.38101713778794782 0 0.37384665041113918 0.38667765304202451 0 0.38437404064843728 0.39013525334319749 0 0.38331503079105123 0.40093464211735041 0 0.39453768693550467 0.38987271654392441 0 0.38437404064843728 0.39013525334319749 0 0.38331503079105123 0.40093464211735041 0 0.38331503079105123 0.40093464211735041 0 0.37915420481194928 0.42184120666704189 0 0.39963474308350538 0.41129931946821402 0 0.37915420481194928 0.42184120666704189 0 0.38647073347519689 0.4346610539352902 0 0.39814276307560231 0.43502612426034187 0 0.37915420481194928 0.42184120666704189 0 0.39814276307560231 0.43502612426034187 0 0.37915420481194928 0.42184120666704189 0 0.3777860440165845 0.43569401563575472 0 0.38647073347519689 0.4346610539352902 0 0.37915420481194928 0.42184120666704189 0 0.39814276307560231 0.43502612426034187 0 0.39963474308350538 0.41129931946821402 0 0.39814276307560231 0.43502612426034187 0 0.39963474308350538 0.41129931946821402 0 0.41795081825787589 0.4179533369881806 0 0.39963474308350538 0.41129931946821402 0 0.41795081825787589 0.4179533369881806 0 0.41152314411380242 0.40390612998284642 0 0.41795081825787589 0.4179533369881806 0 0.42171808206899353 0.40126684034025101 0 0.41152314411380242 0.40390612998284642 0 0.39814276307560231 0.43502612426034187 0 0.41795081825787589 0.4179533369881806 0 0.41713132133925629 0.44821104185364058 0 0.41795081825787589 0.4179533369881806 0 0.43572183387722818 0.43121883209455719 0 0.41713132133925629 0.44821104185364058 0 0.41795081825787589 0.4179533369881806 0 0.42171808206899353 0.40126684034025101 0 0.4433618717925723 0.40889787721255733 0 0.41795081825787589 0.4179533369881806 0 0.43572183387722818 0.43121883209455719 0 0.4433618717925723 0.40889787721255733 0 0.42171808206899353 0.40126684034025101 0 0.43008352697359692 0.38710809337618107 0 0.4433618717925723 0.40889787721255733 0 0.43008352697359692 0.38710809337618107 0 0.4433618717925723 0.40889787721255733 0 0.42171808206899353 0.40126684034025101 0 0.41551389772244901 0.39408303493613078 0 0.43008352697359692 0.38710809337618107 0 0.42171808206899353 0.40126684034025101 0 0.41551389772244901 0.39408303493613078 0 0.41152314411380242 0.40390612998284642 0 0.41551389772244901 0.39408303493613078 0 0.4064644150338067 0.39321299516095748 0 0.41152314411380242 0.40390612998284642 0 0.41551389772244901 0.39408303493613078 0 0.40961343822085472 0.38406355431016881 0 0.43008352697359692 0.38710809337618107 0 0.41253320990238601 0.37483770254667997 0 0.40961343822085472 0.38406355431016881 0 0.43008352697359692 0.38710809337618107 0 0.41680518215462048 0.3653183095398056 0 0.41253320990238601 0.37483770254667997 0 0.43008352697359692 0.38710809337618107 0 0.41253320990238601 0.37483770254667997 0 0.40083827192721611 0.37462762952454559 0 0.40961343822085472 0.38406355431016881 0 0.41551389772244901 0.39408303493613078 0 0.4064644150338067 0.39321299516095748 0 0.40961343822085472 0.38406355431016881 0 0.41680518215462048 0.3653183095398056 0 0.43008352697359692 0.38710809337618107 0 0.43447679436096459 0.3714548796572526 0 0.43008352697359692 0.38710809337618107 0 0.44978625513143838 0.38342957727211058 0 0.43008352697359692 0.38710809337618107 0 0.44978625513143838 0.38342957727211058 0 0.4433618717925723 0.40889787721255733 0 0.44978625513143838 0.38342957727211058 0 0.45999697867323042 0.40331085226853219 0 0.4433618717925723 0.40889787721255733 0 0.45999697867323042 0.40331085226853219 0 0.46491352195514563 0.3843280737101844 0 0.47881091257949582 0.39546002918776108 0 0.44978625513143838 0.38342957727211058 0 0.45999697867323042 0.40331085226853219 0 0.46491352195514563 0.3843280737101844 0 0.46311047378997672 0.36977485394181592 0 0.44978625513143838 0.38342957727211058 0 0.46491352195514563 0.3843280737101844 0 0.4749404758029554 0.37429661033159062 0 0.46311047378997672 0.36977485394181592 0 0.46491352195514563 0.3843280737101844 0 0.4749404758029554 0.37429661033159062 0 0.46491352195514563 0.3843280737101844 0 0.47881091257949582 0.39546002918776108 0 0.5 0.3652217871934158 0 0.47881091257949582 0.39546002918776108 0 0.5 0.42245328438702451 0 0.4749404758029554 0.37429661033159062 0 0.47881091257949582 0.39546002918776108 0 0.45999697867323042 0.40331085226853219 0 0.47881091257949582 0.39546002918776108 0 0.47181160023947061 0.41603589159054072 0 0.5 0.3652217871934158 0 0.4749404758029554 0.37429661033159062 0 0.47881091257949582 0.39546002918776108 0 0.47881091257949582 0.39546002918776108 0 0.5 0.42245328438702451 0 0.47181160023947061 0.41603589159054072 0 0.5 0.42245328438702451 0 0.47181160023947061 0.41603589159054072 0 0.47206236687481973 0.43623034711892539 0 0.5 0.42245328438702451 0 0.47206236687481973 0.43623034711892539 0 0.47156912434530662 0.45261084770408799 0 0.47181160023947061 0.41603589159054072 0 0.47206236687481973 0.43623034711892539 0 0.45664021661154752 0.43068766104893341 0 0.45999697867323042 0.40331085226853219 0 0.47181160023947061 0.41603589159054072 0 0.45664021661154752 0.43068766104893341 0 0.45999697867323042 0.40331085226853219 0 0.45664021661154752 0.43068766104893341 0 0.4433618717925723 0.40889787721255733 0 0.45664021661154752 0.43068766104893341 0 0.4433618717925723 0.40889787721255733 0 0.43572183387722818 0.43121883209455719 0 0.45664021661154752 0.43068766104893341 0 0.4433618717925723 0.40889787721255733 0 0.43572183387722818 0.43121883209455719 0 0.45664021661154752 0.43068766104893341 0 0.44352494138488879 0.45034424336947543 0 0.5 0.42245328438702451 0 0.5 0.5 0 0.48439830290547098 0.47623872244264898 0 0.44352494138488879 0.45034424336947543 0 0.45796036299719828 0.4761385843948388 0 0.43029978588564849 0.47777109567159748 0 0.44352494138488879 0.45034424336947543 0 0.46991856143052141 0.4524774448853105 0 0.45796036299719828 0.4761385843948388 0 0.47206236687481973 0.43623034711892539 0 0.45664021661154752 0.43068766104893341 0 0.46991856143052141 0.4524774448853105 0 0.44352494138488879 0.45034424336947543 0 0.46991856143052141 0.4524774448853105 0 0.45664021661154752 0.43068766104893341 0 0.46991856143052141 0.4524774448853105 0 0.45664021661154752 0.43068766104893341 0 0.44352494138488879 0.45034424336947543 0 0.46991856143052141 0.4524774448853105 0 0.47206236687481973 0.43623034711892539 0 0.47156912434530662 0.45261084770408799 0 0.46991856143052141 0.4524774448853105 0 0.5 0.42245328438702451 0 0.47156912434530662 0.45261084770408799 0 0.48439830290547098 0.47623872244264898 0 0.47156912434530662 0.45261084770408799 0 0.46991856143052141 0.4524774448853105 0 0.46991856143052141 0.4524774448853105 0 0.48439830290547098 0.47623872244264898 0 0.45796036299719828 0.4761385843948388 0 0.47156912434530662 0.45261084770408799 0 0.46991856143052141 0.4524774448853105 0 0.48439830290547098 0.47623872244264898 0 0.46991856143052141 0.4524774448853105 0 0.48439830290547098 0.47623872244264898 0 0.5 0.5 0 0.48439830290547098 0.47623872244264898 0 0.47283287691902509 0.5 0 0.5 0.5 0 0.48439830290547098 0.47623872244264898 0 0.48439830290547098 0.47623872244264898 0 0.47283287691902509 0.5 0 0.45796036299719828 0.4761385843948388 0 0.47283287691902509 0.5 0 0.45796036299719828 0.4761385843948388 0 0.44678770945763507 0.5 0 0.45796036299719828 0.4761385843948388 0 0.44678770945763507 0.5 0 0.43029978588564849 0.47777109567159748 0 0.44678770945763507 0.5 0 0.42074254199624489 0.5 0 0.43029978588564849 0.47777109567159748 0 0.42074254199624489 0.5 0 0.40848905352297832 0.48388315630840167 0 0.39469737453485482 0.5 0 0.42074254199624489 0.5 0 0.40848905352297832 0.48388315630840167 0 0.43029978588564849 0.47777109567159748 0 0.40848905352297832 0.48388315630840167 0 0.43029978588564849 0.47777109567159748 0 0.41495907179581099 0.46858788111228361 0 0.40848905352297832 0.48388315630840167 0 0.41495907179581099 0.46858788111228361 0 0.40209891088387312 0.47024334599012357 0 0.43029978588564849 0.47777109567159748 0 0.42347147689417097 0.46070357899471898 0 0.41495907179581099 0.46858788111228361 0 0.44352494138488879 0.45034424336947543 0 0.43029978588564849 0.47777109567159748 0 0.42347147689417097 0.46070357899471898 0 0.44352494138488879 0.45034424336947543 0 0.42347147689417097 0.46070357899471898 0 0.41713132133925629 0.44821104185364058 0 0.44352494138488879 0.45034424336947543 0 0.41713132133925629 0.44821104185364058 0 0.43572183387722818 0.43121883209455719 0 0.44352494138488879 0.45034424336947543 0 0.41713132133925629 0.44821104185364058 0 0.39814276307560231 0.43502612426034187 0 0.41713132133925629 0.44821104185364058 0 0.41713132133925629 0.44821104185364058 0 0.40970535025105059 0.45928875973058919 0 0.40107564101993198 0.45627473775064259 0 0.42347147689417097 0.46070357899471898 0 0.41495907179581099 0.46858788111228361 0 0.41677522174720882 0.45615883515807099 0 0.42347147689417097 0.46070357899471898 0 0.41713132133925629 0.44821104185364058 0 0.41677522174720882 0.45615883515807099 0 0.41713132133925629 0.44821104185364058 0 0.41677522174720882 0.45615883515807099 0 0.40970535025105059 0.45928875973058919 0 0.41495907179581099 0.46858788111228361 0 0.41677522174720882 0.45615883515807099 0 0.40970535025105059 0.45928875973058919 0 0.41495907179581099 0.46858788111228361 0 0.40970535025105059 0.45928875973058919 0 0.40209891088387312 0.47024334599012357 0 0.40970535025105059 0.45928875973058919 0 0.40107564101993198 0.45627473775064259 0 0.40209891088387312 0.47024334599012357 0 0.40107564101993198 0.45627473775064259 0 0.39079992199665142 0.4460828691780222 0 0.38965224894575923 0.46134189915272772 0 0.40107564101993198 0.45627473775064259 0 0.38965224894575923 0.46134189915272772 0 0.40209891088387312 0.47024334599012357 0 0.41713132133925629 0.44821104185364058 0 0.40107564101993198 0.45627473775064259 0 0.39079992199665142 0.4460828691780222 0 0.41713132133925629 0.44821104185364058 0 0.39079992199665142 0.4460828691780222 0 0.39814276307560231 0.43502612426034187 0 0.41713132133925629 0.44821104185364058 0 0.39079992199665142 0.4460828691780222 0 0.38647073347519689 0.4346610539352902 0 0.39814276307560231 0.43502612426034187 0 0.39079992199665142 0.4460828691780222 0 0.3644685226540465 0.44395469650240532 0 0.3777860440165845 0.43569401563575472 0 0.39079992199665142 0.4460828691780222 0 0.37319740984333882 0.45120244108891899 0 0.3644685226540465 0.44395469650240532 0 0.39079992199665142 0.4460828691780222 0 0.37319740984333882 0.45120244108891899 0 0.39079992199665142 0.4460828691780222 0 0.37925038153383278 0.45652639185801469 0 0.3644685226540465 0.44395469650240532 0 0.39079992199665142 0.4460828691780222 0 0.3777860440165845 0.43569401563575472 0 0.38647073347519689 0.4346610539352902 0 0.39079992199665142 0.4460828691780222 0 0.39079992199665142 0.4460828691780222 0 0.38965224894575923 0.46134189915272772 0 0.37925038153383278 0.45652639185801469 0 0.38965224894575923 0.46134189915272772 0 0.37925038153383278 0.45652639185801469 0 0.37692514397370391 0.46690826841809191 0 0.37417122683245518 0.48341416476441912 0 0.37692514397370391 0.46690826841809191 0 0.39074152022559261 0.47834817950792818 0 0.38965224894575923 0.46134189915272772 0 0.37692514397370391 0.46690826841809191 0 0.39074152022559261 0.47834817950792818 0 0.37417122683245518 0.48341416476441912 0 0.39469737453485482 0.5 0 0.39074152022559261 0.47834817950792818 0 0.36865220707346469 0.5 0 0.37417122683245518 0.48341416476441912 0 0.39469737453485482 0.5 0 0.40848905352297832 0.48388315630840167 0 0.39469737453485482 0.5 0 0.39074152022559261 0.47834817950792818 0 0.38965224894575923 0.46134189915272772 0 0.39074152022559261 0.47834817950792818 0 0.40209891088387312 0.47024334599012357 0 0.40848905352297832 0.48388315630840167 0 0.39074152022559261 0.47834817950792818 0 0.40209891088387312 0.47024334599012357 0 0.32772728776921828 0.084320915104655683 0 0.34997174658727181 0.099759851196798102 0 0.35254332106022002 0.079747083267440858 0 0.33779813289314892 0.064534319140624075 0 0.32772728776921828 0.084320915104655683 0 0.35254332106022002 0.079747083267440858 0 0.33779813289314892 0.064534319140624075 0 0.31634476499438252 0.068726446631983476 0 0.32772728776921828 0.084320915104655683 0 0.31634476499438252 0.068726446631983476 0 0.32772728776921828 0.084320915104655683 0 0.31191928318911438 0.084632474283273834 0 0.32772728776921828 0.084320915104655683 0 0.31640889032133068 0.098102530948138256 0 0.31191928318911438 0.084632474283273834 0 0.32772728776921828 0.084320915104655683 0 0.31640889032133068 0.098102530948138256 0 0.33174689600056578 0.10716175548365391 0 0.31640889032133068 0.098102530948138256 0 0.33174689600056578 0.10716175548365391 0 0.30973879926289422 0.1146657096099014 0 0.33174689600056578 0.10716175548365391 0 0.30973879926289422 0.1146657096099014 0 0.32294673795944751 0.1252266126968764 0 0.33174689600056578 0.10716175548365391 0 0.3357665042319134 0.13000259586265209 0 0.34747917396669459 0.12783527086853991 0 0.33174689600056578 0.10716175548365391 0 0.3357665042319134 0.13000259586265209 0 0.32294673795944751 0.1252266126968764 0 0.33174689600056578 0.10716175548365391 0 0.3357665042319134 0.13000259586265209 0 0.32772728776921828 0.084320915104655683 0 0.33174689600056578 0.10716175548365391 0 0.34997174658727181 0.099759851196798102 0 0.32772728776921828 0.084320915104655683 0 0.33174689600056578 0.10716175548365391 0 0.33174689600056578 0.10716175548365391 0 0.34997174658727181 0.099759851196798102 0 0.35695833832109858 0.118216267993813 0 0.34997174658727181 0.099759851196798102 0 0.35695833832109858 0.118216267993813 0 0.36922647234067218 0.1002909800667509 0 0.33174689600056578 0.10716175548365391 0 0.35695833832109858 0.118216267993813 0 0.34747917396669459 0.12783527086853991 0 0.35695833832109858 0.118216267993813 0 0.37078994465555759 0.117065821502554 0 0.36922647234067218 0.1002909800667509 0 0.35695833832109858 0.118216267993813 0 0.37078994465555759 0.117065821502554 0 0.37059677902251648 0.13362779187607821 0 0.36922647234067218 0.1002909800667509 0 0.35254332106022002 0.079747083267440858 0 0.38088949829773677 0.074820799158058518 0 0.34997174658727181 0.099759851196798102 0 0.36922647234067218 0.1002909800667509 0 0.35254332106022002 0.079747083267440858 0 0.33779813289314892 0.064534319140624075 0 0.35254332106022002 0.079747083267440858 0 0.36233674634643748 0.059363288952698962 0 0.35254332106022002 0.079747083267440858 0 0.36233674634643748 0.059363288952698962 0 0.38088949829773677 0.074820799158058518 0 0.36233674634643748 0.059363288952698962 0 0.37472833170114511 0.037009357375536719 0 0.38290796030778979 0.055073991367461342 0 0.37472833170114511 0.037009357375536719 0 0.34877108519829148 0.043769742016329549 0 0.35662498469284137 0.02467495353635853 0 0.36233674634643748 0.059363288952698962 0 0.37472833170114511 0.037009357375536719 0 0.34877108519829148 0.043769742016329549 0 0.34877108519829148 0.043769742016329549 0 0.35662498469284137 0.02467495353635853 0 0.33770769481188329 0.02936115147189599 0 0.33779813289314892 0.064534319140624075 0 0.36233674634643748 0.059363288952698962 0 0.34877108519829148 0.043769742016329549 0 0.36489034535419768 0.0053162071029152066 0 0.35662498469284137 0.02467495353635853 0 0.3794096929936176 0.018953628391444249 0 0.37472833170114511 0.037009357375536719 0 0.35662498469284137 0.02467495353635853 0 0.3794096929936176 0.018953628391444249 0 0.35662498469284137 0.02467495353635853 0 0.3382300476645746 0.0092414772040340255 0 0.33770769481188329 0.02936115147189599 0 0.36489034535419768 0.0053162071029152066 0 0.3382300476645746 0.0092414772040340255 0 0.35135813080823081 -0.010861302771170081 0 0.36489034535419768 0.0053162071029152066 0 0.35662498469284137 0.02467495353635853 0 0.3382300476645746 0.0092414772040340255 0 0.3382300476645746 0.0092414772040340255 0 0.33770769481188329 0.02936115147189599 0 0.32003499525267759 0.021849127119975269 0 0.32003499525267759 0.021849127119975269 0 0.31519262925432318 -0.003572203242832115 0 0.32003499525267759 0.021849127119975269 0 0.30288392383675128 0.0203456038490679 0 0.31519262925432318 -0.003572203242832115 0 0.3382300476645746 0.0092414772040340255 0 0.32003499525267759 0.021849127119975269 0 0.31519262925432318 -0.003572203242832115 0 0.33779813289314892 0.064534319140624075 0 0.34877108519829148 0.043769742016329549 0 0.32487736125103189 0.04727045748278258 0 0.34877108519829148 0.043769742016329549 0 0.33770769481188329 0.02936115147189599 0 0.32487736125103189 0.04727045748278258 0 0.33770769481188329 0.02936115147189599 0 0.32003499525267759 0.021849127119975269 0 0.32487736125103189 0.04727045748278258 0 0.32003499525267759 0.021849127119975269 0 0.32487736125103189 0.04727045748278258 0 0.32003499525267759 0.021849127119975269 0 0.32487736125103189 0.04727045748278258 0 0.30826617807962658 0.036730186735835897 0 0.33779813289314892 0.064534319140624075 0 0.31634476499438252 0.068726446631983476 0 0.32487736125103189 0.04727045748278258 0 0.31634476499438252 0.068726446631983476 0 0.32487736125103189 0.04727045748278258 0 0.29798509139166501 0.054489553707489501 0 0.32487736125103189 0.04727045748278258 0 0.29798509139166501 0.054489553707489501 0 0.30826617807962658 0.036730186735835897 0 0.29798509139166501 0.054489553707489501 0 0.30826617807962658 0.036730186735835897 0 0.29239274657059949 0.032248799903437472 0 0.29239274657059949 0.032248799903437472 0 0.27657379886997402 0.027640924636665461 0 0.27787837484306838 0.04383466631253452 0 0.29798509139166501 0.054489553707489501 0 0.29239274657059949 0.032248799903437472 0 0.27787837484306838 0.04383466631253452 0 0.29798509139166501 0.054489553707489501 0 0.27827304591822111 0.061038675318801049 0 0.27787837484306838 0.04383466631253452 0 0.29798509139166501 0.054489553707489501 0 0.27827304591822111 0.061038675318801049 0 0.28686372214931938 0.070922384999121194 0 0.30288392383675128 0.0203456038490679 0 0.28740260621623342 0.0089179716197555128 0 0.31519262925432318 -0.003572203242832115 0 0.32003499525267759 0.021849127119975269 0 0.30826617807962658 0.036730186735835897 0 0.30288392383675128 0.0203456038490679 0 0.30826617807962658 0.036730186735835897 0 0.29239274657059949 0.032248799903437472 0 0.30288392383675128 0.0203456038490679 0 0.29239274657059949 0.032248799903437472 0 0.30288392383675128 0.0203456038490679 0 0.28740260621623342 0.0089179716197555128 0 0.29239274657059949 0.032248799903437472 0 0.28740260621623342 0.0089179716197555128 0 0.27657379886997402 0.027640924636665461 0 0.28740260621623342 0.0089179716197555128 0 0.26684083404654202 0.014443688920522351 0 0.26893475362409852 -0.0093117552832579793 0 0.26684083404654202 0.014443688920522351 0 0.26893475362409852 -0.0093117552832579793 0 0.28740260621623342 0.0089179716197555128 0 0.26684083404654202 0.014443688920522351 0 0.27657379886997402 0.027640924636665461 0 0.26684083404654202 0.014443688920522351 0 0.27657379886997402 0.027640924636665461 0 0.26071722025823418 0.038277066336702907 0 0.2446939278125477 0.02481034341253633 0 0.26684083404654202 0.014443688920522351 0 0.26071722025823418 0.038277066336702907 0 0.24942856085965889 0.00090749762840000299 0 0.2446939278125477 0.02481034341253633 0 0.26684083404654202 0.014443688920522351 0 0.24942856085965889 0.00090749762840000299 0 0.26684083404654202 0.014443688920522351 0 0.26893475362409852 -0.0093117552832579793 0 0.27787837484306838 0.04383466631253452 0 0.26071722025823418 0.038277066336702907 0 0.26188605642941892 0.058644401469645599 0 0.27827304591822111 0.061038675318801049 0 0.27787837484306838 0.04383466631253452 0 0.26188605642941892 0.058644401469645599 0 0.27657379886997402 0.027640924636665461 0 0.27787837484306838 0.04383466631253452 0 0.26071722025823418 0.038277066336702907 0 0.23806309138844781 0.054450541851844808 0 0.26071722025823418 0.038277066336702907 0 0.26188605642941892 0.058644401469645599 0 0.26188605642941892 0.058644401469645599 0 0.25238188953861429 0.075425586252555951 0 0.27420633970208891 0.07765059926780056 0 0.23806309138844781 0.054450541851844808 0 0.26188605642941892 0.058644401469645599 0 0.25238188953861429 0.075425586252555951 0 0.25238188953861429 0.075425586252555951 0 0.25486427032503611 0.092635917731683406 0 0.25128065365224361 0.093692309096531284 0 0.25238188953861429 0.075425586252555951 0 0.25486427032503611 0.092635917731683406 0 0.26670068768878108 0.096400630653266844 0 0.25238188953861429 0.075425586252555951 0 0.26670068768878108 0.096400630653266844 0 0.25238188953861429 0.075425586252555951 0 0.27420633970208891 0.07765059926780056 0 0.27013963348595599 0.094262523216799926 0 0.25238188953861429 0.075425586252555951 0 0.26670068768878108 0.096400630653266844 0 0.27013963348595599 0.094262523216799926 0 0.25486427032503611 0.092635917731683406 0 0.25128065365224361 0.093692309096531284 0 0.27420633970208891 0.07765059926780056 0 0.2846645890735261 0.085231873306104849 0 0.27013963348595599 0.094262523216799926 0 0.27420633970208891 0.07765059926780056 0 0.27013963348595599 0.094262523216799926 0 0.2846645890735261 0.085231873306104849 0 0.27013963348595599 0.094262523216799926 0 0.2846645890735261 0.085231873306104849 0 0.28295993599968272 0.099927592773560947 0 0.27013963348595599 0.094262523216799926 0 0.27827304591822111 0.061038675318801049 0 0.26188605642941892 0.058644401469645599 0 0.27420633970208891 0.07765059926780056 0 0.27827304591822111 0.061038675318801049 0 0.27420633970208891 0.07765059926780056 0 0.28686372214931938 0.070922384999121194 0 0.27827304591822111 0.061038675318801049 0 0.27420633970208891 0.07765059926780056 0 0.29798509139166501 0.054489553707489501 0 0.28686372214931938 0.070922384999121194 0 0.29918954466109632 0.076201223395410078 0 0.28686372214931938 0.070922384999121194 0 0.2846645890735261 0.085231873306104849 0 0.29918954466109632 0.076201223395410078 0 0.27420633970208891 0.07765059926780056 0 0.28686372214931938 0.070922384999121194 0 0.2846645890735261 0.085231873306104849 0 0.2846645890735261 0.085231873306104849 0 0.29918954466109632 0.076201223395410078 0 0.29992592819954411 0.095811255336181678 0 0.2846645890735261 0.085231873306104849 0 0.29992592819954411 0.095811255336181678 0 0.28295993599968272 0.099927592773560947 0 0.2846645890735261 0.085231873306104849 0 0.29918954466109632 0.076201223395410078 0 0.31640889032133068 0.098102530948138256 0 0.31191928318911438 0.084632474283273834 0 0.29992592819954411 0.095811255336181678 0 0.31191928318911438 0.084632474283273834 0 0.29918954466109632 0.076201223395410078 0 0.29992592819954411 0.095811255336181678 0 0.31634476499438252 0.068726446631983476 0 0.31191928318911438 0.084632474283273834 0 0.29918954466109632 0.076201223395410078 0 0.31634476499438252 0.068726446631983476 0 0.29798509139166501 0.054489553707489501 0 0.29918954466109632 0.076201223395410078 0 0.30973879926289422 0.1146657096099014 0 0.29313516018549279 0.11148084031536901 0 0.29044463893285172 0.13118221122794449 0 0.30973879926289422 0.1146657096099014 0 0.29992592819954411 0.095811255336181678 0 0.29313516018549279 0.11148084031536901 0 0.31640889032133068 0.098102530948138256 0 0.30973879926289422 0.1146657096099014 0 0.29992592819954411 0.095811255336181678 0 0.29992592819954411 0.095811255336181678 0 0.28295993599968272 0.099927592773560947 0 0.29313516018549279 0.11148084031536901 0 0.28295993599968272 0.099927592773560947 0 0.29313516018549279 0.11148084031536901 0 0.2796456456164193 0.1153631905308499 0 0.29313516018549279 0.11148084031536901 0 0.2796456456164193 0.1153631905308499 0 0.29044463893285172 0.13118221122794449 0 0.2796456456164193 0.1153631905308499 0 0.29044463893285172 0.13118221122794449 0 0.2796456456164193 0.1153631905308499 0 0.26722278784746278 0.1133985955933809 0 0.26884665229999538 0.099544169833749474 0 0.2796456456164193 0.1153631905308499 0 0.26995964800362021 0.1243445669453952 0 0.29044463893285172 0.13118221122794449 0 0.2796456456164193 0.1153631905308499 0 0.26722278784746278 0.1133985955933809 0 0.27017750035818688 0.11817420906683559 0 0.26722278784746278 0.1133985955933809 0 0.26555616764404011 0.11298533768682149 0 0.26722278784746278 0.1133985955933809 0 0.27017750035818688 0.11817420906683559 0 0.26483433536765438 0.115933921194426 0 0.26722278784746278 0.1133985955933809 0 0.26483433536765438 0.115933921194426 0 0.26555616764404011 0.11298533768682149 0 0.26995964800362021 0.1243445669453952 0 0.26331806196161889 0.12212768518137281 0 0.26483433536765438 0.115933921194426 0 0.2796456456164193 0.1153631905308499 0 0.26995964800362021 0.1243445669453952 0 0.27017750035818688 0.11817420906683559 0 0.26995964800362021 0.1243445669453952 0 0.27017750035818688 0.11817420906683559 0 0.26483433536765438 0.115933921194426 0 0.26995964800362021 0.1243445669453952 0 0.26483433536765438 0.115933921194426 0 0.26995964800362021 0.1243445669453952 0 0.26331806196161889 0.12212768518137281 0 0.28295993599968272 0.099927592773560947 0 0.2796456456164193 0.1153631905308499 0 0.26884665229999538 0.099544169833749474 0 0.2796456456164193 0.1153631905308499 0 0.26884665229999538 0.099544169833749474 0 0.28295993599968272 0.099927592773560947 0 0.26884665229999538 0.099544169833749474 0 0.27013963348595599 0.094262523216799926 0 0.26884665229999538 0.099544169833749474 0 0.26555616764404011 0.11298533768682149 0 0.26884665229999538 0.099544169833749474 0 0.26375404676243153 0.10492969478167601 0 0.26555616764404011 0.11298533768682149 0 0.26722278784746278 0.1133985955933809 0 0.26884665229999538 0.099544169833749474 0 0.26555616764404011 0.11298533768682149 0 0.26884665229999538 0.099544169833749474 0 0.26670068768878108 0.096400630653266844 0 0.26375404676243153 0.10492969478167601 0 0.26884665229999538 0.099544169833749474 0 0.26670068768878108 0.096400630653266844 0 0.26884665229999538 0.099544169833749474 0 0.26670068768878108 0.096400630653266844 0 0.27013963348595599 0.094262523216799926 0 0.26884665229999538 0.099544169833749474 0 0.27013963348595599 0.094262523216799926 0 0.26670068768878108 0.096400630653266844 0 0.27013963348595599 0.094262523216799926 0 0.26670068768878108 0.096400630653266844 0 0.25671455209108512 0.1026093446145469 0 0.26670068768878108 0.096400630653266844 0 0.26375404676243153 0.10492969478167601 0 0.25671455209108512 0.1026093446145469 0 0.25486427032503611 0.092635917731683406 0 0.26670068768878108 0.096400630653266844 0 0.25671455209108512 0.1026093446145469 0 0.26375404676243153 0.10492969478167601 0 0.25671455209108512 0.1026093446145469 0 0.26258919483023402 0.1122496421928295 0 0.25671455209108512 0.1026093446145469 0 0.26258919483023402 0.1122496421928295 0 0.24730480387762471 0.1084596992921386 0 0.25671455209108512 0.1026093446145469 0 0.24730480387762471 0.1084596992921386 0 0.25128065365224361 0.093692309096531284 0 0.25671455209108512 0.1026093446145469 0 0.24730480387762471 0.1084596992921386 0 0.25671455209108512 0.1026093446145469 0 0.26258919483023402 0.1122496421928295 0 0.25486427032503611 0.092635917731683406 0 0.25128065365224361 0.093692309096531284 0 0.25671455209108512 0.1026093446145469 0 0.25128065365224361 0.093692309096531284 0 0.25671455209108512 0.1026093446145469 0 0.24730480387762471 0.1084596992921386 0 0.26331806196161889 0.12212768518137281 0 0.26258919483023402 0.1122496421928295 0 0.2494604034116702 0.12801796591919351 0 0.23859442605707831 0.113875232042858 0 0.26331806196161889 0.12212768518137281 0 0.23859442605707831 0.113875232042858 0 0.26331806196161889 0.12212768518137281 0 0.26331806196161889 0.12212768518137281 0 0.26483433536765438 0.115933921194426 0 0.26331806196161889 0.12212768518137281 0 0.26483433536765438 0.115933921194426 0 0.26258919483023402 0.1122496421928295 0 0.26375404676243153 0.10492969478167601 0 0.26555616764404011 0.11298533768682149 0 0.26258919483023402 0.1122496421928295 0 0.26483433536765438 0.115933921194426 0 0.26555616764404011 0.11298533768682149 0 0.26258919483023402 0.1122496421928295 0 0.26483433536765438 0.115933921194426 0 0.26258919483023402 0.1122496421928295 0 0.26483433536765438 0.115933921194426 0 0.26555616764404011 0.11298533768682149 0 0.26555616764404011 0.11298533768682149 0 0.26258919483023402 0.1122496421928295 0 0.24730480387762471 0.1084596992921386 0 0.26258919483023402 0.1122496421928295 0 0.26331806196161889 0.12212768518137281 0 0.25893386802456347 0.14003650189678191 0 0.26995964800362021 0.1243445669453952 0 0.26331806196161889 0.12212768518137281 0 0.25893386802456347 0.14003650189678191 0 0.2494604034116702 0.12801796591919351 0 0.26331806196161889 0.12212768518137281 0 0.25893386802456347 0.14003650189678191 0 0.26995964800362021 0.1243445669453952 0 0.29044463893285172 0.13118221122794449 0 0.26995964800362021 0.1243445669453952 0 0.28447740099327279 0.1481682214555885 0 0.26995964800362021 0.1243445669453952 0 0.25893386802456347 0.14003650189678191 0 0.26922082760875909 0.15216078395989649 0 0.26995964800362021 0.1243445669453952 0 0.26922082760875909 0.15216078395989649 0 0.28447740099327279 0.1481682214555885 0 0.26922082760875909 0.15216078395989649 0 0.28161979530448022 0.16548218148944821 0 0.28447740099327279 0.1481682214555885 0 0.2430308126809651 0.1505159525120901 0 0.25893386802456347 0.14003650189678191 0 0.25454967408750251 0.15794531861218969 0 0.25893386802456347 0.14003650189678191 0 0.26922082760875909 0.15216078395989649 0 0.25454967408750251 0.15794531861218969 0 0.25893386802456347 0.14003650189678191 0 0.25454967408750251 0.15794531861218969 0 0.26922082760875909 0.15216078395989649 0 0.25454967408750251 0.15794531861218969 0 0.26774690998937178 0.1687855999816765 0 0.25454967408750251 0.15794531861218969 0 0.25464003426139131 0.17666586729871581 0 0.26774690998937178 0.1687855999816765 0 0.24173246471255769 0.18944206582477369 0 0.25464003426139131 0.17666586729871581 0 0.25899296554710122 0.19067786704775819 0 0.25464003426139131 0.17666586729871581 0 0.26773027684100298 0.1829932575593565 0 0.26774690998937178 0.1687855999816765 0 0.25464003426139131 0.17666586729871581 0 0.26773027684100298 0.1829932575593565 0 0.25899296554710122 0.19067786704775819 0 0.26773027684100298 0.1829932575593565 0 0.27818008823993778 0.17834692143373521 0 0.26774690998937178 0.1687855999816765 0 0.26773027684100298 0.1829932575593565 0 0.27818008823993778 0.17834692143373521 0 0.27603174175310508 0.18738518442118929 0 0.27818008823993778 0.17834692143373521 0 0.27603174175310508 0.18738518442118929 0 0.28511887565098248 0.18798638919502611 0 0.26922082760875909 0.15216078395989649 0 0.26774690998937178 0.1687855999816765 0 0.28161979530448022 0.16548218148944821 0 0.27818008823993778 0.17834692143373521 0 0.26774690998937178 0.1687855999816765 0 0.28161979530448022 0.16548218148944821 0 0.28161979530448022 0.16548218148944821 0 0.29899515398292742 0.17199187596578061 0 0.28447740099327279 0.1481682214555885 0 0.29899515398292742 0.17199187596578061 0 0.30315420059748971 0.14979994837555999 0 0.28447740099327279 0.1481682214555885 0 0.29899515398292742 0.17199187596578061 0 0.28447740099327279 0.1481682214555885 0 0.28161979530448022 0.16548218148944821 0 0.28821969505251882 0.1788352686364558 0 0.29899515398292742 0.17199187596578061 0 0.28821969505251882 0.1788352686364558 0 0.29899515398292742 0.17199187596578061 0 0.29502287509405661 0.1931872444335036 0 0.27818008823993778 0.17834692143373521 0 0.28821969505251882 0.1788352686364558 0 0.28511887565098248 0.18798638919502611 0 0.27818008823993778 0.17834692143373521 0 0.28161979530448022 0.16548218148944821 0 0.28821969505251882 0.1788352686364558 0 0.28821969505251882 0.1788352686364558 0 0.28511887565098248 0.18798638919502611 0 0.29502287509405661 0.1931872444335036 0 0.29899515398292742 0.17199187596578061 0 0.29502287509405661 0.1931872444335036 0 0.29899515398292742 0.17199187596578061 0 0.30800139089592099 0.1867711242974594 0 0.29502287509405661 0.1931872444335036 0 0.29899515398292742 0.17199187596578061 0 0.30800139089592099 0.1867711242974594 0 0.29899515398292742 0.17199187596578061 0 0.31150383475375443 0.17399416286247599 0 0.30800139089592099 0.1867711242974594 0 0.29899515398292742 0.17199187596578061 0 0.31222398196521711 0.16431317042765581 0 0.30749144911627507 0.15615341319183221 0 0.29899515398292742 0.17199187596578061 0 0.30749144911627507 0.15615341319183221 0 0.30315420059748971 0.14979994837555999 0 0.29899515398292742 0.17199187596578061 0 0.30315420059748971 0.14979994837555999 0 0.29899515398292742 0.17199187596578061 0 0.31150383475375443 0.17399416286247599 0 0.31222398196521711 0.16431317042765581 0 0.31222398196521711 0.16431317042765581 0 0.30749144911627507 0.15615341319183221 0 0.31542098679489627 0.15600378380640681 0 0.30749144911627507 0.15615341319183221 0 0.30315420059748971 0.14979994837555999 0 0.31617749917223309 0.14952941745333909 0 0.30749144911627507 0.15615341319183221 0 0.30315420059748971 0.14979994837555999 0 0.30315420059748971 0.14979994837555999 0 0.30568972611498879 0.136270838485228 0 0.30315420059748971 0.14979994837555999 0 0.30568972611498879 0.136270838485228 0 0.31617749917223309 0.14952941745333909 0 0.30973879926289422 0.1146657096099014 0 0.30568972611498879 0.136270838485228 0 0.30973879926289422 0.1146657096099014 0 0.30568972611498879 0.136270838485228 0 0.29044463893285172 0.13118221122794449 0 0.30315420059748971 0.14979994837555999 0 0.30568972611498879 0.136270838485228 0 0.29044463893285172 0.13118221122794449 0 0.30568972611498879 0.136270838485228 0 0.29044463893285172 0.13118221122794449 0 0.26995964800362021 0.1243445669453952 0 0.29044463893285172 0.13118221122794449 0 0.28447740099327279 0.1481682214555885 0 0.30315420059748971 0.14979994837555999 0 0.29044463893285172 0.13118221122794449 0 0.30315420059748971 0.14979994837555999 0 0.29044463893285172 0.13118221122794449 0 0.28447740099327279 0.1481682214555885 0 0.27483448956505457 0.25273962756014617 0 0.27705352233787028 0.23664011339763691 0 0.26606505083200538 0.24181030448148499 0 0.27483448956505457 0.25273962756014617 0 0.29041712184727653 0.25735482353352951 0 0.27705352233787028 0.23664011339763691 0 0.27483448956505457 0.25273962756014617 0 0.26606505083200538 0.24181030448148499 0 0.26005917609230239 0.24950389444376561 0 0.26606505083200538 0.24181030448148499 0 0.26005917609230239 0.24950389444376561 0 0.25231301533279432 0.22835758252439139 0 0.24486768388138971 0.238914970013657 0 0.26005917609230239 0.24950389444376561 0 0.25231301533279432 0.22835758252439139 0 0.27705352233787028 0.23664011339763691 0 0.26606505083200538 0.24181030448148499 0 0.25231301533279432 0.22835758252439139 0 0.24486768388138971 0.238914970013657 0 0.24766219088804209 0.25228471583829248 0 0.26005917609230239 0.24950389444376561 0 0.27705352233787028 0.23664011339763691 0 0.25231301533279432 0.22835758252439139 0 0.26575960740518118 0.21913358950297351 0 0.27705352233787028 0.23664011339763691 0 0.25231301533279432 0.22835758252439139 0 0.24768048109307009 0.21516051087533339 0 0.25231301533279432 0.22835758252439139 0 0.26575960740518118 0.21913358950297351 0 0.27705352233787028 0.23664011339763691 0 0.26575960740518118 0.21913358950297351 0 0.2791861359910241 0.23218095598512231 0 0.27705352233787028 0.23664011339763691 0 0.26575960740518118 0.21913358950297351 0 0.2791861359910241 0.23218095598512231 0 0.27855065422613251 0.22074017731946449 0 0.28358878591583447 0.22729994925247729 0 0.26575960740518118 0.21913358950297351 0 0.2791861359910241 0.23218095598512231 0 0.27855065422613251 0.22074017731946449 0 0.26882260143908199 0.21018702227153899 0 0.28841199616750163 0.19847907328449921 0 0.26882260143908199 0.21018702227153899 0 0.28841199616750163 0.19847907328449921 0 0.28421192542305468 0.21223557691993819 0 0.27855065422613251 0.22074017731946449 0 0.26882260143908199 0.21018702227153899 0 0.28421192542305468 0.21223557691993819 0 0.26575960740518118 0.21913358950297351 0 0.27855065422613251 0.22074017731946449 0 0.26882260143908199 0.21018702227153899 0 0.26575960740518118 0.21913358950297351 0 0.25446569247249118 0.2016270656083107 0 0.24768048109307009 0.21516051087533339 0 0.26575960740518118 0.21913358950297351 0 0.25446569247249118 0.2016270656083107 0 0.26575960740518118 0.21913358950297351 0 0.26882260143908199 0.21018702227153899 0 0.25446569247249118 0.2016270656083107 0 0.26882260143908199 0.21018702227153899 0 0.26505394102395718 0.19983541869636101 0 0.25446569247249118 0.2016270656083107 0 0.24173246471255769 0.18944206582477369 0 0.25446569247249118 0.2016270656083107 0 0.25899296554710122 0.19067786704775819 0 0.26505394102395718 0.19983541869636101 0 0.25446569247249118 0.2016270656083107 0 0.25899296554710122 0.19067786704775819 0 0.26505394102395718 0.19983541869636101 0 0.25899296554710122 0.19067786704775819 0 0.27033538397120688 0.1935035272990317 0 0.26773027684100298 0.1829932575593565 0 0.25899296554710122 0.19067786704775819 0 0.27033538397120688 0.1935035272990317 0 0.26773027684100298 0.1829932575593565 0 0.27603174175310508 0.18738518442118929 0 0.27033538397120688 0.1935035272990317 0 0.26882260143908199 0.21018702227153899 0 0.27428360133282859 0.19922017363404559 0 0.28841199616750163 0.19847907328449921 0 0.26505394102395718 0.19983541869636101 0 0.27033538397120688 0.1935035272990317 0 0.27428360133282859 0.19922017363404559 0 0.26882260143908199 0.21018702227153899 0 0.26505394102395718 0.19983541869636101 0 0.27428360133282859 0.19922017363404559 0 0.27428360133282859 0.19922017363404559 0 0.27879408406239548 0.19409582661879701 0 0.28841199616750163 0.19847907328449921 0 0.27033538397120688 0.1935035272990317 0 0.27428360133282859 0.19922017363404559 0 0.27879408406239548 0.19409582661879701 0 0.27603174175310508 0.18738518442118929 0 0.27033538397120688 0.1935035272990317 0 0.27879408406239548 0.19409582661879701 0 0.27603174175310508 0.18738518442118929 0 0.27879408406239548 0.19409582661879701 0 0.28511887565098248 0.18798638919502611 0 0.27879408406239548 0.19409582661879701 0 0.28511887565098248 0.18798638919502611 0 0.28841199616750163 0.19847907328449921 0 0.28841199616750163 0.19847907328449921 0 0.30249855082354121 0.19918927688044169 0 0.29823407870022961 0.21045532618219651 0 0.28511887565098248 0.18798638919502611 0 0.28841199616750163 0.19847907328449921 0 0.29502287509405661 0.1931872444335036 0 0.30800139089592099 0.1867711242974594 0 0.28841199616750163 0.19847907328449921 0 0.30800139089592099 0.1867711242974594 0 0.30249855082354121 0.19918927688044169 0 0.31975769373275592 0.20606323494995379 0 0.30800139089592099 0.1867711242974594 0 0.28841199616750163 0.19847907328449921 0 0.30249855082354121 0.19918927688044169 0 0.30800139089592099 0.1867711242974594 0 0.28841199616750163 0.19847907328449921 0 0.29502287509405661 0.1931872444335036 0 0.30249855082354121 0.19918927688044169 0 0.29823407870022961 0.21045532618219651 0 0.31975769373275592 0.20606323494995379 0 0.29823407870022961 0.21045532618219651 0 0.28973486918261843 0.22340396998473691 0 0.31133761228689782 0.21973500085189679 0 0.29823407870022961 0.21045532618219651 0 0.31133761228689782 0.21973500085189679 0 0.31975769373275592 0.20606323494995379 0 0.29823407870022961 0.21045532618219651 0 0.28421192542305468 0.21223557691993819 0 0.28973486918261843 0.22340396998473691 0 0.28841199616750163 0.19847907328449921 0 0.29823407870022961 0.21045532618219651 0 0.28421192542305468 0.21223557691993819 0 0.28973486918261843 0.22340396998473691 0 0.31080838368920738 0.23578289390749141 0 0.28957805686385352 0.23496237816333071 0 0.27855065422613251 0.22074017731946449 0 0.28358878591583447 0.22729994925247729 0 0.28973486918261843 0.22340396998473691 0 0.27855065422613251 0.22074017731946449 0 0.28421192542305468 0.21223557691993819 0 0.28973486918261843 0.22340396998473691 0 0.28358878591583447 0.22729994925247729 0 0.28973486918261843 0.22340396998473691 0 0.28957805686385352 0.23496237816333071 0 0.2791861359910241 0.23218095598512231 0 0.28358878591583447 0.22729994925247729 0 0.28957805686385352 0.23496237816333071 0 0.28973486918261843 0.22340396998473691 0 0.31133761228689782 0.21973500085189679 0 0.31080838368920738 0.23578289390749141 0 0.28973486918261843 0.22340396998473691 0 0.31080838368920738 0.23578289390749141 0 0.31080838368920738 0.23578289390749141 0 0.30230962191087901 0.24709211077672649 0 0.28957805686385352 0.23496237816333071 0 0.31643702991621242 0.25077843285604101 0 0.31080838368920738 0.23578289390749141 0 0.30230962191087901 0.24709211077672649 0 0.29041712184727653 0.25735482353352951 0 0.30230962191087901 0.24709211077672649 0 0.28957805686385352 0.23496237816333071 0 0.29041712184727653 0.25735482353352951 0 0.27705352233787028 0.23664011339763691 0 0.29041712184727653 0.25735482353352951 0 0.27705352233787028 0.23664011339763691 0 0.28957805686385352 0.23496237816333071 0 0.27705352233787028 0.23664011339763691 0 0.2791861359910241 0.23218095598512231 0 0.28957805686385352 0.23496237816333071 0 0.34226983904957931 0.24300569930331781 0 0.33188189819579628 0.24816181783024591 0 0.33139732488978729 0.2254264846035601 0 0.31080838368920738 0.23578289390749141 0 0.33188189819579628 0.24816181783024591 0 0.31643702991621242 0.25077843285604101 0 0.31080838368920738 0.23578289390749141 0 0.33188189819579628 0.24816181783024591 0 0.31080838368920738 0.23578289390749141 0 0.33188189819579628 0.24816181783024591 0 0.33139732488978729 0.2254264846035601 0 0.31133761228689782 0.21973500085189679 0 0.31080838368920738 0.23578289390749141 0 0.33139732488978729 0.2254264846035601 0 0.34226983904957931 0.24300569930331781 0 0.33139732488978729 0.2254264846035601 0 0.31975769373275592 0.20606323494995379 0 0.34651169496761858 0.19106058268885909 0 0.34951186495227199 0.2127993684830585 0 0.33139732488978729 0.2254264846035601 0 0.31975769373275592 0.20606323494995379 0 0.34951186495227199 0.2127993684830585 0 0.33139732488978729 0.2254264846035601 0 0.31975769373275592 0.20606323494995379 0 0.31133761228689782 0.21973500085189679 0 0.33139732488978729 0.2254264846035601 0 0.31975769373275592 0.20606323494995379 0 0.30800139089592099 0.1867711242974594 0 0.31975769373275592 0.20606323494995379 0 0.32483832493908288 0.19011430664028831 0 0.30800139089592099 0.1867711242974594 0 0.31975769373275592 0.20606323494995379 0 0.31975769373275592 0.20606323494995379 0 0.32483832493908288 0.19011430664028831 0 0.34651169496761858 0.19106058268885909 0 0.34651169496761858 0.19106058268885909 0 0.36336239542594589 0.19801481178205069 0 0.36008762303388331 0.18332681331897041 0 0.34651169496761858 0.19106058268885909 0 0.36336239542594589 0.19801481178205069 0 0.34951186495227199 0.2127993684830585 0 0.36336239542594589 0.19801481178205069 0 0.37952764405992689 0.1846428494370172 0 0.37877305754119611 0.21527681960800571 0 0.36336239542594589 0.19801481178205069 0 0.36008762303388331 0.18332681331897041 0 0.37952764405992689 0.1846428494370172 0 0.36336239542594589 0.19801481178205069 0 0.34951186495227199 0.2127993684830585 0 0.37877305754119611 0.21527681960800571 0 0.34226983904957931 0.24300569930331781 0 0.33139732488978729 0.2254264846035601 0 0.35985898895341639 0.2321517030359703 0 0.33139732488978729 0.2254264846035601 0 0.35985898895341639 0.2321517030359703 0 0.33139732488978729 0.2254264846035601 0 0.34951186495227199 0.2127993684830585 0 0.35985898895341639 0.2321517030359703 0 0.34951186495227199 0.2127993684830585 0 0.35985898895341639 0.2321517030359703 0 0.37877305754119611 0.21527681960800571 0 0.35985898895341639 0.2321517030359703 0 0.38813371251007373 0.23883274921828149 0 0.35985898895341639 0.2321517030359703 0 0.36846444383432581 0.24944549940237129 0 0.38813371251007373 0.23883274921828149 0 0.34226983904957931 0.24300569930331781 0 0.35985898895341639 0.2321517030359703 0 0.36846444383432581 0.24944549940237129 0 0.33403066555678218 0.14573070415983541 0 0.33978611246326129 0.15284343624165031 0 0.3357665042319134 0.13000259586265209 0 0.33978611246326129 0.15284343624165031 0 0.3357665042319134 0.13000259586265209 0 0.34698701816156019 0.13974690050794561 0 0.33978611246326129 0.15284343624165031 0 0.3357665042319134 0.13000259586265209 0 0.33403066555678218 0.14573070415983541 0 0.33236744066725188 0.149927974514802 0 0.33543819599680869 0.14936442608021799 0 0.33227702103056822 0.1543078193270804 0 0.33236744066725188 0.149927974514802 0 0.3277238800848486 0.1503089484920743 0 0.33403066555678218 0.14573070415983541 0 0.33236744066725188 0.149927974514802 0 0.3277238800848486 0.1503089484920743 0 0.33227702103056822 0.1543078193270804 0 0.32641156298442242 0.15560240550994431 0 0.3277238800848486 0.1503089484920743 0 0.33227702103056822 0.1543078193270804 0 0.33595373988143112 0.1531765457035526 0 0.33705819866243331 0.15884001044355281 0 0.33227702103056822 0.1543078193270804 0 0.33543819599680869 0.14936442608021799 0 0.33595373988143112 0.1531765457035526 0 0.33227702103056822 0.1543078193270804 0 0.33236744066725188 0.149927974514802 0 0.33543819599680869 0.14936442608021799 0 0.33543819599680869 0.14936442608021799 0 0.33978611246326129 0.15284343624165031 0 0.33403066555678218 0.14573070415983541 0 0.33543819599680869 0.14936442608021799 0 0.33978611246326129 0.15284343624165031 0 0.33543819599680869 0.14936442608021799 0 0.33978611246326129 0.15284343624165031 0 0.33595373988143112 0.1531765457035526 0 0.33978611246326129 0.15284343624165031 0 0.33595373988143112 0.1531765457035526 0 0.33705819866243331 0.15884001044355281 0 0.33403066555678218 0.14573070415983541 0 0.3357665042319134 0.13000259586265209 0 0.32902934732017092 0.13403552346271599 0 0.3357665042319134 0.13000259586265209 0 0.34747917396669459 0.12783527086853991 0 0.34698701816156019 0.13974690050794561 0 0.3357665042319134 0.13000259586265209 0 0.32902934732017092 0.13403552346271599 0 0.32294673795944751 0.1252266126968764 0 0.33403066555678218 0.14573070415983541 0 0.32902934732017092 0.13403552346271599 0 0.32337348153254047 0.1351821811315001 0 0.30973879926289422 0.1146657096099014 0 0.30568972611498879 0.136270838485228 0 0.32294673795944751 0.1252266126968764 0 0.30568972611498879 0.136270838485228 0 0.32337348153254047 0.1351821811315001 0 0.32294673795944751 0.1252266126968764 0 0.30568972611498879 0.136270838485228 0 0.33403066555678218 0.14573070415983541 0 0.32337348153254047 0.1351821811315001 0 0.32902934732017092 0.13403552346271599 0 0.32337348153254047 0.1351821811315001 0 0.32294673795944751 0.1252266126968764 0 0.30568972611498879 0.136270838485228 0 0.33403066555678218 0.14573070415983541 0 0.31617749917223309 0.14952941745333909 0 0.30568972611498879 0.136270838485228 0 0.33403066555678218 0.14573070415983541 0 0.33403066555678218 0.14573070415983541 0 0.3277238800848486 0.1503089484920743 0 0.31617749917223309 0.14952941745333909 0 0.3277238800848486 0.1503089484920743 0 0.32058006973204722 0.1536058464844019 0 0.31617749917223309 0.14952941745333909 0 0.32641156298442242 0.15560240550994431 0 0.3277238800848486 0.1503089484920743 0 0.32058006973204722 0.1536058464844019 0 0.30749144911627507 0.15615341319183221 0 0.31617749917223309 0.14952941745333909 0 0.31542098679489627 0.15600378380640681 0 0.32058006973204722 0.1536058464844019 0 0.31617749917223309 0.14952941745333909 0 0.31542098679489627 0.15600378380640681 0 0.31222398196521711 0.16431317042765581 0 0.31542098679489627 0.15600378380640681 0 0.32117981442672677 0.15995820759345661 0 0.31222398196521711 0.16431317042765581 0 0.31875265271672221 0.1677775791459824 0 0.32117981442672677 0.15995820759345661 0 0.32058006973204722 0.1536058464844019 0 0.31542098679489627 0.15600378380640681 0 0.32117981442672677 0.15995820759345661 0 0.31150383475375443 0.17399416286247599 0 0.31222398196521711 0.16431317042765581 0 0.31875265271672221 0.1677775791459824 0 0.31875265271672221 0.1677775791459824 0 0.32544479959731659 0.16640750046647859 0 0.32508252016003719 0.17656228462488011 0 0.31875265271672221 0.1677775791459824 0 0.32544479959731659 0.16640750046647859 0 0.32117981442672677 0.15995820759345661 0 0.32544479959731659 0.16640750046647859 0 0.32117981442672677 0.15995820759345661 0 0.33070265716471953 0.1601973334286205 0 0.32641156298442242 0.15560240550994431 0 0.32117981442672677 0.15995820759345661 0 0.33070265716471953 0.1601973334286205 0 0.32641156298442242 0.15560240550994431 0 0.32058006973204722 0.1536058464844019 0 0.32117981442672677 0.15995820759345661 0 0.31150383475375443 0.17399416286247599 0 0.30800139089592099 0.1867711242974594 0 0.32508252016003719 0.17656228462488011 0 0.30800139089592099 0.1867711242974594 0 0.32483832493908288 0.19011430664028831 0 0.32508252016003719 0.17656228462488011 0 0.30800139089592099 0.1867711242974594 0 0.32508252016003719 0.17656228462488011 0 0.31150383475375443 0.17399416286247599 0 0.31875265271672221 0.1677775791459824 0 0.32508252016003719 0.17656228462488011 0 0.32483832493908288 0.19011430664028831 0 0.34651169496761858 0.19106058268885909 0 0.32508252016003719 0.17656228462488011 0 0.34651169496761858 0.19106058268885909 0 0.32508252016003719 0.17656228462488011 0 0.34216364942415328 0.1663534449523007 0 0.32508252016003719 0.17656228462488011 0 0.34216364942415328 0.1663534449523007 0 0.32544479959731659 0.16640750046647859 0 0.32508252016003719 0.17656228462488011 0 0.34216364942415328 0.1663534449523007 0 0.32544479959731659 0.16640750046647859 0 0.33070265716471953 0.1601973334286205 0 0.34216364942415328 0.1663534449523007 0 0.33227702103056822 0.1543078193270804 0 0.33070265716471953 0.1601973334286205 0 0.33705819866243331 0.15884001044355281 0 0.33227702103056822 0.1543078193270804 0 0.32641156298442242 0.15560240550994431 0 0.33070265716471953 0.1601973334286205 0 0.33978611246326129 0.15284343624165031 0 0.34216364942415328 0.1663534449523007 0 0.33978611246326129 0.15284343624165031 0 0.34216364942415328 0.1663534449523007 0 0.33705819866243331 0.15884001044355281 0 0.33070265716471953 0.1601973334286205 0 0.34216364942415328 0.1663534449523007 0 0.33705819866243331 0.15884001044355281 0 0.33978611246326129 0.15284343624165031 0 0.35034410133922278 0.1612914712642097 0 0.34216364942415328 0.1663534449523007 0 0.35034410133922278 0.1612914712642097 0 0.33978611246326129 0.15284343624165031 0 0.34216364942415328 0.1663534449523007 0 0.35034410133922278 0.1612914712642097 0 0.33978611246326129 0.15284343624165031 0 0.35034410133922278 0.1612914712642097 0 0.35517875090994272 0.155970147733304 0 0.34216364942415328 0.1663534449523007 0 0.35034410133922278 0.1612914712642097 0 0.35137950245433092 0.17417267984759119 0 0.35034410133922278 0.1612914712642097 0 0.35137950245433092 0.17417267984759119 0 0.3596568782615942 0.16874314283933359 0 0.35034410133922278 0.1612914712642097 0 0.3596568782615942 0.16874314283933359 0 0.35034410133922278 0.1612914712642097 0 0.3596568782615942 0.16874314283933359 0 0.35517875090994272 0.155970147733304 0 0.34651169496761858 0.19106058268885909 0 0.34216364942415328 0.1663534449523007 0 0.35137950245433092 0.17417267984759119 0 0.34651169496761858 0.19106058268885909 0 0.35137950245433092 0.17417267984759119 0 0.36008762303388331 0.18332681331897041 0 0.34651169496761858 0.19106058268885909 0 0.34216364942415328 0.1663534449523007 0 0.35137950245433092 0.17417267984759119 0 0.36008762303388331 0.18332681331897041 0 0.3596568782615942 0.16874314283933359 0 0.36008762303388331 0.18332681331897041 0 0.3596568782615942 0.16874314283933359 0 0.37952764405992689 0.1846428494370172 0 0.3596568782615942 0.16874314283933359 0 0.37737904687144169 0.16964083001217631 0 0.37952764405992689 0.1846428494370172 0 0.3596568782615942 0.16874314283933359 0 0.37952764405992689 0.1846428494370172 0 0.3596568782615942 0.16874314283933359 0 0.36771223621532878 0.15927001155181281 0 0.37737904687144169 0.16964083001217631 0 0.3596568782615942 0.16874314283933359 0 0.36771223621532878 0.15927001155181281 0 0.35517875090994272 0.155970147733304 0 0.36771223621532878 0.15927001155181281 0 0.37199472728407418 0.14686020576041181 0 0.3848316006477992 0.1588770390953006 0 0.37199472728407418 0.14686020576041181 0 0.35813985201961201 0.15027239140227569 0 0.35870394509659381 0.1388559777819221 0 0.36771223621532878 0.15927001155181281 0 0.37199472728407418 0.14686020576041181 0 0.35813985201961201 0.15027239140227569 0 0.36771223621532878 0.15927001155181281 0 0.35517875090994272 0.155970147733304 0 0.35813985201961201 0.15027239140227569 0 0.35517875090994272 0.155970147733304 0 0.35813985201961201 0.15027239140227569 0 0.35059867558991692 0.14872175663144749 0 0.35059867558991692 0.14872175663144749 0 0.34698701816156019 0.13974690050794561 0 0.35870394509659381 0.1388559777819221 0 0.35813985201961201 0.15027239140227569 0 0.35059867558991692 0.14872175663144749 0 0.35870394509659381 0.1388559777819221 0 0.33978611246326129 0.15284343624165031 0 0.35059867558991692 0.14872175663144749 0 0.34698701816156019 0.13974690050794561 0 0.33978611246326129 0.15284343624165031 0 0.35517875090994272 0.155970147733304 0 0.35059867558991692 0.14872175663144749 0 0.35695833832109858 0.118216267993813 0 0.34747917396669459 0.12783527086853991 0 0.35870394509659381 0.1388559777819221 0 0.34747917396669459 0.12783527086853991 0 0.34698701816156019 0.13974690050794561 0 0.35870394509659381 0.1388559777819221 0 0.35695833832109858 0.118216267993813 0 0.35870394509659381 0.1388559777819221 0 0.37059677902251648 0.13362779187607821 0 0.37199472728407418 0.14686020576041181 0 0.35870394509659381 0.1388559777819221 0 0.37059677902251648 0.13362779187607821 0 0.37199472728407418 0.14686020576041181 0 0.37059677902251648 0.13362779187607821 0 0.39198395070259529 0.1402580228550816 0 0.37059677902251648 0.13362779187607821 0 0.39198395070259529 0.1402580228550816 0 0.3863781889379429 0.1161282460735738 0 0.39198395070259529 0.1402580228550816 0 0.41115121588416959 0.12326136474926511 0 0.3863781889379429 0.1161282460735738 0 0.39198395070259529 0.1402580228550816 0 0.3848316006477992 0.1588770390953006 0 0.40506692173900227 0.1600444977673332 0 0.39198395070259529 0.1402580228550816 0 0.40506692173900227 0.1600444977673332 0 0.41818102691939008 0.14131209665391489 0 0.37199472728407418 0.14686020576041181 0 0.39198395070259529 0.1402580228550816 0 0.3848316006477992 0.1588770390953006 0 0.3848316006477992 0.1588770390953006 0 0.37737904687144169 0.16964083001217631 0 0.39516687517255888 0.1766711071374174 0 0.36771223621532878 0.15927001155181281 0 0.3848316006477992 0.1588770390953006 0 0.37737904687144169 0.16964083001217631 0 0.37737904687144169 0.16964083001217631 0 0.37952764405992689 0.1846428494370172 0 0.39516687517255888 0.1766711071374174 0 0.39516687517255888 0.1766711071374174 0 0.40506692173900227 0.1600444977673332 0 0.41795941668631359 0.1812569925545548 0 0.37952764405992689 0.1846428494370172 0 0.39516687517255888 0.1766711071374174 0 0.39939840985825958 0.20054255603470081 0 0.39516687517255888 0.1766711071374174 0 0.41795941668631359 0.1812569925545548 0 0.39939840985825958 0.20054255603470081 0 0.3848316006477992 0.1588770390953006 0 0.39516687517255888 0.1766711071374174 0 0.40506692173900227 0.1600444977673332 0 0.40506692173900227 0.1600444977673332 0 0.41795941668631359 0.1812569925545548 0 0.42446900848900171 0.16120910054089591 0 0.41795941668631359 0.1812569925545548 0 0.42974757825900373 0.1732999224085971 0 0.43632705503240438 0.18315081935262231 0 0.41795941668631359 0.1812569925545548 0 0.43632705503240438 0.18315081935262231 0 0.42388075788092622 0.19751128891185299 0 0.41795941668631359 0.1812569925545548 0 0.42974757825900373 0.1732999224085971 0 0.42446900848900171 0.16120910054089591 0 0.42974757825900373 0.1732999224085971 0 0.43632705503240438 0.18315081935262231 0 0.44023483282829501 0.16758277718631531 0 0.42446900848900171 0.16120910054089591 0 0.44115872813309659 0.1558563962212326 0 0.44023483282829501 0.16758277718631531 0 0.42974757825900373 0.1732999224085971 0 0.42446900848900171 0.16120910054089591 0 0.44023483282829501 0.16758277718631531 0 0.42446900848900171 0.16120910054089591 0 0.43407556540902159 0.1478754581141008 0 0.44115872813309659 0.1558563962212326 0 0.42446900848900171 0.16120910054089591 0 0.43407556540902159 0.1478754581141008 0 0.41818102691939008 0.14131209665391489 0 0.43407556540902159 0.1478754581141008 0 0.41818102691939008 0.14131209665391489 0 0.43967238266289371 0.13217165918119861 0 0.41818102691939008 0.14131209665391489 0 0.43967238266289371 0.13217165918119861 0 0.42552441781396683 0.1190158748212982 0 0.41818102691939008 0.14131209665391489 0 0.42552441781396683 0.1190158748212982 0 0.41115121588416959 0.12326136474926511 0 0.39198395070259529 0.1402580228550816 0 0.41818102691939008 0.14131209665391489 0 0.41115121588416959 0.12326136474926511 0 0.40506692173900227 0.1600444977673332 0 0.42446900848900171 0.16120910054089591 0 0.41818102691939008 0.14131209665391489 0 0.39966778000089981 0.24997367264765119 0 0.38813371251007373 0.23883274921828149 0 0.41640843606673078 0.2455137954005927 0 0.38813371251007373 0.23883274921828149 0 0.40545842579931352 0.2244455868313571 0 0.41640843606673078 0.2455137954005927 0 0.38813371251007373 0.23883274921828149 0 0.41640843606673078 0.2455137954005927 0 0.38641343988791438 0.25910463762449681 0 0.39966778000089981 0.24997367264765119 0 0.38813371251007373 0.23883274921828149 0 0.38641343988791438 0.25910463762449681 0 0.36846444383432581 0.24944549940237129 0 0.38813371251007373 0.23883274921828149 0 0.35985898895341639 0.2321517030359703 0 0.38813371251007373 0.23883274921828149 0 0.37877305754119611 0.21527681960800571 0 0.38813371251007373 0.23883274921828149 0 0.39133450010092941 0.22392298701816141 0 0.37877305754119611 0.21527681960800571 0 0.38813371251007373 0.23883274921828149 0 0.40545842579931352 0.2244455868313571 0 0.39133450010092941 0.22392298701816141 0 0.40545842579931352 0.2244455868313571 0 0.39939840985825958 0.20054255603470081 0 0.4134282867424745 0.21019437566563631 0 0.40545842579931352 0.2244455868313571 0 0.39133450010092941 0.22392298701816141 0 0.39939840985825958 0.20054255603470081 0 0.39133450010092941 0.22392298701816141 0 0.37877305754119611 0.21527681960800571 0 0.39939840985825958 0.20054255603470081 0 0.37952764405992689 0.1846428494370172 0 0.39939840985825958 0.20054255603470081 0 0.37952764405992689 0.1846428494370172 0 0.37877305754119611 0.21527681960800571 0 0.39939840985825958 0.20054255603470081 0 0.41795941668631359 0.1812569925545548 0 0.39939840985825958 0.20054255603470081 0 0.42388075788092622 0.19751128891185299 0 0.39939840985825958 0.20054255603470081 0 0.42388075788092622 0.19751128891185299 0 0.4134282867424745 0.21019437566563631 0 0.42388075788092622 0.19751128891185299 0 0.42805025664899932 0.2138224611353304 0 0.44127618667424789 0.19702434882625211 0 0.43632705503240438 0.18315081935262231 0 0.42388075788092622 0.19751128891185299 0 0.44127618667424789 0.19702434882625211 0 0.42805025664899932 0.2138224611353304 0 0.43488637927548079 0.22499793777266389 0 0.44681693198519767 0.21254127609438611 0 0.42388075788092622 0.19751128891185299 0 0.42805025664899932 0.2138224611353304 0 0.4134282867424745 0.21019437566563631 0 0.42805025664899932 0.2138224611353304 0 0.4134282867424745 0.21019437566563631 0 0.41958776419439919 0.22844445240661099 0 0.40545842579931352 0.2244455868313571 0 0.41958776419439919 0.22844445240661099 0 0.41640843606673078 0.2455137954005927 0 0.40545842579931352 0.2244455868313571 0 0.4134282867424745 0.21019437566563631 0 0.41958776419439919 0.22844445240661099 0 0.42805025664899932 0.2138224611353304 0 0.41958776419439919 0.22844445240661099 0 0.43488637927548079 0.22499793777266389 0 0.43488637927548079 0.22499793777266389 0 0.42744562144408782 0.2353545621456922 0 0.4388157410115413 0.2388356488733101 0 0.41958776419439919 0.22844445240661099 0 0.43488637927548079 0.22499793777266389 0 0.42744562144408782 0.2353545621456922 0 0.42744562144408782 0.2353545621456922 0 0.41640843606673078 0.2455137954005927 0 0.4388157410115413 0.2388356488733101 0 0.444683159623388 0.25219484158290401 0 0.41640843606673078 0.2455137954005927 0 0.44352297314562472 0.24932379521111561 0 0.41640843606673078 0.2455137954005927 0 0.44352297314562472 0.24932379521111561 0 0.4388157410115413 0.2388356488733101 0 0.444683159623388 0.25219484158290401 0 0.41640843606673078 0.2455137954005927 0 0.41958776419439919 0.22844445240661099 0 0.42744562144408782 0.2353545621456922 0 0.41640843606673078 0.2455137954005927 0 0.45384357045310791 0.25708820215673173 0 0.47850148661175629 0.24287236272849491 0 0.45384357045310791 0.25708820215673173 0 0.45996561160836291 0.24618677505004871 0 0.47850148661175629 0.24287236272849491 0 0.46718342709898703 0.23714662720980689 0 0.45996561160836291 0.24618677505004871 0 0.47850148661175629 0.24287236272849491 0 0.46718342709898703 0.23714662720980689 0 0.45996561160836291 0.24618677505004871 0 0.45759266097744877 0.23244652086073139 0 0.45996561160836291 0.24618677505004871 0 0.44940096330769491 0.23950031805458599 0 0.45759266097744877 0.23244652086073139 0 0.45118794722174288 0.25509031978149482 0 0.45996561160836291 0.24618677505004871 0 0.44940096330769491 0.23950031805458599 0 0.45118794722174288 0.25509031978149482 0 0.44551982505455789 0.2450713893565043 0 0.44940096330769491 0.23950031805458599 0 0.45118794722174288 0.25509031978149482 0 0.44551982505455789 0.2450713893565043 0 0.44352297314562472 0.24932379521111561 0 0.45118794722174288 0.25509031978149482 0 0.44940096330769491 0.23950031805458599 0 0.44551982505455789 0.2450713893565043 0 0.44352297314562472 0.24932379521111561 0 0.4388157410115413 0.2388356488733101 0 0.44551982505455789 0.2450713893565043 0 0.4388157410115413 0.2388356488733101 0 0.44940096330769491 0.23950031805458599 0 0.44940096330769491 0.23950031805458599 0 0.44761397939364678 0.2239103163276773 0 0.45759266097744877 0.23244652086073139 0 0.44940096330769491 0.23950031805458599 0 0.44761397939364678 0.2239103163276773 0 0.43488637927548079 0.22499793777266389 0 0.4388157410115413 0.2388356488733101 0 0.44761397939364678 0.2239103163276773 0 0.4388157410115413 0.2388356488733101 0 0.44940096330769491 0.23950031805458599 0 0.44761397939364678 0.2239103163276773 0 0.43488637927548079 0.22499793777266389 0 0.44761397939364678 0.2239103163276773 0 0.44681693198519767 0.21254127609438611 0 0.44761397939364678 0.2239103163276773 0 0.45721532824872257 0.2209995728393421 0 0.44681693198519767 0.21254127609438611 0 0.44761397939364678 0.2239103163276773 0 0.45721532824872257 0.2209995728393421 0 0.45759266097744877 0.23244652086073139 0 0.45721532824872257 0.2209995728393421 0 0.45759266097744877 0.23244652086073139 0 0.46482899899735491 0.22794072720941411 0 0.46718342709898703 0.23714662720980689 0 0.46482899899735491 0.22794072720941411 0 0.4706981320588608 0.2319308523948454 0 0.46718342709898703 0.23714662720980689 0 0.45759266097744877 0.23244652086073139 0 0.46482899899735491 0.22794072720941411 0 0.46482899899735491 0.22794072720941411 0 0.46648499394115778 0.2185111322496649 0 0.47097272964721598 0.22614158172548701 0 0.45721532824872257 0.2209995728393421 0 0.46482899899735491 0.22794072720941411 0 0.46648499394115778 0.2185111322496649 0 0.45721532824872257 0.2209995728393421 0 0.46648499394115778 0.2185111322496649 0 0.4599544041975297 0.21064746429417899 0 0.46648499394115778 0.2185111322496649 0 0.4680813654388874 0.2094148489688949 0 0.4599544041975297 0.21064746429417899 0 0.4680813654388874 0.2094148489688949 0 0.4599544041975297 0.21064746429417899 0 0.45896267350824399 0.19860916396967199 0 0.4599544041975297 0.21064746429417899 0 0.44681693198519767 0.21254127609438611 0 0.45896267350824399 0.19860916396967199 0 0.45721532824872257 0.2209995728393421 0 0.4599544041975297 0.21064746429417899 0 0.44681693198519767 0.21254127609438611 0 0.42805025664899932 0.2138224611353304 0 0.44681693198519767 0.21254127609438611 0 0.44127618667424789 0.19702434882625211 0 0.44127618667424789 0.19702434882625211 0 0.45061529500092101 0.18860998855696831 0 0.45896267350824399 0.19860916396967199 0 0.44681693198519767 0.21254127609438611 0 0.44127618667424789 0.19702434882625211 0 0.45896267350824399 0.19860916396967199 0 0.43632705503240438 0.18315081935262231 0 0.44127618667424789 0.19702434882625211 0 0.45061529500092101 0.18860998855696831 0 0.45061529500092101 0.18860998855696831 0 0.45896267350824399 0.19860916396967199 0 0.46585418072456758 0.18185995742274971 0 0.45896267350824399 0.19860916396967199 0 0.47433165392166632 0.20094106490930341 0 0.46585418072456758 0.18185995742274971 0 0.4680813654388874 0.2094148489688949 0 0.45896267350824399 0.19860916396967199 0 0.47433165392166632 0.20094106490930341 0 0.47433165392166632 0.20094106490930341 0 0.46585418072456758 0.18185995742274971 0 0.47935799262373929 0.21225435447192359 0 0.48011029298374119 0.18536144500990581 0 0.47433165392166632 0.20094106490930341 0 0.47935799262373929 0.21225435447192359 0 0.48011029298374119 0.18536144500990581 0 0.5 0.20160937377451951 0 0.47935799262373929 0.21225435447192359 0 0.48011029298374119 0.18536144500990581 0 0.5 0.20160937377451951 0 0.47935799262373929 0.21225435447192359 0 0.49999999999999728 0.2304779895662814 0 0.47433165392166632 0.20094106490930341 0 0.47935799262373929 0.21225435447192359 0 0.47572772572012478 0.217755420560938 0 0.47433165392166632 0.20094106490930341 0 0.47572772572012478 0.217755420560938 0 0.4680813654388874 0.2094148489688949 0 0.47433165392166632 0.20094106490930341 0 0.47572772572012478 0.217755420560938 0 0.47433165392166632 0.20094106490930341 0 0.47935799262373929 0.21225435447192359 0 0.46648499394115778 0.2185111322496649 0 0.4680813654388874 0.2094148489688949 0 0.47572772572012478 0.217755420560938 0 0.47572772572012478 0.217755420560938 0 0.47712379751858169 0.23456977621257269 0 0.47572772572012478 0.217755420560938 0 0.47097272964721598 0.22614158172548701 0 0.47712379751858169 0.23456977621257269 0 0.47572772572012478 0.217755420560938 0 0.47892973961774771 0.22756335860020921 0 0.47712379751858169 0.23456977621257269 0 0.47935799262373929 0.21225435447192359 0 0.47892973961774771 0.22756335860020921 0 0.49001266734284832 0.23623590992162849 0 0.46648499394115778 0.2185111322496649 0 0.47572772572012478 0.217755420560938 0 0.47097272964721598 0.22614158172548701 0 0.47097272964721598 0.22614158172548701 0 0.4706981320588608 0.2319308523948454 0 0.47712379751858169 0.23456977621257269 0 0.46482899899735491 0.22794072720941411 0 0.47097272964721598 0.22614158172548701 0 0.4706981320588608 0.2319308523948454 0 0.47935799262373929 0.21225435447192359 0 0.47892973961774771 0.22756335860020921 0 0.47935799262373929 0.21225435447192359 0 0.47572772572012478 0.217755420560938 0 0.47892973961774771 0.22756335860020921 0 0.47935799262373929 0.21225435447192359 0 0.49001266734284832 0.23623590992162849 0 0.47935799262373929 0.21225435447192359 0 0.49999999999999728 0.2304779895662814 0 0.49001266734284832 0.23623590992162849 0 0.49999999999999728 0.2304779895662814 0 0.49001266734284832 0.23623590992162849 0 0.49999999999999789 0.2587154110069616 0 0.49999999999999728 0.2304779895662814 0 0.49001266734284832 0.23623590992162849 0 0.49999999999999789 0.2587154110069616 0 0.49001266734284832 0.23623590992162849 0 0.48762030087943692 0.24918617374955029 0 0.49999999999999789 0.2587154110069616 0 0.49001266734284832 0.23623590992162849 0 0.49001266734284832 0.23623590992162849 0 0.48762030087943692 0.24918617374955029 0 0.47850148661175629 0.24287236272849491 0 0.48762030087943692 0.24918617374955029 0 0.47830859229746159 0.24976786564974621 0 0.47850148661175629 0.24287236272849491 0 0.47830859229746159 0.24976786564974621 0 0.47850148661175629 0.24287236272849491 0 0.47892973961774771 0.22756335860020921 0 0.47850148661175629 0.24287236272849491 0 0.47892973961774771 0.22756335860020921 0 0.47850148661175629 0.24287236272849491 0 0.47712379751858169 0.23456977621257269 0 0.49001266734284832 0.23623590992162849 0 0.47850148661175629 0.24287236272849491 0 0.47892973961774771 0.22756335860020921 0 0.49001266734284832 0.23623590992162849 0 0.47850148661175629 0.24287236272849491 0 0.46718342709898703 0.23714662720980689 0 0.4706981320588608 0.2319308523948454 0 0.47712379751858169 0.23456977621257269 0 0.46718342709898703 0.23714662720980689 0 0.47850148661175629 0.24287236272849491 0 0.47712379751858169 0.23456977621257269 0 0.45479491410709871 0.1542923640846191 0 0.45337268500352801 0.13811353703618159 0 0.4693549953859022 0.1410019509829227 0 0.45479491410709871 0.1542923640846191 0 0.45737670752747028 0.16277884993619521 0 0.4693549953859022 0.1410019509829227 0 0.45479491410709871 0.1542923640846191 0 0.4693549953859022 0.1410019509829227 0 0.4693549953859022 0.1410019509829227 0 0.4674039238404647 0.1175031517785927 0 0.4539298994134201 0.1241109003031329 0 0.45337268500352801 0.13811353703618159 0 0.4693549953859022 0.1410019509829227 0 0.4539298994134201 0.1241109003031329 0 0.4693549953859022 0.1410019509829227 0 0.4674039238404647 0.1175031517785927 0 0.45337268500352801 0.13811353703618159 0 0.43967238266289371 0.13217165918119861 0 0.44597220465032611 0.14621527400980511 0 0.45337268500352801 0.13811353703618159 0 0.43967238266289371 0.13217165918119861 0 0.4539298994134201 0.1241109003031329 0 0.45479491410709871 0.1542923640846191 0 0.45337268500352801 0.13811353703618159 0 0.44597220465032611 0.14621527400980511 0 0.43407556540902159 0.1478754581141008 0 0.43967238266289371 0.13217165918119861 0 0.44597220465032611 0.14621527400980511 0 0.45479491410709871 0.1542923640846191 0 0.44597220465032611 0.14621527400980511 0 0.44115872813309659 0.1558563962212326 0 0.43407556540902159 0.1478754581141008 0 0.44597220465032611 0.14621527400980511 0 0.44115872813309659 0.1558563962212326 0 0.45479491410709871 0.1542923640846191 0 0.44023483282829501 0.16758277718631531 0 0.45737670752747028 0.16277884993619521 0 0.44023483282829501 0.16758277718631531 0 0.45200314389983992 0.17659001625200271 0 0.45737670752747028 0.16277884993619521 0 0.45479491410709871 0.1542923640846191 0 0.44115872813309659 0.1558563962212326 0 0.44023483282829501 0.16758277718631531 0 0.45479491410709871 0.1542923640846191 0 0.44023483282829501 0.16758277718631531 0 0.43632705503240438 0.18315081935262231 0 0.45061529500092101 0.18860998855696831 0 0.45200314389983992 0.17659001625200271 0 0.43632705503240438 0.18315081935262231 0 0.44023483282829501 0.16758277718631531 0 0.45200314389983992 0.17659001625200271 0 0.45200314389983992 0.17659001625200271 0 0.46585418072456758 0.18185995742274971 0 0.45737670752747028 0.16277884993619521 0 0.46585418072456758 0.18185995742274971 0 0.45737670752747028 0.16277884993619521 0 0.45061529500092101 0.18860998855696831 0 0.45200314389983992 0.17659001625200271 0 0.46585418072456758 0.18185995742274971 0 0.45737670752747028 0.16277884993619521 0 0.47184332465378498 0.17097150794611299 0 0.4693549953859022 0.1410019509829227 0 0.46585418072456758 0.18185995742274971 0 0.45737670752747028 0.16277884993619521 0 0.47184332465378498 0.17097150794611299 0 0.48086259334374298 0.15846853554788781 0 0.47184332465378498 0.17097150794611299 0 0.48011029298374119 0.18536144500990581 0 0.48086259334374298 0.15846853554788781 0 0.47184332465378498 0.17097150794611299 0 0.4693549953859022 0.1410019509829227 0 0.47433165392166632 0.20094106490930341 0 0.46585418072456758 0.18185995742274971 0 0.47184332465378498 0.17097150794611299 0 0.47433165392166632 0.20094106490930341 0 0.47184332465378498 0.17097150794611299 0 0.48086259334374298 0.15846853554788781 0 0.48011029298374119 0.18536144500990581 0 0.47433165392166632 0.20094106490930341 0 0.47184332465378498 0.17097150794611299 0 0.48011029298374119 0.18536144500990581 0 0.5 0.20160937377451951 0 0.48011029298374119 0.18536144500990581 0 0.5 0.17274075798275759 0 0.48086259334374298 0.15846853554788781 0 0.48011029298374119 0.18536144500990581 0 0.5 0.17274075798275759 0 0.48086259334374298 0.15846853554788781 0 0.5 0.17274075798275759 0 0.5 0.14387214219099581 0 0.48086259334374298 0.15846853554788781 0 0.5 0.14387214219099581 0 0.48370561329710021 0.1426061324206879 0 0.47184332465378498 0.17097150794611299 0 0.4693549953859022 0.1410019509829227 0 0.48086259334374298 0.15846853554788781 0 0.48370561329710021 0.1426061324206879 0 0.4693549953859022 0.1410019509829227 0 0.4693549953859022 0.1410019509829227 0 0.48460486445875578 0.12708190096094529 0 0.4674039238404647 0.1175031517785927 0 0.4693549953859022 0.1410019509829227 0 0.48460486445875578 0.12708190096094529 0 0.48370561329710021 0.1426061324206879 0 0.4693549953859022 0.1410019509829227 0 0.48460486445875578 0.12708190096094529 0 0.5 0.14387214219099581 0 0.48370561329710021 0.1426061324206879 0 0.48460486445875578 0.12708190096094529 0 0.5 0.14387214219099581 0 0.48460486445875578 0.12708190096094529 0 0.5 0.11500352639923379 0 0.48460486445875578 0.12708190096094529 0 0.5 0.1131618509389679 0 0.48460486445875578 0.12708190096094529 0 0.5 0.1131618509389679 0 0.5 0.11500352639923379 0 0.48460486445875578 0.12708190096094529 0 0.48553682519091662 0.1126502985050767 0 0.5 0.1131618509389679 0 0.5 0.1131618509389679 0 0.4913468863497763 0.1022239066635347 0 0.5 0.086134910607471915 0 0.48553682519091662 0.1126502985050767 0 0.4913468863497763 0.1022239066635347 0 0.47999598667657928 0.096948566602622188 0 0.4913468863497763 0.1022239066635347 0 0.47999598667657928 0.096948566602622188 0 0.5 0.086134910607471915 0 0.48553682519091662 0.1126502985050767 0 0.5 0.1131618509389679 0 0.4913468863497763 0.1022239066635347 0 0.48553682519091662 0.1126502985050767 0 0.47999598667657928 0.096948566602622188 0 0.4674039238404647 0.1175031517785927 0 0.47999598667657928 0.096948566602622188 0 0.46246535793032439 0.089780105236079003 0 0.4674039238404647 0.1175031517785927 0 0.48460486445875578 0.12708190096094529 0 0.48553682519091662 0.1126502985050767 0 0.4674039238404647 0.1175031517785927 0 0.5 0.086134910607471915 0 0.4707780424980807 0.0722129942765984 0 0.5 0.057266294815710113 0 0.47999598667657928 0.096948566602622188 0 0.4707780424980807 0.0722129942765984 0 0.46246535793032439 0.089780105236079003 0 0.47999598667657928 0.096948566602622188 0 0.5 0.086134910607471915 0 0.4707780424980807 0.0722129942765984 0 0.4707780424980807 0.0722129942765984 0 0.46246535793032439 0.089780105236079003 0 0.4488934143676841 0.06686862485831252 0 0.46246535793032439 0.089780105236079003 0 0.44468095276413072 0.085687647828271291 0 0.45134152151311702 0.1050641104320094 0 0.46246535793032439 0.089780105236079003 0 0.44468095276413072 0.085687647828271291 0 0.4488934143676841 0.06686862485831252 0 0.44468095276413072 0.085687647828271291 0 0.4488934143676841 0.06686862485831252 0 0.42546867057639343 0.065062582624291654 0 0.4674039238404647 0.1175031517785927 0 0.4539298994134201 0.1241109003031329 0 0.45134152151311702 0.1050641104320094 0 0.46246535793032439 0.089780105236079003 0 0.4674039238404647 0.1175031517785927 0 0.45134152151311702 0.1050641104320094 0 0.44468095276413072 0.085687647828271291 0 0.45134152151311702 0.1050641104320094 0 0.43306675538821149 0.10220045370597609 0 0.45134152151311702 0.1050641104320094 0 0.44070699535832192 0.116512599688723 0 0.43306675538821149 0.10220045370597609 0 0.43967238266289371 0.13217165918119861 0 0.4539298994134201 0.1241109003031329 0 0.44070699535832192 0.116512599688723 0 0.4539298994134201 0.1241109003031329 0 0.45134152151311702 0.1050641104320094 0 0.44070699535832192 0.116512599688723 0 0.44070699535832192 0.116512599688723 0 0.42552441781396683 0.1190158748212982 0 0.43306675538821149 0.10220045370597609 0 0.43967238266289371 0.13217165918119861 0 0.44070699535832192 0.116512599688723 0 0.42552441781396683 0.1190158748212982 0 0.42552441781396683 0.1190158748212982 0 0.41115121588416959 0.12326136474926511 0 0.40833956285338507 0.1001051054926447 0 0.41115121588416959 0.12326136474926511 0 0.40833956285338507 0.1001051054926447 0 0.40833956285338507 0.1001051054926447 0 0.43306675538821149 0.10220045370597609 0 0.42341677028094432 0.086000927177441594 0 0.42552441781396683 0.1190158748212982 0 0.40833956285338507 0.1001051054926447 0 0.43306675538821149 0.10220045370597609 0 0.44468095276413072 0.085687647828271291 0 0.43306675538821149 0.10220045370597609 0 0.42341677028094432 0.086000927177441594 0 0.44468095276413072 0.085687647828271291 0 0.42341677028094432 0.086000927177441594 0 0.42546867057639343 0.065062582624291654 0 0.42341677028094432 0.086000927177441594 0 0.42546867057639343 0.065062582624291654 0 0.40552790982260067 0.076948846236024243 0 0.42546867057639343 0.065062582624291654 0 0.40552790982260067 0.076948846236024243 0 0.40271625679181622 0.053792586979403707 0 0.40833956285338507 0.1001051054926447 0 0.42341677028094432 0.086000927177441594 0 0.40552790982260067 0.076948846236024243 0 0.40833956285338507 0.1001051054926447 0 0.40552790982260067 0.076948846236024243 0 0.40833956285338507 0.1001051054926447 0 0.40552790982260067 0.076948846236024243 0 0.38951994703041593 0.093323096843209219 0 0.40552790982260067 0.076948846236024243 0 0.38088949829773677 0.074820799158058518 0 0.38951994703041593 0.093323096843209219 0 0.40552790982260067 0.076948846236024243 0 0.38088949829773677 0.074820799158058518 0 0.40271625679181622 0.053792586979403707 0 0.40552790982260067 0.076948846236024243 0 0.40271625679181622 0.053792586979403707 0 0.36233674634643748 0.059363288952698962 0 0.38088949829773677 0.074820799158058518 0 0.38290796030778979 0.055073991367461342 0 0.36922647234067218 0.1002909800667509 0 0.38088949829773677 0.074820799158058518 0 0.38951994703041593 0.093323096843209219 0 0.36922647234067218 0.1002909800667509 0 0.38951994703041593 0.093323096843209219 0 0.3863781889379429 0.1161282460735738 0 0.37078994465555759 0.117065821502554 0 0.37059677902251648 0.13362779187607821 0 0.3863781889379429 0.1161282460735738 0 0.37078994465555759 0.117065821502554 0 0.36922647234067218 0.1002909800667509 0 0.3863781889379429 0.1161282460735738 0 0.41115121588416959 0.12326136474926511 0 0.40833956285338507 0.1001051054926447 0 0.3863781889379429 0.1161282460735738 0 0.40833956285338507 0.1001051054926447 0 0.38951994703041593 0.093323096843209219 0 0.3863781889379429 0.1161282460735738 0 0.39990460376103171 0.03063632772278323 0 0.39709204292618872 0.012420568651391611 0 0.3794096929936176 0.018953628391444249 0 0.39990460376103171 0.03063632772278323 0 0.39709204292618872 0.012420568651391611 0 0.41374533556713422 0.021118406560404882 0 0.39709204292618872 0.012420568651391611 0 0.41256738745127741 0.0036107266233665952 0 0.3970473664383854 -0.0058158814232632302 0 0.39709204292618872 0.012420568651391611 0 0.38321784952630122 0.0036643559596802201 0 0.3970473664383854 -0.0058158814232632302 0 0.36489034535419768 0.0053162071029152066 0 0.38321784952630122 0.0036643559596802201 0 0.3794096929936176 0.018953628391444249 0 0.39709204292618872 0.012420568651391611 0 0.38321784952630122 0.0036643559596802201 0 0.3794096929936176 0.018953628391444249 0 0.37472833170114511 0.037009357375536719 0 0.39990460376103171 0.03063632772278323 0 0.3794096929936176 0.018953628391444249 0 0.37472833170114511 0.037009357375536719 0 0.39990460376103171 0.03063632772278323 0 0.38290796030778979 0.055073991367461342 0 0.38088949829773677 0.074820799158058518 0 0.38290796030778979 0.055073991367461342 0 0.40271625679181622 0.053792586979403707 0 0.39990460376103171 0.03063632772278323 0 0.40271625679181622 0.053792586979403707 0 0.39990460376103171 0.03063632772278323 0 0.38290796030778979 0.055073991367461342 0 0.40271625679181622 0.053792586979403707 0 0.39990460376103171 0.03063632772278323 0 0.40271625679181622 0.053792586979403707 0 0.41707837131500619 0.04016697113728341 0 0.42546867057639343 0.065062582624291654 0 0.40271625679181622 0.053792586979403707 0 0.41707837131500619 0.04016697113728341 0 0.42546867057639343 0.065062582624291654 0 0.41707837131500619 0.04016697113728341 0 0.43614871936987493 0.044256647518241168 0 0.4488934143676841 0.06686862485831252 0 0.42546867057639343 0.065062582624291654 0 0.43614871936987493 0.044256647518241168 0 0.41707837131500619 0.04016697113728341 0 0.43614871936987493 0.044256647518241168 0 0.42763317721038557 0.028119434952285308 0 0.43614871936987493 0.044256647518241168 0 0.42763317721038557 0.028119434952285308 0 0.44855331467285581 0.024709431417415492 0 0.42763317721038557 0.028119434952285308 0 0.428196430738916 0.01175641027531917 0 0.44855331467285581 0.024709431417415492 0 0.42763317721038557 0.028119434952285308 0 0.41374533556713422 0.021118406560404882 0 0.428196430738916 0.01175641027531917 0 0.41707837131500619 0.04016697113728341 0 0.42763317721038557 0.028119434952285308 0 0.41374533556713422 0.021118406560404882 0 0.39990460376103171 0.03063632772278323 0 0.41707837131500619 0.04016697113728341 0 0.41374533556713422 0.021118406560404882 0 0.41374533556713422 0.021118406560404882 0 0.41256738745127741 0.0036107266233665952 0 0.428196430738916 0.01175641027531917 0 0.39709204292618872 0.012420568651391611 0 0.41374533556713422 0.021118406560404882 0 0.41256738745127741 0.0036107266233665952 0 0.428196430738916 0.01175641027531917 0 0.44269061620915229 0.0015966122142214499 0 0.42713528870928957 -0.0066319905820692599 0 0.41256738745127741 0.0036107266233665952 0 0.428196430738916 0.01175641027531917 0 0.42713528870928957 -0.0066319905820692599 0 0.44269061620915229 0.0015966122142214499 0 0.44855331467285581 0.024709431417415492 0 0.45994895285216969 0.00034774187334221792 0 0.44269061620915229 0.0015966122142214499 0 0.44855331467285581 0.024709431417415492 0 0.428196430738916 0.01175641027531917 0 0.44269061620915229 0.0015966122142214499 0 0.44855331467285581 0.024709431417415492 0 0.44855331467285581 0.024709431417415492 0 0.47773870090659359 0.039355354643404568 0 0.47512780233359653 0.01468109070405179 0 0.44855331467285581 0.024709431417415492 0 0.45994895285216969 0.00034774187334221792 0 0.47512780233359653 0.01468109070405179 0 0.4707780424980807 0.0722129942765984 0 0.45441601313655933 0.047822250620609533 0 0.47773870090659359 0.039355354643404568 0 0.4488934143676841 0.06686862485831252 0 0.43614871936987493 0.044256647518241168 0 0.45441601313655933 0.047822250620609533 0 0.43614871936987493 0.044256647518241168 0 0.44855331467285581 0.024709431417415492 0 0.45441601313655933 0.047822250620609533 0 0.44855331467285581 0.024709431417415492 0 0.45441601313655933 0.047822250620609533 0 0.44855331467285581 0.024709431417415492 0 0.45441601313655933 0.047822250620609533 0 0.47773870090659359 0.039355354643404568 0 0.4707780424980807 0.0722129942765984 0 0.4488934143676841 0.06686862485831252 0 0.45441601313655933 0.047822250620609533 0 0.4707780424980807 0.0722129942765984 0 0.47773870090659359 0.039355354643404568 0 0.5 0.057266294815710113 0 0.47773870090659359 0.039355354643404568 0 0.5 0.057266294815710113 0 0.5 0.028397679023948189 0 0.45994895285216969 0.00034774187334221792 0 0.47512780233359653 0.01468109070405179 0 0.47828935936698708 -0.013546122566456809 0 0.47773870090659359 0.039355354643404568 0 0.47512780233359653 0.01468109070405179 0 0.5 0.028397679023948189 0 0.47512780233359653 0.01468109070405179 0 0.5 -0.0004709367678137899 0 0.47828935936698708 -0.013546122566456809 0 0.47512780233359653 0.01468109070405179 0 0.5 0.028397679023948189 0 0.5 -0.0004709367678137899 0 0.5 -0.0004709367678137899 0 0.47828935936698708 -0.013546122566456809 0 0.5 -0.029339552559575769 0 0.47828935936698708 -0.013546122566456809 0 0.4743496915013955 -0.035119493017111043 0 0.46312478273011531 -0.02710436516536216 0 0.47828935936698708 -0.013546122566456809 0 0.4743496915013955 -0.035119493017111043 0 0.47828935936698708 -0.013546122566456809 0 0.5 -0.029339552559575769 0 0.4743496915013955 -0.035119493017111043 0 0.5 -0.029339552559575769 0 0.4855861692366526 -0.050007499567336702 0 0.4743496915013955 -0.035119493017111043 0 0.5 -0.029339552559575769 0 0.5 -0.058208168351337797 0 0.4855861692366526 -0.050007499567336702 0 0.5 -0.058208168351337797 0 0.4855861692366526 -0.050007499567336702 0 0.48870132832845881 -0.065543403538160655 0 0.4855861692366526 -0.050007499567336702 0 0.48870132832845881 -0.065543403538160655 0 0.48054819648781788 -0.063608618441233389 0 0.4855861692366526 -0.050007499567336702 0 0.47041002363580392 -0.056692863467765288 0 0.4743496915013955 -0.035119493017111043 0 0.4855861692366526 -0.050007499567336702 0 0.47041002363580392 -0.056692863467765288 0 0.48054819648781788 -0.063608618441233389 0 0.47041002363580392 -0.056692863467765288 0 0.4743496915013955 -0.035119493017111043 0 0.4743496915013955 -0.035119493017111043 0 0.45598156087044928 -0.042588095492833038 0 0.46312478273011531 -0.02710436516536216 0 0.47041002363580392 -0.056692863467765288 0 0.4743496915013955 -0.035119493017111043 0 0.45598156087044928 -0.042588095492833038 0 0.45598156087044928 -0.042588095492833038 0 0.44811089033682372 -0.02801748813808231 0 0.46312478273011531 -0.02710436516536216 0 0.47041002363580392 -0.056692863467765288 0 0.45598156087044928 -0.042588095492833038 0 0.44943249438892829 -0.060835331007664681 0 0.45598156087044928 -0.042588095492833038 0 0.44943249438892829 -0.060835331007664681 0 0.4309652192817453 -0.044629026192166583 0 0.45598156087044928 -0.042588095492833038 0 0.44811089033682372 -0.02801748813808231 0 0.4309652192817453 -0.044629026192166583 0 0.44811089033682372 -0.02801748813808231 0 0.43682791774544882 -0.02151620698897257 0 0.4309652192817453 -0.044629026192166583 0 0.44811089033682372 -0.02801748813808231 0 0.44929415774370313 -0.01276799353036376 0 0.45889241157492122 -0.016250626612327589 0 0.44811089033682372 -0.02801748813808231 0 0.44929415774370313 -0.01276799353036376 0 0.43682791774544882 -0.02151620698897257 0 0.44269061620915229 0.0015966122142214499 0 0.44929415774370313 -0.01276799353036376 0 0.43682791774544882 -0.02151620698897257 0 0.44269061620915229 0.0015966122142214499 0 0.45994895285216969 0.00034774187334221792 0 0.44929415774370313 -0.01276799353036376 0 0.44269061620915229 0.0015966122142214499 0 0.43682791774544882 -0.02151620698897257 0 0.45994895285216969 0.00034774187334221792 0 0.44929415774370313 -0.01276799353036376 0 0.45889241157492122 -0.016250626612327589 0 0.45994895285216969 0.00034774187334221792 0 0.47828935936698708 -0.013546122566456809 0 0.45889241157492122 -0.016250626612327589 0 0.47828935936698708 -0.013546122566456809 0 0.46312478273011531 -0.02710436516536216 0 0.45889241157492122 -0.016250626612327589 0 0.44811089033682372 -0.02801748813808231 0 0.46312478273011531 -0.02710436516536216 0 0.45889241157492122 -0.016250626612327589 0 0.47012116027052442 -0.1124458919459561 0 0.48724776470163728 -0.10813666414652159 0 0.47398461415885129 -0.13061027886998319 0 0.49999999999999462 -0.1159453999348619 0 0.47398461415885129 -0.13061027886998319 0 0.49999999999999462 -0.1159453999348619 0 0.48724776470163728 -0.10813666414652159 0 0.47398461415885129 -0.13061027886998319 0 0.48724776470163728 -0.10813666414652159 0 0.48233169961665312 -0.097043908521471059 0 0.5 -0.087076784143099828 0 0.49999999999999462 -0.1159453999348619 0 0.48724776470163728 -0.10813666414652159 0 0.5 -0.087076784143099828 0 0.47012116027052442 -0.1124458919459561 0 0.48724776470163728 -0.10813666414652159 0 0.47668441981629878 -0.10359179989191281 0 0.48233169961665312 -0.097043908521471059 0 0.47668441981629878 -0.10359179989191281 0 0.47339932664487561 -0.096617284708923501 0 0.48233169961665312 -0.097043908521471059 0 0.47339932664487561 -0.096617284708923501 0 0.47903416937026622 -0.091754272253996183 0 0.48724776470163728 -0.10813666414652159 0 0.48233169961665312 -0.097043908521471059 0 0.47668441981629878 -0.10359179989191281 0 0.47012116027052442 -0.1124458919459561 0 0.47668441981629878 -0.10359179989191281 0 0.46837598057453361 -0.10351399616384729 0 0.47668441981629878 -0.10359179989191281 0 0.47339932664487561 -0.096617284708923501 0 0.46837598057453361 -0.10351399616384729 0 0.48533775823389558 -0.076982103557814471 0 0.46406271937148019 -0.091450297578701045 0 0.4622713585964543 -0.094028096033365316 0 0.47503397929449231 -0.089104513793843071 0 0.48533775823389558 -0.076982103557814471 0 0.4622713585964543 -0.094028096033365316 0 0.48533775823389558 -0.076982103557814471 0 0.4622713585964543 -0.094028096033365316 0 0.48533775823389558 -0.076982103557814471 0 0.46647035577021018 -0.078266233918419137 0 0.46406271937148019 -0.091450297578701045 0 0.47339932664487561 -0.096617284708923501 0 0.47503397929449231 -0.089104513793843071 0 0.4622713585964543 -0.094028096033365316 0 0.47339932664487561 -0.096617284708923501 0 0.47503397929449231 -0.089104513793843071 0 0.47903416937026622 -0.091754272253996183 0 0.480498718981619 -0.086348489941262707 0 0.4859021510285797 -0.08384330769579644 0 0.48533775823389558 -0.076982103557814471 0 0.47503397929449231 -0.089104513793843071 0 0.480498718981619 -0.086348489941262707 0 0.48533775823389558 -0.076982103557814471 0 0.480498718981619 -0.086348489941262707 0 0.48502617134590931 -0.089700430455761135 0 0.4859021510285797 -0.08384330769579644 0 0.480498718981619 -0.086348489941262707 0 0.47903416937026622 -0.091754272253996183 0 0.48502617134590931 -0.089700430455761135 0 0.47503397929449231 -0.089104513793843071 0 0.480498718981619 -0.086348489941262707 0 0.47903416937026622 -0.091754272253996183 0 0.48233169961665312 -0.097043908521471059 0 0.47903416937026622 -0.091754272253996183 0 0.48502617134590931 -0.089700430455761135 0 0.48502617134590931 -0.089700430455761135 0 0.5 -0.087076784143099828 0 0.48958431642442762 -0.085241278748491023 0 0.48233169961665312 -0.097043908521471059 0 0.48502617134590931 -0.089700430455761135 0 0.5 -0.087076784143099828 0 0.48502617134590931 -0.089700430455761135 0 0.48958431642442762 -0.085241278748491023 0 0.4859021510285797 -0.08384330769579644 0 0.5 -0.087076784143099828 0 0.48968153916093982 -0.080345562905282275 0 0.48958431642442762 -0.085241278748491023 0 0.5 -0.087076784143099828 0 0.48968153916093982 -0.080345562905282275 0 0.49352953414209882 -0.076424564799033715 0 0.48968153916093982 -0.080345562905282275 0 0.48958431642442762 -0.085241278748491023 0 0.4859021510285797 -0.08384330769579644 0 0.48968153916093982 -0.080345562905282275 0 0.4859021510285797 -0.08384330769579644 0 0.48533775823389558 -0.076982103557814471 0 0.48533775823389558 -0.076982103557814471 0 0.49352953414209882 -0.076424564799033715 0 0.5 -0.058208168351337797 0 0.5 -0.087076784143099828 0 0.49352953414209882 -0.076424564799033715 0 0.48968153916093982 -0.080345562905282275 0 0.48533775823389558 -0.076982103557814471 0 0.49352953414209882 -0.076424564799033715 0 0.48899618238388809 -0.074278540300725601 0 0.49352953414209882 -0.076424564799033715 0 0.48870132832845881 -0.065543403538160655 0 0.5 -0.058208168351337797 0 0.49352953414209882 -0.076424564799033715 0 0.48870132832845881 -0.065543403538160655 0 0.48533775823389558 -0.076982103557814471 0 0.48899618238388809 -0.074278540300725601 0 0.49352953414209882 -0.076424564799033715 0 0.48533775823389558 -0.076982103557814471 0 0.48899618238388809 -0.074278540300725601 0 0.48533775823389558 -0.076982103557814471 0 0.48899618238388809 -0.074278540300725601 0 0.48354788772029622 -0.070733029769296796 0 0.48899618238388809 -0.074278540300725601 0 0.48870132832845881 -0.065543403538160655 0 0.48354788772029622 -0.070733029769296796 0 0.48533775823389558 -0.076982103557814471 0 0.47647655474288558 -0.070431841875749066 0 0.46647035577021018 -0.078266233918419137 0 0.48870132832845881 -0.065543403538160655 0 0.48054819648781788 -0.063608618441233389 0 0.48354788772029622 -0.070733029769296796 0 0.48533775823389558 -0.076982103557814471 0 0.46647035577021018 -0.078266233918419137 0 0.47041002363580392 -0.056692863467765288 0 0.47647655474288558 -0.070431841875749066 0 0.46647035577021018 -0.078266233918419137 0 0.48054819648781788 -0.063608618441233389 0 0.48354788772029622 -0.070733029769296796 0 0.47647655474288558 -0.070431841875749066 0 0.48533775823389558 -0.076982103557814471 0 0.48354788772029622 -0.070733029769296796 0 0.47647655474288558 -0.070431841875749066 0 0.47041002363580392 -0.056692863467765288 0 0.48054819648781788 -0.063608618441233389 0 0.47647655474288558 -0.070431841875749066 0 0.47041002363580392 -0.056692863467765288 0 0.44943249438892829 -0.060835331007664681 0 0.46647035577021018 -0.078266233918419137 0 0.47041002363580392 -0.056692863467765288 0 0.46647035577021018 -0.078266233918419137 0 0.44943249438892829 -0.060835331007664681 0 0.4391526208969006 -0.08012550059814845 0 0.42891025233623548 -0.065332956696371888 0 0.44943249438892829 -0.060835331007664681 0 0.4391526208969006 -0.08012550059814845 0 0.46647035577021018 -0.078266233918419137 0 0.4391526208969006 -0.08012550059814845 0 0.46406271937148019 -0.091450297578701045 0 0.44559315664247001 -0.095588947030392085 0 0.4391526208969006 -0.08012550059814845 0 0.46647035577021018 -0.078266233918419137 0 0.4391526208969006 -0.08012550059814845 0 0.46647035577021018 -0.078266233918419137 0 0.46406271937148019 -0.091450297578701045 0 0.46406271937148019 -0.091450297578701045 0 0.4622713585964543 -0.094028096033365316 0 0.44559315664247001 -0.095588947030392085 0 0.46647035577021018 -0.078266233918419137 0 0.46406271937148019 -0.091450297578701045 0 0.4622713585964543 -0.094028096033365316 0 0.43920495895901229 -0.11107408850891549 0 0.45960722224042799 -0.10974939834498371 0 0.4622713585964543 -0.094028096033365316 0 0.46837598057453361 -0.10351399616384729 0 0.45960722224042799 -0.10974939834498371 0 0.47339932664487561 -0.096617284708923501 0 0.4622713585964543 -0.094028096033365316 0 0.46837598057453361 -0.10351399616384729 0 0.47012116027052442 -0.1124458919459561 0 0.46837598057453361 -0.10351399616384729 0 0.45960722224042799 -0.10974939834498371 0 0.4622713585964543 -0.094028096033365316 0 0.44559315664247001 -0.095588947030392085 0 0.43920495895901229 -0.11107408850891549 0 0.4622713585964543 -0.094028096033365316 0 0.43920495895901229 -0.11107408850891549 0 0.43920495895901229 -0.11107408850891549 0 0.45657130999333112 -0.12109394348632541 0 0.44274852810566762 -0.1268896095495331 0 0.43920495895901229 -0.11107408850891549 0 0.45657130999333112 -0.12109394348632541 0 0.45960722224042799 -0.10974939834498371 0 0.47012116027052442 -0.1124458919459561 0 0.45657130999333112 -0.12109394348632541 0 0.47398461415885129 -0.13061027886998319 0 0.47012116027052442 -0.1124458919459561 0 0.45657130999333112 -0.12109394348632541 0 0.45960722224042799 -0.10974939834498371 0 0.41751488399546499 -0.11400080189356609 0 0.40827855862310242 -0.1053507799290333 0 0.40388521407891442 -0.121516164523489 0 0.41751488399546499 -0.11400080189356609 0 0.40388521407891442 -0.121516164523489 0 0.415577206600455 -0.12853491877496179 0 0.43920495895901229 -0.11107408850891549 0 0.415577206600455 -0.12853491877496179 0 0.43920495895901229 -0.11107408850891549 0 0.41751488399546499 -0.11400080189356609 0 0.415577206600455 -0.12853491877496179 0 0.43920495895901229 -0.11107408850891549 0 0.415577206600455 -0.12853491877496179 0 0.44274852810566762 -0.1268896095495331 0 0.44559315664247001 -0.095588947030392085 0 0.43920495895901229 -0.11107408850891549 0 0.42229524748431191 -0.1023000266624724 0 0.43920495895901229 -0.11107408850891549 0 0.41751488399546499 -0.11400080189356609 0 0.42229524748431191 -0.1023000266624724 0 0.42229524748431191 -0.1023000266624724 0 0.40827855862310242 -0.1053507799290333 0 0.41183488602359108 -0.081984767277878276 0 0.41751488399546499 -0.11400080189356609 0 0.42229524748431191 -0.1023000266624724 0 0.40827855862310242 -0.1053507799290333 0 0.4391526208969006 -0.08012550059814845 0 0.42229524748431191 -0.1023000266624724 0 0.41183488602359108 -0.081984767277878276 0 0.4391526208969006 -0.08012550059814845 0 0.41183488602359108 -0.081984767277878276 0 0.4391526208969006 -0.08012550059814845 0 0.44559315664247001 -0.095588947030392085 0 0.42229524748431191 -0.1023000266624724 0 0.4391526208969006 -0.08012550059814845 0 0.41183488602359108 -0.081984767277878276 0 0.42891025233623548 -0.065332956696371888 0 0.41183488602359108 -0.081984767277878276 0 0.42891025233623548 -0.065332956696371888 0 0.41316604109001243 -0.059090158406001493 0 0.41183488602359108 -0.081984767277878276 0 0.39482339933275928 -0.077564690131707567 0 0.41316604109001243 -0.059090158406001493 0 0.39482339933275928 -0.077564690131707567 0 0.41316604109001243 -0.059090158406001493 0 0.38523698140684609 -0.056103101968637638 0 0.37797030878130722 -0.075580709204378399 0 0.38523698140684609 -0.056103101968637638 0 0.36966829108308308 -0.06149018933486277 0 0.39482339933275928 -0.077564690131707567 0 0.37797030878130722 -0.075580709204378399 0 0.38523698140684609 -0.056103101968637638 0 0.39482339933275928 -0.077564690131707567 0 0.37797030878130722 -0.075580709204378399 0 0.38334827659341469 -0.09399695859296392 0 0.37797030878130722 -0.075580709204378399 0 0.38334827659341469 -0.09399695859296392 0 0.3671198906887172 -0.085980304361220963 0 0.41183488602359108 -0.081984767277878276 0 0.39482339933275928 -0.077564690131707567 0 0.39738390210138458 -0.098632445340385691 0 0.39482339933275928 -0.077564690131707567 0 0.39738390210138458 -0.098632445340385691 0 0.38334827659341469 -0.09399695859296392 0 0.40827855862310242 -0.1053507799290333 0 0.41183488602359108 -0.081984767277878276 0 0.39738390210138458 -0.098632445340385691 0 0.40827855862310242 -0.1053507799290333 0 0.39738390210138458 -0.098632445340385691 0 0.39675721805494718 -0.11367047387640811 0 0.39738390210138458 -0.098632445340385691 0 0.38843003469412379 -0.10655862750891711 0 0.39675721805494718 -0.11367047387640811 0 0.39738390210138458 -0.098632445340385691 0 0.38334827659341469 -0.09399695859296392 0 0.38843003469412379 -0.10655862750891711 0 0.38334827659341469 -0.09399695859296392 0 0.3774290456761919 -0.1082117586175665 0 0.37185335659100582 -0.099037494511649338 0 0.38334827659341469 -0.09399695859296392 0 0.3774290456761919 -0.1082117586175665 0 0.38843003469412379 -0.10655862750891711 0 0.3774290456761919 -0.1082117586175665 0 0.38843003469412379 -0.10655862750891711 0 0.38697193252560907 -0.1177491203620597 0 0.3774290456761919 -0.1082117586175665 0 0.37686576360453372 -0.1211357040375335 0 0.38697193252560907 -0.1177491203620597 0 0.37686576360453372 -0.1211357040375335 0 0.38697193252560907 -0.1177491203620597 0 0.38697759410128679 -0.12815379228191839 0 0.38697193252560907 -0.1177491203620597 0 0.39494677345392692 -0.1240197142091248 0 0.38697759410128679 -0.12815379228191839 0 0.38697193252560907 -0.1177491203620597 0 0.39494677345392692 -0.1240197142091248 0 0.39675721805494718 -0.11367047387640811 0 0.40827855862310242 -0.1053507799290333 0 0.39675721805494718 -0.11367047387640811 0 0.40388521407891442 -0.121516164523489 0 0.38843003469412379 -0.10655862750891711 0 0.38697193252560907 -0.1177491203620597 0 0.39675721805494718 -0.11367047387640811 0 0.39494677345392692 -0.1240197142091248 0 0.39675721805494718 -0.11367047387640811 0 0.40388521407891442 -0.121516164523489 0 0.43049787875658269 -0.01985823878805347 0 0.402050695740306 -0.028079436112251801 0 0.41379783520327651 -0.011342575989701471 0 0.43049787875658269 -0.01985823878805347 0 0.402050695740306 -0.028079436112251801 0 0.43049787875658269 -0.01985823878805347 0 0.42270155052281899 -0.034634613297489188 0 0.402050695740306 -0.028079436112251801 0 0.41256738745127741 0.0036107266233665952 0 0.41379783520327651 -0.011342575989701471 0 0.3970473664383854 -0.0058158814232632302 0 0.41256738745127741 0.0036107266233665952 0 0.41379783520327651 -0.011342575989701471 0 0.42713528870928957 -0.0066319905820692599 0 0.41379783520327651 -0.011342575989701471 0 0.42713528870928957 -0.0066319905820692599 0 0.43049787875658269 -0.01985823878805347 0 0.44269061620915229 0.0015966122142214499 0 0.42713528870928957 -0.0066319905820692599 0 0.43682791774544882 -0.02151620698897257 0 0.42713528870928957 -0.0066319905820692599 0 0.43682791774544882 -0.02151620698897257 0 0.43049787875658269 -0.01985823878805347 0 0.43682791774544882 -0.02151620698897257 0 0.43049787875658269 -0.01985823878805347 0 0.42270155052281899 -0.034634613297489188 0 0.43682791774544882 -0.02151620698897257 0 0.4309652192817453 -0.044629026192166583 0 0.42270155052281899 -0.034634613297489188 0 0.4309652192817453 -0.044629026192166583 0 0.42270155052281899 -0.034634613297489188 0 0.41316604109001243 -0.059090158406001493 0 0.43682791774544882 -0.02151620698897257 0 0.4309652192817453 -0.044629026192166583 0 0.42891025233623548 -0.065332956696371888 0 0.4309652192817453 -0.044629026192166583 0 0.41316604109001243 -0.059090158406001493 0 0.44943249438892829 -0.060835331007664681 0 0.42891025233623548 -0.065332956696371888 0 0.4309652192817453 -0.044629026192166583 0 0.42270155052281899 -0.034634613297489188 0 0.41316604109001243 -0.059090158406001493 0 0.402050695740306 -0.028079436112251801 0 0.41316604109001243 -0.059090158406001493 0 0.38523698140684609 -0.056103101968637638 0 0.402050695740306 -0.028079436112251801 0 0.402050695740306 -0.028079436112251801 0 0.37360351272402947 -0.036300633436450042 0 0.38523698140684609 -0.056103101968637638 0 0.402050695740306 -0.028079436112251801 0 0.37360351272402947 -0.036300633436450042 0 0.37753579562167078 -0.015665597213988459 0 0.402050695740306 -0.028079436112251801 0 0.37360351272402947 -0.036300633436450042 0 0.37753579562167078 -0.015665597213988459 0 0.402050695740306 -0.028079436112251801 0 0.3970473664383854 -0.0058158814232632302 0 0.41379783520327651 -0.011342575989701471 0 0.402050695740306 -0.028079436112251801 0 0.3970473664383854 -0.0058158814232632302 0 0.38321784952630122 0.0036643559596802201 0 0.37753579562167078 -0.015665597213988459 0 0.3970473664383854 -0.0058158814232632302 0 0.36489034535419768 0.0053162071029152066 0 0.38321784952630122 0.0036643559596802201 0 0.37753579562167078 -0.015665597213988459 0 0.36489034535419768 0.0053162071029152066 0 0.37753579562167078 -0.015665597213988459 0 0.35135813080823081 -0.010861302771170081 0 0.37753579562167078 -0.015665597213988459 0 0.35630994837884938 -0.03071958093011861 0 0.35135813080823081 -0.010861302771170081 0 0.37753579562167078 -0.015665597213988459 0 0.35630994837884938 -0.03071958093011861 0 0.37360351272402947 -0.036300633436450042 0 0.35630994837884938 -0.03071958093011861 0 0.33878968302182649 -0.0245092271331902 0 0.34070333962469479 -0.035696374818540128 0 0.35630994837884938 -0.03071958093011861 0 0.35135813080823081 -0.010861302771170081 0 0.33878968302182649 -0.0245092271331902 0 0.3382300476645746 0.0092414772040340255 0 0.33308931298554972 -0.0088394982229922578 0 0.31519262925432318 -0.003572203242832115 0 0.35135813080823081 -0.010861302771170081 0 0.33308931298554972 -0.0088394982229922578 0 0.33878968302182649 -0.0245092271331902 0 0.3382300476645746 0.0092414772040340255 0 0.35135813080823081 -0.010861302771170081 0 0.33308931298554972 -0.0088394982229922578 0 0.33878968302182649 -0.0245092271331902 0 0.32462580418739412 -0.020435061110005408 0 0.32627999283776049 -0.037498098749165022 0 0.33308931298554972 -0.0088394982229922578 0 0.33878968302182649 -0.0245092271331902 0 0.32462580418739412 -0.020435061110005408 0 0.32462580418739412 -0.020435061110005408 0 0.31519262925432318 -0.003572203242832115 0 0.31035026325596887 -0.028993533605639631 0 0.32462580418739412 -0.020435061110005408 0 0.32627999283776049 -0.037498098749165022 0 0.31035026325596887 -0.028993533605639631 0 0.31519262925432318 -0.003572203242832115 0 0.31035026325596887 -0.028993533605639631 0 0.33308931298554972 -0.0088394982229922578 0 0.32462580418739412 -0.020435061110005408 0 0.31519262925432318 -0.003572203242832115 0 0.32530286471855452 -0.052032884887231998 0 0.31943345549815572 -0.060977211502781112 0 0.30550789725761462 -0.05441486396844708 0 0.32530286471855452 -0.052032884887231998 0 0.32627999283776049 -0.037498098749165022 0 0.30550789725761462 -0.05441486396844708 0 0.32530286471855452 -0.052032884887231998 0 0.3277383612386181 -0.062144614014672951 0 0.31943345549815572 -0.060977211502781112 0 0.32627999283776049 -0.037498098749165022 0 0.31035026325596887 -0.028993533605639631 0 0.30550789725761462 -0.05441486396844708 0 0.32530286471855452 -0.052032884887231998 0 0.32627999283776049 -0.037498098749165022 0 0.33561270188485448 -0.045431148473600289 0 0.32627999283776049 -0.037498098749165022 0 0.33561270188485448 -0.045431148473600289 0 0.34070333962469479 -0.035696374818540128 0 0.33878968302182649 -0.0245092271331902 0 0.32627999283776049 -0.037498098749165022 0 0.34070333962469479 -0.035696374818540128 0 0.33561270188485448 -0.045431148473600289 0 0.34070333962469479 -0.035696374818540128 0 0.3451563297077529 -0.04452183076064832 0 0.33561270188485448 -0.045431148473600289 0 0.34124993843593182 -0.051663569724754492 0 0.3451563297077529 -0.04452183076064832 0 0.33561270188485448 -0.045431148473600289 0 0.34124993843593182 -0.051663569724754492 0 0.33444459984658997 -0.05684243909018525 0 0.32530286471855452 -0.052032884887231998 0 0.33561270188485448 -0.045431148473600289 0 0.33444459984658997 -0.05684243909018525 0 0.32530286471855452 -0.052032884887231998 0 0.3277383612386181 -0.062144614014672951 0 0.33444459984658997 -0.05684243909018525 0 0.3277383612386181 -0.062144614014672951 0 0.33444459984658997 -0.05684243909018525 0 0.33707060615592221 -0.068237971443937534 0 0.34124993843593182 -0.051663569724754492 0 0.33444459984658997 -0.05684243909018525 0 0.34234410449168812 -0.06022107804665236 0 0.33444459984658997 -0.05684243909018525 0 0.34234410449168812 -0.06022107804665236 0 0.33707060615592221 -0.068237971443937534 0 0.34234410449168812 -0.06022107804665236 0 0.34941577671352669 -0.050330725840410651 0 0.34888408858925601 -0.070365297157207907 0 0.34941577671352669 -0.050330725840410651 0 0.34888408858925601 -0.070365297157207907 0 0.34941577671352669 -0.050330725840410651 0 0.35846123923617168 -0.059889875160031983 0 0.34888408858925601 -0.070365297157207907 0 0.34941577671352669 -0.050330725840410651 0 0.3451563297077529 -0.04452183076064832 0 0.36348562187320871 -0.04672224407136704 0 0.34124993843593182 -0.051663569724754492 0 0.34234410449168812 -0.06022107804665236 0 0.34941577671352669 -0.050330725840410651 0 0.34124993843593182 -0.051663569724754492 0 0.34941577671352669 -0.050330725840410651 0 0.3451563297077529 -0.04452183076064832 0 0.34941577671352669 -0.050330725840410651 0 0.35846123923617168 -0.059889875160031983 0 0.36348562187320871 -0.04672224407136704 0 0.35630994837884938 -0.03071958093011861 0 0.3451563297077529 -0.04452183076064832 0 0.37360351272402947 -0.036300633436450042 0 0.35630994837884938 -0.03071958093011861 0 0.34070333962469479 -0.035696374818540128 0 0.3451563297077529 -0.04452183076064832 0 0.3451563297077529 -0.04452183076064832 0 0.37360351272402947 -0.036300633436450042 0 0.36348562187320871 -0.04672224407136704 0 0.3451563297077529 -0.04452183076064832 0 0.37360351272402947 -0.036300633436450042 0 0.38523698140684609 -0.056103101968637638 0 0.37360351272402947 -0.036300633436450042 0 0.36348562187320871 -0.04672224407136704 0 0.38523698140684609 -0.056103101968637638 0 0.36348562187320871 -0.04672224407136704 0 0.36966829108308308 -0.06149018933486277 0 0.35846123923617168 -0.059889875160031983 0 0.36348562187320871 -0.04672224407136704 0 0.36966829108308308 -0.06149018933486277 0 0.37797030878130722 -0.075580709204378399 0 0.36966829108308308 -0.06149018933486277 0 0.36302831057160428 -0.072691840280523251 0 0.35846123923617168 -0.059889875160031983 0 0.36966829108308308 -0.06149018933486277 0 0.36302831057160428 -0.072691840280523251 0 0.37797030878130722 -0.075580709204378399 0 0.36302831057160428 -0.072691840280523251 0 0.3671198906887172 -0.085980304361220963 0 0.38334827659341469 -0.09399695859296392 0 0.3671198906887172 -0.085980304361220963 0 0.37185335659100582 -0.099037494511649338 0 0.3671198906887172 -0.085980304361220963 0 0.37185335659100582 -0.099037494511649338 0 0.36158451550711729 -0.094776463620846615 0 0.3671198906887172 -0.085980304361220963 0 0.35931474750095671 -0.088961845071694051 0 0.36158451550711729 -0.094776463620846615 0 0.3671198906887172 -0.085980304361220963 0 0.35606604505109091 -0.082844666465437561 0 0.35931474750095671 -0.088961845071694051 0 0.36302831057160428 -0.072691840280523251 0 0.3671198906887172 -0.085980304361220963 0 0.35606604505109091 -0.082844666465437561 0 0.35606604505109091 -0.082844666465437561 0 0.34835240046498511 -0.090399868474005052 0 0.34888408858925601 -0.070365297157207907 0 0.34835240046498511 -0.090399868474005052 0 0.34888408858925601 -0.070365297157207907 0 0.34129627142659558 -0.079270549163201295 0 0.34835240046498511 -0.090399868474005052 0 0.34888408858925601 -0.070365297157207907 0 0.35931474750095671 -0.088961845071694051 0 0.35248853875690123 -0.092245945839271065 0 0.36158451550711729 -0.094776463620846615 0 0.35606604505109091 -0.082844666465437561 0 0.35931474750095671 -0.088961845071694051 0 0.35248853875690123 -0.092245945839271065 0 0.35606604505109091 -0.082844666465437561 0 0.35248853875690123 -0.092245945839271065 0 0.34835240046498511 -0.090399868474005052 0 0.35248853875690123 -0.092245945839271065 0 0.34835240046498511 -0.090399868474005052 0 0.35846123923617168 -0.059889875160031983 0 0.36302831057160428 -0.072691840280523251 0 0.34888408858925601 -0.070365297157207907 0 0.36302831057160428 -0.072691840280523251 0 0.35606604505109091 -0.082844666465437561 0 0.34888408858925601 -0.070365297157207907 0 0.36575552499337671 -0.1217236082250554 0 0.35784968998105809 -0.1146758801508849 0 0.35954712105670178 -0.12937137358431569 0 0.37686576360453372 -0.1211357040375335 0 0.36575552499337671 -0.1217236082250554 0 0.37278808461928231 -0.1272680189844361 0 0.37686576360453372 -0.1211357040375335 0 0.36575552499337671 -0.1217236082250554 0 0.36832921441694372 -0.1121485633929329 0 0.3774290456761919 -0.1082117586175665 0 0.37686576360453372 -0.1211357040375335 0 0.36832921441694372 -0.1121485633929329 0 0.36575552499337671 -0.1217236082250554 0 0.36832921441694372 -0.1121485633929329 0 0.35784968998105809 -0.1146758801508849 0 0.36832921441694372 -0.1121485633929329 0 0.36293482531328219 -0.10398025820147511 0 0.35784968998105809 -0.1146758801508849 0 0.36832921441694372 -0.1121485633929329 0 0.36293482531328219 -0.10398025820147511 0 0.37185335659100582 -0.099037494511649338 0 0.3774290456761919 -0.1082117586175665 0 0.36832921441694372 -0.1121485633929329 0 0.37185335659100582 -0.099037494511649338 0 0.36293482531328219 -0.10398025820147511 0 0.37185335659100582 -0.099037494511649338 0 0.36158451550711729 -0.094776463620846615 0 0.36293482531328219 -0.10398025820147511 0 0.36158451550711729 -0.094776463620846615 0 0.3552064974318197 -0.1000892686054945 0 0.34835240046498511 -0.090399868474005052 0 0.3552064974318197 -0.1000892686054945 0 0.34784493182859971 -0.109521823850853 0 0.34835240046498511 -0.090399868474005052 0 0.34784493182859971 -0.109521823850853 0 0.34835240046498511 -0.090399868474005052 0 0.34784493182859971 -0.109521823850853 0 0.33511875295952043 -0.10377544087035059 0 0.35248853875690123 -0.092245945839271065 0 0.34835240046498511 -0.090399868474005052 0 0.3552064974318197 -0.1000892686054945 0 0.35248853875690123 -0.092245945839271065 0 0.36158451550711729 -0.094776463620846615 0 0.3552064974318197 -0.1000892686054945 0 0.36293482531328219 -0.10398025820147511 0 0.3552064974318197 -0.1000892686054945 0 0.35784968998105809 -0.1146758801508849 0 0.3552064974318197 -0.1000892686054945 0 0.35784968998105809 -0.1146758801508849 0 0.34784493182859971 -0.109521823850853 0 0.35784968998105809 -0.1146758801508849 0 0.34784493182859971 -0.109521823850853 0 0.34733746319221293 -0.12864377922770079 0 0.34784493182859971 -0.109521823850853 0 0.34733746319221293 -0.12864377922770079 0 0.34784493182859971 -0.109521823850853 0 0.34325338410526007 -0.12268455372269731 0 0.34733746319221293 -0.12864377922770079 0 0.35784968998105809 -0.1146758801508849 0 0.34733746319221293 -0.12864377922770079 0 0.35954712105670178 -0.12937137358431569 0 0.33247724146884222 -0.1162142073794579 0 0.320762490740443 -0.11126798552889899 0 0.33368484457659942 -0.13371445731758891 0 0.33247724146884222 -0.1162142073794579 0 0.33511875295952043 -0.10377544087035059 0 0.34097698305071028 -0.1256722668138737 0 0.33511875295952043 -0.10377544087035059 0 0.34097698305071028 -0.1256722668138737 0 0.34325338410526007 -0.12268455372269731 0 0.33511875295952043 -0.10377544087035059 0 0.34097698305071028 -0.1256722668138737 0 0.34784493182859971 -0.109521823850853 0 0.34325338410526007 -0.12268455372269731 0 0.33511875295952043 -0.10377544087035059 0 0.33247724146884222 -0.1162142073794579 0 0.33511875295952043 -0.10377544087035059 0 0.320762490740443 -0.11126798552889899 0 0.31741621617452731 -0.095213292098182717 0 0.320762490740443 -0.11126798552889899 0 0.30556839003861919 -0.1108458049380595 0 0.33511875295952043 -0.10377544087035059 0 0.31741621617452731 -0.095213292098182717 0 0.320762490740443 -0.11126798552889899 0 0.320762490740443 -0.11126798552889899 0 0.311375700931111 -0.1273655520111153 0 0.32200874071476498 -0.1281742344560319 0 0.320762490740443 -0.11126798552889899 0 0.33368484457659942 -0.13371445731758891 0 0.320762490740443 -0.11126798552889899 0 0.30556839003861919 -0.1108458049380595 0 0.311375700931111 -0.1273655520111153 0 0.320762490740443 -0.11126798552889899 0 0.32200874071476498 -0.1281742344560319 0 0.33368484457659942 -0.13371445731758891 0 0.33707060615592221 -0.068237971443937534 0 0.34129627142659558 -0.079270549163201295 0 0.32926052286833057 -0.081878614926827298 0 0.33707060615592221 -0.068237971443937534 0 0.32926052286833057 -0.081878614926827298 0 0.32635655305617128 -0.071024189523202358 0 0.3277383612386181 -0.062144614014672951 0 0.33707060615592221 -0.068237971443937534 0 0.32635655305617128 -0.071024189523202358 0 0.34234410449168812 -0.06022107804665236 0 0.34888408858925601 -0.070365297157207907 0 0.33707060615592221 -0.068237971443937534 0 0.34888408858925601 -0.070365297157207907 0 0.33707060615592221 -0.068237971443937534 0 0.34129627142659558 -0.079270549163201295 0 0.34835240046498511 -0.090399868474005052 0 0.32926052286833057 -0.081878614926827298 0 0.34835240046498511 -0.090399868474005052 0 0.34129627142659558 -0.079270549163201295 0 0.32926052286833057 -0.081878614926827298 0 0.34835240046498511 -0.090399868474005052 0 0.33511875295952043 -0.10377544087035059 0 0.32926052286833057 -0.081878614926827298 0 0.33511875295952043 -0.10377544087035059 0 0.32926052286833057 -0.081878614926827298 0 0.33511875295952043 -0.10377544087035059 0 0.31741621617452731 -0.095213292098182717 0 0.32926052286833057 -0.081878614926827298 0 0.32926052286833057 -0.081878614926827298 0 0.31641154428915652 -0.084824102519303307 0 0.31054787950529089 -0.073526624514824168 0 0.31741621617452731 -0.095213292098182717 0 0.32926052286833057 -0.081878614926827298 0 0.31641154428915652 -0.084824102519303307 0 0.31741621617452731 -0.095213292098182717 0 0.31641154428915652 -0.084824102519303307 0 0.30852532897004598 -0.086342845600690193 0 0.32926052286833057 -0.081878614926827298 0 0.32635655305617128 -0.071024189523202358 0 0.31054787950529089 -0.073526624514824168 0 0.31943345549815572 -0.060977211502781112 0 0.32635655305617128 -0.071024189523202358 0 0.31054787950529089 -0.073526624514824168 0 0.32926052286833057 -0.081878614926827298 0 0.31054787950529089 -0.073526624514824168 0 0.32926052286833057 -0.081878614926827298 0 0.32635655305617128 -0.071024189523202358 0 0.3277383612386181 -0.062144614014672951 0 0.31943345549815572 -0.060977211502781112 0 0.32635655305617128 -0.071024189523202358 0 0.31054787950529089 -0.073526624514824168 0 0.29653096426299191 -0.08168026248852997 0 0.29183523614225121 -0.065174634102821469 0 0.31054787950529089 -0.073526624514824168 0 0.29183523614225121 -0.065174634102821469 0 0.31943345549815572 -0.060977211502781112 0 0.31054787950529089 -0.073526624514824168 0 0.30550789725761462 -0.05441486396844708 0 0.31054787950529089 -0.073526624514824168 0 0.29183523614225121 -0.065174634102821469 0 0.30550789725761462 -0.05441486396844708 0 0.31641154428915652 -0.084824102519303307 0 0.31054787950529089 -0.073526624514824168 0 0.30852532897004598 -0.086342845600690193 0 0.31054787950529089 -0.073526624514824168 0 0.30852532897004598 -0.086342845600690193 0 0.29653096426299191 -0.08168026248852997 0 0.31741621617452731 -0.095213292098182717 0 0.30852532897004598 -0.086342845600690193 0 0.30172004061826352 -0.096469946382610819 0 0.30852532897004598 -0.086342845600690193 0 0.29653096426299191 -0.08168026248852997 0 0.30172004061826352 -0.096469946382610819 0 0.29653096426299191 -0.08168026248852997 0 0.30172004061826352 -0.096469946382610819 0 0.28719686498947522 -0.096865986892401321 0 0.29653096426299191 -0.08168026248852997 0 0.28222439738919808 -0.084652456710941057 0 0.28719686498947522 -0.096865986892401321 0 0.28222439738919808 -0.084652456710941057 0 0.28719686498947522 -0.096865986892401321 0 0.27570697421840379 -0.092684090913960321 0 0.29653096426299191 -0.08168026248852997 0 0.28222439738919808 -0.084652456710941057 0 0.28172041739313169 -0.073458785379576508 0 0.29653096426299191 -0.08168026248852997 0 0.29183523614225121 -0.065174634102821469 0 0.28172041739313169 -0.073458785379576508 0 0.29183523614225121 -0.065174634102821469 0 0.28172041739313169 -0.073458785379576508 0 0.27378922531877931 -0.064385566483013038 0 0.30556839003861919 -0.1108458049380595 0 0.29402717526868771 -0.1207371796768287 0 0.311375700931111 -0.1273655520111153 0 0.30556839003861919 -0.1108458049380595 0 0.29332027440604252 -0.1063594717125394 0 0.29402717526868771 -0.1207371796768287 0 0.31741621617452731 -0.095213292098182717 0 0.30556839003861919 -0.1108458049380595 0 0.30172004061826352 -0.096469946382610819 0 0.30556839003861919 -0.1108458049380595 0 0.30172004061826352 -0.096469946382610819 0 0.29332027440604252 -0.1063594717125394 0 0.30172004061826352 -0.096469946382610819 0 0.28719686498947522 -0.096865986892401321 0 0.29332027440604252 -0.1063594717125394 0 0.28719686498947522 -0.096865986892401321 0 0.29332027440604252 -0.1063594717125394 0 0.2780889011151666 -0.10687844067279639 0 0.29332027440604252 -0.1063594717125394 0 0.29402717526868771 -0.1207371796768287 0 0.2780889011151666 -0.10687844067279639 0 0.29402717526868771 -0.1207371796768287 0 0.2780889011151666 -0.10687844067279639 0 0.29402717526868771 -0.1207371796768287 0 0.28045267347104258 -0.1234729277763941 0 0.2780889011151666 -0.10687844067279639 0 0.26773613651887163 -0.11562514168933639 0 0.28045267347104258 -0.1234729277763941 0 0.2780889011151666 -0.10687844067279639 0 0.26773613651887163 -0.11562514168933639 0 0.2780889011151666 -0.10687844067279639 0 0.26215062696164571 -0.093019701668763999 0 0.2780889011151666 -0.10687844067279639 0 0.26215062696164571 -0.093019701668763999 0 0.2780889011151666 -0.10687844067279639 0 0.27570697421840379 -0.092684090913960321 0 0.26215062696164571 -0.093019701668763999 0 0.28719686498947522 -0.096865986892401321 0 0.2780889011151666 -0.10687844067279639 0 0.27570697421840379 -0.092684090913960321 0 0.26773613651887163 -0.11562514168933639 0 0.25863211244971779 -0.10662531075883901 0 0.26215062696164571 -0.093019701668763999 0 0.26773613651887163 -0.11562514168933639 0 0.26215062696164571 -0.093019701668763999 0 0.25863211244971779 -0.10662531075883901 0 0.26215062696164571 -0.093019701668763999 0 0.24697104621940599 -0.1003789308880348 0 0.25380817948593959 -0.12688225878668591 0 0.24697104621940599 -0.1003789308880348 0 0.25863211244971779 -0.10662531075883901 0 0.25380817948593959 -0.12688225878668591 0 0.24697104621940599 -0.1003789308880348 0 0.26773613651887163 -0.11562514168933639 0 0.25863211244971779 -0.10662531075883901 0 0.25380817948593959 -0.12688225878668591 0 0.27069538416395672 -0.077903082635701892 0 0.27378922531877931 -0.064385566483013038 0 0.26293069841092359 -0.064684756024019727 0 0.27378922531877931 -0.064385566483013038 0 0.26293069841092359 -0.064684756024019727 0 0.26822730180930349 -0.059673550499118579 0 0.28172041739313169 -0.073458785379576508 0 0.27069538416395672 -0.077903082635701892 0 0.27378922531877931 -0.064385566483013038 0 0.28222439738919808 -0.084652456710941057 0 0.27069538416395672 -0.077903082635701892 0 0.27570697421840379 -0.092684090913960321 0 0.28222439738919808 -0.084652456710941057 0 0.28172041739313169 -0.073458785379576508 0 0.27069538416395672 -0.077903082635701892 0 0.27069538416395672 -0.077903082635701892 0 0.27570697421840379 -0.092684090913960321 0 0.26215062696164571 -0.093019701668763999 0 0.26215062696164571 -0.093019701668763999 0 0.25765170459391412 -0.074811851749429809 0 0.27069538416395672 -0.077903082635701892 0 0.26215062696164571 -0.093019701668763999 0 0.25765170459391412 -0.074811851749429809 0 0.26215062696164571 -0.093019701668763999 0 0.24013391295287201 -0.073875602989383823 0 0.26215062696164571 -0.093019701668763999 0 0.25765170459391412 -0.074811851749429809 0 0.251651063522844 -0.076824540261702406 0 0.26215062696164571 -0.093019701668763999 0 0.251651063522844 -0.076824540261702406 0 0.24013391295287201 -0.073875602989383823 0 0.25765170459391412 -0.074811851749429809 0 0.26293069841092359 -0.064684756024019727 0 0.25315278222618243 -0.056604001830095702 0 0.25765170459391412 -0.074811851749429809 0 0.251651063522844 -0.076824540261702406 0 0.24666800958294369 -0.065591004639232148 0 0.25765170459391412 -0.074811851749429809 0 0.25315278222618243 -0.056604001830095702 0 0.24666800958294369 -0.065591004639232148 0 0.25765170459391412 -0.074811851749429809 0 0.25315278222618243 -0.056604001830095702 0 0.27069538416395672 -0.077903082635701892 0 0.25765170459391412 -0.074811851749429809 0 0.26293069841092359 -0.064684756024019727 0 0.25358167832110989 -0.048859069267911732 0 0.26021316990882931 -0.051703140715830508 0 0.25873309213880652 -0.043491886457634327 0 0.25315278222618243 -0.056604001830095702 0 0.25358167832110989 -0.048859069267911732 0 0.24606508946702521 -0.049478735792214457 0 0.25315278222618243 -0.056604001830095702 0 0.25358167832110989 -0.048859069267911732 0 0.26021316990882931 -0.051703140715830508 0 0.26021316990882931 -0.051703140715830508 0 0.26251518360968462 -0.057444985238940982 0 0.26805196569318412 -0.054559477125640327 0 0.26021316990882931 -0.051703140715830508 0 0.26622989874433722 -0.047928869495392441 0 0.25873309213880652 -0.043491886457634327 0 0.26021316990882931 -0.051703140715830508 0 0.26622989874433722 -0.047928869495392441 0 0.26805196569318412 -0.054559477125640327 0 0.26293069841092359 -0.064684756024019727 0 0.25315278222618243 -0.056604001830095702 0 0.26251518360968462 -0.057444985238940982 0 0.25315278222618243 -0.056604001830095702 0 0.26021316990882931 -0.051703140715830508 0 0.26251518360968462 -0.057444985238940982 0 0.26293069841092359 -0.064684756024019727 0 0.26251518360968462 -0.057444985238940982 0 0.26822730180930349 -0.059673550499118579 0 0.29183523614225121 -0.065174634102821469 0 0.27378922531877931 -0.064385566483013038 0 0.27312259277921141 -0.0568226436908187 0 0.27378922531877931 -0.064385566483013038 0 0.26822730180930349 -0.059673550499118579 0 0.27312259277921141 -0.0568226436908187 0 0.27312259277921141 -0.0568226436908187 0 0.26805196569318412 -0.054559477125640327 0 0.26822730180930349 -0.059673550499118579 0 0.27312259277921141 -0.0568226436908187 0 0.26805196569318412 -0.054559477125640327 0 0.26251518360968462 -0.057444985238940982 0 0.26822730180930349 -0.059673550499118579 0 0.26805196569318412 -0.054559477125640327 0 0.27312259277921141 -0.0568226436908187 0 0.26622989874433722 -0.047928869495392441 0 0.26805196569318412 -0.054559477125640327 0 0.27378922531877931 -0.064385566483013038 0 0.27312259277921141 -0.0568226436908187 0 0.27312259277921141 -0.0568226436908187 0 0.27102867320165508 -0.033067199487038353 0 0.27312259277921141 -0.0568226436908187 0 0.27102867320165508 -0.033067199487038353 0 0.29022274456025798 -0.042990439761484617 0 0.27312259277921141 -0.0568226436908187 0 0.26622989874433722 -0.047928869495392441 0 0.27102867320165508 -0.033067199487038353 0 0.27102867320165508 -0.033067199487038353 0 0.25873309213880652 -0.043491886457634327 0 0.25407738084389903 -0.033861706745482251 0 0.26622989874433722 -0.047928869495392441 0 0.27102867320165508 -0.033067199487038353 0 0.25873309213880652 -0.043491886457634327 0 0.25358167832110989 -0.048859069267911732 0 0.25873309213880652 -0.043491886457634327 0 0.24974425786470661 -0.043017581543783628 0 0.25873309213880652 -0.043491886457634327 0 0.25407738084389903 -0.033861706745482251 0 0.24974425786470661 -0.043017581543783628 0 0.27102867320165508 -0.033067199487038353 0 0.25559283292949081 -0.019120799576887788 0 0.26893475362409852 -0.0093117552832579793 0 0.25407738084389903 -0.033861706745482251 0 0.25559283292949081 -0.019120799576887788 0 0.24751020808162311 -0.024473078810739231 0 0.27102867320165508 -0.033067199487038353 0 0.25407738084389903 -0.033861706745482251 0 0.25559283292949081 -0.019120799576887788 0 0.24942856085965889 0.00090749762840000299 0 0.25559283292949081 -0.019120799576887788 0 0.26893475362409852 -0.0093117552832579793 0 0.27102867320165508 -0.033067199487038353 0 0.26893475362409852 -0.0093117552832579793 0 0.27102867320165508 -0.033067199487038353 0 0.26893475362409852 -0.0093117552832579793 0 0.29052194501875622 -0.018169526626749529 0 0.28740260621623342 0.0089179716197555128 0 0.26893475362409852 -0.0093117552832579793 0 0.29052194501875622 -0.018169526626749529 0 0.28740260621623342 0.0089179716197555128 0 0.31519262925432318 -0.003572203242832115 0 0.29052194501875622 -0.018169526626749529 0 0.29052194501875622 -0.018169526626749529 0 0.31035026325596887 -0.028993533605639631 0 0.29022274456025798 -0.042990439761484617 0 0.31519262925432318 -0.003572203242832115 0 0.29052194501875622 -0.018169526626749529 0 0.31035026325596887 -0.028993533605639631 0 0.31035026325596887 -0.028993533605639631 0 0.30550789725761462 -0.05441486396844708 0 0.31035026325596887 -0.028993533605639631 0 0.30550789725761462 -0.05441486396844708 0 0.29022274456025798 -0.042990439761484617 0 0.29183523614225121 -0.065174634102821469 0 0.27312259277921141 -0.0568226436908187 0 0.29022274456025798 -0.042990439761484617 0 0.29183523614225121 -0.065174634102821469 0 0.30550789725761462 -0.05441486396844708 0 0.29022274456025798 -0.042990439761484617 0 0.29183523614225121 -0.065174634102821469 0 0.27312259277921141 -0.0568226436908187 0 0.27102867320165508 -0.033067199487038353 0 0.29052194501875622 -0.018169526626749529 0 0.29022274456025798 -0.042990439761484617 0 0.29798141179702597 -0.20781893108250329 0 0.28956336968104252 -0.21879641109826811 0 0.27431957928554052 -0.20639224248263929 0 0.29798141179702597 -0.20781893108250329 0 0.30205248591224471 -0.2179903102921614 0 0.28956336968104252 -0.21879641109826811 0 0.29379335761990349 -0.19451258515183631 0 0.27431957928554052 -0.20639224248263929 0 0.28245802620880811 -0.18744451412720961 0 0.29379335761990349 -0.19451258515183631 0 0.29798141179702597 -0.20781893108250329 0 0.27431957928554052 -0.20639224248263929 0 0.29379335761990349 -0.19451258515183631 0 0.29268338703235119 -0.1812669415384581 0 0.28245802620880811 -0.18744451412720961 0 0.29379335761990349 -0.19451258515183631 0 0.30705597201392909 -0.19899576482425529 0 0.29798141179702597 -0.20781893108250329 0 0.29379335761990349 -0.19451258515183631 0 0.30705597201392909 -0.19899576482425529 0 0.3082617693817663 -0.18515711685595251 0 0.30705597201392909 -0.19899576482425529 0 0.3082617693817663 -0.18515711685595251 0 0.31911483191883228 -0.1965833296023794 0 0.29798141179702597 -0.20781893108250329 0 0.30205248591224471 -0.2179903102921614 0 0.31427055798270809 -0.2108044417094683 0 0.30705597201392909 -0.19899576482425529 0 0.29798141179702597 -0.20781893108250329 0 0.31427055798270809 -0.2108044417094683 0 0.30205248591224471 -0.2179903102921614 0 0.31427055798270809 -0.2108044417094683 0 0.31640134151678878 -0.22273951911654441 0 0.30655116295758078 -0.23709152894623689 0 0.29178483830898921 -0.23069949565530029 0 0.31640134151678878 -0.22273951911654441 0 0.30205248591224471 -0.2179903102921614 0 0.29178483830898921 -0.23069949565530029 0 0.31640134151678878 -0.22273951911654441 0 0.29178483830898921 -0.23069949565530029 0 0.31640134151678878 -0.22273951911654441 0 0.30655116295758078 -0.23709152894623689 0 0.31521224172727652 -0.23207491420628959 0 0.31515832592084531 -0.25321124345217683 0 0.30655116295758078 -0.23709152894623689 0 0.29482635381181288 -0.246771137250267 0 0.31515832592084531 -0.25321124345217683 0 0.30655116295758078 -0.23709152894623689 0 0.29482635381181288 -0.246771137250267 0 0.29178483830898921 -0.23069949565530029 0 0.29482635381181288 -0.246771137250267 0 0.29178483830898921 -0.23069949565530029 0 0.27997069045944561 -0.24561078526832611 0 0.29482635381181288 -0.246771137250267 0 0.27997069045944561 -0.24561078526832611 0 0.28139296974029759 -0.25667675240246213 0 0.28956336968104252 -0.21879641109826811 0 0.28115671255207408 -0.2328955703812903 0 0.27431957928554052 -0.20639224248263929 0 0.30205248591224471 -0.2179903102921614 0 0.28956336968104252 -0.21879641109826811 0 0.29178483830898921 -0.23069949565530029 0 0.28956336968104252 -0.21879641109826811 0 0.29178483830898921 -0.23069949565530029 0 0.28115671255207408 -0.2328955703812903 0 0.28115671255207408 -0.2328955703812903 0 0.27431957928554052 -0.20639224248263929 0 0.29178483830898921 -0.23069949565530029 0 0.28115671255207408 -0.2328955703812903 0 0.26716833510118931 -0.23865947219405631 0 0.28115671255207408 -0.2328955703812903 0 0.26690315567087858 -0.2255694629534892 0 0.27431957928554052 -0.20639224248263929 0 0.28115671255207408 -0.2328955703812903 0 0.26690315567087858 -0.2255694629534892 0 0.26716833510118931 -0.23865947219405631 0 0.29178483830898921 -0.23069949565530029 0 0.26716833510118931 -0.23865947219405631 0 0.27997069045944561 -0.24561078526832611 0 0.26716833510118931 -0.23865947219405631 0 0.26500121398651938 -0.25431828450675109 0 0.29178483830898921 -0.23069949565530029 0 0.27997069045944561 -0.24561078526832611 0 0.26716833510118931 -0.23865947219405631 0 0.26716833510118931 -0.23865947219405631 0 0.24255183189338941 -0.24661944873281219 0 0.26716833510118931 -0.23865947219405631 0 0.25241691095469759 -0.2323490653766527 0 0.24255183189338941 -0.24661944873281219 0 0.26716833510118931 -0.23865947219405631 0 0.26500121398651938 -0.25431828450675109 0 0.24255183189338941 -0.24661944873281219 0 0.26690315567087858 -0.2255694629534892 0 0.25241691095469759 -0.2323490653766527 0 0.2550257632903376 -0.21904230316456769 0 0.26690315567087858 -0.2255694629534892 0 0.26716833510118931 -0.23865947219405631 0 0.25241691095469759 -0.2323490653766527 0 0.2550257632903376 -0.21904230316456769 0 0.25320287684030279 -0.2054820746983472 0 0.27431957928554052 -0.20639224248263929 0 0.26690315567087858 -0.2255694629534892 0 0.2550257632903376 -0.21904230316456769 0 0.27431957928554052 -0.20639224248263929 0 0.27431957928554052 -0.20639224248263929 0 0.26748244601900689 -0.17988891458398809 0 0.28245802620880811 -0.18744451412720961 0 0.27431957928554052 -0.20639224248263929 0 0.26084323843997748 -0.19276764069522129 0 0.26748244601900689 -0.17988891458398809 0 0.27431957928554052 -0.20639224248263929 0 0.26748244601900689 -0.17988891458398809 0 0.25320287684030279 -0.2054820746983472 0 0.27431957928554052 -0.20639224248263929 0 0.26084323843997748 -0.19276764069522129 0 0.25320287684030279 -0.2054820746983472 0 0.26084323843997748 -0.19276764069522129 0 0.24619533100963789 -0.19373060617322449 0 0.26084323843997748 -0.19276764069522129 0 0.25993426176659212 -0.17320422244099001 0 0.26748244601900689 -0.17988891458398809 0 0.25993426176659212 -0.17320422244099001 0 0.24619533100963789 -0.19373060617322449 0 0.25993426176659212 -0.17320422244099001 0 0.24836912691924221 -0.17880067075906131 0 0.24619533100963789 -0.19373060617322449 0 0.26084323843997748 -0.19276764069522129 0 0.25993426176659212 -0.17320422244099001 0 0.24619533100963789 -0.19373060617322449 0 0.25993426176659212 -0.17320422244099001 0 0.25124340570169301 -0.16689575431661829 0 0.24836912691924221 -0.17880067075906131 0 0.26748244601900689 -0.17988891458398809 0 0.26064531275247332 -0.153385586685337 0 0.25993426176659212 -0.17320422244099001 0 0.26748244601900689 -0.17988891458398809 0 0.26064531275247332 -0.153385586685337 0 0.25993426176659212 -0.17320422244099001 0 0.25124340570169301 -0.16689575431661829 0 0.26064531275247332 -0.153385586685337 0 0.25124340570169301 -0.16689575431661829 0 0.26064531275247332 -0.153385586685337 0 0.2450773481394258 -0.15874471061177939 0 0.27890715563332308 -0.1608360217304812 0 0.26748244601900689 -0.17988891458398809 0 0.26064531275247332 -0.153385586685337 0 0.27890715563332308 -0.1608360217304812 0 0.26748244601900689 -0.17988891458398809 0 0.28215342971782909 -0.17505946715998971 0 0.26748244601900689 -0.17988891458398809 0 0.28245802620880811 -0.18744451412720961 0 0.28215342971782909 -0.17505946715998971 0 0.25380817948593959 -0.12688225878668591 0 0.26064531275247332 -0.153385586685337 0 0.24746948455308529 -0.14159979779264459 0 0.26773613651887163 -0.11562514168933639 0 0.25380817948593959 -0.12688225878668591 0 0.27332164607609732 -0.13823058170990879 0 0.25380817948593959 -0.12688225878668591 0 0.26064531275247332 -0.153385586685337 0 0.25380817948593959 -0.12688225878668591 0 0.26064531275247332 -0.153385586685337 0 0.27332164607609732 -0.13823058170990879 0 0.26064531275247332 -0.153385586685337 0 0.24746948455308529 -0.14159979779264459 0 0.2450773481394258 -0.15874471061177939 0 0.27890715563332308 -0.1608360217304812 0 0.27332164607609732 -0.13823058170990879 0 0.27890715563332308 -0.1608360217304812 0 0.26064531275247332 -0.153385586685337 0 0.27332164607609732 -0.13823058170990879 0 0.27890715563332308 -0.1608360217304812 0 0.27332164607609732 -0.13823058170990879 0 0.2877084070202785 -0.1492034979421375 0 0.26773613651887163 -0.11562514168933639 0 0.28045267347104258 -0.1234729277763941 0 0.27332164607609732 -0.13823058170990879 0 0.26773613651887163 -0.11562514168933639 0 0.27332164607609732 -0.13823058170990879 0 0.28045267347104258 -0.1234729277763941 0 0.27332164607609732 -0.13823058170990879 0 0.28908950837638991 -0.13589329513310019 0 0.29402717526868771 -0.1207371796768287 0 0.28908950837638991 -0.13589329513310019 0 0.3014027452200605 -0.13496897922771331 0 0.29402717526868771 -0.1207371796768287 0 0.28045267347104258 -0.1234729277763941 0 0.28908950837638991 -0.13589329513310019 0 0.2877084070202785 -0.1492034979421375 0 0.30081704801997861 -0.14668927605060761 0 0.29640667699560369 -0.16436831508658969 0 0.27332164607609732 -0.13823058170990879 0 0.28908950837638991 -0.13589329513310019 0 0.2877084070202785 -0.1492034979421375 0 0.28908950837638991 -0.13589329513310019 0 0.2877084070202785 -0.1492034979421375 0 0.30081704801997861 -0.14668927605060761 0 0.31182948540291339 -0.15609669441339771 0 0.30081704801997861 -0.14668927605060761 0 0.29640667699560369 -0.16436831508658969 0 0.31182948540291339 -0.15609669441339771 0 0.31170429350413498 -0.14415959326691449 0 0.30081704801997861 -0.14668927605060761 0 0.31170429350413498 -0.14415959326691449 0 0.30081704801997861 -0.14668927605060761 0 0.3014027452200605 -0.13496897922771331 0 0.31170429350413498 -0.14415959326691449 0 0.3014027452200605 -0.13496897922771331 0 0.311375700931111 -0.1273655520111153 0 0.29402717526868771 -0.1207371796768287 0 0.3014027452200605 -0.13496897922771331 0 0.311375700931111 -0.1273655520111153 0 0.28908950837638991 -0.13589329513310019 0 0.30081704801997861 -0.14668927605060761 0 0.3014027452200605 -0.13496897922771331 0 0.29268338703235119 -0.1812669415384581 0 0.28215342971782909 -0.17505946715998971 0 0.29640667699560369 -0.16436831508658969 0 0.29268338703235119 -0.1812669415384581 0 0.28245802620880811 -0.18744451412720961 0 0.28215342971782909 -0.17505946715998971 0 0.27890715563332308 -0.1608360217304812 0 0.2877084070202785 -0.1492034979421375 0 0.29640667699560369 -0.16436831508658969 0 0.27890715563332308 -0.1608360217304812 0 0.28215342971782909 -0.17505946715998971 0 0.29640667699560369 -0.16436831508658969 0 0.29640667699560369 -0.16436831508658969 0 0.30262941637865731 -0.17530184737155741 0 0.31316583210490812 -0.17041501600522951 0 0.31182948540291339 -0.15609669441339771 0 0.29640667699560369 -0.16436831508658969 0 0.31316583210490812 -0.17041501600522951 0 0.30262941637865731 -0.17530184737155741 0 0.3082617693817663 -0.18515711685595251 0 0.31316583210490812 -0.17041501600522951 0 0.29268338703235119 -0.1812669415384581 0 0.29640667699560369 -0.16436831508658969 0 0.30262941637865731 -0.17530184737155741 0 0.29379335761990349 -0.19451258515183631 0 0.29268338703235119 -0.1812669415384581 0 0.3082617693817663 -0.18515711685595251 0 0.29268338703235119 -0.1812669415384581 0 0.30262941637865731 -0.17530184737155741 0 0.3082617693817663 -0.18515711685595251 0 0.3082617693817663 -0.18515711685595251 0 0.32054065805363607 -0.18539314022470299 0 0.31316583210490812 -0.17041501600522951 0 0.32054065805363607 -0.18539314022470299 0 0.32672653472947921 -0.17512648677396769 0 0.33022004533405558 -0.18459790855077141 0 0.32054065805363607 -0.18539314022470299 0 0.32672653472947921 -0.17512648677396769 0 0.31316583210490812 -0.17041501600522951 0 0.31182948540291339 -0.15609669441339771 0 0.32367236537342409 -0.1632300998838796 0 0.32302271353813888 -0.1511902013147372 0 0.31182948540291339 -0.15609669441339771 0 0.31316583210490812 -0.17041501600522951 0 0.32367236537342409 -0.1632300998838796 0 0.32367236537342409 -0.1632300998838796 0 0.33196835465885582 -0.15667351635036561 0 0.32302271353813888 -0.1511902013147372 0 0.32672653472947921 -0.17512648677396769 0 0.31316583210490812 -0.17041501600522951 0 0.32367236537342409 -0.1632300998838796 0 0.32672653472947921 -0.17512648677396769 0 0.32367236537342409 -0.1632300998838796 0 0.33379106629623262 -0.16761220842381491 0 0.33379106629623262 -0.16761220842381491 0 0.33733547787230628 -0.1769175797836619 0 0.34660719841275539 -0.1561609291062788 0 0.32367236537342409 -0.1632300998838796 0 0.33379106629623262 -0.16761220842381491 0 0.33196835465885582 -0.15667351635036561 0 0.33379106629623262 -0.16761220842381491 0 0.33196835465885582 -0.15667351635036561 0 0.34660719841275539 -0.1561609291062788 0 0.33733547787230628 -0.1769175797836619 0 0.34660719841275539 -0.1561609291062788 0 0.34585473214173201 -0.18451465468736841 0 0.33733547787230628 -0.1769175797836619 0 0.34585473214173201 -0.18451465468736841 0 0.33683075028917731 -0.18817657868102389 0 0.33733547787230628 -0.1769175797836619 0 0.33022004533405558 -0.18459790855077141 0 0.33683075028917731 -0.18817657868102389 0 0.32672653472947921 -0.17512648677396769 0 0.33733547787230628 -0.1769175797836619 0 0.33022004533405558 -0.18459790855077141 0 0.32672653472947921 -0.17512648677396769 0 0.33379106629623262 -0.16761220842381491 0 0.33733547787230628 -0.1769175797836619 0 0.31170429350413498 -0.14415959326691449 0 0.311375700931111 -0.1273655520111153 0 0.32221192661090681 -0.14034894296652439 0 0.311375700931111 -0.1273655520111153 0 0.32200874071476498 -0.1281742344560319 0 0.32221192661090681 -0.14034894296652439 0 0.32200874071476498 -0.1281742344560319 0 0.32221192661090681 -0.14034894296652439 0 0.33368484457659942 -0.13371445731758891 0 0.32221192661090681 -0.14034894296652439 0 0.32302271353813888 -0.1511902013147372 0 0.33149900755945122 -0.147617609411099 0 0.31170429350413498 -0.14415959326691449 0 0.32221192661090681 -0.14034894296652439 0 0.32302271353813888 -0.1511902013147372 0 0.31182948540291339 -0.15609669441339771 0 0.31170429350413498 -0.14415959326691449 0 0.32302271353813888 -0.1511902013147372 0 0.33149900755945122 -0.147617609411099 0 0.33368484457659942 -0.13371445731758891 0 0.34660719841275539 -0.1561609291062788 0 0.33368484457659942 -0.13371445731758891 0 0.34660719841275539 -0.1561609291062788 0 0.33368484457659942 -0.13371445731758891 0 0.34683521314190119 -0.14756909275739649 0 0.34660719841275539 -0.1561609291062788 0 0.33196835465885582 -0.15667351635036561 0 0.32302271353813888 -0.1511902013147372 0 0.33149900755945122 -0.147617609411099 0 0.33196835465885582 -0.15667351635036561 0 0.33149900755945122 -0.147617609411099 0 0.34660719841275539 -0.1561609291062788 0 0.33368484457659942 -0.13371445731758891 0 0.34097698305071028 -0.1256722668138737 0 0.34683521314190119 -0.14756909275739649 0 0.33247724146884222 -0.1162142073794579 0 0.33368484457659942 -0.13371445731758891 0 0.34097698305071028 -0.1256722668138737 0 0.32221192661090681 -0.14034894296652439 0 0.33149900755945122 -0.147617609411099 0 0.33368484457659942 -0.13371445731758891 0 0.34733746319221293 -0.12864377922770079 0 0.34683521314190119 -0.14756909275739649 0 0.34733746319221293 -0.12864377922770079 0 0.36123429030955889 -0.1489211354769725 0 0.34097698305071028 -0.1256722668138737 0 0.34683521314190119 -0.14756909275739649 0 0.34733746319221293 -0.12864377922770079 0 0.36123429030955889 -0.1489211354769725 0 0.35954712105670178 -0.12937137358431569 0 0.34097698305071028 -0.1256722668138737 0 0.34733746319221293 -0.12864377922770079 0 0.34683521314190119 -0.14756909275739649 0 0.34325338410526007 -0.12268455372269731 0 0.34733746319221293 -0.12864377922770079 0 0.34325338410526007 -0.12268455372269731 0 0.34097698305071028 -0.1256722668138737 0 0.34733746319221293 -0.12864377922770079 0 0.34683521314190119 -0.14756909275739649 0 0.35426807138816452 -0.15473357589681719 0 0.35132745338336618 -0.16436013734470231 0 0.34683521314190119 -0.14756909275739649 0 0.35132745338336618 -0.16436013734470231 0 0.34733746319221293 -0.12864377922770079 0 0.34683521314190119 -0.14756909275739649 0 0.36123429030955889 -0.1489211354769725 0 0.34683521314190119 -0.14756909275739649 0 0.34660719841275539 -0.1561609291062788 0 0.35132745338336618 -0.16436013734470231 0 0.34683521314190119 -0.14756909275739649 0 0.34660719841275539 -0.1561609291062788 0 0.34683521314190119 -0.14756909275739649 0 0.35426807138816452 -0.15473357589681719 0 0.36123429030955889 -0.1489211354769725 0 0.35426807138816452 -0.15473357589681719 0 0.36123429030955889 -0.1489211354769725 0 0.35888558887093153 -0.15955208333309109 0 0.36123429030955889 -0.1489211354769725 0 0.37131387415073008 -0.152959546444704 0 0.37133928657137399 -0.16366569604235581 0 0.36123429030955889 -0.1489211354769725 0 0.37131387415073008 -0.152959546444704 0 0.37578306528062838 -0.14392244025565151 0 0.36123429030955889 -0.1489211354769725 0 0.36873890831377337 -0.1337597689674086 0 0.37578306528062838 -0.14392244025565151 0 0.36123429030955889 -0.1489211354769725 0 0.36873890831377337 -0.1337597689674086 0 0.35954712105670178 -0.12937137358431569 0 0.36873890831377337 -0.1337597689674086 0 0.37981176137120132 -0.13273557370984679 0 0.37578306528062838 -0.14392244025565151 0 0.36575552499337671 -0.1217236082250554 0 0.36873890831377337 -0.1337597689674086 0 0.37278808461928231 -0.1272680189844361 0 0.36873890831377337 -0.1337597689674086 0 0.37278808461928231 -0.1272680189844361 0 0.37981176137120132 -0.13273557370984679 0 0.36575552499337671 -0.1217236082250554 0 0.36873890831377337 -0.1337597689674086 0 0.35954712105670178 -0.12937137358431569 0 0.35634211654975062 -0.1831038884112321 0 0.35132745338336618 -0.16436013734470231 0 0.35634211654975062 -0.1831038884112321 0 0.35132745338336618 -0.16436013734470231 0 0.36170101644881031 -0.1823792918771506 0 0.35132745338336618 -0.16436013734470231 0 0.36170101644881031 -0.1823792918771506 0 0.35634211654975062 -0.1831038884112321 0 0.34585473214173201 -0.18451465468736841 0 0.35132745338336618 -0.16436013734470231 0 0.35132745338336618 -0.16436013734470231 0 0.36320119967848541 -0.17345963471673589 0 0.36170101644881031 -0.1823792918771506 0 0.35634211654975062 -0.1831038884112321 0 0.34585473214173201 -0.18451465468736841 0 0.35378715853900172 -0.19340914655614541 0 0.34660719841275539 -0.1561609291062788 0 0.34585473214173201 -0.18451465468736841 0 0.34660719841275539 -0.1561609291062788 0 0.34585473214173201 -0.18451465468736841 0 0.35132745338336618 -0.16436013734470231 0 0.34660719841275539 -0.1561609291062788 0 0.35132745338336618 -0.16436013734470231 0 0.35132745338336618 -0.16436013734470231 0 0.35888558887093153 -0.15955208333309109 0 0.36205282163041641 -0.16684825072398929 0 0.35426807138816452 -0.15473357589681719 0 0.35132745338336618 -0.16436013734470231 0 0.35888558887093153 -0.15955208333309109 0 0.35132745338336618 -0.16436013734470231 0 0.36205282163041641 -0.16684825072398929 0 0.36320119967848541 -0.17345963471673589 0 0.36205282163041641 -0.16684825072398929 0 0.36508518552254882 -0.16301655986253699 0 0.36812210937493139 -0.17056283805238839 0 0.36205282163041641 -0.16684825072398929 0 0.36812210937493139 -0.17056283805238839 0 0.36320119967848541 -0.17345963471673589 0 0.36123429030955889 -0.1489211354769725 0 0.36508518552254882 -0.16301655986253699 0 0.37133928657137399 -0.16366569604235581 0 0.36123429030955889 -0.1489211354769725 0 0.35888558887093153 -0.15955208333309109 0 0.36508518552254882 -0.16301655986253699 0 0.36123429030955889 -0.1489211354769725 0 0.37133928657137399 -0.16366569604235581 0 0.35888558887093153 -0.15955208333309109 0 0.36205282163041641 -0.16684825072398929 0 0.36508518552254882 -0.16301655986253699 0 0.37131387415073008 -0.152959546444704 0 0.37133928657137399 -0.16366569604235581 0 0.37754282573958953 -0.16153583957457099 0 0.37133928657137399 -0.16366569604235581 0 0.37754282573958953 -0.16153583957457099 0 0.36508518552254882 -0.16301655986253699 0 0.37133928657137399 -0.16366569604235581 0 0.37513111742690558 -0.1691984917262436 0 0.36508518552254882 -0.16301655986253699 0 0.36812210937493139 -0.17056283805238839 0 0.37513111742690558 -0.1691984917262436 0 0.37133928657137399 -0.16366569604235581 0 0.37754282573958953 -0.16153583957457099 0 0.37513111742690558 -0.1691984917262436 0 0.37133928657137399 -0.16366569604235581 0 0.37513111742690558 -0.1691984917262436 0 0.36812210937493139 -0.17056283805238839 0 0.37175314835635481 -0.17372119568882449 0 0.37513111742690558 -0.1691984917262436 0 0.37175314835635481 -0.17372119568882449 0 0.37328334200622321 -0.17877176139900941 0 0.37513111742690558 -0.1691984917262436 0 0.37175314835635481 -0.17372119568882449 0 0.37328334200622321 -0.17877176139900941 0 0.36933804657536712 -0.1767283097042317 0 0.37328334200622321 -0.17877176139900941 0 0.36933804657536712 -0.1767283097042317 0 0.36940379609604002 -0.18305345066302631 0 0.36933804657536712 -0.1767283097042317 0 0.36591101469967569 -0.17890517174028611 0 0.36940379609604002 -0.18305345066302631 0 0.36812210937493139 -0.17056283805238839 0 0.37175314835635481 -0.17372119568882449 0 0.36933804657536712 -0.1767283097042317 0 0.36812210937493139 -0.17056283805238839 0 0.36933804657536712 -0.1767283097042317 0 0.36320119967848541 -0.17345963471673589 0 0.36591101469967569 -0.17890517174028611 0 0.36320119967848541 -0.17345963471673589 0 0.36170101644881031 -0.1823792918771506 0 0.36933804657536712 -0.1767283097042317 0 0.36591101469967569 -0.17890517174028611 0 0.36320119967848541 -0.17345963471673589 0 0.36591101469967569 -0.17890517174028611 0 0.36170101644881031 -0.1823792918771506 0 0.36940379609604002 -0.18305345066302631 0 0.36170101644881031 -0.1823792918771506 0 0.36940379609604002 -0.18305345066302631 0 0.37163991821258802 -0.18903626251844019 0 0.37328334200622321 -0.17877176139900941 0 0.36940379609604002 -0.18305345066302631 0 0.37535382737803008 -0.18664519928840689 0 0.36940379609604002 -0.18305345066302631 0 0.37163991821258802 -0.18903626251844019 0 0.37535382737803008 -0.18664519928840689 0 0.36170101644881031 -0.1823792918771506 0 0.3720745795142541 -0.20039844640959911 0 0.36135677971613511 -0.2018476394777618 0 0.37163991821258802 -0.18903626251844019 0 0.3720745795142541 -0.20039844640959911 0 0.37966637162580558 -0.1927049243540182 0 0.36170101644881031 -0.1823792918771506 0 0.37163991821258802 -0.18903626251844019 0 0.3720745795142541 -0.20039844640959911 0 0.36170101644881031 -0.1823792918771506 0 0.3720745795142541 -0.20039844640959911 0 0.35634211654975062 -0.1831038884112321 0 0.36170101644881031 -0.1823792918771506 0 0.36135677971613511 -0.2018476394777618 0 0.36850411562049079 -0.21434978234619739 0 0.37690601351931791 -0.22604576877446239 0 0.37829715155002391 -0.21173728381391041 0 0.3720745795142541 -0.20039844640959911 0 0.36850411562049079 -0.21434978234619739 0 0.37829715155002391 -0.21173728381391041 0 0.3720745795142541 -0.20039844640959911 0 0.36135677971613511 -0.2018476394777618 0 0.36850411562049079 -0.21434978234619739 0 0.36135677971613511 -0.2018476394777618 0 0.36850411562049079 -0.21434978234619739 0 0.35710472941286348 -0.21266078257634149 0 0.35710472941286348 -0.21266078257634149 0 0.34510226587070891 -0.212868380268458 0 0.35896548010859308 -0.2300677071410705 0 0.36135677971613511 -0.2018476394777618 0 0.35710472941286348 -0.21266078257634149 0 0.35234223959674571 -0.20194877298035921 0 0.35710472941286348 -0.21266078257634149 0 0.34510226587070891 -0.212868380268458 0 0.35234223959674571 -0.20194877298035921 0 0.35634211654975062 -0.1831038884112321 0 0.36135677971613511 -0.2018476394777618 0 0.35378715853900172 -0.19340914655614541 0 0.34585473214173201 -0.18451465468736841 0 0.34510226587070891 -0.212868380268458 0 0.35234223959674571 -0.20194877298035921 0 0.34585473214173201 -0.18451465468736841 0 0.35378715853900172 -0.19340914655614541 0 0.35234223959674571 -0.20194877298035921 0 0.35634211654975062 -0.1831038884112321 0 0.36135677971613511 -0.2018476394777618 0 0.34585473214173201 -0.18451465468736841 0 0.34510226587070891 -0.212868380268458 0 0.36135677971613511 -0.2018476394777618 0 0.35378715853900172 -0.19340914655614541 0 0.35234223959674571 -0.20194877298035921 0 0.34585473214173201 -0.18451465468736841 0 0.34510226587070891 -0.212868380268458 0 0.33824017891270519 -0.19829213056033571 0 0.34585473214173201 -0.18451465468736841 0 0.33683075028917731 -0.18817657868102389 0 0.33824017891270519 -0.19829213056033571 0 0.33683075028917731 -0.18817657868102389 0 0.32931989014734092 -0.19384048812634219 0 0.33824017891270519 -0.19829213056033571 0 0.33022004533405558 -0.18459790855077141 0 0.33683075028917731 -0.18817657868102389 0 0.32931989014734092 -0.19384048812634219 0 0.32931989014734092 -0.19384048812634219 0 0.33824017891270519 -0.19829213056033571 0 0.32938116285676577 -0.20863977529052 0 0.34510226587070891 -0.212868380268458 0 0.32938116285676577 -0.20863977529052 0 0.33385563494357767 -0.22290712697420709 0 0.34510226587070891 -0.212868380268458 0 0.33824017891270519 -0.19829213056033571 0 0.32938116285676577 -0.20863977529052 0 0.32938116285676577 -0.20863977529052 0 0.32478275827250552 -0.22011911682504839 0 0.33385563494357767 -0.22290712697420709 0 0.32938116285676577 -0.20863977529052 0 0.31427055798270809 -0.2108044417094683 0 0.31911483191883228 -0.1965833296023794 0 0.32938116285676577 -0.20863977529052 0 0.31427055798270809 -0.2108044417094683 0 0.32478275827250552 -0.22011911682504839 0 0.31427055798270809 -0.2108044417094683 0 0.31640134151678878 -0.22273951911654441 0 0.32478275827250552 -0.22011911682504839 0 0.30705597201392909 -0.19899576482425529 0 0.31427055798270809 -0.2108044417094683 0 0.31911483191883228 -0.1965833296023794 0 0.3082617693817663 -0.18515711685595251 0 0.32054065805363607 -0.18539314022470299 0 0.31911483191883228 -0.1965833296023794 0 0.32054065805363607 -0.18539314022470299 0 0.32931989014734092 -0.19384048812634219 0 0.31911483191883228 -0.1965833296023794 0 0.32054065805363607 -0.18539314022470299 0 0.33022004533405558 -0.18459790855077141 0 0.32931989014734092 -0.19384048812634219 0 0.32931989014734092 -0.19384048812634219 0 0.32938116285676577 -0.20863977529052 0 0.31911483191883228 -0.1965833296023794 0 0.31521224172727652 -0.23207491420628959 0 0.32451931813283741 -0.23068139758560821 0 0.31515832592084531 -0.25321124345217683 0 0.32451931813283741 -0.23068139758560821 0 0.31515832592084531 -0.25321124345217683 0 0.33059518584913011 -0.25427153732570362 0 0.32451931813283741 -0.23068139758560821 0 0.31515832592084531 -0.25321124345217683 0 0.30655116295758078 -0.23709152894623689 0 0.31521224172727652 -0.23207491420628959 0 0.31640134151678878 -0.22273951911654441 0 0.31521224172727652 -0.23207491420628959 0 0.31640134151678878 -0.22273951911654441 0 0.32451931813283741 -0.23068139758560821 0 0.32478275827250552 -0.22011911682504839 0 0.32451931813283741 -0.23068139758560821 0 0.33385563494357767 -0.22290712697420709 0 0.31640134151678878 -0.22273951911654441 0 0.32478275827250552 -0.22011911682504839 0 0.32451931813283741 -0.23068139758560821 0 0.32451931813283741 -0.23068139758560821 0 0.33385563494357767 -0.22290712697420709 0 0.34434979959968581 -0.24122210584954781 0 0.34510226587070891 -0.212868380268458 0 0.33385563494357767 -0.22290712697420709 0 0.34434979959968581 -0.24122210584954781 0 0.32451931813283741 -0.23068139758560821 0 0.34434979959968581 -0.24122210584954781 0 0.33059518584913011 -0.25427153732570362 0 0.34434979959968581 -0.24122210584954781 0 0.35896548010859308 -0.2300677071410705 0 0.36021566746181799 -0.25400252956497987 0 0.34510226587070891 -0.212868380268458 0 0.34434979959968581 -0.24122210584954781 0 0.34510226587070891 -0.212868380268458 0 0.34434979959968581 -0.24122210584954781 0 0.35896548010859308 -0.2300677071410705 0 0.36850411562049079 -0.21434978234619739 0 0.35896548010859308 -0.2300677071410705 0 0.37690601351931791 -0.22604576877446239 0 0.36850411562049079 -0.21434978234619739 0 0.35710472941286348 -0.21266078257634149 0 0.35896548010859308 -0.2300677071410705 0 0.35896548010859308 -0.2300677071410705 0 0.37542801630718597 -0.24424478341264069 0 0.37690601351931791 -0.22604576877446239 0 0.35896548010859308 -0.2300677071410705 0 0.37542801630718597 -0.24424478341264069 0 0.36021566746181799 -0.25400252956497987 0 0.37542801630718597 -0.24424478341264069 0 0.39142246451910467 -0.23764078034471631 0 0.37690601351931791 -0.22604576877446239 0 0.37542801630718597 -0.24424478341264069 0 0.39142246451910467 -0.23764078034471631 0 0.39041340754710391 -0.25242483563399082 0 0.40556661318540888 -0.2248282176216837 0 0.40689060827226481 -0.24795724280871201 0 0.39142246451910467 -0.23764078034471631 0 0.40689060827226481 -0.24795724280871201 0 0.39041340754710391 -0.25242483563399082 0 0.39142246451910467 -0.23764078034471631 0 0.40556661318540888 -0.2248282176216837 0 0.40689060827226481 -0.24795724280871201 0 0.40556661318540888 -0.2248282176216837 0 0.37690601351931791 -0.22604576877446239 0 0.40556661318540888 -0.2248282176216837 0 0.37690601351931791 -0.22604576877446239 0 0.38991868660157059 -0.21707683646355919 0 0.39142246451910467 -0.23764078034471631 0 0.40556661318540888 -0.2248282176216837 0 0.37690601351931791 -0.22604576877446239 0 0.37829715155002391 -0.21173728381391041 0 0.38991868660157059 -0.21707683646355919 0 0.38408236249448602 -0.20081558507573419 0 0.38991868660157059 -0.21707683646355919 0 0.38408236249448602 -0.20081558507573419 0 0.39604102092880328 -0.19595000521656761 0 0.37690601351931791 -0.22604576877446239 0 0.37829715155002391 -0.21173728381391041 0 0.38991868660157059 -0.21707683646355919 0 0.3720745795142541 -0.20039844640959911 0 0.37829715155002391 -0.21173728381391041 0 0.38408236249448602 -0.20081558507573419 0 0.38902794454425232 -0.1894758479755147 0 0.39604102092880328 -0.19595000521656761 0 0.38679192333419571 -0.17874292239556969 0 0.37163991821258802 -0.18903626251844019 0 0.37966637162580558 -0.1927049243540182 0 0.37535382737803008 -0.18664519928840689 0 0.37966637162580558 -0.1927049243540182 0 0.38902794454425232 -0.1894758479755147 0 0.37872011620464169 -0.18328392132332361 0 0.37966637162580558 -0.1927049243540182 0 0.37872011620464169 -0.18328392132332361 0 0.37535382737803008 -0.18664519928840689 0 0.3720745795142541 -0.20039844640959911 0 0.37966637162580558 -0.1927049243540182 0 0.38408236249448602 -0.20081558507573419 0 0.38408236249448602 -0.20081558507573419 0 0.38902794454425232 -0.1894758479755147 0 0.39604102092880328 -0.19595000521656761 0 0.37966637162580558 -0.1927049243540182 0 0.38408236249448602 -0.20081558507573419 0 0.38902794454425232 -0.1894758479755147 0 0.40373338270571468 -0.19280329973534979 0 0.40485183683456261 -0.21234170586198209 0 0.40373338270571468 -0.19280329973534979 0 0.39604102092880328 -0.19595000521656761 0 0.40485183683456261 -0.21234170586198209 0 0.39604102092880328 -0.19595000521656761 0 0.40485183683456261 -0.21234170586198209 0 0.40556661318540888 -0.2248282176216837 0 0.38991868660157059 -0.21707683646355919 0 0.40485183683456261 -0.21234170586198209 0 0.38991868660157059 -0.21707683646355919 0 0.39604102092880328 -0.19595000521656761 0 0.40485183683456261 -0.21234170586198209 0 0.38991868660157059 -0.21707683646355919 0 0.39604102092880328 -0.19595000521656761 0 0.40556661318540888 -0.2248282176216837 0 0.40485183683456261 -0.21234170586198209 0 0.40485183683456261 -0.21234170586198209 0 0.41142966707667078 -0.22457914509328861 0 0.40485183683456261 -0.21234170586198209 0 0.41817686344434529 -0.21227513058457689 0 0.41142966707667078 -0.22457914509328861 0 0.40485183683456261 -0.21234170586198209 0 0.41817686344434529 -0.21227513058457689 0 0.41211260995494658 -0.20212485566524099 0 0.41817686344434529 -0.21227513058457689 0 0.41211260995494658 -0.20212485566524099 0 0.4258079010631628 -0.19882357621993391 0 0.41211260995494658 -0.20212485566524099 0 0.4258079010631628 -0.19882357621993391 0 0.41080159472122452 -0.18259747248292629 0 0.40373338270571468 -0.19280329973534979 0 0.40485183683456261 -0.21234170586198209 0 0.41211260995494658 -0.20212485566524099 0 0.40373338270571468 -0.19280329973534979 0 0.41211260995494658 -0.20212485566524099 0 0.41080159472122452 -0.18259747248292629 0 0.4258079010631628 -0.19882357621993391 0 0.42365930552528841 -0.17725018294739839 0 0.43785464722104012 -0.18677359868021109 0 0.4258079010631628 -0.19882357621993391 0 0.43785464722104012 -0.18677359868021109 0 0.44654920388796182 -0.2033432135758928 0 0.41817686344434529 -0.21227513058457689 0 0.4258079010631628 -0.19882357621993391 0 0.43668230229238381 -0.22350637008244059 0 0.4258079010631628 -0.19882357621993391 0 0.43668230229238381 -0.22350637008244059 0 0.44654920388796182 -0.2033432135758928 0 0.41817686344434529 -0.21227513058457689 0 0.43668230229238381 -0.22350637008244059 0 0.41142966707667078 -0.22457914509328861 0 0.43668230229238381 -0.22350637008244059 0 0.41142966707667078 -0.22457914509328861 0 0.43668230229238381 -0.22350637008244059 0 0.43091521936753963 -0.2397052581646118 0 0.41734239904806208 -0.23557923106810241 0 0.43668230229238381 -0.22350637008244059 0 0.43091521936753963 -0.2397052581646118 0 0.4445493520752809 -0.24362392838978561 0 0.43091521936753963 -0.2397052581646118 0 0.4445493520752809 -0.24362392838978561 0 0.42487471467306631 -0.25254106176477648 0 0.43091521936753963 -0.2397052581646118 0 0.41734239904806208 -0.23557923106810241 0 0.42487471467306631 -0.25254106176477648 0 0.40556661318540888 -0.2248282176216837 0 0.41734239904806208 -0.23557923106810241 0 0.40689060827226481 -0.24795724280871201 0 0.41734239904806208 -0.23557923106810241 0 0.40689060827226481 -0.24795724280871201 0 0.42487471467306631 -0.25254106176477648 0 0.40556661318540888 -0.2248282176216837 0 0.41734239904806208 -0.23557923106810241 0 0.41142966707667078 -0.22457914509328861 0 0.43668230229238381 -0.22350637008244059 0 0.41734239904806208 -0.23557923106810241 0 0.41142966707667078 -0.22457914509328861 0 0.40556661318540888 -0.2248282176216837 0 0.40485183683456261 -0.21234170586198209 0 0.41142966707667078 -0.22457914509328861 0 0.40556661318540888 -0.2248282176216837 0 0.41142966707667078 -0.22457914509328861 0 0.41734239904806208 -0.23557923106810241 0 0.41142966707667078 -0.22457914509328861 0 0.39494677345392692 -0.1240197142091248 0 0.40388521407891442 -0.121516164523489 0 0.4002559455390568 -0.13002838921691881 0 0.40388521407891442 -0.121516164523489 0 0.4002559455390568 -0.13002838921691881 0 0.40815593363760427 -0.13401921476705839 0 0.4002559455390568 -0.13002838921691881 0 0.40079431175906999 -0.13725169838757489 0 0.40815593363760427 -0.13401921476705839 0 0.40079431175906999 -0.13725169838757489 0 0.40687782038811288 -0.14110733330031081 0 0.40815593363760427 -0.13401921476705839 0 0.40079431175906999 -0.13725169838757489 0 0.39349749476576867 -0.1333351541973469 0 0.39248286869587212 -0.1419728766993413 0 0.4002559455390568 -0.13002838921691881 0 0.40079431175906999 -0.13725169838757489 0 0.39349749476576867 -0.1333351541973469 0 0.39494677345392692 -0.1240197142091248 0 0.39349749476576867 -0.1333351541973469 0 0.38697759410128679 -0.12815379228191839 0 0.39494677345392692 -0.1240197142091248 0 0.4002559455390568 -0.13002838921691881 0 0.39349749476576867 -0.1333351541973469 0 0.37686576360453372 -0.1211357040375335 0 0.38697759410128679 -0.12815379228191839 0 0.37981176137120132 -0.13273557370984679 0 0.37686576360453372 -0.1211357040375335 0 0.37278808461928231 -0.1272680189844361 0 0.37981176137120132 -0.13273557370984679 0 0.37981176137120132 -0.13273557370984679 0 0.38489589507057431 -0.13897798771399539 0 0.37578306528062838 -0.14392244025565151 0 0.39349749476576867 -0.1333351541973469 0 0.38697759410128679 -0.12815379228191839 0 0.38489589507057431 -0.13897798771399539 0 0.38697759410128679 -0.12815379228191839 0 0.37981176137120132 -0.13273557370984679 0 0.38489589507057431 -0.13897798771399539 0 0.39349749476576867 -0.1333351541973469 0 0.38489589507057431 -0.13897798771399539 0 0.39248286869587212 -0.1419728766993413 0 0.38489589507057431 -0.13897798771399539 0 0.38521564680861209 -0.14613891790553979 0 0.39248286869587212 -0.1419728766993413 0 0.38521564680861209 -0.14613891790553979 0 0.38954216032986733 -0.15030891024210299 0 0.39248286869587212 -0.1419728766993413 0 0.38954216032986733 -0.15030891024210299 0 0.40147944244304029 -0.15342895339297569 0 0.37754282573958953 -0.16153583957457099 0 0.38489589507057431 -0.13897798771399539 0 0.38521564680861209 -0.14613891790553979 0 0.37578306528062838 -0.14392244025565151 0 0.38521564680861209 -0.14613891790553979 0 0.37578306528062838 -0.14392244025565151 0 0.37987750795119962 -0.1509671820964166 0 0.37131387415073008 -0.152959546444704 0 0.37578306528062838 -0.14392244025565151 0 0.37987750795119962 -0.1509671820964166 0 0.37131387415073008 -0.152959546444704 0 0.37987750795119962 -0.1509671820964166 0 0.37754282573958953 -0.16153583957457099 0 0.37987750795119962 -0.1509671820964166 0 0.38954216032986733 -0.15030891024210299 0 0.37754282573958953 -0.16153583957457099 0 0.38521564680861209 -0.14613891790553979 0 0.37987750795119962 -0.1509671820964166 0 0.38954216032986733 -0.15030891024210299 0 0.38954216032986733 -0.15030891024210299 0 0.40101346634748553 -0.14528876242276789 0 0.40147944244304029 -0.15342895339297569 0 0.38954216032986733 -0.15030891024210299 0 0.39248286869587212 -0.1419728766993413 0 0.40101346634748553 -0.14528876242276789 0 0.40079431175906999 -0.13725169838757489 0 0.39248286869587212 -0.1419728766993413 0 0.40101346634748553 -0.14528876242276789 0 0.40101346634748553 -0.14528876242276789 0 0.40910892154172668 -0.15085555002264969 0 0.40687782038811288 -0.14110733330031081 0 0.40079431175906999 -0.13725169838757489 0 0.40101346634748553 -0.14528876242276789 0 0.40687782038811288 -0.14110733330031081 0 0.40147944244304029 -0.15342895339297569 0 0.40910892154172668 -0.15085555002264969 0 0.40101346634748553 -0.14528876242276789 0 0.40147944244304029 -0.15342895339297569 0 0.40101346634748553 -0.14528876242276789 0 0.40147944244304029 -0.15342895339297569 0 0.40910892154172668 -0.15085555002264969 0 0.40147944244304029 -0.15342895339297569 0 0.40248053434169351 -0.1709171449794899 0 0.39110714861806278 -0.16618669024897659 0 0.40147944244304029 -0.15342895339297569 0 0.40248053434169351 -0.1709171449794899 0 0.40147944244304029 -0.15342895339297569 0 0.40248053434169351 -0.1709171449794899 0 0.40910892154172668 -0.15085555002264969 0 0.40248053434169351 -0.1709171449794899 0 0.40910892154172668 -0.15085555002264969 0 0.40248053434169351 -0.1709171449794899 0 0.39110714861806278 -0.16618669024897659 0 0.39225751863534702 -0.17363997850418819 0 0.40147944244304029 -0.15342895339297569 0 0.39110714861806278 -0.16618669024897659 0 0.37754282573958953 -0.16153583957457099 0 0.40147944244304029 -0.15342895339297569 0 0.37754282573958953 -0.16153583957457099 0 0.37754282573958953 -0.16153583957457099 0 0.37513111742690558 -0.1691984917262436 0 0.38679192333419571 -0.17874292239556969 0 0.37754282573958953 -0.16153583957457099 0 0.38679192333419571 -0.17874292239556969 0 0.39110714861806278 -0.16618669024897659 0 0.37754282573958953 -0.16153583957457099 0 0.38679192333419571 -0.17874292239556969 0 0.39604102092880328 -0.19595000521656761 0 0.3886504682474341 -0.17871315639271679 0 0.38679192333419571 -0.17874292239556969 0 0.38902794454425232 -0.1894758479755147 0 0.37513111742690558 -0.1691984917262436 0 0.38679192333419571 -0.17874292239556969 0 0.38902794454425232 -0.1894758479755147 0 0.37513111742690558 -0.1691984917262436 0 0.37872011620464169 -0.18328392132332361 0 0.38902794454425232 -0.1894758479755147 0 0.37513111742690558 -0.1691984917262436 0 0.39110714861806278 -0.16618669024897659 0 0.38679192333419571 -0.17874292239556969 0 0.39225751863534702 -0.17363997850418819 0 0.3886504682474341 -0.17871315639271679 0 0.38679192333419571 -0.17874292239556969 0 0.39225751863534702 -0.17363997850418819 0 0.37328334200622321 -0.17877176139900941 0 0.37513111742690558 -0.1691984917262436 0 0.37872011620464169 -0.18328392132332361 0 0.37328334200622321 -0.17877176139900941 0 0.37872011620464169 -0.18328392132332361 0 0.37535382737803008 -0.18664519928840689 0 0.40373338270571468 -0.19280329973534979 0 0.39604102092880328 -0.19595000521656761 0 0.40261492857686593 -0.1732648936087175 0 0.39604102092880328 -0.19595000521656761 0 0.40261492857686593 -0.1732648936087175 0 0.40373338270571468 -0.19280329973534979 0 0.40261492857686593 -0.1732648936087175 0 0.41080159472122452 -0.18259747248292629 0 0.39604102092880328 -0.19595000521656761 0 0.3886504682474341 -0.17871315639271679 0 0.40261492857686593 -0.1732648936087175 0 0.40373338270571468 -0.19280329973534979 0 0.40261492857686593 -0.1732648936087175 0 0.39604102092880328 -0.19595000521656761 0 0.38679192333419571 -0.17874292239556969 0 0.40248053434169351 -0.1709171449794899 0 0.3886504682474341 -0.17871315639271679 0 0.39225751863534702 -0.17363997850418819 0 0.40248053434169351 -0.1709171449794899 0 0.3886504682474341 -0.17871315639271679 0 0.40261492857686593 -0.1732648936087175 0 0.40248053434169351 -0.1709171449794899 0 0.3886504682474341 -0.17871315639271679 0 0.40248053434169351 -0.1709171449794899 0 0.40261492857686593 -0.1732648936087175 0 0.41080159472122452 -0.18259747248292629 0 0.40248053434169351 -0.1709171449794899 0 0.40261492857686593 -0.1732648936087175 0 0.4258079010631628 -0.19882357621993391 0 0.41080159472122452 -0.18259747248292629 0 0.42365930552528841 -0.17725018294739839 0 0.40248053434169351 -0.1709171449794899 0 0.41080159472122452 -0.18259747248292629 0 0.42365930552528841 -0.17725018294739839 0 0.42365930552528841 -0.17725018294739839 0 0.44450593201042943 -0.16742102325965899 0 0.43785464722104012 -0.18677359868021109 0 0.42365930552528841 -0.17725018294739839 0 0.42571179431126122 -0.15782167843348349 0 0.44450593201042943 -0.16742102325965899 0 0.40248053434169351 -0.1709171449794899 0 0.42365930552528841 -0.17725018294739839 0 0.42571179431126122 -0.15782167843348349 0 0.40248053434169351 -0.1709171449794899 0 0.42571179431126122 -0.15782167843348349 0 0.40248053434169351 -0.1709171449794899 0 0.42571179431126122 -0.15782167843348349 0 0.40910892154172668 -0.15085555002264969 0 0.42571179431126122 -0.15782167843348349 0 0.40910892154172668 -0.15085555002264969 0 0.42424399533946938 -0.14575052916638481 0 0.40910892154172668 -0.15085555002264969 0 0.42424399533946938 -0.14575052916638481 0 0.415577206600455 -0.12853491877496179 0 0.40910892154172668 -0.15085555002264969 0 0.42424399533946938 -0.14575052916638481 0 0.42571179431126122 -0.15782167843348349 0 0.44796922831770891 -0.14527515780510639 0 0.42571179431126122 -0.15782167843348349 0 0.42424399533946938 -0.14575052916638481 0 0.43937906913721242 -0.1406455083101206 0 0.42424399533946938 -0.14575052916638481 0 0.43937906913721242 -0.1406455083101206 0 0.415577206600455 -0.12853491877496179 0 0.44274852810566762 -0.1268896095495331 0 0.43937906913721242 -0.1406455083101206 0 0.415577206600455 -0.12853491877496179 0 0.43937906913721242 -0.1406455083101206 0 0.42424399533946938 -0.14575052916638481 0 0.415577206600455 -0.12853491877496179 0 0.43937906913721242 -0.1406455083101206 0 0.40910892154172668 -0.15085555002264969 0 0.40687782038811288 -0.14110733330031081 0 0.415577206600455 -0.12853491877496179 0 0.40910892154172668 -0.15085555002264969 0 0.415577206600455 -0.12853491877496179 0 0.40687782038811288 -0.14110733330031081 0 0.415577206600455 -0.12853491877496179 0 0.40815593363760427 -0.13401921476705839 0 0.40388521407891442 -0.121516164523489 0 0.415577206600455 -0.12853491877496179 0 0.40815593363760427 -0.13401921476705839 0 0.40388521407891442 -0.121516164523489 0 0.415577206600455 -0.12853491877496179 0 0.415577206600455 -0.12853491877496179 0 0.40815593363760427 -0.13401921476705839 0 0.45376137622550272 -0.13579439369858101 0 0.44796922831770891 -0.14527515780510639 0 0.47398461415885129 -0.13061027886998319 0 0.44796922831770891 -0.14527515780510639 0 0.47398461415885129 -0.13061027886998319 0 0.45657130999333112 -0.12109394348632541 0 0.45376137622550272 -0.13579439369858101 0 0.47398461415885129 -0.13061027886998319 0 0.45657130999333112 -0.12109394348632541 0 0.45376137622550272 -0.13579439369858101 0 0.44274852810566762 -0.1268896095495331 0 0.45376137622550272 -0.13579439369858101 0 0.44274852810566762 -0.1268896095495331 0 0.43937906913721242 -0.1406455083101206 0 0.45376137622550272 -0.13579439369858101 0 0.44796922831770891 -0.14527515780510639 0 0.43937906913721242 -0.1406455083101206 0 0.45376137622550272 -0.13579439369858101 0 0.43937906913721242 -0.1406455083101206 0 0.42571179431126122 -0.15782167843348349 0 0.44796922831770891 -0.14527515780510639 0 0.43937906913721242 -0.1406455083101206 0 0.44796922831770891 -0.14527515780510639 0 0.46135073717141689 -0.15248709583849221 0 0.44450593201042943 -0.16742102325965899 0 0.44796922831770891 -0.14527515780510639 0 0.43937906913721242 -0.1406455083101206 0 0.44796922831770891 -0.14527515780510639 0 0.46135073717141689 -0.15248709583849221 0 0.47398461415885129 -0.13061027886998319 0 0.44796922831770891 -0.14527515780510639 0 0.46135073717141689 -0.15248709583849221 0 0.46135073717141689 -0.15248709583849221 0 0.47473224602512448 -0.15969903387187889 0 0.46135073717141689 -0.15248709583849221 0 0.46125403253961922 -0.16868696722471019 0 0.44450593201042943 -0.16742102325965899 0 0.46135073717141689 -0.15248709583849221 0 0.46125403253961922 -0.16868696722471019 0 0.47473224602512448 -0.15969903387187889 0 0.42571179431126122 -0.15782167843348349 0 0.44796922831770891 -0.14527515780510639 0 0.44450593201042943 -0.16742102325965899 0 0.44450593201042943 -0.16742102325965899 0 0.43785464722104012 -0.18677359868021109 0 0.45475991394809379 -0.1859628904152904 0 0.46125403253961922 -0.16868696722471019 0 0.45475991394809379 -0.1859628904152904 0 0.47600103732878313 -0.18264623491896451 0 0.46125403253961922 -0.16868696722471019 0 0.44450593201042943 -0.16742102325965899 0 0.45475991394809379 -0.1859628904152904 0 0.47600103732878313 -0.18264623491896451 0 0.5 -0.17499020818995689 0 0.47473224602512448 -0.15969903387187889 0 0.47600103732878313 -0.18264623491896451 0 0.5 -0.17499020818995689 0 0.5 -0.20451261231750431 0 0.5 -0.17499020818995689 0 0.47473224602512448 -0.15969903387187889 0 0.5 -0.14546780406240931 0 0.46125403253961922 -0.16868696722471019 0 0.47600103732878313 -0.18264623491896451 0 0.47473224602512448 -0.15969903387187889 0 0.47473224602512448 -0.15969903387187889 0 0.47393080199963572 -0.14516564716062741 0 0.5 -0.14546780406240931 0 0.46135073717141689 -0.15248709583849221 0 0.47393080199963572 -0.14516564716062741 0 0.47398461415885129 -0.13061027886998319 0 0.46135073717141689 -0.15248709583849221 0 0.47473224602512448 -0.15969903387187889 0 0.47393080199963572 -0.14516564716062741 0 0.49999999999999462 -0.1159453999348619 0 0.5 -0.14546780406240931 0 0.47398461415885129 -0.13061027886998319 0 0.47393080199963572 -0.14516564716062741 0 0.5 -0.14546780406240931 0 0.47398461415885129 -0.13061027886998319 0 0.46193493750809678 -0.2224335950715941 0 0.46725533199856678 -0.24432334934514141 0 0.47535291777786709 -0.232116099264702 0 0.46725533199856678 -0.24432334934514141 0 0.4445493520752809 -0.24362392838978561 0 0.45842625532968723 -0.26178104953705789 0 0.46193493750809678 -0.2224335950715941 0 0.46725533199856678 -0.24432334934514141 0 0.4445493520752809 -0.24362392838978561 0 0.43668230229238381 -0.22350637008244059 0 0.46193493750809678 -0.2224335950715941 0 0.43668230229238381 -0.22350637008244059 0 0.46193493750809678 -0.2224335950715941 0 0.4445493520752809 -0.24362392838978561 0 0.43668230229238381 -0.22350637008244059 0 0.46193493750809678 -0.2224335950715941 0 0.44654920388796182 -0.2033432135758928 0 0.43785464722104012 -0.18677359868021109 0 0.45475991394809379 -0.1859628904152904 0 0.44654920388796182 -0.2033432135758928 0 0.45475991394809379 -0.1859628904152904 0 0.44654920388796182 -0.2033432135758928 0 0.47034728797596398 -0.20341782246757159 0 0.45475991394809379 -0.1859628904152904 0 0.47600103732878313 -0.18264623491896451 0 0.47034728797596398 -0.20341782246757159 0 0.46193493750809678 -0.2224335950715941 0 0.44654920388796182 -0.2033432135758928 0 0.47034728797596398 -0.20341782246757159 0 0.46193493750809678 -0.2224335950715941 0 0.47034728797596398 -0.20341782246757159 0 0.48283863518284897 -0.22160838850618331 0 0.47600103732878313 -0.18264623491896451 0 0.47034728797596398 -0.20341782246757159 0 0.5 -0.20451261231750431 0 0.47034728797596398 -0.20341782246757159 0 0.5 -0.20451261231750431 0 0.48283863518284897 -0.22160838850618331 0 0.5 -0.20451261231750431 0 0.5 -0.23403501644505181 0 0.48283863518284897 -0.22160838850618331 0 0.5 -0.23403501644505181 0 0.48283863518284897 -0.22160838850618331 0 0.48938276642195577 -0.2400990641358893 0 0.47535291777786709 -0.232116099264702 0 0.48283863518284897 -0.22160838850618331 0 0.48938276642195577 -0.2400990641358893 0 0.46193493750809678 -0.2224335950715941 0 0.47535291777786709 -0.232116099264702 0 0.48283863518284897 -0.22160838850618331 0 0.46725533199856678 -0.24432334934514141 0 0.47535291777786709 -0.232116099264702 0 0.48938276642195577 -0.2400990641358893 0 0.46725533199856678 -0.24432334934514141 0 0.48938276642195577 -0.2400990641358893 0 0.47783824071013759 -0.26420977644739019 0 0.5 -0.23403501644505181 0 0.48938276642195577 -0.2400990641358893 0 0.5 -0.26355742057259912 0 0.48938276642195577 -0.2400990641358893 0 0.5 -0.26355742057259912 0 0.47783824071013759 -0.26420977644739019 0 0.5 -0.26355742057259912 0 0.5 -0.29307982470014637 0 0.48466948071440907 -0.2836988572123621 0 0.5 -0.26355742057259912 0 0.47783824071013759 -0.26420977644739019 0 0.48466948071440907 -0.2836988572123621 0 0.47783824071013759 -0.26420977644739019 0 0.4662937149983194 -0.28832048875889121 0 0.47783824071013759 -0.26420977644739019 0 0.4662937149983194 -0.28832048875889121 0 0.48466948071440907 -0.2836988572123621 0 0.48938276642195577 -0.2400990641358893 0 0.47783824071013759 -0.26420977644739019 0 0.46725533199856678 -0.24432334934514141 0 0.47783824071013759 -0.26420977644739019 0 0.45842625532968723 -0.26178104953705789 0 0.45842625532968723 -0.26178104953705789 0 0.45017306697353038 -0.27703062734927508 0 0.4662937149983194 -0.28832048875889121 0 0.47783824071013759 -0.26420977644739019 0 0.45842625532968723 -0.26178104953705789 0 0.4662937149983194 -0.28832048875889121 0 0.45017306697353038 -0.27703062734927508 0 0.43905483251151939 -0.26451452147134852 0 0.43575508507949778 -0.29123841979546172 0 0.45842625532968723 -0.26178104953705789 0 0.45017306697353038 -0.27703062734927508 0 0.43905483251151939 -0.26451452147134852 0 0.4445493520752809 -0.24362392838978561 0 0.45842625532968723 -0.26178104953705789 0 0.43905483251151939 -0.26451452147134852 0 0.4662937149983194 -0.28832048875889121 0 0.45474918928650121 -0.31243120107039207 0 0.43575508507949778 -0.29123841979546172 0 0.45474918928650121 -0.31243120107039207 0 0.4336446701403549 -0.31668954992378417 0 0.43575508507949778 -0.29123841979546172 0 0.45017306697353038 -0.27703062734927508 0 0.4662937149983194 -0.28832048875889121 0 0.43575508507949778 -0.29123841979546172 0 0.4662937149983194 -0.28832048875889121 0 0.45474918928650121 -0.31243120107039207 0 0.4792154478635885 -0.3093267755827836 0 0.4662937149983194 -0.28832048875889121 0 0.45474918928650121 -0.31243120107039207 0 0.4662937149983194 -0.28832048875889121 0 0.4792154478635885 -0.3093267755827836 0 0.48466948071440907 -0.2836988572123621 0 0.4792154478635885 -0.3093267755827836 0 0.5 -0.29307982470014637 0 0.48466948071440907 -0.2836988572123621 0 0.4792154478635885 -0.3093267755827836 0 0.5 -0.29307982470014637 0 0.5 -0.32260222882769368 0 0.4792154478635885 -0.3093267755827836 0 0.5 -0.32260222882769368 0 0.47264130723783992 -0.3450099758473808 0 0.4792154478635885 -0.3093267755827836 0 0.47264130723783992 -0.3450099758473808 0 0.45901864448765872 -0.32824103692439399 0 0.5 -0.32260222882769368 0 0.49999999999999939 -0.3521246329552411 0 0.47264130723783992 -0.3450099758473808 0 0.49999999999999939 -0.3521246329552411 0 0.48123352696439331 -0.37165900740954161 0 0.5 -0.38084347893954412 0 0.49999999999999939 -0.3521246329552411 0 0.47264130723783992 -0.3450099758473808 0 0.48123352696439331 -0.37165900740954161 0 0.49999999999999939 -0.3521246329552411 0 0.47264130723783992 -0.3450099758473808 0 0.48123352696439331 -0.37165900740954161 0 0.46353382943363058 -0.36432130766360321 0 0.46571685534002061 -0.38424204456525901 0 0.47264130723783992 -0.3450099758473808 0 0.48123352696439331 -0.37165900740954161 0 0.46353382943363058 -0.36432130766360321 0 0.46353382943363058 -0.36432130766360321 0 0.44775924171781628 -0.36183720915411122 0 0.45307228729866922 -0.37579183804417909 0 0.46353382943363058 -0.36432130766360321 0 0.46571685534002061 -0.38424204456525901 0 0.45307228729866922 -0.37579183804417909 0 0.47264130723783992 -0.3450099758473808 0 0.45405103929624269 -0.35161072654921138 0 0.44528261447568063 -0.33789531873952039 0 0.47264130723783992 -0.3450099758473808 0 0.46353382943363058 -0.36432130766360321 0 0.45405103929624269 -0.35161072654921138 0 0.46353382943363058 -0.36432130766360321 0 0.45405103929624269 -0.35161072654921138 0 0.44775924171781628 -0.36183720915411122 0 0.45405103929624269 -0.35161072654921138 0 0.4387576743493371 -0.35103000512275612 0 0.44528261447568063 -0.33789531873952039 0 0.4387576743493371 -0.35103000512275612 0 0.44775924171781628 -0.36183720915411122 0 0.43628038374812012 -0.36479820894947718 0 0.45405103929624269 -0.35161072654921138 0 0.4387576743493371 -0.35103000512275612 0 0.44775924171781628 -0.36183720915411122 0 0.44775924171781628 -0.36183720915411122 0 0.44377715230595621 -0.37067774583801122 0 0.43628038374812012 -0.36479820894947718 0 0.44377715230595621 -0.37067774583801122 0 0.43628038374812012 -0.36479820894947718 0 0.43553476900679627 -0.37752334212522121 0 0.44775924171781628 -0.36183720915411122 0 0.44377715230595621 -0.37067774583801122 0 0.45307228729866922 -0.37579183804417909 0 0.45474918928650121 -0.31243120107039207 0 0.4792154478635885 -0.3093267755827836 0 0.45901864448765872 -0.32824103692439399 0 0.47264130723783992 -0.3450099758473808 0 0.45901864448765872 -0.32824103692439399 0 0.44528261447568063 -0.33789531873952039 0 0.47264130723783992 -0.3450099758473808 0 0.44528261447568063 -0.33789531873952039 0 0.45901864448765872 -0.32824103692439399 0 0.44320466357468302 -0.33654191338189299 0 0.44528261447568063 -0.33789531873952039 0 0.45474918928650121 -0.31243120107039207 0 0.44320466357468302 -0.33654191338189299 0 0.4336446701403549 -0.31668954992378417 0 0.45474918928650121 -0.31243120107039207 0 0.45901864448765872 -0.32824103692439399 0 0.44320466357468302 -0.33654191338189299 0 0.45474918928650121 -0.31243120107039207 0 0.44320466357468302 -0.33654191338189299 0 0.44320466357468302 -0.33654191338189299 0 0.4336446701403549 -0.31668954992378417 0 0.41792392171352127 -0.33078066163165998 0 0.44320466357468302 -0.33654191338189299 0 0.44528261447568063 -0.33789531873952039 0 0.41792392171352127 -0.33078066163165998 0 0.44528261447568063 -0.33789531873952039 0 0.41792392171352127 -0.33078066163165998 0 0.42467759923128479 -0.34474819273816709 0 0.44528261447568063 -0.33789531873952039 0 0.41792392171352127 -0.33078066163165998 0 0.41792392171352127 -0.33078066163165998 0 0.42467759923128479 -0.34474819273816709 0 0.40562196924094202 -0.34100488958485969 0 0.41792392171352127 -0.33078066163165998 0 0.39056522895136209 -0.32366600452379962 0 0.41363258076658821 -0.30885180364928522 0 0.4336446701403549 -0.31668954992378417 0 0.41792392171352127 -0.33078066163165998 0 0.41363258076658821 -0.30885180364928522 0 0.42637509136385432 -0.36911132125809543 0 0.41764847218877837 -0.37253471361006357 0 0.42440500032630812 -0.38043364511388122 0 0.42637509136385432 -0.36911132125809543 0 0.43628038374812012 -0.36479820894947718 0 0.43553476900679627 -0.37752334212522121 0 0.42637509136385432 -0.36911132125809543 0 0.43628038374812012 -0.36479820894947718 0 0.42663559362756159 -0.35679586178333628 0 0.42637509136385432 -0.36911132125809543 0 0.42663559362756159 -0.35679586178333628 0 0.41799901601511319 -0.36314809306121182 0 0.4387576743493371 -0.35103000512275612 0 0.44528261447568063 -0.33789531873952039 0 0.42467759923128479 -0.34474819273816709 0 0.4387576743493371 -0.35103000512275612 0 0.43628038374812012 -0.36479820894947718 0 0.42663559362756159 -0.35679586178333628 0 0.4387576743493371 -0.35103000512275612 0 0.42663559362756159 -0.35679586178333628 0 0.42467759923128479 -0.34474819273816709 0 0.42467759923128479 -0.34474819273816709 0 0.41334709943431519 -0.35293430459796699 0 0.40562196924094202 -0.34100488958485969 0 0.42663559362756159 -0.35679586178333628 0 0.42467759923128479 -0.34474819273816709 0 0.41334709943431519 -0.35293430459796699 0 0.42663559362756159 -0.35679586178333628 0 0.41334709943431519 -0.35293430459796699 0 0.41799901601511319 -0.36314809306121182 0 0.41334709943431519 -0.35293430459796699 0 0.41799901601511319 -0.36314809306121182 0 0.40720171976290348 -0.36708076211076629 0 0.40720171976290348 -0.36708076211076629 0 0.41764847218877837 -0.37253471361006357 0 0.41149530494241537 -0.38060730238852553 0 0.42637509136385432 -0.36911132125809543 0 0.41799901601511319 -0.36314809306121182 0 0.41764847218877837 -0.37253471361006357 0 0.41799901601511319 -0.36314809306121182 0 0.40720171976290348 -0.36708076211076629 0 0.41764847218877837 -0.37253471361006357 0 0.40720171976290348 -0.36708076211076629 0 0.39427371030200481 -0.36867441547056728 0 0.40091453876649458 -0.37928518975437692 0 0.40720171976290348 -0.36708076211076629 0 0.39427371030200481 -0.36867441547056728 0 0.39668478004298569 -0.35371175704606139 0 0.39427371030200481 -0.36867441547056728 0 0.39668478004298569 -0.35371175704606139 0 0.3832641939312722 -0.36250911637910521 0 0.41334709943431519 -0.35293430459796699 0 0.39668478004298569 -0.35371175704606139 0 0.40562196924094202 -0.34100488958485969 0 0.41334709943431519 -0.35293430459796699 0 0.40720171976290348 -0.36708076211076629 0 0.39668478004298569 -0.35371175704606139 0 0.39668478004298569 -0.35371175704606139 0 0.40562196924094202 -0.34100488958485969 0 0.3905331860721834 -0.34018841697150298 0 0.39668478004298569 -0.35371175704606139 0 0.38193831805183248 -0.34997790357193581 0 0.3905331860721834 -0.34018841697150298 0 0.38193831805183248 -0.34997790357193581 0 0.37735891152744411 -0.33453341516195467 0 0.36825963417439028 -0.34901480271742702 0 0.38193831805183248 -0.34997790357193581 0 0.3832641939312722 -0.36250911637910521 0 0.37157950236875409 -0.36012735171375748 0 0.39668478004298569 -0.35371175704606139 0 0.38193831805183248 -0.34997790357193581 0 0.3832641939312722 -0.36250911637910521 0 0.3832641939312722 -0.36250911637910521 0 0.37567823603549211 -0.36999042542847133 0 0.37157950236875409 -0.36012735171375748 0 0.3832641939312722 -0.36250911637910521 0 0.37567823603549211 -0.36999042542847133 0 0.38362211861446721 -0.3738630027147265 0 0.39427371030200481 -0.36867441547056728 0 0.38362211861446721 -0.3738630027147265 0 0.39032384268800041 -0.38218046263805511 0 0.39427371030200481 -0.36867441547056728 0 0.3832641939312722 -0.36250911637910521 0 0.38362211861446721 -0.3738630027147265 0 0.41792392171352127 -0.33078066163165998 0 0.39056522895136209 -0.32366600452379962 0 0.40562196924094202 -0.34100488958485969 0 0.3905331860721834 -0.34018841697150298 0 0.39056522895136209 -0.32366600452379962 0 0.41792392171352127 -0.33078066163165998 0 0.40562196924094202 -0.34100488958485969 0 0.39056522895136209 -0.32366600452379962 0 0.3905331860721834 -0.34018841697150298 0 0.37735891152744411 -0.33453341516195467 0 0.39056522895136209 -0.32366600452379962 0 0.38193831805183248 -0.34997790357193581 0 0.3905331860721834 -0.34018841697150298 0 0.37735891152744411 -0.33453341516195467 0 0.37735891152744411 -0.33453341516195467 0 0.39056522895136209 -0.32366600452379962 0 0.3632065361892029 -0.31655134741593921 0 0.39056522895136209 -0.32366600452379962 0 0.3632065361892029 -0.31655134741593921 0 0.39056522895136209 -0.32366600452379962 0 0.39210312766323507 -0.30353925006081511 0 0.3632065361892029 -0.31655134741593921 0 0.39210312766323507 -0.30353925006081511 0 0.3767528609114188 -0.28960147930407859 0 0.3632065361892029 -0.31655134741593921 0 0.39056522895136209 -0.32366600452379962 0 0.39210312766323507 -0.30353925006081511 0 0.41363258076658821 -0.30885180364928522 0 0.39210312766323507 -0.30353925006081511 0 0.41363258076658821 -0.30885180364928522 0 0.40684671578753112 -0.28756231196864618 0 0.3767528609114188 -0.28960147930407859 0 0.39889620701084688 -0.26776423180392023 0 0.40684671578753112 -0.28756231196864618 0 0.39210312766323507 -0.30353925006081511 0 0.3767528609114188 -0.28960147930407859 0 0.40684671578753112 -0.28756231196864618 0 0.3767528609114188 -0.28960147930407859 0 0.37606166476206682 -0.26381386404263057 0 0.39889620701084688 -0.26776423180392023 0 0.37542801630718597 -0.24424478341264069 0 0.39041340754710391 -0.25242483563399082 0 0.37606166476206682 -0.26381386404263057 0 0.39041340754710391 -0.25242483563399082 0 0.37606166476206682 -0.26381386404263057 0 0.39889620701084688 -0.26776423180392023 0 0.40689060827226481 -0.24795724280871201 0 0.39041340754710391 -0.25242483563399082 0 0.39889620701084688 -0.26776423180392023 0 0.39889620701084688 -0.26776423180392023 0 0.42030319137866329 -0.27233855425681042 0 0.40684671578753112 -0.28756231196864618 0 0.39889620701084688 -0.26776423180392023 0 0.42030319137866329 -0.27233855425681042 0 0.41310967129566212 -0.26024524189595011 0 0.40689060827226481 -0.24795724280871201 0 0.39889620701084688 -0.26776423180392023 0 0.41310967129566212 -0.26024524189595011 0 0.40689060827226481 -0.24795724280871201 0 0.41310967129566212 -0.26024524189595011 0 0.42487471467306631 -0.25254106176477648 0 0.42030319137866329 -0.27233855425681042 0 0.41310967129566212 -0.26024524189595011 0 0.42487471467306631 -0.25254106176477648 0 0.4445493520752809 -0.24362392838978561 0 0.43905483251151939 -0.26451452147134852 0 0.42487471467306631 -0.25254106176477648 0 0.43905483251151939 -0.26451452147134852 0 0.42030319137866329 -0.27233855425681042 0 0.42487471467306631 -0.25254106176477648 0 0.43905483251151939 -0.26451452147134852 0 0.42030319137866329 -0.27233855425681042 0 0.43575508507949778 -0.29123841979546172 0 0.4336446701403549 -0.31668954992378417 0 0.43575508507949778 -0.29123841979546172 0 0.41363258076658821 -0.30885180364928522 0 0.43575508507949778 -0.29123841979546172 0 0.41363258076658821 -0.30885180364928522 0 0.40684671578753112 -0.28756231196864618 0 0.42030319137866329 -0.27233855425681042 0 0.43575508507949778 -0.29123841979546172 0 0.40684671578753112 -0.28756231196864618 0 0.45005198730438151 -0.49999999999999928 0 0.43886475365449151 -0.47620029772301709 0 0.4288715310128226 -0.5 0 0.45005198730438151 -0.49999999999999928 0 0.43886475365449151 -0.47620029772301709 0 0.45531035727090219 -0.48096644111770398 0 0.43886475365449151 -0.47620029772301709 0 0.45531035727090219 -0.48096644111770398 0 0.45957331304721472 -0.46365926791261319 0 0.45531035727090219 -0.48096644111770398 0 0.4727513750775213 -0.48400619883518559 0 0.45957331304721472 -0.46365926791261319 0 0.45005198730438151 -0.49999999999999928 0 0.47222228368675262 -0.50000000000000111 0 0.4727513750775213 -0.48400619883518559 0 0.45005198730438151 -0.49999999999999928 0 0.45531035727090219 -0.48096644111770398 0 0.4727513750775213 -0.48400619883518559 0 0.45005198730438151 -0.49999999999999928 0 0.4727513750775213 -0.48400619883518559 0 0.5 -0.5 0 0.48383652326870802 -0.48400619883518758 0 0.49545076285066197 -0.46801239767037311 0 0.47222228368675262 -0.50000000000000111 0 0.48383652326870802 -0.48400619883518758 0 0.4727513750775213 -0.48400619883518559 0 0.47222228368675262 -0.50000000000000111 0 0.48383652326870802 -0.48400619883518758 0 0.5 -0.5 0 0.50000000000000056 -0.46480704274427082 0 0.49545076285066197 -0.46801239767037311 0 0.47222228368675262 -0.50000000000000111 0 0.5 -0.5 0 0.48383652326870802 -0.48400619883518758 0 0.48383652326870802 -0.48400619883518758 0 0.49545076285066197 -0.46801239767037311 0 0.4727513750775213 -0.48400619883518559 0 0.47856763741229902 -0.46417563399869682 0 0.49545076285066197 -0.46801239767037311 0 0.4727513750775213 -0.48400619883518559 0 0.49545076285066197 -0.46801239767037311 0 0.48383652326870802 -0.48400619883518758 0 0.4727513750775213 -0.48400619883518559 0 0.49545076285066197 -0.46801239767037311 0 0.4727513750775213 -0.48400619883518559 0 0.47856763741229902 -0.46417563399869682 0 0.45957331304721472 -0.46365926791261319 0 0.47856763741229902 -0.46417563399869682 0 0.47685701211954967 -0.44723315436007871 0 0.45957331304721472 -0.46365926791261319 0 0.47856763741229902 -0.46417563399869682 0 0.48820572396654682 -0.45796715121523252 0 0.47685701211954967 -0.44723315436007871 0 0.47856763741229902 -0.46417563399869682 0 0.48820572396654682 -0.45796715121523252 0 0.49545076285066197 -0.46801239767037311 0 0.48820572396654682 -0.45796715121523252 0 0.50000000000000022 -0.46174770906078633 0 0.49545076285066197 -0.46801239767037311 0 0.50000000000000056 -0.46480704274427082 0 0.49545076285066197 -0.46801239767037311 0 0.50000000000000056 -0.46480704274427082 0 0.50000000000000022 -0.46174770906078633 0 0.49545076285066197 -0.46801239767037311 0 0.50000000000000022 -0.46174770906078633 0 0.49545076285066197 -0.46801239767037311 0 0.48820572396654682 -0.45796715121523252 0 0.47685701211954967 -0.44723315436007871 0 0.5 -0.43565501699231668 0 0.48820572396654682 -0.45796715121523252 0 0.50000000000000022 -0.46174770906078633 0 0.5 -0.43565501699231668 0 0.47685701211954967 -0.44723315436007871 0 0.45957331304721472 -0.46365926791261319 0 0.45803711742710329 -0.43682155513913112 0 0.43886475365449151 -0.47620029772301709 0 0.45957331304721472 -0.46365926791261319 0 0.43705567614065399 -0.45045117024677273 0 0.45803711742710329 -0.43682155513913112 0 0.43705567614065399 -0.45045117024677273 0 0.45957331304721472 -0.46365926791261319 0 0.45803711742710329 -0.43682155513913112 0 0.43705567614065399 -0.45045117024677273 0 0.45803711742710329 -0.43682155513913112 0 0.43261887609655109 -0.43196334869323239 0 0.43705567614065399 -0.45045117024677273 0 0.44724619356567008 -0.41720532962959589 0 0.45803711742710329 -0.43682155513913112 0 0.43261887609655109 -0.43196334869323239 0 0.44724619356567008 -0.41720532962959589 0 0.44238076263960691 -0.39951734257325427 0 0.42951797654975937 -0.40244210649619488 0 0.44724619356567008 -0.41720532962959589 0 0.4639497682670517 -0.41558785538763171 0 0.4571691852498988 -0.40118712405736479 0 0.45803711742710329 -0.43682155513913112 0 0.47901855871355259 -0.42319194003148952 0 0.4639497682670517 -0.41558785538763171 0 0.45803711742710329 -0.43682155513913112 0 0.47901855871355259 -0.42319194003148952 0 0.44724619356567008 -0.41720532962959589 0 0.4639497682670517 -0.41558785538763171 0 0.45803711742710329 -0.43682155513913112 0 0.47685701211954967 -0.44723315436007871 0 0.45803711742710329 -0.43682155513913112 0 0.47901855871355259 -0.42319194003148952 0 0.47685701211954967 -0.44723315436007871 0 0.47901855871355259 -0.42319194003148952 0 0.5 -0.43565501699231668 0 0.47901855871355259 -0.42319194003148952 0 0.5 -0.43565501699231668 0 0.50000000000000155 -0.40956232492384731 0 0.47901855871355259 -0.42319194003148952 0 0.50000000000000155 -0.40956232492384731 0 0.47901855871355259 -0.42319194003148952 0 0.50000000000000155 -0.40956232492384731 0 0.47827778637903401 -0.39953332808057701 0 0.4639497682670517 -0.41558785538763171 0 0.47901855871355259 -0.42319194003148952 0 0.47827778637903401 -0.39953332808057701 0 0.50000000000000155 -0.40956232492384731 0 0.47827778637903401 -0.39953332808057701 0 0.5 -0.38084347893954412 0 0.48123352696439331 -0.37165900740954161 0 0.47827778637903401 -0.39953332808057701 0 0.5 -0.38084347893954412 0 0.48123352696439331 -0.37165900740954161 0 0.47827778637903401 -0.39953332808057701 0 0.46571685534002061 -0.38424204456525901 0 0.46571685534002061 -0.38424204456525901 0 0.45307228729866922 -0.37579183804417909 0 0.44567927788618911 -0.38687248147298842 0 0.47827778637903401 -0.39953332808057701 0 0.46571685534002061 -0.38424204456525901 0 0.4571691852498988 -0.40118712405736479 0 0.46571685534002061 -0.38424204456525901 0 0.4571691852498988 -0.40118712405736479 0 0.44567927788618911 -0.38687248147298842 0 0.4639497682670517 -0.41558785538763171 0 0.47827778637903401 -0.39953332808057701 0 0.4571691852498988 -0.40118712405736479 0 0.4571691852498988 -0.40118712405736479 0 0.44238076263960691 -0.39951734257325427 0 0.44567927788618911 -0.38687248147298842 0 0.44724619356567008 -0.41720532962959589 0 0.4571691852498988 -0.40118712405736479 0 0.44238076263960691 -0.39951734257325427 0 0.44238076263960691 -0.39951734257325427 0 0.44567927788618911 -0.38687248147298842 0 0.43286406222488399 -0.38975935600302802 0 0.44567927788618911 -0.38687248147298842 0 0.43553476900679627 -0.37752334212522121 0 0.43286406222488399 -0.38975935600302802 0 0.44377715230595621 -0.37067774583801122 0 0.45307228729866922 -0.37579183804417909 0 0.44567927788618911 -0.38687248147298842 0 0.44377715230595621 -0.37067774583801122 0 0.44567927788618911 -0.38687248147298842 0 0.43553476900679627 -0.37752334212522121 0 0.42440500032630812 -0.38043364511388122 0 0.43286406222488399 -0.38975935600302802 0 0.4196665869406444 -0.39176721823662858 0 0.42637509136385432 -0.36911132125809543 0 0.42440500032630812 -0.38043364511388122 0 0.43553476900679627 -0.37752334212522121 0 0.42440500032630812 -0.38043364511388122 0 0.43553476900679627 -0.37752334212522121 0 0.43286406222488399 -0.38975935600302802 0 0.44238076263960691 -0.39951734257325427 0 0.43286406222488399 -0.38975935600302802 0 0.42951797654975937 -0.40244210649619488 0 0.43286406222488399 -0.38975935600302802 0 0.42951797654975937 -0.40244210649619488 0 0.4196665869406444 -0.39176721823662858 0 0.42951797654975937 -0.40244210649619488 0 0.4196665869406444 -0.39176721823662858 0 0.41555071856760811 -0.40033971003933849 0 0.4196665869406444 -0.39176721823662858 0 0.41555071856760811 -0.40033971003933849 0 0.40750795179868532 -0.39080482612725159 0 0.42951797654975937 -0.40244210649619488 0 0.41555071856760811 -0.40033971003933849 0 0.41797954369629958 -0.41466694489491351 0 0.41555071856760811 -0.40033971003933849 0 0.40308153385265172 -0.40201745444170389 0 0.41797954369629958 -0.41466694489491351 0 0.41555071856760811 -0.40033971003933849 0 0.40750795179868532 -0.39080482612725159 0 0.40308153385265172 -0.40201745444170389 0 0.40750795179868532 -0.39080482612725159 0 0.41149530494241537 -0.38060730238852553 0 0.40091453876649458 -0.37928518975437692 0 0.4196665869406444 -0.39176721823662858 0 0.40750795179868532 -0.39080482612725159 0 0.41149530494241537 -0.38060730238852553 0 0.42440500032630812 -0.38043364511388122 0 0.4196665869406444 -0.39176721823662858 0 0.41149530494241537 -0.38060730238852553 0 0.41764847218877837 -0.37253471361006357 0 0.42440500032630812 -0.38043364511388122 0 0.41149530494241537 -0.38060730238852553 0 0.40720171976290348 -0.36708076211076629 0 0.41149530494241537 -0.38060730238852553 0 0.40091453876649458 -0.37928518975437692 0 0.40750795179868532 -0.39080482612725159 0 0.40091453876649458 -0.37928518975437692 0 0.39687383188780689 -0.39111269738066151 0 0.39032384268800041 -0.38218046263805511 0 0.38612042980930678 -0.39284869231088743 0 0.39687383188780689 -0.39111269738066151 0 0.40091453876649458 -0.37928518975437692 0 0.39032384268800041 -0.38218046263805511 0 0.39687383188780689 -0.39111269738066151 0 0.39427371030200481 -0.36867441547056728 0 0.40091453876649458 -0.37928518975437692 0 0.39032384268800041 -0.38218046263805511 0 0.38362211861446721 -0.3738630027147265 0 0.39032384268800041 -0.38218046263805511 0 0.37707264241916122 -0.38283281262878671 0 0.39032384268800041 -0.38218046263805511 0 0.37707264241916122 -0.38283281262878671 0 0.38612042980930678 -0.39284869231088743 0 0.37567823603549211 -0.36999042542847133 0 0.38362211861446721 -0.3738630027147265 0 0.37707264241916122 -0.38283281262878671 0 0.37707264241916122 -0.38283281262878671 0 0.37746906297296168 -0.39892965160687188 0 0.38612042980930678 -0.39284869231088743 0 0.37746906297296168 -0.39892965160687188 0 0.38612042980930678 -0.39284869231088743 0 0.39113982935509578 -0.4002371933415752 0 0.37746906297296168 -0.39892965160687188 0 0.39113982935509578 -0.4002371933415752 0 0.38871289382692931 -0.41212856016023097 0 0.39113982935509578 -0.4002371933415752 0 0.40308153385265172 -0.40201745444170389 0 0.38871289382692931 -0.41212856016023097 0 0.38612042980930678 -0.39284869231088743 0 0.39113982935509578 -0.4002371933415752 0 0.39687383188780689 -0.39111269738066151 0 0.39113982935509578 -0.4002371933415752 0 0.39687383188780689 -0.39111269738066151 0 0.40308153385265172 -0.40201745444170389 0 0.40750795179868532 -0.39080482612725159 0 0.39687383188780689 -0.39111269738066151 0 0.40308153385265172 -0.40201745444170389 0 0.40317164730482041 -0.41849854760895838 0 0.38871289382692931 -0.41212856016023097 0 0.38148090559375247 -0.43039085933795518 0 0.38871289382692931 -0.41212856016023097 0 0.41797954369629958 -0.41466694489491351 0 0.40308153385265172 -0.40201745444170389 0 0.38871289382692931 -0.41212856016023097 0 0.41797954369629958 -0.41466694489491351 0 0.40317164730482041 -0.41849854760895838 0 0.38871289382692931 -0.41212856016023097 0 0.41797954369629958 -0.41466694489491351 0 0.38871289382692931 -0.41212856016023097 0 0.38148090559375247 -0.43039085933795518 0 0.37413221522333429 -0.41983262985285352 0 0.37746906297296168 -0.39892965160687188 0 0.38871289382692931 -0.41212856016023097 0 0.35944624395755881 -0.40959017542554882 0 0.38148090559375247 -0.43039085933795518 0 0.39592721502882178 -0.43241367996871322 0 0.3918946598378692 -0.4398355519999072 0 0.40317164730482041 -0.41849854760895838 0 0.38148090559375247 -0.43039085933795518 0 0.39592721502882178 -0.43241367996871322 0 0.40317164730482041 -0.41849854760895838 0 0.39592721502882178 -0.43241367996871322 0 0.404964463899677 -0.43541188724341767 0 0.40317164730482041 -0.41849854760895838 0 0.38148090559375247 -0.43039085933795518 0 0.39592721502882178 -0.43241367996871322 0 0.39832107685538398 -0.43804808528562311 0 0.3918946598378692 -0.4398355519999072 0 0.39592721502882178 -0.43241367996871322 0 0.404964463899677 -0.43541188724341767 0 0.39832107685538398 -0.43804808528562311 0 0.404964463899677 -0.43541188724341767 0 0.41466138480417192 -0.43012910744934291 0 0.41087770480991681 -0.44076863149096718 0 0.40317164730482041 -0.41849854760895838 0 0.404964463899677 -0.43541188724341767 0 0.41466138480417192 -0.43012910744934291 0 0.41466138480417192 -0.43012910744934291 0 0.41797954369629958 -0.41466694489491351 0 0.43261887609655109 -0.43196334869323239 0 0.41466138480417192 -0.43012910744934291 0 0.42174900151929062 -0.44091544278245948 0 0.41087770480991681 -0.44076863149096718 0 0.40317164730482041 -0.41849854760895838 0 0.41466138480417192 -0.43012910744934291 0 0.41797954369629958 -0.41466694489491351 0 0.44724619356567008 -0.41720532962959589 0 0.41797954369629958 -0.41466694489491351 0 0.43261887609655109 -0.43196334869323239 0 0.44724619356567008 -0.41720532962959589 0 0.42951797654975937 -0.40244210649619488 0 0.41797954369629958 -0.41466694489491351 0 0.44724619356567008 -0.41720532962959589 0 0.41797954369629958 -0.41466694489491351 0 0.41466138480417192 -0.43012910744934291 0 0.43261887609655109 -0.43196334869323239 0 0.42174900151929062 -0.44091544278245948 0 0.43705567614065399 -0.45045117024677273 0 0.41353136574515958 -0.45126495603198258 0 0.42174900151929062 -0.44091544278245948 0 0.43261887609655109 -0.43196334869323239 0 0.43705567614065399 -0.45045117024677273 0 0.42174900151929062 -0.44091544278245948 0 0.43886475365449151 -0.47620029772301709 0 0.43705567614065399 -0.45045117024677273 0 0.42644926135187211 -0.47169804070045068 0 0.43705567614065399 -0.45045117024677273 0 0.41607423485420458 -0.46408078535441433 0 0.41353136574515958 -0.45126495603198258 0 0.43705567614065399 -0.45045117024677273 0 0.41607423485420458 -0.46408078535441433 0 0.42644926135187211 -0.47169804070045068 0 0.43705567614065399 -0.45045117024677273 0 0.41607423485420458 -0.46408078535441433 0 0.41607423485420458 -0.46408078535441433 0 0.41353136574515958 -0.45126495603198258 0 0.40134851707571928 -0.46046190243049739 0 0.41353136574515958 -0.45126495603198258 0 0.41087770480991681 -0.44076863149096718 0 0.40049796865516812 -0.44453122193045441 0 0.41353136574515958 -0.45126495603198258 0 0.42174900151929062 -0.44091544278245948 0 0.41087770480991681 -0.44076863149096718 0 0.404964463899677 -0.43541188724341767 0 0.41087770480991681 -0.44076863149096718 0 0.40049796865516812 -0.44453122193045441 0 0.41353136574515958 -0.45126495603198258 0 0.39680190581547231 -0.44846895582242252 0 0.41353136574515958 -0.45126495603198258 0 0.40049796865516812 -0.44453122193045441 0 0.39680190581547231 -0.44846895582242252 0 0.404964463899677 -0.43541188724341767 0 0.40049796865516812 -0.44453122193045441 0 0.39832107685538398 -0.43804808528562311 0 0.40049796865516812 -0.44453122193045441 0 0.39680190581547231 -0.44846895582242252 0 0.40049796865516812 -0.44453122193045441 0 0.39680190581547231 -0.44846895582242252 0 0.3918946598378692 -0.4398355519999072 0 0.40049796865516812 -0.44453122193045441 0 0.39832107685538398 -0.43804808528562311 0 0.3918946598378692 -0.4398355519999072 0 0.39680190581547231 -0.44846895582242252 0 0.37829603484907848 -0.44537606344468528 0 0.38148090559375247 -0.43039085933795518 0 0.3918946598378692 -0.4398355519999072 0 0.37829603484907848 -0.44537606344468528 0 0.39680190581547231 -0.44846895582242252 0 0.37829603484907848 -0.44537606344468528 0 0.38524228539600452 -0.46078441448161372 0 0.39680190581547231 -0.44846895582242252 0 0.3918946598378692 -0.4398355519999072 0 0.37829603484907848 -0.44537606344468528 0 0.38524228539600452 -0.46078441448161372 0 0.37368266497653613 -0.47309987314080437 0 0.36641806638915669 -0.45786606173861372 0 0.37829603484907848 -0.44537606344468528 0 0.38524228539600452 -0.46078441448161372 0 0.36641806638915669 -0.45786606173861372 0 0.38524228539600452 -0.46078441448161372 0 0.37368266497653613 -0.47309987314080437 0 0.41607423485420458 -0.46408078535441433 0 0.40134851707571928 -0.46046190243049739 0 0.39509279356775517 -0.47771040046205587 0 0.41353136574515958 -0.45126495603198258 0 0.39680190581547231 -0.44846895582242252 0 0.40134851707571928 -0.46046190243049739 0 0.38524228539600452 -0.46078441448161372 0 0.40134851707571928 -0.46046190243049739 0 0.39509279356775517 -0.47771040046205587 0 0.39680190581547231 -0.44846895582242252 0 0.38524228539600452 -0.46078441448161372 0 0.40134851707571928 -0.46046190243049739 0 0.39680190581547231 -0.44846895582242252 0 0.38524228539600452 -0.46078441448161372 0 0.41607423485420458 -0.46408078535441433 0 0.39509279356775517 -0.47771040046205587 0 0.39509279356775517 -0.47771040046205587 0 0.38651061842970491 -0.499999999999999 0 0.37368266497653613 -0.47309987314080437 0 0.38524228539600452 -0.46078441448161372 0 0.39509279356775517 -0.47771040046205587 0 0.37368266497653613 -0.47309987314080437 0 0.38651061842970491 -0.499999999999999 0 0.36747205075880512 -0.5 0 0.37368266497653613 -0.47309987314080437 0 0.38651061842970491 -0.499999999999999 0 0.37368266497653613 -0.47309987314080437 0 0.39509279356775517 -0.47771040046205587 0 0.38651061842970491 -0.499999999999999 0 0.40769107472126381 -0.5 0 0.40769107472126381 -0.5 0 0.4182813028670429 -0.48353376863245678 0 0.4288715310128226 -0.5 0 0.39509279356775517 -0.47771040046205587 0 0.40769107472126381 -0.5 0 0.4182813028670429 -0.48353376863245678 0 0.41607423485420458 -0.46408078535441433 0 0.4182813028670429 -0.48353376863245678 0 0.42644926135187211 -0.47169804070045068 0 0.41607423485420458 -0.46408078535441433 0 0.39509279356775517 -0.47771040046205587 0 0.4182813028670429 -0.48353376863245678 0 0.43886475365449151 -0.47620029772301709 0 0.4182813028670429 -0.48353376863245678 0 0.42644926135187211 -0.47169804070045068 0 0.43886475365449151 -0.47620029772301709 0 0.4182813028670429 -0.48353376863245678 0 0.4288715310128226 -0.5 0 0.31818733494348728 -0.5 0 0.32469736062928217 -0.48150922084645781 0 0.306706966191791 -0.48822519778531759 0 0.31818733494348728 -0.5 0 0.32469736062928217 -0.48150922084645781 0 0.34114807244687978 -0.49999999999999761 0 0.32469736062928217 -0.48150922084645781 0 0.32739421779549349 -0.46004479004506499 0 0.30595899467635967 -0.47179700943474429 0 0.32469736062928217 -0.48150922084645781 0 0.34498875668075257 -0.47414628532769121 0 0.32739421779549349 -0.46004479004506499 0 0.34114807244687978 -0.49999999999999761 0 0.34498875668075257 -0.47414628532769121 0 0.32469736062928217 -0.48150922084645781 0 0.34114807244687978 -0.49999999999999761 0 0.34498875668075257 -0.47414628532769121 0 0.34843348308790523 -0.49999999999999839 0 0.36747205075880512 -0.5 0 0.36105807403222018 -0.48654993657040102 0 0.34114807244687978 -0.49999999999999761 0 0.34843348308790523 -0.49999999999999839 0 0.34498875668075257 -0.47414628532769121 0 0.34843348308790523 -0.49999999999999839 0 0.36105807403222018 -0.48654993657040102 0 0.34498875668075257 -0.47414628532769121 0 0.34843348308790523 -0.49999999999999839 0 0.36105807403222018 -0.48654993657040102 0 0.36747205075880512 -0.5 0 0.36105807403222018 -0.48654993657040102 0 0.37368266497653613 -0.47309987314080437 0 0.36105807403222018 -0.48654993657040102 0 0.37368266497653613 -0.47309987314080437 0 0.35922708055493963 -0.47064430361324672 0 0.36105807403222018 -0.48654993657040102 0 0.37368266497653613 -0.47309987314080437 0 0.36105807403222018 -0.48654993657040102 0 0.35922708055493963 -0.47064430361324672 0 0.34498875668075257 -0.47414628532769121 0 0.34498875668075257 -0.47414628532769121 0 0.34882944091462681 -0.44829257065538508 0 0.34498875668075257 -0.47414628532769121 0 0.35572336246825043 -0.45871629433427191 0 0.34882944091462681 -0.44829257065538508 0 0.35922708055493963 -0.47064430361324672 0 0.34498875668075257 -0.47414628532769121 0 0.35572336246825043 -0.45871629433427191 0 0.37368266497653613 -0.47309987314080437 0 0.35922708055493963 -0.47064430361324672 0 0.36641806638915669 -0.45786606173861372 0 0.35922708055493963 -0.47064430361324672 0 0.35572336246825043 -0.45871629433427191 0 0.36641806638915669 -0.45786606173861372 0 0.37368266497653613 -0.47309987314080437 0 0.36641806638915669 -0.45786606173861372 0 0.37829603484907848 -0.44537606344468528 0 0.35915346780177732 -0.44263225033642278 0 0.35572336246825043 -0.45871629433427191 0 0.36641806638915669 -0.45786606173861372 0 0.35915346780177732 -0.44263225033642278 0 0.37829603484907848 -0.44537606344468528 0 0.36641806638915669 -0.45786606173861372 0 0.35915346780177732 -0.44263225033642278 0 0.38148090559375247 -0.43039085933795518 0 0.37829603484907848 -0.44537606344468528 0 0.35915346780177732 -0.44263225033642278 0 0.36641806638915669 -0.45786606173861372 0 0.35915346780177732 -0.44263225033642278 0 0.35915346780177732 -0.44263225033642278 0 0.35507411499437652 -0.43964028496988139 0 0.35569422051574862 -0.43537823346060589 0 0.35915346780177732 -0.44263225033642278 0 0.35507411499437652 -0.43964028496988139 0 0.34996607593742179 -0.44064126797688269 0 0.35572336246825043 -0.45871629433427191 0 0.35915346780177732 -0.44263225033642278 0 0.34882944091462681 -0.44829257065538508 0 0.35915346780177732 -0.44263225033642278 0 0.35569422051574862 -0.43537823346060589 0 0.35915346780177732 -0.44263225033642278 0 0.34996607593742179 -0.44064126797688269 0 0.35915346780177732 -0.44263225033642278 0 0.34882944091462681 -0.44829257065538508 0 0.34996607593742179 -0.44064126797688269 0 0.35507411499437652 -0.43964028496988139 0 0.34996607593742179 -0.44064126797688269 0 0.35569422051574862 -0.43537823346060589 0 0.35507411499437652 -0.43964028496988139 0 0.35569422051574862 -0.43537823346060589 0 0.35915346780177732 -0.44263225033642278 0 0.34882944091462681 -0.44829257065538508 0 0.34882944091462681 -0.44829257065538508 0 0.34996607593742179 -0.44064126797688269 0 0.33969159904324903 -0.44300769801303519 0 0.34882944091462681 -0.44829257065538508 0 0.34996607593742179 -0.44064126797688269 0 0.34882944091462681 -0.44829257065538508 0 0.33209221053485621 -0.4463487521841133 0 0.32739421779549349 -0.46004479004506499 0 0.34996607593742179 -0.44064126797688269 0 0.33041175353812158 -0.43737314756199352 0 0.34996607593742179 -0.44064126797688269 0 0.33969159904324903 -0.44300769801303519 0 0.33041175353812158 -0.43737314756199352 0 0.34882944091462681 -0.44829257065538508 0 0.33969159904324903 -0.44300769801303519 0 0.33209221053485621 -0.4463487521841133 0 0.33969159904324903 -0.44300769801303519 0 0.33209221053485621 -0.4463487521841133 0 0.33041175353812158 -0.43737314756199352 0 0.33209221053485621 -0.4463487521841133 0 0.32586763043333089 -0.43942731206810592 0 0.33041175353812158 -0.43737314756199352 0 0.34498875668075257 -0.47414628532769121 0 0.34882944091462681 -0.44829257065538508 0 0.32739421779549349 -0.46004479004506499 0 0.34882944091462681 -0.44829257065538508 0 0.32739421779549349 -0.46004479004506499 0 0.32739421779549349 -0.46004479004506499 0 0.30595899467635967 -0.47179700943474429 0 0.32739421779549349 -0.46004479004506499 0 0.308537504018987 -0.45107574869015871 0 0.30595899467635967 -0.47179700943474429 0 0.3204620741324461 -0.44442152454338812 0 0.30942114537172177 -0.43535267908485731 0 0.308537504018987 -0.45107574869015871 0 0.32739421779549349 -0.46004479004506499 0 0.3204620741324461 -0.44442152454338812 0 0.308537504018987 -0.45107574869015871 0 0.3204620741324461 -0.44442152454338812 0 0.31937263595598542 -0.43426474505239199 0 0.30942114537172177 -0.43535267908485731 0 0.32586763043333089 -0.43942731206810592 0 0.3204620741324461 -0.44442152454338812 0 0.31937263595598542 -0.43426474505239199 0 0.33209221053485621 -0.4463487521841133 0 0.32586763043333089 -0.43942731206810592 0 0.3204620741324461 -0.44442152454338812 0 0.33209221053485621 -0.4463487521841133 0 0.32739421779549349 -0.46004479004506499 0 0.3204620741324461 -0.44442152454338812 0 0.32444376872158343 -0.42799071611221351 0 0.31625047783619498 -0.42405891680234092 0 0.32491542308227289 -0.41830603203141581 0 0.32444376872158343 -0.42799071611221351 0 0.32491542308227289 -0.41830603203141581 0 0.33485728423613093 -0.423832256342354 0 0.32586763043333089 -0.43942731206810592 0 0.32444376872158343 -0.42799071611221351 0 0.31937263595598542 -0.43426474505239199 0 0.31937263595598542 -0.43426474505239199 0 0.31625047783619498 -0.42405891680234092 0 0.30942114537172177 -0.43535267908485731 0 0.32444376872158343 -0.42799071611221351 0 0.31937263595598542 -0.43426474505239199 0 0.31625047783619498 -0.42405891680234092 0 0.31625047783619498 -0.42405891680234092 0 0.32491542308227289 -0.41830603203141581 0 0.31189811828422948 -0.41383946187551368 0 0.32212418931867132 -0.40635312116121719 0 0.32491542308227289 -0.41830603203141581 0 0.31189811828422948 -0.41383946187551368 0 0.32212418931867132 -0.40635312116121719 0 0.32491542308227289 -0.41830603203141581 0 0.33243063954921792 -0.41398106286216552 0 0.32212418931867132 -0.40635312116121719 0 0.33243063954921792 -0.41398106286216552 0 0.34384693803893163 -0.40823720061660268 0 0.32491542308227289 -0.41830603203141581 0 0.33243063954921792 -0.41398106286216552 0 0.33485728423613093 -0.423832256342354 0 0.32212418931867132 -0.40635312116121719 0 0.34384693803893163 -0.40823720061660268 0 0.33485728423613093 -0.423832256342354 0 0.34506739412971171 -0.41911638396800083 0 0.34384693803893163 -0.40823720061660268 0 0.33243063954921792 -0.41398106286216552 0 0.33485728423613093 -0.423832256342354 0 0.34384693803893163 -0.40823720061660268 0 0.33485728423613093 -0.423832256342354 0 0.34384693803893163 -0.40823720061660268 0 0.34996607593742179 -0.44064126797688269 0 0.33041175353812158 -0.43737314756199352 0 0.34196070868756823 -0.43031576792700721 0 0.33485728423613093 -0.423832256342354 0 0.34196070868756823 -0.43031576792700721 0 0.34506739412971171 -0.41911638396800083 0 0.32586763043333089 -0.43942731206810592 0 0.32444376872158343 -0.42799071611221351 0 0.33485728423613093 -0.423832256342354 0 0.32586763043333089 -0.43942731206810592 0 0.33485728423613093 -0.423832256342354 0 0.33485728423613093 -0.423832256342354 0 0.33041175353812158 -0.43737314756199352 0 0.34196070868756823 -0.43031576792700721 0 0.32586763043333089 -0.43942731206810592 0 0.33485728423613093 -0.423832256342354 0 0.33041175353812158 -0.43737314756199352 0 0.35230342308988899 -0.42490732509319901 0 0.35569422051574862 -0.43537823346060589 0 0.35944624395755881 -0.40959017542554882 0 0.34996607593742179 -0.44064126797688269 0 0.34196070868756823 -0.43031576792700721 0 0.35230342308988899 -0.42490732509319901 0 0.34996607593742179 -0.44064126797688269 0 0.35230342308988899 -0.42490732509319901 0 0.35245289122615692 -0.42858118906839221 0 0.34996607593742179 -0.44064126797688269 0 0.35230342308988899 -0.42490732509319901 0 0.35569422051574862 -0.43537823346060589 0 0.35944624395755881 -0.40959017542554882 0 0.34196070868756823 -0.43031576792700721 0 0.35230342308988899 -0.42490732509319901 0 0.34506739412971171 -0.41911638396800083 0 0.35230342308988899 -0.42490732509319901 0 0.35245289122615692 -0.42858118906839221 0 0.35569422051574862 -0.43537823346060589 0 0.34996607593742179 -0.44064126797688269 0 0.35245289122615692 -0.42858118906839221 0 0.35569422051574862 -0.43537823346060589 0 0.35245289122615692 -0.42858118906839221 0 0.35569422051574862 -0.43537823346060589 0 0.38148090559375247 -0.43039085933795518 0 0.35915346780177732 -0.44263225033642278 0 0.35915346780177732 -0.44263225033642278 0 0.35569422051574862 -0.43537823346060589 0 0.36688881751509678 -0.42722092448767901 0 0.38148090559375247 -0.43039085933795518 0 0.35915346780177732 -0.44263225033642278 0 0.36688881751509678 -0.42722092448767901 0 0.35569422051574862 -0.43537823346060589 0 0.36688881751509678 -0.42722092448767901 0 0.35944624395755881 -0.40959017542554882 0 0.38148090559375247 -0.43039085933795518 0 0.36688881751509678 -0.42722092448767901 0 0.37413221522333429 -0.41983262985285352 0 0.38871289382692931 -0.41212856016023097 0 0.35944624395755881 -0.40959017542554882 0 0.36688881751509678 -0.42722092448767901 0 0.37413221522333429 -0.41983262985285352 0 0.35944624395755881 -0.40959017542554882 0 0.38871289382692931 -0.41212856016023097 0 0.37413221522333429 -0.41983262985285352 0 0.35944624395755881 -0.40959017542554882 0 0.35944624395755881 -0.40959017542554882 0 0.35464077024235391 -0.40917338220951482 0 0.35230342308988899 -0.42490732509319901 0 0.35464077024235391 -0.40917338220951482 0 0.35230342308988899 -0.42490732509319901 0 0.35464077024235391 -0.40917338220951482 0 0.34506739412971171 -0.41911638396800083 0 0.35944624395755881 -0.40959017542554882 0 0.35464077024235391 -0.40917338220951482 0 0.35552234244520459 -0.40323904478222689 0 0.35230342308988899 -0.42490732509319901 0 0.35944624395755881 -0.40959017542554882 0 0.35464077024235391 -0.40917338220951482 0 0.35464077024235391 -0.40917338220951482 0 0.34384693803893163 -0.40823720061660268 0 0.35552234244520459 -0.40323904478222689 0 0.35464077024235391 -0.40917338220951482 0 0.34384693803893163 -0.40823720061660268 0 0.35464077024235391 -0.40917338220951482 0 0.34506739412971171 -0.41911638396800083 0 0.34384693803893163 -0.40823720061660268 0 0.34384693803893163 -0.40823720061660268 0 0.35552234244520459 -0.40323904478222689 0 0.35441152812365151 -0.38990997971298658 0 0.34384693803893163 -0.40823720061660268 0 0.35441152812365151 -0.38990997971298658 0 0.33412129230836091 -0.3987993154464049 0 0.34384693803893163 -0.40823720061660268 0 0.35441152812365151 -0.38990997971298658 0 0.35944624395755881 -0.40959017542554882 0 0.35552234244520459 -0.40323904478222689 0 0.36221118108296541 -0.39058646711745992 0 0.35552234244520459 -0.40323904478222689 0 0.36221118108296541 -0.39058646711745992 0 0.35441152812365151 -0.38990997971298658 0 0.35464077024235391 -0.40917338220951482 0 0.35552234244520459 -0.40323904478222689 0 0.35944624395755881 -0.40959017542554882 0 0.36221118108296541 -0.39058646711745992 0 0.37707264241916122 -0.38283281262878671 0 0.37746906297296168 -0.39892965160687188 0 0.36221118108296541 -0.39058646711745992 0 0.37746906297296168 -0.39892965160687188 0 0.35944624395755881 -0.40959017542554882 0 0.36221118108296541 -0.39058646711745992 0 0.36221118108296541 -0.39058646711745992 0 0.35441152812365151 -0.38990997971298658 0 0.36497611820837211 -0.37158275880937103 0 0.37707264241916122 -0.38283281262878671 0 0.36221118108296541 -0.39058646711745992 0 0.36497611820837211 -0.37158275880937103 0 0.36221118108296541 -0.39058646711745992 0 0.36497611820837211 -0.37158275880937103 0 0.35441152812365151 -0.38990997971298658 0 0.36497611820837211 -0.37158275880937103 0 0.35441152812365151 -0.38990997971298658 0 0.33340910837349941 -0.38541273856779368 0 0.34588278292496721 -0.37259266957992643 0 0.35441152812365151 -0.38990997971298658 0 0.36497611820837211 -0.37158275880937103 0 0.34588278292496721 -0.37259266957992643 0 0.33340910837349941 -0.38541273856779368 0 0.34588278292496721 -0.37259266957992643 0 0.32609344465647733 -0.36927767782143672 0 0.35441152812365151 -0.38990997971298658 0 0.33340910837349941 -0.38541273856779368 0 0.33412129230836091 -0.3987993154464049 0 0.32212418931867132 -0.40635312116121719 0 0.34384693803893163 -0.40823720061660268 0 0.33412129230836091 -0.3987993154464049 0 0.33340910837349941 -0.38541273856779368 0 0.33412129230836091 -0.3987993154464049 0 0.32378544280017318 -0.39463780266565152 0 0.32212418931867132 -0.40635312116121719 0 0.33412129230836091 -0.3987993154464049 0 0.32378544280017318 -0.39463780266565152 0 0.32212418931867132 -0.40635312116121719 0 0.32378544280017318 -0.39463780266565152 0 0.31209296799919811 -0.39658517678052291 0 0.32378544280017318 -0.39463780266565152 0 0.31972105355340941 -0.38355107107051789 0 0.31209296799919811 -0.39658517678052291 0 0.33340910837349941 -0.38541273856779368 0 0.31972105355340941 -0.38355107107051789 0 0.32609344465647733 -0.36927767782143672 0 0.33340910837349941 -0.38541273856779368 0 0.32378544280017318 -0.39463780266565152 0 0.31972105355340941 -0.38355107107051789 0 0.31972105355340941 -0.38355107107051789 0 0.31209296799919811 -0.39658517678052291 0 0.30375376176108909 -0.37132371153764282 0 0.31209296799919811 -0.39658517678052291 0 0.30375376176108909 -0.37132371153764282 0 0.31209296799919811 -0.39658517678052291 0 0.29454902947170819 -0.39027786845526702 0 0.30375376176108909 -0.37132371153764282 0 0.31209296799919811 -0.39658517678052291 0 0.3004014405984109 -0.40446904170583142 0 0.29454902947170819 -0.39027786845526702 0 0.32212418931867132 -0.40635312116121719 0 0.3004014405984109 -0.40446904170583142 0 0.32212418931867132 -0.40635312116121719 0 0.31209296799919811 -0.39658517678052291 0 0.3004014405984109 -0.40446904170583142 0 0.28901231537408179 -0.40382709674285688 0 0.29454902947170819 -0.39027786845526702 0 0.27764892827130738 -0.39210522574797191 0 0.28901231537408179 -0.40382709674285688 0 0.27764892827130738 -0.39210522574797191 0 0.28031844864336741 -0.41608539572887099 0 0.3004014405984109 -0.40446904170583142 0 0.28901231537408179 -0.40382709674285688 0 0.29454902947170819 -0.39027786845526702 0 0.28554771544571739 -0.37661221280254631 0 0.29454902947170819 -0.39027786845526702 0 0.27764892827130738 -0.39210522574797191 0 0.28554771544571739 -0.37661221280254631 0 0.29454902947170819 -0.39027786845526702 0 0.30375376176108909 -0.37132371153764282 0 0.28554771544571739 -0.37661221280254631 0 0.27764892827130738 -0.39210522574797191 0 0.26937981056567561 -0.3711806147686661 0 0.2612309645601199 -0.3863246679172137 0 0.27764892827130738 -0.39210522574797191 0 0.26937981056567561 -0.3711806147686661 0 0.2612309645601199 -0.3863246679172137 0 0.2494918960336161 -0.36588779995426818 0 0.2429893312295579 -0.3866797870293654 0 0.2612309645601199 -0.3863246679172137 0 0.25995666788336091 -0.40576070656434138 0 0.2429893312295579 -0.3866797870293654 0 0.2612309645601199 -0.3863246679172137 0 0.25995666788336091 -0.40576070656434138 0 0.27764892827130738 -0.39210522574797191 0 0.25995666788336091 -0.40576070656434138 0 0.27764892827130738 -0.39210522574797191 0 0.28031844864336741 -0.41608539572887099 0 0.25995666788336091 -0.40576070656434138 0 0.28031844864336741 -0.41608539572887099 0 0.26462519113021499 -0.42702247248832031 0 0.25995666788336091 -0.40576070656434138 0 0.26462519113021499 -0.42702247248832031 0 0.2467219873464099 -0.42639491559083209 0 0.26462519113021499 -0.42702247248832031 0 0.2607417802722598 -0.4461829162738053 0 0.2467219873464099 -0.42639491559083209 0 0.26462519113021499 -0.42702247248832031 0 0.27577693247791052 -0.43716427349538339 0 0.2607417802722598 -0.4461829162738053 0 0.28031844864336741 -0.41608539572887099 0 0.26462519113021499 -0.42702247248832031 0 0.27577693247791052 -0.43716427349538339 0 0.28031844864336741 -0.41608539572887099 0 0.29452635408624428 -0.43368936404551017 0 0.30002657719127218 -0.4186862237227772 0 0.28031844864336741 -0.41608539572887099 0 0.27577693247791052 -0.43716427349538339 0 0.29452635408624428 -0.43368936404551017 0 0.28901231537408179 -0.40382709674285688 0 0.28031844864336741 -0.41608539572887099 0 0.30002657719127218 -0.4186862237227772 0 0.3004014405984109 -0.40446904170583142 0 0.28901231537408179 -0.40382709674285688 0 0.30002657719127218 -0.4186862237227772 0 0.32212418931867132 -0.40635312116121719 0 0.3004014405984109 -0.40446904170583142 0 0.31189811828422948 -0.41383946187551368 0 0.31625047783619498 -0.42405891680234092 0 0.30002657719127218 -0.4186862237227772 0 0.31189811828422948 -0.41383946187551368 0 0.3004014405984109 -0.40446904170583142 0 0.30002657719127218 -0.4186862237227772 0 0.31189811828422948 -0.41383946187551368 0 0.31625047783619498 -0.42405891680234092 0 0.30002657719127218 -0.4186862237227772 0 0.30942114537172177 -0.43535267908485731 0 0.29452635408624428 -0.43368936404551017 0 0.30002657719127218 -0.4186862237227772 0 0.30942114537172177 -0.43535267908485731 0 0.29452635408624428 -0.43368936404551017 0 0.30942114537172177 -0.43535267908485731 0 0.308537504018987 -0.45107574869015871 0 0.29452635408624428 -0.43368936404551017 0 0.308537504018987 -0.45107574869015871 0 0.29524318188159759 -0.45551324748460331 0 0.29524318188159759 -0.45551324748460331 0 0.29004688634294679 -0.46819872168625581 0 0.30595899467635967 -0.47179700943474429 0 0.308537504018987 -0.45107574869015871 0 0.29524318188159759 -0.45551324748460331 0 0.30595899467635967 -0.47179700943474429 0 0.29524318188159759 -0.45551324748460331 0 0.29004688634294679 -0.46819872168625581 0 0.27945261020193268 -0.45579290936367328 0 0.29452635408624428 -0.43368936404551017 0 0.29524318188159759 -0.45551324748460331 0 0.27945261020193268 -0.45579290936367328 0 0.29452635408624428 -0.43368936404551017 0 0.27945261020193268 -0.45579290936367328 0 0.27577693247791052 -0.43716427349538339 0 0.29452635408624428 -0.43368936404551017 0 0.27945261020193268 -0.45579290936367328 0 0.27577693247791052 -0.43716427349538339 0 0.2607417802722598 -0.4461829162738053 0 0.27945261020193268 -0.45579290936367328 0 0.2607417802722598 -0.4461829162738053 0 0.25620585450284422 -0.46217127274087189 0 0.23607223249158979 -0.44991973705091248 0 0.2607417802722598 -0.4461829162738053 0 0.25620585450284422 -0.46217127274087189 0 0.27945261020193268 -0.45579290936367328 0 0.25620585450284422 -0.46217127274087189 0 0.27945261020193268 -0.45579290936367328 0 0.26437886631762109 -0.47789645468183639 0 0.27945261020193268 -0.45579290936367328 0 0.26437886631762109 -0.47789645468183639 0 0.29004688634294679 -0.46819872168625581 0 0.27945261020193268 -0.45579290936367328 0 0.26437886631762109 -0.47789645468183639 0 0.29004688634294679 -0.46819872168625581 0 0.26437886631762109 -0.47789645468183639 0 0.28452377155722602 -0.48354922882442358 0 0.25620585450284422 -0.46217127274087189 0 0.26437886631762109 -0.47789645468183639 0 0.2418176045545021 -0.47241519163225748 0 0.26437886631762109 -0.47789645468183639 0 0.2493051224333096 -0.49999999999999972 0 0.2418176045545021 -0.47241519163225748 0 0.26437886631762109 -0.47789645468183639 0 0.2493051224333096 -0.49999999999999972 0 0.26437886631762109 -0.47789645468183639 0 0.27226585993670221 -0.5 0 0.2493051224333096 -0.49999999999999972 0 0.26437886631762109 -0.47789645468183639 0 0.27226585993670221 -0.5 0 0.28452377155722602 -0.48354922882442358 0 0.27226585993670221 -0.5 0 0.29522659744009472 -0.5 0 0.28452377155722602 -0.48354922882442358 0 0.29522659744009472 -0.5 0 0.28452377155722602 -0.48354922882442358 0 0.306706966191791 -0.48822519778531759 0 0.28452377155722602 -0.48354922882442358 0 0.30595899467635967 -0.47179700943474429 0 0.29004688634294679 -0.46819872168625581 0 0.28452377155722602 -0.48354922882442358 0 0.30595899467635967 -0.47179700943474429 0 0.32469736062928217 -0.48150922084645781 0 0.30595899467635967 -0.47179700943474429 0 0.306706966191791 -0.48822519778531759 0 0.28452377155722602 -0.48354922882442358 0 0.30595899467635967 -0.47179700943474429 0 0.306706966191791 -0.48822519778531759 0 0.31818733494348728 -0.5 0 0.29522659744009472 -0.5 0 0.306706966191791 -0.48822519778531759 0 0.32207934125426912 -0.29848094634047623 0 0.32695235163102482 -0.27475276510875729 0 0.34832946820616101 -0.29264151910050712 0 0.32207934125426912 -0.29848094634047623 0 0.34832946820616101 -0.29264151910050712 0 0.34218260090213121 -0.31622685174892279 0 0.32207934125426912 -0.29848094634047623 0 0.34218260090213121 -0.31622685174892279 0 0.32357817160392521 -0.32275781043962681 0 0.32207934125426912 -0.29848094634047623 0 0.32357817160392521 -0.32275781043962681 0 0.30800185253645818 -0.31279995557760409 0 0.32207934125426912 -0.29848094634047623 0 0.32695235163102482 -0.27475276510875729 0 0.30579733370885309 -0.27574108931874541 0 0.32695235163102482 -0.27475276510875729 0 0.31515832592084531 -0.25321124345217683 0 0.30579733370885309 -0.27574108931874541 0 0.32695235163102482 -0.27475276510875729 0 0.31515832592084531 -0.25321124345217683 0 0.33059518584913011 -0.25427153732570362 0 0.34434979959968581 -0.24122210584954781 0 0.33059518584913011 -0.25427153732570362 0 0.34359733332866282 -0.26957583143063762 0 0.32695235163102482 -0.27475276510875729 0 0.34359733332866282 -0.26957583143063762 0 0.34832946820616101 -0.29264151910050712 0 0.32695235163102482 -0.27475276510875729 0 0.33059518584913011 -0.25427153732570362 0 0.34359733332866282 -0.26957583143063762 0 0.34359733332866282 -0.26957583143063762 0 0.36021566746181799 -0.25400252956497987 0 0.36099139893402538 -0.27392704468856682 0 0.34359733332866282 -0.26957583143063762 0 0.36099139893402538 -0.27392704468856682 0 0.34832946820616101 -0.29264151910050712 0 0.34434979959968581 -0.24122210584954781 0 0.34359733332866282 -0.26957583143063762 0 0.34434979959968581 -0.24122210584954781 0 0.34359733332866282 -0.26957583143063762 0 0.36021566746181799 -0.25400252956497987 0 0.37606166476206682 -0.26381386404263057 0 0.36021566746181799 -0.25400252956497987 0 0.36099139893402538 -0.27392704468856682 0 0.37542801630718597 -0.24424478341264069 0 0.37606166476206682 -0.26381386404263057 0 0.36021566746181799 -0.25400252956497987 0 0.3767528609114188 -0.28960147930407859 0 0.37606166476206682 -0.26381386404263057 0 0.36099139893402538 -0.27392704468856682 0 0.3767528609114188 -0.28960147930407859 0 0.36099139893402538 -0.27392704468856682 0 0.34832946820616101 -0.29264151910050712 0 0.34832946820616101 -0.29264151910050712 0 0.3632065361892029 -0.31655134741593921 0 0.34218260090213121 -0.31622685174892279 0 0.3767528609114188 -0.28960147930407859 0 0.34832946820616101 -0.29264151910050712 0 0.3632065361892029 -0.31655134741593921 0 0.3632065361892029 -0.31655134741593921 0 0.36331142475558398 -0.33538964008092459 0 0.35173179864512649 -0.33069735224269242 0 0.37735891152744411 -0.33453341516195467 0 0.3632065361892029 -0.31655134741593921 0 0.36331142475558398 -0.33538964008092459 0 0.36331142475558398 -0.33538964008092459 0 0.36825963417439028 -0.34901480271742702 0 0.35224670985994561 -0.34442896957038782 0 0.37735891152744411 -0.33453341516195467 0 0.36331142475558398 -0.33538964008092459 0 0.36825963417439028 -0.34901480271742702 0 0.36331142475558398 -0.33538964008092459 0 0.35173179864512649 -0.33069735224269242 0 0.35224670985994561 -0.34442896957038782 0 0.35173179864512649 -0.33069735224269242 0 0.35224670985994561 -0.34442896957038782 0 0.33671270015656529 -0.3370956911430934 0 0.3632065361892029 -0.31655134741593921 0 0.35173179864512649 -0.33069735224269242 0 0.34218260090213121 -0.31622685174892279 0 0.36497611820837211 -0.37158275880937103 0 0.37157950236875409 -0.36012735171375748 0 0.36825963417439028 -0.34901480271742702 0 0.36497611820837211 -0.37158275880937103 0 0.36825963417439028 -0.34901480271742702 0 0.36497611820837211 -0.37158275880937103 0 0.36825963417439028 -0.34901480271742702 0 0.35522173222793779 -0.35924895188620792 0 0.37567823603549211 -0.36999042542847133 0 0.37707264241916122 -0.38283281262878671 0 0.36497611820837211 -0.37158275880937103 0 0.37567823603549211 -0.36999042542847133 0 0.36497611820837211 -0.37158275880937103 0 0.37157950236875409 -0.36012735171375748 0 0.36497611820837211 -0.37158275880937103 0 0.37157950236875409 -0.36012735171375748 0 0.38193831805183248 -0.34997790357193581 0 0.37157950236875409 -0.36012735171375748 0 0.36825963417439028 -0.34901480271742702 0 0.36825963417439028 -0.34901480271742702 0 0.35522173222793779 -0.35924895188620792 0 0.35224670985994561 -0.34442896957038782 0 0.35522173222793779 -0.35924895188620792 0 0.35224670985994561 -0.34442896957038782 0 0.3382429692000693 -0.35512737935198202 0 0.36497611820837211 -0.37158275880937103 0 0.35522173222793779 -0.35924895188620792 0 0.34588278292496721 -0.37259266957992643 0 0.35522173222793779 -0.35924895188620792 0 0.34588278292496721 -0.37259266957992643 0 0.3382429692000693 -0.35512737935198202 0 0.34588278292496721 -0.37259266957992643 0 0.3382429692000693 -0.35512737935198202 0 0.32609344465647733 -0.36927767782143672 0 0.35224670985994561 -0.34442896957038782 0 0.3382429692000693 -0.35512737935198202 0 0.33671270015656529 -0.3370956911430934 0 0.3382429692000693 -0.35512737935198202 0 0.31722519007316258 -0.34760749071098451 0 0.33671270015656529 -0.3370956911430934 0 0.3382429692000693 -0.35512737935198202 0 0.31722519007316258 -0.34760749071098451 0 0.32609344465647733 -0.36927767782143672 0 0.31722519007316258 -0.34760749071098451 0 0.32609344465647733 -0.36927767782143672 0 0.30375376176108909 -0.37132371153764282 0 0.31972105355340941 -0.38355107107051789 0 0.32609344465647733 -0.36927767782143672 0 0.30375376176108909 -0.37132371153764282 0 0.34218260090213121 -0.31622685174892279 0 0.33671270015656529 -0.3370956911430934 0 0.32357817160392521 -0.32275781043962681 0 0.35173179864512649 -0.33069735224269242 0 0.34218260090213121 -0.31622685174892279 0 0.33671270015656529 -0.3370956911430934 0 0.31722519007316258 -0.34760749071098451 0 0.32357817160392521 -0.32275781043962681 0 0.30577856479574372 -0.32960076362072788 0 0.31722519007316258 -0.34760749071098451 0 0.33671270015656529 -0.3370956911430934 0 0.32357817160392521 -0.32275781043962681 0 0.32357817160392521 -0.32275781043962681 0 0.30800185253645818 -0.31279995557760409 0 0.30577856479574372 -0.32960076362072788 0 0.30800185253645818 -0.31279995557760409 0 0.30577856479574372 -0.32960076362072788 0 0.28707534928486977 -0.32080078105188342 0 0.31722519007316258 -0.34760749071098451 0 0.30577856479574372 -0.32960076362072788 0 0.29541455552298013 -0.34606224629476279 0 0.30577856479574372 -0.32960076362072788 0 0.28707534928486977 -0.32080078105188342 0 0.29541455552298013 -0.34606224629476279 0 0.28707534928486977 -0.32080078105188342 0 0.29541455552298013 -0.34606224629476279 0 0.27977969972575362 -0.33835980218350981 0 0.28707534928486977 -0.32080078105188342 0 0.27977969972575362 -0.33835980218350981 0 0.28707534928486977 -0.32080078105188342 0 0.29541455552298013 -0.34606224629476279 0 0.30375376176108909 -0.37132371153764282 0 0.29541455552298013 -0.34606224629476279 0 0.31722519007316258 -0.34760749071098451 0 0.30375376176108909 -0.37132371153764282 0 0.29541455552298013 -0.34606224629476279 0 0.30375376176108909 -0.37132371153764282 0 0.29541455552298013 -0.34606224629476279 0 0.28240704715880682 -0.3581736435031837 0 0.29541455552298013 -0.34606224629476279 0 0.28240704715880682 -0.3581736435031837 0 0.27977969972575362 -0.33835980218350981 0 0.28554771544571739 -0.37661221280254631 0 0.30375376176108909 -0.37132371153764282 0 0.28240704715880682 -0.3581736435031837 0 0.28554771544571739 -0.37661221280254631 0 0.28240704715880682 -0.3581736435031837 0 0.26937981056567561 -0.3711806147686661 0 0.28240704715880682 -0.3581736435031837 0 0.26072197362210131 -0.3487124090875201 0 0.27977969972575362 -0.33835980218350981 0 0.28240704715880682 -0.3581736435031837 0 0.26937981056567561 -0.3711806147686661 0 0.26072197362210131 -0.3487124090875201 0 0.2612309645601199 -0.3863246679172137 0 0.26937981056567561 -0.3711806147686661 0 0.2494918960336161 -0.36588779995426818 0 0.26937981056567561 -0.3711806147686661 0 0.26072197362210131 -0.3487124090875201 0 0.2494918960336161 -0.36588779995426818 0 0.27194296021060671 -0.31532643512563358 0 0.27977969972575362 -0.33835980218350981 0 0.2556470669324426 -0.32199198076154578 0 0.28707534928486977 -0.32080078105188342 0 0.27194296021060671 -0.31532643512563358 0 0.27977969972575362 -0.33835980218350981 0 0.26072197362210131 -0.3487124090875201 0 0.2556470669324426 -0.32199198076154578 0 0.23823563256883201 -0.34542851051294698 0 0.26072197362210131 -0.3487124090875201 0 0.27977969972575362 -0.33835980218350981 0 0.2556470669324426 -0.32199198076154578 0 0.27194296021060671 -0.31532643512563358 0 0.2556470669324426 -0.32199198076154578 0 0.25766497747905648 -0.29748187112934138 0 0.25766497747905648 -0.29748187112934138 0 0.25847247765992509 -0.27082879613576649 0 0.2355519855795527 -0.28498083986907091 0 0.25766497747905648 -0.29748187112934138 0 0.27010941091038659 -0.28595922022088621 0 0.25847247765992509 -0.27082879613576649 0 0.27010941091038659 -0.28595922022088621 0 0.2795477076309108 -0.29799774050188738 0 0.28475248087165428 -0.27752847311654938 0 0.25766497747905648 -0.29748187112934138 0 0.27010941091038659 -0.28595922022088621 0 0.2795477076309108 -0.29799774050188738 0 0.28707534928486977 -0.32080078105188342 0 0.27194296021060671 -0.31532643512563358 0 0.2795477076309108 -0.29799774050188738 0 0.27194296021060671 -0.31532643512563358 0 0.25766497747905648 -0.29748187112934138 0 0.2795477076309108 -0.29799774050188738 0 0.28707534928486977 -0.32080078105188342 0 0.2795477076309108 -0.29799774050188738 0 0.29643634149686088 -0.29827093518531422 0 0.28707534928486977 -0.32080078105188342 0 0.2795477076309108 -0.29799774050188738 0 0.28707534928486977 -0.32080078105188342 0 0.29643634149686088 -0.29827093518531422 0 0.2795477076309108 -0.29799774050188738 0 0.29643634149686088 -0.29827093518531422 0 0.28475248087165428 -0.27752847311654938 0 0.29643634149686088 -0.29827093518531422 0 0.30579733370885309 -0.27574108931874541 0 0.28475248087165428 -0.27752847311654938 0 0.29643634149686088 -0.29827093518531422 0 0.30579733370885309 -0.27574108931874541 0 0.32207934125426912 -0.29848094634047623 0 0.29643634149686088 -0.29827093518531422 0 0.30579733370885309 -0.27574108931874541 0 0.30800185253645818 -0.31279995557760409 0 0.28707534928486977 -0.32080078105188342 0 0.29643634149686088 -0.29827093518531422 0 0.32207934125426912 -0.29848094634047623 0 0.30800185253645818 -0.31279995557760409 0 0.29643634149686088 -0.29827093518531422 0 0.31515832592084531 -0.25321124345217683 0 0.30579733370885309 -0.27574108931874541 0 0.2963854928106926 -0.26198573910804018 0 0.31515832592084531 -0.25321124345217683 0 0.30579733370885309 -0.27574108931874541 0 0.29482635381181288 -0.246771137250267 0 0.31515832592084531 -0.25321124345217683 0 0.2963854928106926 -0.26198573910804018 0 0.30579733370885309 -0.27574108931874541 0 0.28475248087165428 -0.27752847311654938 0 0.2963854928106926 -0.26198573910804018 0 0.28475248087165428 -0.27752847311654938 0 0.2963854928106926 -0.26198573910804018 0 0.28139296974029759 -0.25667675240246213 0 0.29482635381181288 -0.246771137250267 0 0.2963854928106926 -0.26198573910804018 0 0.28139296974029759 -0.25667675240246213 0 0.28139296974029759 -0.25667675240246213 0 0.25847247765992509 -0.27082879613576649 0 0.26500121398651938 -0.25431828450675109 0 0.28139296974029759 -0.25667675240246213 0 0.25847247765992509 -0.27082879613576649 0 0.27997069045944561 -0.24561078526832611 0 0.28139296974029759 -0.25667675240246213 0 0.26500121398651938 -0.25431828450675109 0 0.28475248087165428 -0.27752847311654938 0 0.28139296974029759 -0.25667675240246213 0 0.25847247765992509 -0.27082879613576649 0 0.27010941091038659 -0.28595922022088621 0 0.28475248087165428 -0.27752847311654938 0 0.25847247765992509 -0.27082879613576649 0 0.25847247765992509 -0.27082879613576649 0 0.26500121398651938 -0.25431828450675109 0 0.24255183189338941 -0.24661944873281219 0 0.25847247765992509 -0.27082879613576649 0 0.2266036716243916 -0.26323704153784239 0 0.24255183189338941 -0.24661944873281219 0 0.25847247765992509 -0.27082879613576649 0 0.2266036716243916 -0.26323704153784239 0 0.2355519855795527 -0.28498083986907091 0 0.25847247765992509 -0.27082879613576649 0 0.2355519855795527 -0.28498083986907091 0 0.2266036716243916 -0.26323704153784239 0 0.21048279748970439 -0.27736175243299172 0 0.2355519855795527 -0.28498083986907091 0 0.2266036716243916 -0.26323704153784239 0 0.2049785387387755 -0.25530975736992773 0 0.21048279748970439 -0.27736175243299172 0 0.2266036716243916 -0.26323704153784239 0 0.2049785387387755 -0.25530975736992773 0 0.21871746949572959 -0.23478337363769319 0 0.21048279748970439 -0.27736175243299172 0 0.18759047139421511 -0.27253144472975871 0 0.19511109601355961 -0.28967526383030068 0 0.2049785387387755 -0.25530975736992773 0 0.21048279748970439 -0.27736175243299172 0 0.18759047139421511 -0.27253144472975871 0 0.2049785387387755 -0.25530975736992773 0 0.18754933303336119 -0.25580207571609143 0 0.19034781848719259 -0.23977941352787691 0 0.2049785387387755 -0.25530975736992773 0 0.18759047139421511 -0.27253144472975871 0 0.18754933303336119 -0.25580207571609143 0 0.19511109601355961 -0.28967526383030068 0 0.21263149349918031 -0.29913288360237522 0 0.1962145992546836 -0.31536675641549911 0 0.19511109601355961 -0.28967526383030068 0 0.1962145992546836 -0.31536675641549911 0 0.1804597454271856 -0.30242243388181528 0 0.21048279748970439 -0.27736175243299172 0 0.19511109601355961 -0.28967526383030068 0 0.21263149349918031 -0.29913288360237522 0 0.21263149349918031 -0.29913288360237522 0 0.23437416889165441 -0.30871016955312891 0 0.2355519855795527 -0.28498083986907091 0 0.21263149349918031 -0.29913288360237522 0 0.23437416889165441 -0.30871016955312891 0 0.21620948871632581 -0.3270860725492532 0 0.21048279748970439 -0.27736175243299172 0 0.21263149349918031 -0.29913288360237522 0 0.2355519855795527 -0.28498083986907091 0 0.21263149349918031 -0.29913288360237522 0 0.2355519855795527 -0.28498083986907091 0 0.2556470669324426 -0.32199198076154578 0 0.25766497747905648 -0.29748187112934138 0 0.23437416889165441 -0.30871016955312891 0 0.25766497747905648 -0.29748187112934138 0 0.23437416889165441 -0.30871016955312891 0 0.2355519855795527 -0.28498083986907091 0 0.2556470669324426 -0.32199198076154578 0 0.23437416889165441 -0.30871016955312891 0 0.23823563256883201 -0.34542851051294698 0 0.23437416889165441 -0.30871016955312891 0 0.23823563256883201 -0.34542851051294698 0 0.21620948871632581 -0.3270860725492532 0 0.2556470669324426 -0.32199198076154578 0 0.23823563256883201 -0.34542851051294698 0 0.23823563256883201 -0.34542851051294698 0 0.21618729631189551 -0.34806842562104678 0 0.21620948871632581 -0.3270860725492532 0 0.2494918960336161 -0.36588779995426818 0 0.23823563256883201 -0.34542851051294698 0 0.22082419820522139 -0.36886504026434819 0 0.2494918960336161 -0.36588779995426818 0 0.22082419820522139 -0.36886504026434819 0 0.2429893312295579 -0.3866797870293654 0 0.26072197362210131 -0.3487124090875201 0 0.2494918960336161 -0.36588779995426818 0 0.23823563256883201 -0.34542851051294698 0 0.23823563256883201 -0.34542851051294698 0 0.22082419820522139 -0.36886504026434819 0 0.23823563256883201 -0.34542851051294698 0 0.22082419820522139 -0.36886504026434819 0 0.21618729631189551 -0.34806842562104678 0 0.22082419820522139 -0.36886504026434819 0 0.2012640107612193 -0.35788886713901819 0 0.200846052500259 -0.3739617191793565 0 0.21618729631189551 -0.34806842562104678 0 0.2012640107612193 -0.35788886713901819 0 0.2020996865276404 -0.33943950927813099 0 0.22082419820522139 -0.36886504026434819 0 0.21618729631189551 -0.34806842562104678 0 0.2012640107612193 -0.35788886713901819 0 0.2012640107612193 -0.35788886713901819 0 0.2020996865276404 -0.33943950927813099 0 0.1842139232561735 -0.34846526913274972 0 0.2012640107612193 -0.35788886713901819 0 0.17990991216327831 -0.36753890093809172 0 0.1842139232561735 -0.34846526913274972 0 0.2012640107612193 -0.35788886713901819 0 0.200846052500259 -0.3739617191793565 0 0.17990991216327831 -0.36753890093809172 0 0.21263149349918031 -0.29913288360237522 0 0.21620948871632581 -0.3270860725492532 0 0.1962145992546836 -0.31536675641549911 0 0.21620948871632581 -0.3270860725492532 0 0.2020996865276404 -0.33943950927813099 0 0.1962145992546836 -0.31536675641549911 0 0.21618729631189551 -0.34806842562104678 0 0.21620948871632581 -0.3270860725492532 0 0.2020996865276404 -0.33943950927813099 0 0.2020996865276404 -0.33943950927813099 0 0.18751719196717029 -0.33083865301309268 0 0.1842139232561735 -0.34846526913274972 0 0.2020996865276404 -0.33943950927813099 0 0.18751719196717029 -0.33083865301309268 0 0.1962145992546836 -0.31536675641549911 0 0.18751719196717029 -0.33083865301309268 0 0.1962145992546836 -0.31536675641549911 0 0.1790439645431717 -0.31966919509485092 0 0.1790439645431717 -0.31966919509485092 0 0.1750014012687198 -0.33649520830826868 0 0.166585146039196 -0.32556173427865243 0 0.18751719196717029 -0.33083865301309268 0 0.1750014012687198 -0.33649520830826868 0 0.1842139232561735 -0.34846526913274972 0 0.18751719196717029 -0.33083865301309268 0 0.1790439645431717 -0.31966919509485092 0 0.1750014012687198 -0.33649520830826868 0 0.1750014012687198 -0.33649520830826868 0 0.16144740486728049 -0.33907656221553528 0 0.166585146039196 -0.32556173427865243 0 0.1750014012687198 -0.33649520830826868 0 0.16144740486728049 -0.33907656221553528 0 0.1666365243627809 -0.3533801349658327 0 0.16144740486728049 -0.33907656221553528 0 0.1535971679096837 -0.35121825642280019 0 0.1541645509848259 -0.34033899061776851 0 0.16144740486728049 -0.33907656221553528 0 0.1541645509848259 -0.34033899061776851 0 0.15462081791594751 -0.33600987372204771 0 0.16144740486728049 -0.33907656221553528 0 0.15724813377187141 -0.33044633271212759 0 0.166585146039196 -0.32556173427865243 0 0.16144740486728049 -0.33907656221553528 0 0.15724813377187141 -0.33044633271212759 0 0.15462081791594751 -0.33600987372204771 0 0.15724813377187141 -0.33044633271212759 0 0.1589107590305068 -0.32039811339500868 0 0.166585146039196 -0.32556173427865243 0 0.1589107590305068 -0.32039811339500868 0 0.15401162816020261 -0.30815237593008832 0 0.16061174514530571 -0.31166598572707771 0 0.1589107590305068 -0.32039811339500868 0 0.1677635068777133 -0.31125047002076928 0 0.16061174514530571 -0.31166598572707771 0 0.1790439645431717 -0.31966919509485092 0 0.166585146039196 -0.32556173427865243 0 0.1677635068777133 -0.31125047002076928 0 0.1589107590305068 -0.32039811339500868 0 0.166585146039196 -0.32556173427865243 0 0.1677635068777133 -0.31125047002076928 0 0.17990991216327831 -0.36753890093809172 0 0.1842139232561735 -0.34846526913274972 0 0.1666365243627809 -0.3533801349658327 0 0.1750014012687198 -0.33649520830826868 0 0.1842139232561735 -0.34846526913274972 0 0.1666365243627809 -0.3533801349658327 0 0.16144740486728049 -0.33907656221553528 0 0.1666365243627809 -0.3533801349658327 0 0.1535971679096837 -0.35121825642280019 0 0.1666365243627809 -0.3533801349658327 0 0.15250661073804719 -0.36044754905394383 0 0.1535971679096837 -0.35121825642280019 0 0.17990991216327831 -0.36753890093809172 0 0.1666365243627809 -0.3533801349658327 0 0.15807841898248021 -0.36895186947485981 0 0.17990991216327831 -0.36753890093809172 0 0.15807841898248021 -0.36895186947485981 0 0.16873756671782841 -0.38228688933832877 0 0.1666365243627809 -0.3533801349658327 0 0.15807841898248021 -0.36895186947485981 0 0.15250661073804719 -0.36044754905394383 0 0.15807841898248021 -0.36895186947485981 0 0.15250661073804719 -0.36044754905394383 0 0.14093852735130161 -0.36256541835321843 0 0.15807841898248021 -0.36895186947485981 0 0.14093852735130161 -0.36256541835321843 0 0.15236588110696789 -0.3887600658107157 0 0.14093852735130161 -0.36256541835321843 0 0.14747507775575111 -0.33535889714165312 0 0.13907362685954811 -0.35829055192575232 0 0.14238799907331109 -0.33350601846093392 0 0.14093852735130161 -0.36256541835321843 0 0.1535971679096837 -0.35121825642280019 0 0.14747507775575111 -0.33535889714165312 0 0.14093852735130161 -0.36256541835321843 0 0.13907362685954811 -0.35829055192575232 0 0.14747507775575111 -0.33535889714165312 0 0.15250661073804719 -0.36044754905394383 0 0.14093852735130161 -0.36256541835321843 0 0.1535971679096837 -0.35121825642280019 0 0.13939754032334631 -0.34772216462495242 0 0.13907362685954811 -0.35829055192575232 0 0.14238799907331109 -0.33350601846093392 0 0.13939754032334631 -0.34772216462495242 0 0.13495598619640831 -0.34885178352549051 0 0.13640643984705289 -0.35217662345294931 0 0.13939754032334631 -0.34772216462495242 0 0.13640643984705289 -0.35217662345294931 0 0.13495598619640831 -0.34885178352549051 0 0.13231946516234031 -0.35119603536093458 0 0.13640643984705289 -0.35217662345294931 0 0.13495598619640831 -0.34885178352549051 0 0.13640643984705289 -0.35217662345294931 0 0.13495598619640831 -0.34885178352549051 0 0.13080281585635231 -0.34814503183683682 0 0.13545046554329621 -0.34352337188735987 0 0.13939754032334631 -0.34772216462495242 0 0.13495598619640831 -0.34885178352549051 0 0.13545046554329621 -0.34352337188735987 0 0.13080281585635231 -0.34814503183683682 0 0.13545046554329621 -0.34352337188735987 0 0.12909925642765821 -0.34296623991542607 0 0.13080281585635231 -0.34814503183683682 0 0.12909925642765821 -0.34296623991542607 0 0.12343154243272531 -0.34962051020543872 0 0.13080281585635231 -0.34814503183683682 0 0.1271126187495476 -0.35561070262846223 0 0.12343154243272531 -0.34962051020543872 0 0.13495598619640831 -0.34885178352549051 0 0.13231946516234031 -0.35119603536093458 0 0.13080281585635231 -0.34814503183683682 0 0.13231946516234031 -0.35119603536093458 0 0.13080281585635231 -0.34814503183683682 0 0.1271126187495476 -0.35561070262846223 0 0.13231946516234031 -0.35119603536093458 0 0.1271126187495476 -0.35561070262846223 0 0.13640643984705289 -0.35217662345294931 0 0.13939754032334631 -0.34772216462495242 0 0.13640643984705289 -0.35217662345294931 0 0.13907362685954811 -0.35829055192575232 0 0.13640643984705289 -0.35217662345294931 0 0.13907362685954811 -0.35829055192575232 0 0.14093852735130161 -0.36256541835321843 0 0.13544330946925001 -0.38543769082408402 0 0.13907362685954811 -0.35829055192575232 0 0.13544330946925001 -0.38543769082408402 0 0.1201348664688227 -0.37640885980028138 0 0.14093852735130161 -0.36256541835321843 0 0.13907362685954811 -0.35829055192575232 0 0.13544330946925001 -0.38543769082408402 0 0.13640643984705289 -0.35217662345294931 0 0.1201348664688227 -0.37640885980028138 0 0.1271126187495476 -0.35561070262846223 0 0.13640643984705289 -0.35217662345294931 0 0.1201348664688227 -0.37640885980028138 0 0.13640643984705289 -0.35217662345294931 0 0.13907362685954811 -0.35829055192575232 0 0.1201348664688227 -0.37640885980028138 0 0.13907362685954811 -0.35829055192575232 0 0.13544330946925001 -0.38543769082408402 0 0.14093852735130161 -0.36256541835321843 0 0.13907362685954811 -0.35829055192575232 0 0.14747507775575111 -0.33535889714165312 0 0.1457023712870732 -0.30872148499611529 0 0.15401162816020261 -0.30815237593008832 0 0.1589107590305068 -0.32039811339500868 0 0.14747507775575111 -0.33535889714165312 0 0.15401162816020261 -0.30815237593008832 0 0.14238799907331109 -0.33350601846093392 0 0.1457023712870732 -0.30872148499611529 0 0.14238799907331109 -0.33350601846093392 0 0.13786528333537329 -0.3219261217113123 0 0.1457023712870732 -0.30872148499611529 0 0.14747507775575111 -0.33535889714165312 0 0.15401162816020261 -0.30815237593008832 0 0.14747507775575111 -0.33535889714165312 0 0.14238799907331109 -0.33350601846093392 0 0.1457023712870732 -0.30872148499611529 0 0.1535971679096837 -0.35121825642280019 0 0.1541645509848259 -0.34033899061776851 0 0.14747507775575111 -0.33535889714165312 0 0.15724813377187141 -0.33044633271212759 0 0.1589107590305068 -0.32039811339500868 0 0.14747507775575111 -0.33535889714165312 0 0.13907362685954811 -0.35829055192575232 0 0.14747507775575111 -0.33535889714165312 0 0.14238799907331109 -0.33350601846093392 0 0.15724813377187141 -0.33044633271212759 0 0.15462081791594751 -0.33600987372204771 0 0.14747507775575111 -0.33535889714165312 0 0.1541645509848259 -0.34033899061776851 0 0.15462081791594751 -0.33600987372204771 0 0.14747507775575111 -0.33535889714165312 0 0.14238799907331109 -0.33350601846093392 0 0.13542624541882911 -0.3324633285250238 0 0.1344737195455907 -0.33857273986180192 0 0.14238799907331109 -0.33350601846093392 0 0.1373666216693796 -0.32858945459213762 0 0.13542624541882911 -0.3324633285250238 0 0.1373666216693796 -0.32858945459213762 0 0.13542624541882911 -0.3324633285250238 0 0.13299030104586679 -0.32733611136620311 0 0.14238799907331109 -0.33350601846093392 0 0.1344737195455907 -0.33857273986180192 0 0.13545046554329621 -0.34352337188735987 0 0.13939754032334631 -0.34772216462495242 0 0.14238799907331109 -0.33350601846093392 0 0.13545046554329621 -0.34352337188735987 0 0.1344737195455907 -0.33857273986180192 0 0.13545046554329621 -0.34352337188735987 0 0.12909925642765821 -0.34296623991542607 0 0.1344737195455907 -0.33857273986180192 0 0.12909925642765821 -0.34296623991542607 0 0.12812879526334739 -0.33454811868658679 0 0.12909925642765821 -0.34296623991542607 0 0.12812879526334739 -0.33454811868658679 0 0.1211478883418685 -0.34238270177348562 0 0.12812879526334739 -0.33454811868658679 0 0.13299030104586679 -0.32733611136620311 0 0.1248233309565371 -0.32335180374508748 0 0.13542624541882911 -0.3324633285250238 0 0.12812879526334739 -0.33454811868658679 0 0.13299030104586679 -0.32733611136620311 0 0.13542624541882911 -0.3324633285250238 0 0.1344737195455907 -0.33857273986180192 0 0.12812879526334739 -0.33454811868658679 0 0.13299030104586679 -0.32733611136620311 0 0.13152431155502869 -0.31943936735109918 0 0.1248233309565371 -0.32335180374508748 0 0.13299030104586679 -0.32733611136620311 0 0.13786528333537329 -0.3219261217113123 0 0.13152431155502869 -0.31943936735109918 0 0.14238799907331109 -0.33350601846093392 0 0.1373666216693796 -0.32858945459213762 0 0.13786528333537329 -0.3219261217113123 0 0.1373666216693796 -0.32858945459213762 0 0.13299030104586679 -0.32733611136620311 0 0.13786528333537329 -0.3219261217113123 0 0.13786528333537329 -0.3219261217113123 0 0.13722009538158059 -0.31396429350138477 0 0.1457023712870732 -0.30872148499611529 0 0.13722009538158059 -0.31396429350138477 0 0.13152431155502869 -0.31943936735109918 0 0.1329917575447094 -0.30664396164193519 0 0.13786528333537329 -0.3219261217113123 0 0.13722009538158059 -0.31396429350138477 0 0.13152431155502869 -0.31943936735109918 0 0.13152431155502869 -0.31943936735109918 0 0.1329917575447094 -0.30664396164193519 0 0.12493418886512 -0.31286136344742882 0 0.13152431155502869 -0.31943936735109918 0 0.12493418886512 -0.31286136344742882 0 0.1248233309565371 -0.32335180374508748 0 0.1329917575447094 -0.30664396164193519 0 0.1214565070572317 -0.30252121577098262 0 0.12493418886512 -0.31286136344742882 0 0.1329917575447094 -0.30664396164193519 0 0.13045845435276851 -0.29331313885614779 0 0.1214565070572317 -0.30252121577098262 0 0.1329917575447094 -0.30664396164193519 0 0.1457023712870732 -0.30872148499611529 0 0.1400170961117666 -0.29683744829721759 0 0.1329917575447094 -0.30664396164193519 0 0.1400170961117666 -0.29683744829721759 0 0.13045845435276851 -0.29331313885614779 0 0.13722009538158059 -0.31396429350138477 0 0.1329917575447094 -0.30664396164193519 0 0.1457023712870732 -0.30872148499611529 0 0.1457023712870732 -0.30872148499611529 0 0.15401162816020261 -0.30815237593008832 0 0.1490167435008353 -0.28393695153129661 0 0.1457023712870732 -0.30872148499611529 0 0.1490167435008353 -0.28393695153129661 0 0.1457023712870732 -0.30872148499611529 0 0.1490167435008353 -0.28393695153129661 0 0.1400170961117666 -0.29683744829721759 0 0.15401162816020261 -0.30815237593008832 0 0.1490167435008353 -0.28393695153129661 0 0.16054817856465409 -0.28094585471852351 0 0.1490167435008353 -0.28393695153129661 0 0.1396368725106808 -0.28675067714604557 0 0.1400170961117666 -0.29683744829721759 0 0.1490167435008353 -0.28393695153129661 0 0.1396368725106808 -0.28675067714604557 0 0.14233857320789081 -0.2753226377964863 0 0.1396368725106808 -0.28675067714604557 0 0.13045845435276851 -0.29331313885614779 0 0.13393866048459549 -0.28029761198315278 0 0.1396368725106808 -0.28675067714604557 0 0.1400170961117666 -0.29683744829721759 0 0.13045845435276851 -0.29331313885614779 0 0.13045845435276851 -0.29331313885614779 0 0.13393866048459549 -0.28029761198315278 0 0.1238534910957754 -0.28433537107902762 0 0.13393866048459549 -0.28029761198315278 0 0.1224684739795328 -0.27277898150088692 0 0.1238534910957754 -0.28433537107902762 0 0.13358145795266571 -0.269124284403645 0 0.13393866048459549 -0.28029761198315278 0 0.1224684739795328 -0.27277898150088692 0 0.13358145795266571 -0.269124284403645 0 0.1279614478507384 -0.25872736966379251 0 0.1224684739795328 -0.27277898150088692 0 0.13358145795266571 -0.269124284403645 0 0.14313736109617881 -0.25991509948065389 0 0.14233857320789081 -0.2753226377964863 0 0.13358145795266571 -0.269124284403645 0 0.13393866048459549 -0.28029761198315278 0 0.14233857320789081 -0.2753226377964863 0 0.1396368725106808 -0.28675067714604557 0 0.13393866048459549 -0.28029761198315278 0 0.14233857320789081 -0.2753226377964863 0 0.1279614478507384 -0.25872736966379251 0 0.14313736109617881 -0.25991509948065389 0 0.1370486552902388 -0.24152729681687701 0 0.13358145795266571 -0.269124284403645 0 0.1279614478507384 -0.25872736966379251 0 0.14313736109617881 -0.25991509948065389 0 0.14313736109617881 -0.25991509948065389 0 0.1516980646839701 -0.2705502747418051 0 0.1670847289691057 -0.25373933350695871 0 0.14313736109617881 -0.25991509948065389 0 0.1670847289691057 -0.25373933350695871 0 0.1370486552902388 -0.24152729681687701 0 0.1490167435008353 -0.28393695153129661 0 0.14233857320789081 -0.2753226377964863 0 0.1516980646839701 -0.2705502747418051 0 0.14313736109617881 -0.25991509948065389 0 0.14233857320789081 -0.2753226377964863 0 0.1516980646839701 -0.2705502747418051 0 0.1490167435008353 -0.28393695153129661 0 0.1516980646839701 -0.2705502747418051 0 0.16054817856465409 -0.28094585471852351 0 0.1516980646839701 -0.2705502747418051 0 0.16054817856465409 -0.28094585471852351 0 0.1670847289691057 -0.25373933350695871 0 0.16054817856465409 -0.28094585471852351 0 0.1670847289691057 -0.25373933350695871 0 0.17596418691782001 -0.28311504685242928 0 0.16054817856465409 -0.28094585471852351 0 0.1670847289691057 -0.25373933350695871 0 0.18759047139421511 -0.27253144472975871 0 0.18754933303336119 -0.25580207571609143 0 0.1670847289691057 -0.25373933350695871 0 0.18759047139421511 -0.27253144472975871 0 0.1670847289691057 -0.25373933350695871 0 0.17596418691782001 -0.28311504685242928 0 0.17596418691782001 -0.28311504685242928 0 0.1804597454271856 -0.30242243388181528 0 0.16636452426377071 -0.29673175683018538 0 0.19511109601355961 -0.28967526383030068 0 0.17596418691782001 -0.28311504685242928 0 0.1804597454271856 -0.30242243388181528 0 0.18759047139421511 -0.27253144472975871 0 0.19511109601355961 -0.28967526383030068 0 0.17596418691782001 -0.28311504685242928 0 0.1962145992546836 -0.31536675641549911 0 0.1790439645431717 -0.31966919509485092 0 0.1804597454271856 -0.30242243388181528 0 0.1790439645431717 -0.31966919509485092 0 0.1804597454271856 -0.30242243388181528 0 0.1677635068777133 -0.31125047002076928 0 0.1804597454271856 -0.30242243388181528 0 0.1677635068777133 -0.31125047002076928 0 0.16636452426377071 -0.29673175683018538 0 0.1677635068777133 -0.31125047002076928 0 0.16213018021999839 -0.30693836826695109 0 0.16636452426377071 -0.29673175683018538 0 0.15401162816020261 -0.30815237593008832 0 0.16061174514530571 -0.31166598572707771 0 0.16213018021999839 -0.30693836826695109 0 0.1677635068777133 -0.31125047002076928 0 0.16061174514530571 -0.31166598572707771 0 0.16213018021999839 -0.30693836826695109 0 0.15401162816020261 -0.30815237593008832 0 0.16213018021999839 -0.30693836826695109 0 0.16636452426377071 -0.29673175683018538 0 0.15401162816020261 -0.30815237593008832 0 0.16054817856465409 -0.28094585471852351 0 0.16636452426377071 -0.29673175683018538 0 0.15401162816020261 -0.30815237593008832 0 0.16054817856465409 -0.28094585471852351 0 0.16054817856465409 -0.28094585471852351 0 0.17596418691782001 -0.28311504685242928 0 0.16636452426377071 -0.29673175683018538 0 0.1936009380228276 -0.5 0 0.20358063746556809 -0.4852787463156677 0 0.18096679211536471 -0.48455218594267452 0 0.19618473841314199 -0.4691043718853467 0 0.18096679211536471 -0.48455218594267452 0 0.19618473841314199 -0.4691043718853467 0 0.20358063746556809 -0.4852787463156677 0 0.18096679211536471 -0.48455218594267452 0 0.19618473841314199 -0.4691043718853467 0 0.2064581322083181 -0.47418486958385198 0 0.20358063746556809 -0.4852787463156677 0 0.2064581322083181 -0.47418486958385198 0 0.20358063746556809 -0.4852787463156677 0 0.21892511359319899 -0.47628670742704687 0 0.19618473841314199 -0.4691043718853467 0 0.2064581322083181 -0.47418486958385198 0 0.21267231130730491 -0.4663080388550559 0 0.2064581322083181 -0.47418486958385198 0 0.21892511359319899 -0.47628670742704687 0 0.21267231130730491 -0.4663080388550559 0 0.20358063746556809 -0.4852787463156677 0 0.2214530302280685 -0.5 0 0.21892511359319899 -0.47628670742704687 0 0.1936009380228276 -0.5 0 0.20358063746556809 -0.4852787463156677 0 0.2214530302280685 -0.5 0 0.2214530302280685 -0.5 0 0.23287521770226979 -0.48717547476482609 0 0.21892511359319899 -0.47628670742704687 0 0.23287521770226979 -0.48717547476482609 0 0.2493051224333096 -0.49999999999999972 0 0.2418176045545021 -0.47241519163225748 0 0.2214530302280685 -0.5 0 0.23287521770226979 -0.48717547476482609 0 0.2493051224333096 -0.49999999999999972 0 0.2418176045545021 -0.47241519163225748 0 0.21892511359319899 -0.47628670742704687 0 0.22481075892669661 -0.4626018468581552 0 0.23287521770226979 -0.48717547476482609 0 0.2418176045545021 -0.47241519163225748 0 0.21892511359319899 -0.47628670742704687 0 0.22481075892669661 -0.4626018468581552 0 0.23607223249158979 -0.44991973705091248 0 0.21140268471091961 -0.45365655782801928 0 0.21892511359319899 -0.47628670742704687 0 0.22481075892669661 -0.4626018468581552 0 0.21267231130730491 -0.4663080388550559 0 0.2418176045545021 -0.47241519163225748 0 0.22481075892669661 -0.4626018468581552 0 0.23607223249158979 -0.44991973705091248 0 0.25620585450284422 -0.46217127274087189 0 0.2418176045545021 -0.47241519163225748 0 0.23607223249158979 -0.44991973705091248 0 0.2607417802722598 -0.4461829162738053 0 0.23607223249158979 -0.44991973705091248 0 0.2467219873464099 -0.42639491559083209 0 0.2607417802722598 -0.4461829162738053 0 0.23607223249158979 -0.44991973705091248 0 0.23607223249158979 -0.44991973705091248 0 0.21140268471091961 -0.45365655782801928 0 0.23607223249158979 -0.44991973705091248 0 0.22263286728517359 -0.44183228481184361 0 0.2312413845962952 -0.43390875748664431 0 0.23607223249158979 -0.44991973705091248 0 0.22263286728517359 -0.44183228481184361 0 0.21404158495720821 -0.45097779687546768 0 0.23607223249158979 -0.44991973705091248 0 0.21404158495720821 -0.45097779687546768 0 0.21140268471091961 -0.45365655782801928 0 0.22263286728517359 -0.44183228481184361 0 0.2130581678440148 -0.44189469810724591 0 0.2187509665367596 -0.43246043453894761 0 0.2076909399732966 -0.44755147262909922 0 0.21140268471091961 -0.45365655782801928 0 0.19394215793805911 -0.44781476422494099 0 0.22263286728517359 -0.44183228481184361 0 0.2130581678440148 -0.44189469810724591 0 0.21404158495720821 -0.45097779687546768 0 0.2130581678440148 -0.44189469810724591 0 0.20450731718354959 -0.44208841469553822 0 0.2076909399732966 -0.44755147262909922 0 0.2130581678440148 -0.44189469810724591 0 0.20450731718354959 -0.44208841469553822 0 0.2078294131965992 -0.43513998350137872 0 0.20450731718354959 -0.44208841469553822 0 0.1978748864648274 -0.43650108630225548 0 0.2078294131965992 -0.43513998350137872 0 0.21404158495720821 -0.45097779687546768 0 0.21140268471091961 -0.45365655782801928 0 0.2130581678440148 -0.44189469810724591 0 0.2076909399732966 -0.44755147262909922 0 0.21404158495720821 -0.45097779687546768 0 0.2076909399732966 -0.44755147262909922 0 0.21404158495720821 -0.45097779687546768 0 0.21140268471091961 -0.45365655782801928 0 0.22481075892669661 -0.4626018468581552 0 0.21140268471091961 -0.45365655782801928 0 0.21267231130730491 -0.4663080388550559 0 0.19618473841314199 -0.4691043718853467 0 0.21140268471091961 -0.45365655782801928 0 0.21267231130730491 -0.4663080388550559 0 0.19618473841314199 -0.4691043718853467 0 0.21140268471091961 -0.45365655782801928 0 0.19618473841314199 -0.4691043718853467 0 0.18753919525056259 -0.45727128088750019 0 0.17922500565862801 -0.46965041412813391 0 0.19618473841314199 -0.4691043718853467 0 0.21140268471091961 -0.45365655782801928 0 0.18753919525056259 -0.45727128088750019 0 0.21140268471091961 -0.45365655782801928 0 0.18753919525056259 -0.45727128088750019 0 0.19394215793805911 -0.44781476422494099 0 0.1978748864648274 -0.43650108630225548 0 0.18566315821492849 -0.42991345285522348 0 0.21140268471091961 -0.45365655782801928 0 0.18753919525056259 -0.45727128088750019 0 0.19394215793805911 -0.44781476422494099 0 0.20450731718354959 -0.44208841469553822 0 0.19394215793805911 -0.44781476422494099 0 0.1978748864648274 -0.43650108630225548 0 0.20450731718354959 -0.44208841469553822 0 0.2076909399732966 -0.44755147262909922 0 0.19394215793805911 -0.44781476422494099 0 0.20495572795384459 -0.42275528386290662 0 0.18600132947800041 -0.41573809976715032 0 0.18566315821492849 -0.42991345285522348 0 0.1978748864648274 -0.43650108630225548 0 0.20495572795384459 -0.42275528386290662 0 0.18566315821492849 -0.42991345285522348 0 0.20495572795384459 -0.42275528386290662 0 0.20341276384161089 -0.39230157001574928 0 0.18600132947800041 -0.41573809976715032 0 0.20495572795384459 -0.42275528386290662 0 0.22448829847292309 -0.41570501068022903 0 0.20341276384161089 -0.39230157001574928 0 0.20495572795384459 -0.42275528386290662 0 0.2187509665367596 -0.43246043453894761 0 0.22448829847292309 -0.41570501068022903 0 0.20495572795384459 -0.42275528386290662 0 0.2078294131965992 -0.43513998350137872 0 0.2187509665367596 -0.43246043453894761 0 0.1978748864648274 -0.43650108630225548 0 0.20495572795384459 -0.42275528386290662 0 0.2078294131965992 -0.43513998350137872 0 0.2130581678440148 -0.44189469810724591 0 0.2078294131965992 -0.43513998350137872 0 0.2187509665367596 -0.43246043453894761 0 0.22263286728517359 -0.44183228481184361 0 0.2187509665367596 -0.43246043453894761 0 0.2312413845962952 -0.43390875748664431 0 0.2187509665367596 -0.43246043453894761 0 0.2312413845962952 -0.43390875748664431 0 0.22448829847292309 -0.41570501068022903 0 0.2312413845962952 -0.43390875748664431 0 0.2467219873464099 -0.42639491559083209 0 0.22448829847292309 -0.41570501068022903 0 0.23607223249158979 -0.44991973705091248 0 0.2312413845962952 -0.43390875748664431 0 0.2467219873464099 -0.42639491559083209 0 0.25995666788336091 -0.40576070656434138 0 0.2467219873464099 -0.42639491559083209 0 0.23967760317658529 -0.40518359854553571 0 0.2467219873464099 -0.42639491559083209 0 0.22448829847292309 -0.41570501068022903 0 0.23967760317658529 -0.40518359854553571 0 0.22448829847292309 -0.41570501068022903 0 0.22476450584512089 -0.39199435452787718 0 0.23967760317658529 -0.40518359854553571 0 0.22476450584512089 -0.39199435452787718 0 0.23967760317658529 -0.40518359854553571 0 0.2429893312295579 -0.3866797870293654 0 0.25995666788336091 -0.40576070656434138 0 0.23967760317658529 -0.40518359854553571 0 0.2429893312295579 -0.3866797870293654 0 0.22082419820522139 -0.36886504026434819 0 0.22476450584512089 -0.39199435452787718 0 0.2429893312295579 -0.3866797870293654 0 0.22082419820522139 -0.36886504026434819 0 0.22476450584512089 -0.39199435452787718 0 0.20341276384161089 -0.39230157001574928 0 0.22082419820522139 -0.36886504026434819 0 0.20341276384161089 -0.39230157001574928 0 0.22082419820522139 -0.36886504026434819 0 0.200846052500259 -0.3739617191793565 0 0.20341276384161089 -0.39230157001574928 0 0.22448829847292309 -0.41570501068022903 0 0.22476450584512089 -0.39199435452787718 0 0.20341276384161089 -0.39230157001574928 0 0.20341276384161089 -0.39230157001574928 0 0.18600132947800041 -0.41573809976715032 0 0.20341276384161089 -0.39230157001574928 0 0.1841499493622602 -0.38825849589765132 0 0.18600132947800041 -0.41573809976715032 0 0.200846052500259 -0.3739617191793565 0 0.20341276384161089 -0.39230157001574928 0 0.1841499493622602 -0.38825849589765132 0 0.200846052500259 -0.3739617191793565 0 0.17990991216327831 -0.36753890093809172 0 0.1841499493622602 -0.38825849589765132 0 0.1841499493622602 -0.38825849589765132 0 0.16918367197415529 -0.39792511457032548 0 0.16873756671782841 -0.38228688933832877 0 0.17990991216327831 -0.36753890093809172 0 0.1841499493622602 -0.38825849589765132 0 0.16873756671782841 -0.38228688933832877 0 0.1841499493622602 -0.38825849589765132 0 0.16918367197415529 -0.39792511457032548 0 0.18600132947800041 -0.41573809976715032 0 0.16918367197415529 -0.39792511457032548 0 0.15236588110696789 -0.3887600658107157 0 0.1637932348626327 -0.41495471326821393 0 0.15236588110696789 -0.3887600658107157 0 0.1637932348626327 -0.41495471326821393 0 0.16918367197415529 -0.39792511457032548 0 0.16873756671782841 -0.38228688933832877 0 0.15236588110696789 -0.3887600658107157 0 0.15807841898248021 -0.36895186947485981 0 0.16873756671782841 -0.38228688933832877 0 0.15236588110696789 -0.3887600658107157 0 0.14093852735130161 -0.36256541835321843 0 0.15236588110696789 -0.3887600658107157 0 0.13544330946925001 -0.38543769082408402 0 0.14093852735130161 -0.36256541835321843 0 0.15236588110696789 -0.3887600658107157 0 0.13544330946925001 -0.38543769082408402 0 0.1220841639156682 -0.39492227918015038 0 0.1201348664688227 -0.37640885980028138 0 0.13544330946925001 -0.38543769082408402 0 0.13121037746416789 -0.40305605942182882 0 0.13169713460820731 -0.41345119993542029 0 0.13544330946925001 -0.38543769082408402 0 0.14166030792599699 -0.39867993227083048 0 0.13169713460820731 -0.41345119993542029 0 0.13544330946925001 -0.38543769082408402 0 0.13121037746416789 -0.40305605942182882 0 0.13544330946925001 -0.38543769082408402 0 0.13169713460820731 -0.41345119993542029 0 0.13544330946925001 -0.38543769082408402 0 0.13121037746416789 -0.40305605942182882 0 0.1220841639156682 -0.39492227918015038 0 0.15236588110696789 -0.3887600658107157 0 0.13544330946925001 -0.38543769082408402 0 0.14166030792599699 -0.39867993227083048 0 0.15236588110696789 -0.3887600658107157 0 0.14713490651956351 -0.40707077251310231 0 0.1637932348626327 -0.41495471326821393 0 0.15236588110696789 -0.3887600658107157 0 0.14166030792599699 -0.39867993227083048 0 0.14713490651956351 -0.40707077251310231 0 0.14713490651956351 -0.40707077251310231 0 0.14626669924918681 -0.42191410109933752 0 0.1637932348626327 -0.41495471326821393 0 0.14713490651956351 -0.40707077251310231 0 0.13169713460820731 -0.41345119993542029 0 0.14626669924918681 -0.42191410109933752 0 0.14166030792599699 -0.39867993227083048 0 0.14713490651956351 -0.40707077251310231 0 0.13169713460820731 -0.41345119993542029 0 0.13169713460820731 -0.41345119993542029 0 0.13483404337301691 -0.42409374980155601 0 0.14626669924918681 -0.42191410109933752 0 0.13169713460820731 -0.41345119993542029 0 0.13483404337301691 -0.42409374980155601 0 0.1247073456892073 -0.420325753738644 0 0.13169713460820731 -0.41345119993542029 0 0.1197689730855105 -0.40906768970694601 0 0.1247073456892073 -0.420325753738644 0 0.13121037746416789 -0.40305605942182882 0 0.13169713460820731 -0.41345119993542029 0 0.1197689730855105 -0.40906768970694601 0 0.12621865661719861 -0.43218468934235821 0 0.13483404337301691 -0.42409374980155601 0 0.14360246226494519 -0.43662721723867259 0 0.12621865661719861 -0.43218468934235821 0 0.13483404337301691 -0.42409374980155601 0 0.1247073456892073 -0.420325753738644 0 0.14626669924918681 -0.42191410109933752 0 0.15720078314656799 -0.43204451992096748 0 0.1637932348626327 -0.41495471326821393 0 0.13483404337301691 -0.42409374980155601 0 0.14360246226494519 -0.43662721723867259 0 0.14626669924918681 -0.42191410109933752 0 0.14360246226494519 -0.43662721723867259 0 0.14626669924918681 -0.42191410109933752 0 0.15720078314656799 -0.43204451992096748 0 0.1637932348626327 -0.41495471326821393 0 0.17522058861829751 -0.44114936072571198 0 0.15720078314656799 -0.43204451992096748 0 0.1637932348626327 -0.41495471326821393 0 0.17522058861829751 -0.44114936072571198 0 0.1637932348626327 -0.41495471326821393 0 0.18600132947800041 -0.41573809976715032 0 0.18566315821492849 -0.42991345285522348 0 0.16918367197415529 -0.39792511457032548 0 0.1637932348626327 -0.41495471326821393 0 0.18600132947800041 -0.41573809976715032 0 0.1637932348626327 -0.41495471326821393 0 0.18566315821492849 -0.42991345285522348 0 0.17522058861829751 -0.44114936072571198 0 0.18753919525056259 -0.45727128088750019 0 0.19394215793805911 -0.44781476422494099 0 0.17522058861829751 -0.44114936072571198 0 0.19394215793805911 -0.44781476422494099 0 0.18566315821492849 -0.42991345285522348 0 0.17522058861829751 -0.44114936072571198 0 0.18753919525056259 -0.45727128088750019 0 0.17522058861829751 -0.44114936072571198 0 0.16367570579020541 -0.4608860039469807 0 0.18753919525056259 -0.45727128088750019 0 0.16367570579020541 -0.4608860039469807 0 0.18753919525056259 -0.45727128088750019 0 0.16367570579020541 -0.4608860039469807 0 0.17922500565862801 -0.46965041412813391 0 0.17522058861829751 -0.44114936072571198 0 0.16367570579020541 -0.4608860039469807 0 0.15712093073777769 -0.44557720727290162 0 0.15720078314656799 -0.43204451992096748 0 0.17522058861829751 -0.44114936072571198 0 0.15712093073777769 -0.44557720727290162 0 0.14360246226494519 -0.43662721723867259 0 0.15720078314656799 -0.43204451992096748 0 0.15712093073777769 -0.44557720727290162 0 0.14360246226494519 -0.43662721723867259 0 0.15712093073777769 -0.44557720727290162 0 0.1464509065202404 -0.45612142882987489 0 0.14360246226494519 -0.43662721723867259 0 0.1298078947924127 -0.44976890269794761 0 0.1464509065202404 -0.45612142882987489 0 0.12621865661719861 -0.43218468934235821 0 0.14360246226494519 -0.43662721723867259 0 0.1298078947924127 -0.44976890269794761 0 0.1298078947924127 -0.44976890269794761 0 0.13349375699801971 -0.4667283426846367 0 0.1137500245546945 -0.46455543618297301 0 0.1298078947924127 -0.44976890269794761 0 0.13349375699801971 -0.4667283426846367 0 0.1464509065202404 -0.45612142882987489 0 0.13349375699801971 -0.4667283426846367 0 0.1464509065202404 -0.45612142882987489 0 0.14832938639532131 -0.47773580959835582 0 0.16367570579020541 -0.4608860039469807 0 0.15712093073777769 -0.44557720727290162 0 0.1464509065202404 -0.45612142882987489 0 0.16367570579020541 -0.4608860039469807 0 0.1464509065202404 -0.45612142882987489 0 0.14832938639532131 -0.47773580959835582 0 0.13349375699801971 -0.4667283426846367 0 0.14832938639532131 -0.47773580959835582 0 0.1232981222798538 -0.48422454310726692 0 0.14832938639532131 -0.47773580959835582 0 0.13676506141132699 -0.5 0 0.1232981222798538 -0.48422454310726692 0 0.14832938639532131 -0.47773580959835582 0 0.13676506141132699 -0.5 0 0.16574884581758659 -0.50000000000000155 0 0.16574884581758659 -0.50000000000000155 0 0.16775859672386559 -0.47643822797816737 0 0.18096679211536471 -0.48455218594267452 0 0.14832938639532131 -0.47773580959835582 0 0.16574884581758659 -0.50000000000000155 0 0.16775859672386559 -0.47643822797816737 0 0.16367570579020541 -0.4608860039469807 0 0.14832938639532131 -0.47773580959835582 0 0.16775859672386559 -0.47643822797816737 0 0.16367570579020541 -0.4608860039469807 0 0.16775859672386559 -0.47643822797816737 0 0.17922500565862801 -0.46965041412813391 0 0.16775859672386559 -0.47643822797816737 0 0.17922500565862801 -0.46965041412813391 0 0.18096679211536471 -0.48455218594267452 0 0.19618473841314199 -0.4691043718853467 0 0.17922500565862801 -0.46965041412813391 0 0.18096679211536471 -0.48455218594267452 0 0.1936009380228276 -0.5 0 0.16574884581758659 -0.50000000000000155 0 0.18096679211536471 -0.48455218594267452 0 0.16574884581758659 -0.50000000000000155 0 0.18096679211536471 -0.48455218594267452 0 0.067744644291351602 -0.4729636681610645 0 0.078797492598807639 -0.5 0 0.049813708192547823 -0.5 0 0.067744644291351602 -0.4729636681610645 0 0.091398724955933958 -0.47399891537530758 0 0.078797492598807639 -0.5 0 0.091398724955933958 -0.47399891537530758 0 0.078797492598807639 -0.5 0 0.1077812770050675 -0.5 0 0.091398724955933958 -0.47399891537530758 0 0.1232981222798538 -0.48422454310726692 0 0.1137500245546945 -0.46455543618297301 0 0.091398724955933958 -0.47399891537530758 0 0.1077812770050675 -0.5 0 0.1232981222798538 -0.48422454310726692 0 0.13676506141132699 -0.5 0 0.1077812770050675 -0.5 0 0.1232981222798538 -0.48422454310726692 0 0.13349375699801971 -0.4667283426846367 0 0.1232981222798538 -0.48422454310726692 0 0.1137500245546945 -0.46455543618297301 0 0.091398724955933958 -0.47399891537530758 0 0.10022191487277381 -0.45397138981852508 0 0.1137500245546945 -0.46455543618297301 0 0.10022191487277381 -0.45397138981852508 0 0.1137500245546945 -0.46455543618297301 0 0.1142168525732276 -0.44264418126760552 0 0.1298078947924127 -0.44976890269794761 0 0.1137500245546945 -0.46455543618297301 0 0.1142168525732276 -0.44264418126760552 0 0.12621865661719861 -0.43218468934235821 0 0.1298078947924127 -0.44976890269794761 0 0.1142168525732276 -0.44264418126760552 0 0.10022191487277381 -0.45397138981852508 0 0.099659435523982015 -0.43828109892584333 0 0.082084536756030807 -0.45037731734089648 0 0.10022191487277381 -0.45397138981852508 0 0.1142168525732276 -0.44264418126760552 0 0.099659435523982015 -0.43828109892584333 0 0.099659435523982015 -0.43828109892584333 0 0.082084536756030807 -0.45037731734089648 0 0.087591719712357491 -0.4248733324949423 0 0.091398724955933958 -0.47399891537530758 0 0.10022191487277381 -0.45397138981852508 0 0.082084536756030807 -0.45037731734089648 0 0.091398724955933958 -0.47399891537530758 0 0.082084536756030807 -0.45037731734089648 0 0.067744644291351602 -0.4729636681610645 0 0.091398724955933958 -0.47399891537530758 0 0.082084536756030807 -0.45037731734089648 0 0.067744644291351602 -0.4729636681610645 0 0.082084536756030807 -0.45037731734089648 0 0.059975191342381447 -0.44540373928580951 0 0.082084536756030807 -0.45037731734089648 0 0.07277034855612767 -0.42675571930648543 0 0.082084536756030807 -0.45037731734089648 0 0.07277034855612767 -0.42675571930648543 0 0.059975191342381447 -0.44540373928580951 0 0.07277034855612767 -0.42675571930648543 0 0.056620775289779407 -0.42556062464569638 0 0.059975191342381447 -0.44540373928580951 0 0.07277034855612767 -0.42675571930648543 0 0.075508369284295218 -0.40915855347579339 0 0.063456160356224534 -0.40313412127207432 0 0.07277034855612767 -0.42675571930648543 0 0.063456160356224534 -0.40313412127207432 0 0.058755997698191433 -0.40883166519456698 0 0.07277034855612767 -0.42675571930648543 0 0.075508369284295218 -0.40915855347579339 0 0.084795294670743024 -0.41277711022405611 0 0.07277034855612767 -0.42675571930648543 0 0.058755997698191433 -0.40883166519456698 0 0.056620775289779407 -0.42556062464569638 0 0.07277034855612767 -0.42675571930648543 0 0.063456160356224534 -0.40313412127207432 0 0.07277034855612767 -0.42675571930648543 0 0.084795294670743024 -0.41277711022405611 0 0.087591719712357491 -0.4248733324949423 0 0.084795294670743024 -0.41277711022405611 0 0.087591719712357491 -0.4248733324949423 0 0.1038632930905901 -0.40064109614761179 0 0.075508369284295218 -0.40915855347579339 0 0.084795294670743024 -0.41277711022405611 0 0.084242742710344529 -0.40245684969544732 0 0.082084536756030807 -0.45037731734089648 0 0.07277034855612767 -0.42675571930648543 0 0.087591719712357491 -0.4248733324949423 0 0.099659435523982015 -0.43828109892584333 0 0.087591719712357491 -0.4248733324949423 0 0.1106683544211992 -0.42367190081249279 0 0.1142168525732276 -0.44264418126760552 0 0.099659435523982015 -0.43828109892584333 0 0.1106683544211992 -0.42367190081249279 0 0.12621865661719861 -0.43218468934235821 0 0.1142168525732276 -0.44264418126760552 0 0.1106683544211992 -0.42367190081249279 0 0.12621865661719861 -0.43218468934235821 0 0.1106683544211992 -0.42367190081249279 0 0.1247073456892073 -0.420325753738644 0 0.1106683544211992 -0.42367190081249279 0 0.1197689730855105 -0.40906768970694601 0 0.1038632930905901 -0.40064109614761179 0 0.1106683544211992 -0.42367190081249279 0 0.1197689730855105 -0.40906768970694601 0 0.1247073456892073 -0.420325753738644 0 0.087591719712357491 -0.4248733324949423 0 0.1038632930905901 -0.40064109614761179 0 0.087591719712357491 -0.4248733324949423 0 0.1106683544211992 -0.42367190081249279 0 0.1038632930905901 -0.40064109614761179 0 0.1197689730855105 -0.40906768970694601 0 0.1038632930905901 -0.40064109614761179 0 0.1220841639156682 -0.39492227918015038 0 0.1038632930905901 -0.40064109614761179 0 0.1220841639156682 -0.39492227918015038 0 0.1201348664688227 -0.37640885980028138 0 0.13121037746416789 -0.40305605942182882 0 0.1197689730855105 -0.40906768970694601 0 0.1220841639156682 -0.39492227918015038 0 0.1038632930905901 -0.40064109614761179 0 0.1201348664688227 -0.37640885980028138 0 0.1038632930905901 -0.40064109614761179 0 0.1201348664688227 -0.37640885980028138 0 0.1024778070954015 -0.37829822846727412 0 0.1038632930905901 -0.40064109614761179 0 0.1024778070954015 -0.37829822846727412 0 0.087549775153370826 -0.3850718065473277 0 0.1024778070954015 -0.37829822846727412 0 0.087549775153370826 -0.3850718065473277 0 0.090647837546181581 -0.37181436871111728 0 0.087549775153370826 -0.3850718065473277 0 0.090647837546181581 -0.37181436871111728 0 0.07371102231222916 -0.36854065178687589 0 0.087549775153370826 -0.3850718065473277 0 0.07371102231222916 -0.36854065178687589 0 0.087549775153370826 -0.3850718065473277 0 0.084242742710344529 -0.40245684969544732 0 0.074108287426316352 -0.39799493606689917 0 0.1038632930905901 -0.40064109614761179 0 0.087549775153370826 -0.3850718065473277 0 0.084242742710344529 -0.40245684969544732 0 0.084795294670743024 -0.41277711022405611 0 0.1038632930905901 -0.40064109614761179 0 0.084242742710344529 -0.40245684969544732 0 0.074108287426316352 -0.39799493606689917 0 0.063456160356224534 -0.40313412127207432 0 0.070083459703994738 -0.38687379415178608 0 0.075508369284295218 -0.40915855347579339 0 0.084242742710344529 -0.40245684969544732 0 0.074108287426316352 -0.39799493606689917 0 0.075508369284295218 -0.40915855347579339 0 0.074108287426316352 -0.39799493606689917 0 0.063456160356224534 -0.40313412127207432 0 0.087549775153370826 -0.3850718065473277 0 0.074108287426316352 -0.39799493606689917 0 0.070083459703994738 -0.38687379415178608 0 0.070083459703994738 -0.38687379415178608 0 0.054141972156322077 -0.37951252323766282 0 0.07371102231222916 -0.36854065178687589 0 0.087549775153370826 -0.3850718065473277 0 0.070083459703994738 -0.38687379415178608 0 0.07371102231222916 -0.36854065178687589 0 0.063456160356224534 -0.40313412127207432 0 0.070083459703994738 -0.38687379415178608 0 0.054141972156322077 -0.37951252323766282 0 0.054141972156322077 -0.37951252323766282 0 0.050629845633615868 -0.3963692590238308 0 0.063456160356224534 -0.40313412127207432 0 0.054141972156322077 -0.37951252323766282 0 0.050629845633615868 -0.3963692590238308 0 0.047117719110913503 -0.41322599480999972 0 0.050629845633615868 -0.3963692590238308 0 0.047117719110913503 -0.41322599480999972 0 0.058755997698191433 -0.40883166519456698 0 0.063456160356224534 -0.40313412127207432 0 0.054141972156322077 -0.37951252323766282 0 0.050629845633615868 -0.3963692590238308 0 0.063456160356224534 -0.40313412127207432 0 0.050629845633615868 -0.3963692590238308 0 0.058755997698191433 -0.40883166519456698 0 0.050629845633615868 -0.3963692590238308 0 0.038159926026409399 -0.40439641728892528 0 0.034779968269152389 -0.39019528461590719 0 0.050629845633615868 -0.3963692590238308 0 0.038159926026409399 -0.40439641728892528 0 0.047117719110913503 -0.41322599480999972 0 0.038159926026409399 -0.40439641728892528 0 0.034779968269152389 -0.39019528461590719 0 0.026784549094769371 -0.40306273685420863 0 0.054141972156322077 -0.37951252323766282 0 0.034779968269152389 -0.39019528461590719 0 0.033405057289267119 -0.37362339075748602 0 0.054141972156322077 -0.37951252323766282 0 0.050629845633615868 -0.3963692590238308 0 0.034779968269152389 -0.39019528461590719 0 0.034779968269152389 -0.39019528461590719 0 0.019786238589337962 -0.38074760041829658 0 0.033405057289267119 -0.37362339075748602 0 0.034779968269152389 -0.39019528461590719 0 0.019786238589337962 -0.38074760041829658 0 0.01917015014416476 -0.39328589555544979 0 0.019786238589337962 -0.38074760041829658 0 0.0029197303170832118 -0.38670830969820291 0 0.01917015014416476 -0.39328589555544979 0 0.019786238589337962 -0.38074760041829658 0 0.0029197303170832118 -0.38670830969820291 0 0.0039640162820100012 -0.36973960499016112 0 -0.0066020569581639356 -0.40190470511633242 0 0.0029197303170832118 -0.38670830969820291 0 0.01158026445048085 -0.40571554619063349 0 0.0029197303170832118 -0.38670830969820291 0 0.01158026445048085 -0.40571554619063349 0 0.01917015014416476 -0.39328589555544979 0 0.01158026445048085 -0.40571554619063349 0 0.01917015014416476 -0.39328589555544979 0 0.026784549094769371 -0.40306273685420863 0 0.034779968269152389 -0.39019528461590719 0 0.01917015014416476 -0.39328589555544979 0 0.026784549094769371 -0.40306273685420863 0 0.038159926026409399 -0.40439641728892528 0 0.026784549094769371 -0.40306273685420863 0 0.025235365808626831 -0.42148823672580987 0 0.01158026445048085 -0.40571554619063349 0 0.026784549094769371 -0.40306273685420863 0 0.025235365808626831 -0.42148823672580987 0 -0.0066020569581639356 -0.40190470511633242 0 0.01158026445048085 -0.40571554619063349 0 0.0023434108972794272 -0.41569375300161748 0 0.01158026445048085 -0.40571554619063349 0 0.025235365808626831 -0.42148823672580987 0 0.0023434108972794272 -0.41569375300161748 0 0.025235365808626831 -0.42148823672580987 0 0.0023434108972794272 -0.41569375300161748 0 0.003353012506339272 -0.42975047864161797 0 0.025235365808626831 -0.42148823672580987 0 0.003353012506339272 -0.42975047864161797 0 0.025235365808626831 -0.42148823672580987 0 0.003353012506339272 -0.42975047864161797 0 0.018712449077669519 -0.43828320322986491 0 0.025235365808626831 -0.42148823672580987 0 0.042741732837723007 -0.43422889545554377 0 0.018712449077669519 -0.43828320322986491 0 0.042741732837723007 -0.43422889545554377 0 0.047117719110913503 -0.41322599480999972 0 0.025235365808626831 -0.42148823672580987 0 0.042741732837723007 -0.43422889545554377 0 0.047117719110913503 -0.41322599480999972 0 0.025235365808626831 -0.42148823672580987 0 0.047117719110913503 -0.41322599480999972 0 0.038159926026409399 -0.40439641728892528 0 0.025235365808626831 -0.42148823672580987 0 0.047117719110913503 -0.41322599480999972 0 0.047117719110913503 -0.41322599480999972 0 0.058755997698191433 -0.40883166519456698 0 0.056620775289779407 -0.42556062464569638 0 0.047117719110913503 -0.41322599480999972 0 0.058755997698191433 -0.40883166519456698 0 0.042741732837723007 -0.43422889545554377 0 0.056620775289779407 -0.42556062464569638 0 0.059975191342381447 -0.44540373928580951 0 0.042741732837723007 -0.43422889545554377 0 0.047117719110913503 -0.41322599480999972 0 0.056620775289779407 -0.42556062464569638 0 0.067744644291351602 -0.4729636681610645 0 0.059975191342381447 -0.44540373928580951 0 0.044398211902407933 -0.46800203696437359 0 0.059975191342381447 -0.44540373928580951 0 0.044398211902407933 -0.46800203696437359 0 0.033162019483819423 -0.45068751132007379 0 0.044398211902407933 -0.46800203696437359 0 0.033162019483819423 -0.45068751132007379 0 0.0222497483075253 -0.47652911196621389 0 0.042741732837723007 -0.43422889545554377 0 0.033162019483819423 -0.45068751132007379 0 0.018712449077669519 -0.43828320322986491 0 0.042741732837723007 -0.43422889545554377 0 0.059975191342381447 -0.44540373928580951 0 0.033162019483819423 -0.45068751132007379 0 0.033162019483819423 -0.45068751132007379 0 0.018712449077669519 -0.43828320322986491 0 0.0097570125117890562 -0.4588554688199098 0 -0.0021495129678575681 -0.44621823914951758 0 0.018712449077669519 -0.43828320322986491 0 0.0097570125117890562 -0.4588554688199098 0 0.018712449077669519 -0.43828320322986491 0 0.0097570125117890562 -0.4588554688199098 0 -0.0021495129678575681 -0.44621823914951758 0 0.003353012506339272 -0.42975047864161797 0 0.018712449077669519 -0.43828320322986491 0 0.033162019483819423 -0.45068751132007379 0 0.0097570125117890562 -0.4588554688199098 0 0.0222497483075253 -0.47652911196621389 0 0.0097570125117890562 -0.4588554688199098 0 0.0008015759459086072 -0.47942773440995468 0 0.0097570125117890562 -0.4588554688199098 0 0.0222497483075253 -0.47652911196621389 0 0.0008015759459086072 -0.47942773440995468 0 0.0222497483075253 -0.47652911196621389 0 0.0008015759459086072 -0.47942773440995468 0 0.020829923786288122 -0.5 0 -0.0081538606199717031 -0.49999999999999972 0 0.0008015759459086072 -0.47942773440995468 0 0.020829923786288122 -0.5 0 0.0222497483075253 -0.47652911196621389 0 0.020829923786288122 -0.5 0 0.049813708192547823 -0.5 0 0.067744644291351602 -0.4729636681610645 0 0.044398211902407933 -0.46800203696437359 0 0.049813708192547823 -0.5 0 0.044398211902407933 -0.46800203696437359 0 0.0222497483075253 -0.47652911196621389 0 0.049813708192547823 -0.5 0 0.093553358205247253 -0.29300142848673422 0 0.068010798647247073 -0.29000767291105323 0 0.073568170605159036 -0.29592999758580613 0 0.093553358205247253 -0.29300142848673422 0 0.068010798647247073 -0.29000767291105323 0 0.081505923282057094 -0.28485374197825097 0 0.093553358205247253 -0.29300142848673422 0 0.068010798647247073 -0.29000767291105323 0 0.081505923282057094 -0.28485374197825097 0 0.09249739473203944 -0.28170569495599668 0 0.093553358205247253 -0.29300142848673422 0 0.093553358205247253 -0.29300142848673422 0 0.080771746072334949 -0.30441740195388411 0 0.073568170605159036 -0.29592999758580613 0 0.080771746072334949 -0.30441740195388411 0 0.091326291330282569 -0.31472113984182171 0 0.073245038981432767 -0.31420371299638949 0 0.093553358205247253 -0.29300142848673422 0 0.080771746072334949 -0.30441740195388411 0 0.091326291330282569 -0.31472113984182171 0 0.080771746072334949 -0.30441740195388411 0 0.072044715106682977 -0.30342920092017323 0 0.073568170605159036 -0.29592999758580613 0 0.072044715106682977 -0.30342920092017323 0 0.067681141154984636 -0.29857012570104352 0 0.073568170605159036 -0.29592999758580613 0 0.080771746072334949 -0.30441740195388411 0 0.072044715106682977 -0.30342920092017323 0 0.073245038981432767 -0.31420371299638949 0 0.072044715106682977 -0.30342920092017323 0 0.073245038981432767 -0.31420371299638949 0 0.062251840892366968 -0.30434747846520321 0 0.073245038981432767 -0.31420371299638949 0 0.062583964277480642 -0.31878252085564712 0 0.062251840892366968 -0.30434747846520321 0 0.072044715106682977 -0.30342920092017323 0 0.067681141154984636 -0.29857012570104352 0 0.062251840892366968 -0.30434747846520321 0 0.067681141154984636 -0.29857012570104352 0 0.062093053110999642 -0.29555113610800132 0 0.062251840892366968 -0.30434747846520321 0 0.081505923282057094 -0.28485374197825097 0 0.068010798647247073 -0.29000767291105323 0 0.083930153732480722 -0.272154055231211 0 0.067681141154984636 -0.29857012570104352 0 0.069277569738822348 -0.29489537014922929 0 0.062093053110999642 -0.29555113610800132 0 0.068010798647247073 -0.29000767291105323 0 0.069476655507958798 -0.29297953994709047 0 0.069277569738822348 -0.29489537014922929 0 0.068010798647247073 -0.29000767291105323 0 0.069277569738822348 -0.29489537014922929 0 0.062093053110999642 -0.29555113610800132 0 0.067681141154984636 -0.29857012570104352 0 0.069277569738822348 -0.29489537014922929 0 0.073568170605159036 -0.29592999758580613 0 0.069476655507958798 -0.29297953994709047 0 0.069277569738822348 -0.29489537014922929 0 0.073568170605159036 -0.29592999758580613 0 0.068010798647247073 -0.29000767291105323 0 0.069476655507958798 -0.29297953994709047 0 0.073568170605159036 -0.29592999758580613 0 0.068010798647247073 -0.29000767291105323 0 0.066571207832367682 -0.28336940589891341 0 0.071646508729462641 -0.27906487196151142 0 0.068010798647247073 -0.29000767291105323 0 0.066571207832367682 -0.28336940589891341 0 0.06051858862208525 -0.28313129308178581 0 0.068010798647247073 -0.29000767291105323 0 0.083930153732480722 -0.272154055231211 0 0.066228137235161078 -0.27664629668298152 0 0.071716347455827792 -0.26432839892825483 0 0.052479481199308661 -0.27513050629022962 0 0.066571207832367682 -0.28336940589891341 0 0.066228137235161078 -0.27664629668298152 0 0.06051858862208525 -0.28313129308178581 0 0.068010798647247073 -0.29000767291105323 0 0.071646508729462641 -0.27906487196151142 0 0.083930153732480722 -0.272154055231211 0 0.066571207832367682 -0.28336940589891341 0 0.066228137235161078 -0.27664629668298152 0 0.071646508729462641 -0.27906487196151142 0 0.073492246200056621 -0.27314692908339822 0 0.071716347455827792 -0.26432839892825483 0 0.083930153732480722 -0.272154055231211 0 0.066228137235161078 -0.27664629668298152 0 0.073492246200056621 -0.27314692908339822 0 0.071716347455827792 -0.26432839892825483 0 0.073492246200056621 -0.27314692908339822 0 0.071646508729462641 -0.27906487196151142 0 0.083930153732480722 -0.272154055231211 0 0.066228137235161078 -0.27664629668298152 0 0.073492246200056621 -0.27314692908339822 0 0.071646508729462641 -0.27906487196151142 0 0.071716347455827792 -0.26432839892825483 0 0.055071908288788607 -0.25638214018589722 0 0.073094641189144965 -0.24669843618493381 0 0.071716347455827792 -0.26432839892825483 0 0.090953213712346992 -0.25352629156627998 0 0.073094641189144965 -0.24669843618493381 0 0.090953213712346992 -0.25352629156627998 0 0.083930153732480722 -0.272154055231211 0 0.099849508817713539 -0.254300437551368 0 0.071716347455827792 -0.26432839892825483 0 0.090953213712346992 -0.25352629156627998 0 0.083930153732480722 -0.272154055231211 0 0.071716347455827792 -0.26432839892825483 0 0.090953213712346992 -0.25352629156627998 0 0.083930153732480722 -0.272154055231211 0 0.099849508817713539 -0.254300437551368 0 0.09249739473203944 -0.28170569495599668 0 0.083930153732480722 -0.272154055231211 0 0.10180065067234061 -0.27512284281943489 0 0.081505923282057094 -0.28485374197825097 0 0.09249739473203944 -0.28170569495599668 0 0.083930153732480722 -0.272154055231211 0 0.09249739473203944 -0.28170569495599668 0 0.10180065067234061 -0.27512284281943489 0 0.1023093602286453 -0.2854376372445796 0 0.083930153732480722 -0.272154055231211 0 0.10180065067234061 -0.27512284281943489 0 0.1031914505253602 -0.26538087947279099 0 0.10180065067234061 -0.27512284281943489 0 0.1031914505253602 -0.26538087947279099 0 0.11142594453718641 -0.27159029505322779 0 0.10180065067234061 -0.27512284281943489 0 0.11142594453718641 -0.27159029505322779 0 0.1131484539458948 -0.28269067996276681 0 0.10180065067234061 -0.27512284281943489 0 0.1131484539458948 -0.28269067996276681 0 0.1023093602286453 -0.2854376372445796 0 0.099849508817713539 -0.254300437551368 0 0.108734702346312 -0.25784237643368563 0 0.1176307108926951 -0.24961825485572839 0 0.083930153732480722 -0.272154055231211 0 0.099849508817713539 -0.254300437551368 0 0.1031914505253602 -0.26538087947279099 0 0.108734702346312 -0.25784237643368563 0 0.1031914505253602 -0.26538087947279099 0 0.1142671391494791 -0.262069933854855 0 0.099849508817713539 -0.254300437551368 0 0.108734702346312 -0.25784237643368563 0 0.1031914505253602 -0.26538087947279099 0 0.108734702346312 -0.25784237643368563 0 0.1142671391494791 -0.262069933854855 0 0.1176307108926951 -0.24961825485572839 0 0.1279614478507384 -0.25872736966379251 0 0.1142671391494791 -0.262069933854855 0 0.1224684739795328 -0.27277898150088692 0 0.1279614478507384 -0.25872736966379251 0 0.1142671391494791 -0.262069933854855 0 0.1176307108926951 -0.24961825485572839 0 0.11142594453718641 -0.27159029505322779 0 0.1224684739795328 -0.27277898150088692 0 0.1131484539458948 -0.28269067996276681 0 0.1031914505253602 -0.26538087947279099 0 0.1142671391494791 -0.262069933854855 0 0.11142594453718641 -0.27159029505322779 0 0.1142671391494791 -0.262069933854855 0 0.11142594453718641 -0.27159029505322779 0 0.1224684739795328 -0.27277898150088692 0 0.1224684739795328 -0.27277898150088692 0 0.1238534910957754 -0.28433537107902762 0 0.1131484539458948 -0.28269067996276681 0 0.1238534910957754 -0.28433537107902762 0 0.1197165873919924 -0.29241168302912918 0 0.1131484539458948 -0.28269067996276681 0 0.1197165873919924 -0.29241168302912918 0 0.1131484539458948 -0.28269067996276681 0 0.1096660305082918 -0.29919800947672098 0 0.13045845435276851 -0.29331313885614779 0 0.1197165873919924 -0.29241168302912918 0 0.1214565070572317 -0.30252121577098262 0 0.13045845435276851 -0.29331313885614779 0 0.1238534910957754 -0.28433537107902762 0 0.1197165873919924 -0.29241168302912918 0 0.1131484539458948 -0.28269067996276681 0 0.1023093602286453 -0.2854376372445796 0 0.1096660305082918 -0.29919800947672098 0 0.093553358205247253 -0.29300142848673422 0 0.1023093602286453 -0.2854376372445796 0 0.1096660305082918 -0.29919800947672098 0 0.09249739473203944 -0.28170569495599668 0 0.093553358205247253 -0.29300142848673422 0 0.1023093602286453 -0.2854376372445796 0 0.1096660305082918 -0.29919800947672098 0 0.091326291330282569 -0.31472113984182171 0 0.1096660305082918 -0.29919800947672098 0 0.11399600833635649 -0.31553059989903132 0 0.091326291330282569 -0.31472113984182171 0 0.093553358205247253 -0.29300142848673422 0 0.1096660305082918 -0.29919800947672098 0 0.091326291330282569 -0.31472113984182171 0 0.1096660305082918 -0.29919800947672098 0 0.1214565070572317 -0.30252121577098262 0 0.11399600833635649 -0.31553059989903132 0 0.1197165873919924 -0.29241168302912918 0 0.1096660305082918 -0.29919800947672098 0 0.1214565070572317 -0.30252121577098262 0 0.1214565070572317 -0.30252121577098262 0 0.12493418886512 -0.31286136344742882 0 0.11399600833635649 -0.31553059989903132 0 0.12493418886512 -0.31286136344742882 0 0.11399600833635649 -0.31553059989903132 0 0.1248233309565371 -0.32335180374508748 0 0.11399600833635649 -0.31553059989903132 0 0.1173915829910581 -0.33105778904746619 0 0.1038859569382824 -0.32772975666536158 0 0.11399600833635649 -0.31553059989903132 0 0.1248233309565371 -0.32335180374508748 0 0.1173915829910581 -0.33105778904746619 0 0.12812879526334739 -0.33454811868658679 0 0.1248233309565371 -0.32335180374508748 0 0.1173915829910581 -0.33105778904746619 0 0.12812879526334739 -0.33454811868658679 0 0.1173915829910581 -0.33105778904746619 0 0.1211478883418685 -0.34238270177348562 0 0.1173915829910581 -0.33105778904746619 0 0.1211478883418685 -0.34238270177348562 0 0.1104375203561072 -0.34043635937991717 0 0.1173915829910581 -0.33105778904746619 0 0.1104375203561072 -0.34043635937991717 0 0.1038859569382824 -0.32772975666536158 0 0.1104375203561072 -0.34043635937991717 0 0.099015291065540925 -0.33874790813085748 0 0.1038859569382824 -0.32772975666536158 0 0.1104375203561072 -0.34043635937991717 0 0.099015291065540925 -0.33874790813085748 0 0.10161010226421691 -0.34845654511163993 0 0.099015291065540925 -0.33874790813085748 0 0.1038859569382824 -0.32772975666536158 0 0.089247971494008954 -0.33215569894963859 0 0.1038859569382824 -0.32772975666536158 0 0.091326291330282569 -0.31472113984182171 0 0.089247971494008954 -0.33215569894963859 0 0.11399600833635649 -0.31553059989903132 0 0.1038859569382824 -0.32772975666536158 0 0.091326291330282569 -0.31472113984182171 0 0.1271126187495476 -0.35561070262846223 0 0.1201348664688227 -0.37640885980028138 0 0.1179799560078713 -0.35916650541676459 0 0.1201348664688227 -0.37640885980028138 0 0.1024778070954015 -0.37829822846727412 0 0.109653113084293 -0.36814556799608911 0 0.1201348664688227 -0.37640885980028138 0 0.109653113084293 -0.36814556799608911 0 0.1179799560078713 -0.35916650541676459 0 0.109653113084293 -0.36814556799608911 0 0.1179799560078713 -0.35916650541676459 0 0.10673573347348 -0.35863082822500442 0 0.1179799560078713 -0.35916650541676459 0 0.1144467192130542 -0.34945187966165753 0 0.10673573347348 -0.35863082822500442 0 0.1179799560078713 -0.35916650541676459 0 0.12343154243272531 -0.34962051020543872 0 0.1144467192130542 -0.34945187966165753 0 0.1271126187495476 -0.35561070262846223 0 0.1179799560078713 -0.35916650541676459 0 0.12343154243272531 -0.34962051020543872 0 0.12909925642765821 -0.34296623991542607 0 0.1211478883418685 -0.34238270177348562 0 0.12343154243272531 -0.34962051020543872 0 0.1211478883418685 -0.34238270177348562 0 0.12343154243272531 -0.34962051020543872 0 0.1144467192130542 -0.34945187966165753 0 0.1211478883418685 -0.34238270177348562 0 0.1104375203561072 -0.34043635937991717 0 0.1144467192130542 -0.34945187966165753 0 0.1104375203561072 -0.34043635937991717 0 0.1144467192130542 -0.34945187966165753 0 0.10161010226421691 -0.34845654511163993 0 0.099015291065540925 -0.33874790813085748 0 0.10161010226421691 -0.34845654511163993 0 0.089894904275089199 -0.34496118054773051 0 0.10161010226421691 -0.34845654511163993 0 0.091992162292868399 -0.35888377926943421 0 0.089894904275089199 -0.34496118054773051 0 0.10161010226421691 -0.34845654511163993 0 0.10673573347348 -0.35863082822500442 0 0.091992162292868399 -0.35888377926943421 0 0.1144467192130542 -0.34945187966165753 0 0.10161010226421691 -0.34845654511163993 0 0.10673573347348 -0.35863082822500442 0 0.109653113084293 -0.36814556799608911 0 0.10673573347348 -0.35863082822500442 0 0.1009372023758893 -0.36822341807112069 0 0.1009372023758893 -0.36822341807112069 0 0.090647837546181581 -0.37181436871111728 0 0.091992162292868399 -0.35888377926943421 0 0.10673573347348 -0.35863082822500442 0 0.1009372023758893 -0.36822341807112069 0 0.091992162292868399 -0.35888377926943421 0 0.1024778070954015 -0.37829822846727412 0 0.1009372023758893 -0.36822341807112069 0 0.090647837546181581 -0.37181436871111728 0 0.1024778070954015 -0.37829822846727412 0 0.109653113084293 -0.36814556799608911 0 0.1009372023758893 -0.36822341807112069 0 0.090647837546181581 -0.37181436871111728 0 0.091992162292868399 -0.35888377926943421 0 0.07371102231222916 -0.36854065178687589 0 0.080390811170533011 -0.35215737008183501 0 0.091992162292868399 -0.35888377926943421 0 0.07371102231222916 -0.36854065178687589 0 0.080390811170533011 -0.35215737008183501 0 0.091992162292868399 -0.35888377926943421 0 0.089894904275089199 -0.34496118054773051 0 0.080390811170533011 -0.35215737008183501 0 0.089894904275089199 -0.34496118054773051 0 0.07694146027920136 -0.34123619505593228 0 0.070192371758503541 -0.34880132046495099 0 0.07371102231222916 -0.36854065178687589 0 0.059872269471088008 -0.35200949702642359 0 0.080390811170533011 -0.35215737008183501 0 0.070192371758503541 -0.34880132046495099 0 0.07371102231222916 -0.36854065178687589 0 0.080390811170533011 -0.35215737008183501 0 0.070192371758503541 -0.34880132046495099 0 0.07694146027920136 -0.34123619505593228 0 0.070192371758503541 -0.34880132046495099 0 0.07694146027920136 -0.34123619505593228 0 0.062012228633942929 -0.34173858965215692 0 0.070192371758503541 -0.34880132046495099 0 0.062012228633942929 -0.34173858965215692 0 0.059872269471088008 -0.35200949702642359 0 0.07371102231222916 -0.36854065178687589 0 0.059872269471088008 -0.35200949702642359 0 0.054141972156322077 -0.37951252323766282 0 0.07371102231222916 -0.36854065178687589 0 0.059872269471088008 -0.35200949702642359 0 0.091326291330282569 -0.31472113984182171 0 0.072986552152273357 -0.33024427020692237 0 0.091326291330282569 -0.31472113984182171 0 0.072986552152273357 -0.33024427020692237 0 0.073245038981432767 -0.31420371299638949 0 0.091326291330282569 -0.31472113984182171 0 0.089247971494008954 -0.33215569894963859 0 0.072986552152273357 -0.33024427020692237 0 0.089247971494008954 -0.33215569894963859 0 0.072986552152273357 -0.33024427020692237 0 0.07694146027920136 -0.34123619505593228 0 0.099015291065540925 -0.33874790813085748 0 0.089894904275089199 -0.34496118054773051 0 0.089247971494008954 -0.33215569894963859 0 0.089894904275089199 -0.34496118054773051 0 0.089247971494008954 -0.33215569894963859 0 0.07694146027920136 -0.34123619505593228 0 0.072986552152273357 -0.33024427020692237 0 0.062012228633942929 -0.34173858965215692 0 0.054646812974264089 -0.34576740057202321 0 0.072986552152273357 -0.33024427020692237 0 0.054646812974264089 -0.34576740057202321 0 0.072986552152273357 -0.33024427020692237 0 0.07694146027920136 -0.34123619505593228 0 0.062012228633942929 -0.34173858965215692 0 0.072986552152273357 -0.33024427020692237 0 0.073245038981432767 -0.31420371299638949 0 0.062583964277480642 -0.31878252085564712 0 0.072986552152273357 -0.33024427020692237 0 0.062583964277480642 -0.31878252085564712 0 0.057088687257489078 -0.32926126550328139 0 0.062583964277480642 -0.31878252085564712 0 0.051313307985183958 -0.31325038812228201 0 0.057088687257489078 -0.32926126550328139 0 0.051313307985183958 -0.31325038812228201 0 0.057088687257489078 -0.32926126550328139 0 0.042231736190458051 -0.33093690550993832 0 0.072986552152273357 -0.33024427020692237 0 0.057088687257489078 -0.32926126550328139 0 0.054646812974264089 -0.34576740057202321 0 0.057088687257489078 -0.32926126550328139 0 0.042231736190458051 -0.33093690550993832 0 0.054646812974264089 -0.34576740057202321 0 0.042231736190458051 -0.33093690550993832 0 0.054646812974264089 -0.34576740057202321 0 0.042231736190458051 -0.33093690550993832 0 0.039971789898648767 -0.34357569845151931 0 0.054646812974264089 -0.34576740057202321 0 0.039971789898648767 -0.34357569845151931 0 0.032028436718411053 -0.33648955156325561 0 0.035672534119492762 -0.35046387017678421 0 0.042231736190458051 -0.33093690550993832 0 0.039971789898648767 -0.34357569845151931 0 0.032028436718411053 -0.33648955156325561 0 0.051313307985183958 -0.31325038812228201 0 0.042231736190458051 -0.33093690550993832 0 0.029816659406651808 -0.31610641044785359 0 0.042231736190458051 -0.33093690550993832 0 0.032028436718411053 -0.33648955156325561 0 0.029816659406651808 -0.31610641044785359 0 0.042231736190458051 -0.33093690550993832 0 0.029816659406651808 -0.31610641044785359 0 0.051313307985183958 -0.31325038812228201 0 0.029816659406651808 -0.31610641044785359 0 0.054141972156322077 -0.37951252323766282 0 0.059872269471088008 -0.35200949702642359 0 0.054141972156322077 -0.37951252323766282 0 0.044291939679659331 -0.35453197712930562 0 0.054141972156322077 -0.37951252323766282 0 0.059872269471088008 -0.35200949702642359 0 0.044291939679659331 -0.35453197712930562 0 0.062012228633942929 -0.34173858965215692 0 0.059872269471088008 -0.35200949702642359 0 0.062012228633942929 -0.34173858965215692 0 0.059872269471088008 -0.35200949702642359 0 0.054646812974264089 -0.34576740057202321 0 0.059872269471088008 -0.35200949702642359 0 0.054646812974264089 -0.34576740057202321 0 0.054646812974264089 -0.34576740057202321 0 0.044291939679659331 -0.35453197712930562 0 0.059872269471088008 -0.35200949702642359 0 0.054646812974264089 -0.34576740057202321 0 0.044291939679659331 -0.35453197712930562 0 0.039971789898648767 -0.34357569845151931 0 0.035672534119492762 -0.35046387017678421 0 0.044291939679659331 -0.35453197712930562 0 0.039971789898648767 -0.34357569845151931 0 0.044291939679659331 -0.35453197712930562 0 0.039971789898648767 -0.34357569845151931 0 0.054646812974264089 -0.34576740057202321 0 0.044291939679659331 -0.35453197712930562 0 0.035672534119492762 -0.35046387017678421 0 0.03693323031157502 -0.35743338700862409 0 0.044291939679659331 -0.35453197712930562 0 0.035672534119492762 -0.35046387017678421 0 0.03693323031157502 -0.35743338700862409 0 0.029062453693095621 -0.36006980271123862 0 0.03693323031157502 -0.35743338700862409 0 0.044291939679659331 -0.35453197712930562 0 0.040052134548775098 -0.36352849691427158 0 0.054141972156322077 -0.37951252323766282 0 0.040052134548775098 -0.36352849691427158 0 0.033405057289267119 -0.37362339075748602 0 0.054141972156322077 -0.37951252323766282 0 0.044291939679659331 -0.35453197712930562 0 0.040052134548775098 -0.36352849691427158 0 0.03693323031157502 -0.35743338700862409 0 0.040052134548775098 -0.36352849691427158 0 0.029062453693095621 -0.36006980271123862 0 0.040052134548775098 -0.36352849691427158 0 0.033405057289267119 -0.37362339075748602 0 0.029062453693095621 -0.36006980271123862 0 0.033405057289267119 -0.37362339075748602 0 0.019494976025606538 -0.36825600038936301 0 0.029062453693095621 -0.36006980271123862 0 0.019786238589337962 -0.38074760041829658 0 0.033405057289267119 -0.37362339075748602 0 0.019494976025606538 -0.36825600038936301 0 0.019494976025606538 -0.36825600038936301 0 0.029062453693095621 -0.36006980271123862 0 0.014972253898813201 -0.35703719925622118 0 0.029062453693095621 -0.36006980271123862 0 0.023842148485349261 -0.34614167651021738 0 0.014972253898813201 -0.35703719925622118 0 0.035672534119492762 -0.35046387017678421 0 0.029062453693095621 -0.36006980271123862 0 0.023842148485349261 -0.34614167651021738 0 0.032028436718411053 -0.33648955156325561 0 0.035672534119492762 -0.35046387017678421 0 0.023842148485349261 -0.34614167651021738 0 0.023842148485349261 -0.34614167651021738 0 0.014972253898813201 -0.35703719925622118 0 0.0093317321774938674 -0.34169119552975691 0 0.00052524739885579535 -0.35716383243888389 0 0.014972253898813201 -0.35703719925622118 0 0.0093317321774938674 -0.34169119552975691 0 0.019786238589337962 -0.38074760041829658 0 0.019494976025606538 -0.36825600038936301 0 0.0039640162820100012 -0.36973960499016112 0 0.019494976025606538 -0.36825600038936301 0 0.014972253898813201 -0.35703719925622118 0 0.0039640162820100012 -0.36973960499016112 0 0.00052524739885579535 -0.35716383243888389 0 0.014972253898813201 -0.35703719925622118 0 0.0039640162820100012 -0.36973960499016112 0 0.032028436718411053 -0.33648955156325561 0 0.029816659406651808 -0.31610641044785359 0 0.020635752209865649 -0.33171274828322111 0 0.029816659406651808 -0.31610641044785359 0 0.0070601983744440662 -0.31912981014300462 0 0.014027763755190501 -0.30973706338372081 0 0.029816659406651808 -0.31610641044785359 0 0.0070601983744440662 -0.31912981014300462 0 0.029816659406651808 -0.31610641044785359 0 0.020635752209865649 -0.33171274828322111 0 0.0070601983744440662 -0.31912981014300462 0 0.032028436718411053 -0.33648955156325561 0 0.023842148485349261 -0.34614167651021738 0 0.020635752209865649 -0.33171274828322111 0 0.023842148485349261 -0.34614167651021738 0 0.020635752209865649 -0.33171274828322111 0 0.0093317321774938674 -0.34169119552975691 0 0.020635752209865649 -0.33171274828322111 0 0.0093317321774938674 -0.34169119552975691 0 0.0070601983744440662 -0.31912981014300462 0 -0.0030021406375939528 -0.33184036807390832 0 0.0093317321774938674 -0.34169119552975691 0 0.0070601983744440662 -0.31912981014300462 0 -0.0066984186948097248 -0.31022387640048898 0 0.0070601983744440662 -0.31912981014300462 0 0.0033484972358136058 -0.30368005454958658 0 0.0033484972358136058 -0.30368005454958658 0 0.011483652519263711 -0.30181045796211398 0 0.01036281351394606 -0.2928677168437413 0 0.011483652519263711 -0.30181045796211398 0 0.01036281351394606 -0.2928677168437413 0 0.0200897364602995 -0.30448706364579697 0 0.01036281351394606 -0.2928677168437413 0 0.0200897364602995 -0.30448706364579697 0 0.0070601983744440662 -0.31912981014300462 0 0.0033484972358136058 -0.30368005454958658 0 0.014027763755190501 -0.30973706338372081 0 0.0033484972358136058 -0.30368005454958658 0 0.011483652519263711 -0.30181045796211398 0 0.014027763755190501 -0.30973706338372081 0 0.011483652519263711 -0.30181045796211398 0 0.014027763755190501 -0.30973706338372081 0 0.0200897364602995 -0.30448706364579697 0 -4.3688403679403157e-05 -0.29320417647180252 0 0.0033484972358136058 -0.30368005454958658 0 0.01036281351394606 -0.2928677168437413 0 -4.3688403679403157e-05 -0.29320417647180252 0 0.0076344331999184112 -0.28293116672587981 0 0.01036281351394606 -0.2928677168437413 0 0.0076344331999184112 -0.28293116672587981 0 0.01036281351394606 -0.2928677168437413 0 0.018065397867784942 -0.29445509990926999 0 0.0076344331999184112 -0.28293116672587981 0 0.018065397867784942 -0.29445509990926999 0 0.033242614942789253 -0.28593261365220379 0 0.0076344331999184112 -0.28293116672587981 0 0.033242614942789253 -0.28593261365220379 0 0.018065397867784942 -0.29445509990926999 0 0.033242614942789253 -0.28593261365220379 0 0.018065397867784942 -0.29445509990926999 0 0.026801458744286809 -0.29791248644954621 0 0.033242614942789253 -0.28593261365220379 0 0.029816659406651808 -0.31610641044785359 0 0.014027763755190501 -0.30973706338372081 0 0.0200897364602995 -0.30448706364579697 0 0.018065397867784942 -0.29445509990926999 0 0.0200897364602995 -0.30448706364579697 0 0.026801458744286809 -0.29791248644954621 0 0.01036281351394606 -0.2928677168437413 0 0.018065397867784942 -0.29445509990926999 0 0.0200897364602995 -0.30448706364579697 0 0.0200897364602995 -0.30448706364579697 0 0.026801458744286809 -0.29791248644954621 0 0.035197157670707253 -0.30194102582793331 0 0.029816659406651808 -0.31610641044785359 0 0.0200897364602995 -0.30448706364579697 0 0.035197157670707253 -0.30194102582793331 0 0.029816659406651808 -0.31610641044785359 0 0.0200897364602995 -0.30448706364579697 0 0.051313307985183958 -0.31325038812228201 0 0.046779227254749672 -0.29888605559301068 0 0.035197157670707253 -0.30194102582793331 0 0.051313307985183958 -0.31325038812228201 0 0.029816659406651808 -0.31610641044785359 0 0.035197157670707253 -0.30194102582793331 0 0.046779227254749672 -0.29888605559301068 0 0.035197157670707253 -0.30194102582793331 0 0.033242614942789253 -0.28593261365220379 0 0.046779227254749672 -0.29888605559301068 0 0.033242614942789253 -0.28593261365220379 0 0.050626706795018239 -0.28797014328162779 0 0.033242614942789253 -0.28593261365220379 0 0.050626706795018239 -0.28797014328162779 0 0.033242614942789253 -0.28593261365220379 0 0.050626706795018239 -0.28797014328162779 0 0.052479481199308661 -0.27513050629022962 0 0.026801458744286809 -0.29791248644954621 0 0.035197157670707253 -0.30194102582793331 0 0.033242614942789253 -0.28593261365220379 0 0.068010798647247073 -0.29000767291105323 0 0.050626706795018239 -0.28797014328162779 0 0.062093053110999642 -0.29555113610800132 0 0.046779227254749672 -0.29888605559301068 0 0.050626706795018239 -0.28797014328162779 0 0.055670977044198912 -0.29643857990863087 0 0.068010798647247073 -0.29000767291105323 0 0.050626706795018239 -0.28797014328162779 0 0.068010798647247073 -0.29000767291105323 0 0.050626706795018239 -0.28797014328162779 0 0.06051858862208525 -0.28313129308178581 0 0.050626706795018239 -0.28797014328162779 0 0.06051858862208525 -0.28313129308178581 0 0.052479481199308661 -0.27513050629022962 0 0.050626706795018239 -0.28797014328162779 0 0.055670977044198912 -0.29643857990863087 0 0.062093053110999642 -0.29555113610800132 0 0.055670977044198912 -0.29643857990863087 0 0.062093053110999642 -0.29555113610800132 0 0.062251840892366968 -0.30434747846520321 0 0.046779227254749672 -0.29888605559301068 0 0.055670977044198912 -0.29643857990863087 0 0.062251840892366968 -0.30434747846520321 0 0.062583964277480642 -0.31878252085564712 0 0.051313307985183958 -0.31325038812228201 0 0.062251840892366968 -0.30434747846520321 0 0.051313307985183958 -0.31325038812228201 0 0.046779227254749672 -0.29888605559301068 0 0.062251840892366968 -0.30434747846520321 0 0.055071908288788607 -0.25638214018589722 0 0.052479481199308661 -0.27513050629022962 0 0.03725166675372147 -0.26409227573825761 0 0.071716347455827792 -0.26432839892825483 0 0.055071908288788607 -0.25638214018589722 0 0.052479481199308661 -0.27513050629022962 0 0.071716347455827792 -0.26432839892825483 0 0.052479481199308661 -0.27513050629022962 0 0.066228137235161078 -0.27664629668298152 0 0.06051858862208525 -0.28313129308178581 0 0.052479481199308661 -0.27513050629022962 0 0.033242614942789253 -0.28593261365220379 0 0.052479481199308661 -0.27513050629022962 0 0.033242614942789253 -0.28593261365220379 0 0.052479481199308661 -0.27513050629022962 0 0.03725166675372147 -0.26409227573825761 0 0.03725166675372147 -0.26409227573825761 0 0.02231091970296098 -0.24958786406818431 0 0.040607315712111972 -0.2471057830860828 0 0.055071908288788607 -0.25638214018589722 0 0.03725166675372147 -0.26409227573825761 0 0.040607315712111972 -0.2471057830860828 0 0.019797760676369361 -0.27041474714694791 0 0.0069897799888501604 -0.26263972463889451 0 0.02231091970296098 -0.24958786406818431 0 0.03725166675372147 -0.26409227573825761 0 0.019797760676369361 -0.27041474714694791 0 0.02231091970296098 -0.24958786406818431 0 0.0076344331999184112 -0.28293116672587981 0 0.033242614942789253 -0.28593261365220379 0 0.019797760676369361 -0.27041474714694791 0 0.033242614942789253 -0.28593261365220379 0 0.03725166675372147 -0.26409227573825761 0 0.019797760676369361 -0.27041474714694791 0 0.0076344331999184112 -0.28293116672587981 0 0.019797760676369361 -0.27041474714694791 0 0.0080542566693395309 -0.27210433242598597 0 0.019797760676369361 -0.27041474714694791 0 0.0080542566693395309 -0.27210433242598597 0 0.0069897799888501604 -0.26263972463889451 0 -0.0022049471877798048 -0.27243169119222183 0 0.0080542566693395309 -0.27210433242598597 0 0.0069897799888501604 -0.26263972463889451 0 -0.0022049471877798048 -0.27243169119222183 0 0.0076344331999184112 -0.28293116672587981 0 0.0080542566693395309 -0.27210433242598597 0 0.0069897799888501604 -0.26263972463889451 0 0.0045897711361613689 -0.24797064528740631 0 0.02231091970296098 -0.24958786406818431 0 0.0045897711361613689 -0.24797064528740631 0 0.010110570348942209 -0.2312605828640818 0 0.02231091970296098 -0.24958786406818431 0 -0.0090156570986048169 -0.2405549759964698 0 0.0045897711361613689 -0.24797064528740631 0 0.010110570348942209 -0.2312605828640818 0 -0.0047536407777424208 -0.2172918674456534 0 0.010110570348942209 -0.2312605828640818 0 0.01432753793635403 -0.20876574095017081 0 0.010110570348942209 -0.2312605828640818 0 0.01432753793635403 -0.20876574095017081 0 0.032535808148867522 -0.2243107527115932 0 0.010110570348942209 -0.2312605828640818 0 0.02231091970296098 -0.24958786406818431 0 0.032535808148867522 -0.2243107527115932 0 0.01432753793635403 -0.20876574095017081 0 0.0289235378334733 -0.18945167300732549 0 0.032535808148867522 -0.2243107527115932 0 -0.00049162445687959901 -0.19402875889483709 0 0.0289235378334733 -0.18945167300732549 0 -0.00049162445687959901 -0.19402875889483709 0 0.01432753793635403 -0.20876574095017081 0 0.0289235378334733 -0.18945167300732549 0 -0.0047536407777424208 -0.2172918674456534 0 -0.00049162445687959901 -0.19402875889483709 0 0.01432753793635403 -0.20876574095017081 0 0.0289235378334733 -0.18945167300732549 0 0.055127324889989462 -0.21075075882502201 0 0.032535808148867522 -0.2243107527115932 0 0.0289235378334733 -0.18945167300732549 0 0.055127324889989462 -0.21075075882502201 0 0.058338700123826012 -0.18487458711981261 0 0.040607315712111972 -0.2471057830860828 0 0.032535808148867522 -0.2243107527115932 0 0.057820651230108377 -0.23827934522907071 0 0.02231091970296098 -0.24958786406818431 0 0.040607315712111972 -0.2471057830860828 0 0.032535808148867522 -0.2243107527115932 0 0.055127324889989462 -0.21075075882502201 0 0.032535808148867522 -0.2243107527115932 0 0.057820651230108377 -0.23827934522907071 0 0.055071908288788607 -0.25638214018589722 0 0.057820651230108377 -0.23827934522907071 0 0.073094641189144965 -0.24669843618493381 0 0.055071908288788607 -0.25638214018589722 0 0.040607315712111972 -0.2471057830860828 0 0.057820651230108377 -0.23827934522907071 0 0.057820651230108377 -0.23827934522907071 0 0.073094641189144965 -0.24669843618493381 0 0.077283793939244519 -0.22547055836730109 0 0.090953213712346992 -0.25352629156627998 0 0.073094641189144965 -0.24669843618493381 0 0.084579009633572705 -0.2403542194094028 0 0.090953213712346992 -0.25352629156627998 0 0.084579009633572705 -0.2403542194094028 0 0.096984389693554371 -0.2357215915190963 0 0.073094641189144965 -0.24669843618493381 0 0.084579009633572705 -0.2403542194094028 0 0.077283793939244519 -0.22547055836730109 0 0.084579009633572705 -0.2403542194094028 0 0.077283793939244519 -0.22547055836730109 0 0.096984389693554371 -0.2357215915190963 0 0.077283793939244519 -0.22547055836730109 0 0.096746936648380716 -0.21266177150553159 0 0.096984389693554371 -0.2357215915190963 0 0.077283793939244519 -0.22547055836730109 0 0.096746936648380716 -0.21266177150553159 0 0.057820651230108377 -0.23827934522907071 0 0.077283793939244519 -0.22547055836730109 0 0.055127324889989462 -0.21075075882502201 0 0.057820651230108377 -0.23827934522907071 0 0.077283793939244519 -0.22547055836730109 0 0.055127324889989462 -0.21075075882502201 0 0.077283793939244519 -0.22547055836730109 0 0.079014920322960619 -0.20145067712691159 0 0.055127324889989462 -0.21075075882502201 0 0.079014920322960619 -0.20145067712691159 0 0.058338700123826012 -0.18487458711981261 0 0.079014920322960619 -0.20145067712691159 0 0.087753862414178624 -0.18029750123229979 0 0.058338700123826012 -0.18487458711981261 0 0.079014920322960619 -0.20145067712691159 0 0.096746936648380716 -0.21266177150553159 0 0.098838903922144491 -0.19464888571150271 0 0.079014920322960619 -0.20145067712691159 0 0.098838903922144491 -0.19464888571150271 0 0.087753862414178624 -0.18029750123229979 0 0.077283793939244519 -0.22547055836730109 0 0.079014920322960619 -0.20145067712691159 0 0.096746936648380716 -0.21266177150553159 0 0.096746936648380716 -0.21266177150553159 0 0.1162100793575169 -0.199852984643762 0 0.096746936648380716 -0.21266177150553159 0 0.1162100793575169 -0.199852984643762 0 0.1121698188727925 -0.21976149090841371 0 0.096746936648380716 -0.21266177150553159 0 0.098838903922144491 -0.19464888571150271 0 0.1162100793575169 -0.199852984643762 0 0.1162100793575169 -0.199852984643762 0 0.11716902470453119 -0.17572041534478691 0 0.13567322206665311 -0.18704419778199241 0 0.098838903922144491 -0.19464888571150271 0 0.1162100793575169 -0.199852984643762 0 0.11716902470453119 -0.17572041534478691 0 0.1162100793575169 -0.199852984643762 0 0.1121698188727925 -0.21976149090841371 0 0.13168821898817909 -0.21859320219168199 0 0.1157688639029463 -0.23644681987152499 0 0.13168821898817909 -0.21859320219168199 0 0.1121698188727925 -0.21976149090841371 0 0.1157688639029463 -0.23644681987152499 0 0.13168821898817909 -0.21859320219168199 0 0.1157688639029463 -0.23644681987152499 0 0.1176307108926951 -0.24961825485572839 0 0.1370486552902388 -0.24152729681687701 0 0.099849508817713539 -0.254300437551368 0 0.1157688639029463 -0.23644681987152499 0 0.1176307108926951 -0.24961825485572839 0 0.090953213712346992 -0.25352629156627998 0 0.099849508817713539 -0.254300437551368 0 0.096984389693554371 -0.2357215915190963 0 0.099849508817713539 -0.254300437551368 0 0.1157688639029463 -0.23644681987152499 0 0.096984389693554371 -0.2357215915190963 0 0.099849508817713539 -0.254300437551368 0 0.1157688639029463 -0.23644681987152499 0 0.096746936648380716 -0.21266177150553159 0 0.1121698188727925 -0.21976149090841371 0 0.096984389693554371 -0.2357215915190963 0 0.1121698188727925 -0.21976149090841371 0 0.1157688639029463 -0.23644681987152499 0 0.096984389693554371 -0.2357215915190963 0 0.11557270046160389 -0.1531562365640948 0 0.092664089132162619 -0.14628433999511331 0 0.11134639977856201 -0.15669934661886731 0 0.084211487766078813 -0.15337056010465891 0 0.11557270046160389 -0.1531562365640948 0 0.11134639977856201 -0.15669934661886731 0 0.092664089132162619 -0.14628433999511331 0 0.1064321922130073 -0.14372393140342199 0 0.11557270046160389 -0.1531562365640948 0 0.092664089132162619 -0.14628433999511331 0 0.11134639977856201 -0.15669934661886731 0 0.084211487766078813 -0.15337056010465891 0 0.092664089132162619 -0.14628433999511331 0 0.1064321922130073 -0.14372393140342199 0 0.099543416373500157 -0.13505186710561409 0 0.092664089132162619 -0.14628433999511331 0 0.099543416373500157 -0.13505186710561409 0 0.086267172060276925 -0.13248660241525631 0 0.099461458653524237 -0.1244112859199554 0 0.099543416373500157 -0.13505186710561409 0 0.1128921698085297 -0.12835317579432351 0 0.099461458653524237 -0.1244112859199554 0 0.1064321922130073 -0.14372393140342199 0 0.099543416373500157 -0.13505186710561409 0 0.1128921698085297 -0.12835317579432351 0 0.1064321922130073 -0.14372393140342199 0 0.1128921698085297 -0.12835317579432351 0 0.13144179296803249 -0.1295558362820802 0 0.1064321922130073 -0.14372393140342199 0 0.12982257951988471 -0.1455713738541235 0 0.13144179296803249 -0.1295558362820802 0 0.1064321922130073 -0.14372393140342199 0 0.13144179296803249 -0.1295558362820802 0 0.1064321922130073 -0.14372393140342199 0 0.11557270046160389 -0.1531562365640948 0 0.12982257951988471 -0.1455713738541235 0 0.11557270046160389 -0.1531562365640948 0 0.11134639977856201 -0.15669934661886731 0 0.1384813117910452 -0.1600281331330759 0 0.1207165837680156 -0.16637559274851441 0 0.11134639977856201 -0.15669934661886731 0 0.1384813117910452 -0.1600281331330759 0 0.11134639977856201 -0.15669934661886731 0 0.1384813117910452 -0.1600281331330759 0 0.1207165837680156 -0.16637559274851441 0 0.11716902470453119 -0.17572041534478691 0 0.13098487785540139 -0.17215369172101061 0 0.1207165837680156 -0.16637559274851441 0 0.11716902470453119 -0.17572041534478691 0 0.105601304710538 -0.1672763769248313 0 0.1207165837680156 -0.16637559274851441 0 0.11134639977856201 -0.15669934661886731 0 0.105601304710538 -0.1672763769248313 0 0.098838903922144491 -0.19464888571150271 0 0.11716902470453119 -0.17572041534478691 0 0.087753862414178624 -0.18029750123229979 0 0.11716902470453119 -0.17572041534478691 0 0.087753862414178624 -0.18029750123229979 0 0.11716902470453119 -0.17572041534478691 0 0.105601304710538 -0.1672763769248313 0 0.087753862414178624 -0.18029750123229979 0 0.11134639977856201 -0.15669934661886731 0 0.098610080158620453 -0.16081944354517019 0 0.084211487766078813 -0.15337056010465891 0 0.105601304710538 -0.1672763769248313 0 0.093281128379302983 -0.1659314905323232 0 0.087753862414178624 -0.18029750123229979 0 0.11134639977856201 -0.15669934661886731 0 0.105601304710538 -0.1672763769248313 0 0.098610080158620453 -0.16081944354517019 0 0.105601304710538 -0.1672763769248313 0 0.098610080158620453 -0.16081944354517019 0 0.093281128379302983 -0.1659314905323232 0 0.098610080158620453 -0.16081944354517019 0 0.093281128379302983 -0.1659314905323232 0 0.084211487766078813 -0.15337056010465891 0 0.083501814176524886 -0.16666430880392291 0 0.087753862414178624 -0.18029750123229979 0 0.068760778146539123 -0.16705768334640991 0 0.093281128379302983 -0.1659314905323232 0 0.083501814176524886 -0.16666430880392291 0 0.084211487766078813 -0.15337056010465891 0 0.093281128379302983 -0.1659314905323232 0 0.083501814176524886 -0.16666430880392291 0 0.087753862414178624 -0.18029750123229979 0 0.083501814176524886 -0.16666430880392291 0 0.068760778146539123 -0.16705768334640991 0 0.084211487766078813 -0.15337056010465891 0 0.087753862414178624 -0.18029750123229979 0 0.068760778146539123 -0.16705768334640991 0 0.058338700123826012 -0.18487458711981261 0 0.087753862414178624 -0.18029750123229979 0 0.058338700123826012 -0.18487458711981261 0 0.068760778146539123 -0.16705768334640991 0 0.084211487766078813 -0.15337056010465891 0 0.057076575753595642 -0.15004177359045059 0 0.084211487766078813 -0.15337056010465891 0 0.057076575753595642 -0.15004177359045059 0 0.084211487766078813 -0.15337056010465891 0 0.069755477802721261 -0.13941244342613179 0 0.057076575753595642 -0.15004177359045059 0 0.092664089132162619 -0.14628433999511331 0 0.069755477802721261 -0.13941244342613179 0 0.084211487766078813 -0.15337056010465891 0 0.092664089132162619 -0.14628433999511331 0 0.069755477802721261 -0.13941244342613179 0 0.092664089132162619 -0.14628433999511331 0 0.086267172060276925 -0.13248660241525631 0 0.069755477802721261 -0.13941244342613179 0 0.086267172060276925 -0.13248660241525631 0 0.084926885720396653 -0.1223350585082847 0 0.099461458653524237 -0.1244112859199554 0 0.099543416373500157 -0.13505186710561409 0 0.092664089132162619 -0.14628433999511331 0 0.086267172060276925 -0.13248660241525631 0 0.086267172060276925 -0.13248660241525631 0 0.084926885720396653 -0.1223350585082847 0 0.071688368861640955 -0.124394371535689 0 0.086267172060276925 -0.13248660241525631 0 0.069755477802721261 -0.13941244342613179 0 0.071688368861640955 -0.124394371535689 0 0.069755477802721261 -0.13941244342613179 0 0.057404929854258248 -0.12898751164630839 0 0.071688368861640955 -0.124394371535689 0 0.069755477802721261 -0.13941244342613179 0 0.057404929854258248 -0.12898751164630839 0 0.057076575753595642 -0.15004177359045059 0 0.057404929854258248 -0.12898751164630839 0 0.057076575753595642 -0.15004177359045059 0 0.043600171180786407 -0.1357474183665866 0 0.057404929854258248 -0.12898751164630839 0 0.043600171180786407 -0.1357474183665866 0 0.042959882144076929 -0.1241861045337368 0 0.057076575753595642 -0.15004177359045059 0 0.043600171180786407 -0.1357474183665866 0 0.02994166374111246 -0.14671298707624239 0 0.057076575753595642 -0.15004177359045059 0 0.02994166374111246 -0.14671298707624239 0 0.057076575753595642 -0.15004177359045059 0 0.040532417370836987 -0.1558474688601672 0 0.02994166374111246 -0.14671298707624239 0 0.040532417370836987 -0.1558474688601672 0 0.029940655855751178 -0.1584914691996317 0 0.02994166374111246 -0.14671298707624239 0 0.043600171180786407 -0.1357474183665866 0 0.02994307602620639 -0.1302085557321985 0 0.02994166374111246 -0.14671298707624239 0 0.043600171180786407 -0.1357474183665866 0 0.02994307602620639 -0.1302085557321985 0 0.042959882144076929 -0.1241861045337368 0 0.068760778146539123 -0.16705768334640991 0 0.058338700123826012 -0.18487458711981261 0 0.045170774132888697 -0.16814364557434419 0 0.068760778146539123 -0.16705768334640991 0 0.057076575753595642 -0.15004177359045059 0 0.045170774132888697 -0.16814364557434419 0 0.057076575753595642 -0.15004177359045059 0 0.040532417370836987 -0.1558474688601672 0 0.045170774132888697 -0.16814364557434419 0 0.045170774132888697 -0.16814364557434419 0 0.021367170270536671 -0.17275456229158179 0 0.029940655855751178 -0.1584914691996317 0 0.040532417370836987 -0.1558474688601672 0 0.045170774132888697 -0.16814364557434419 0 0.029940655855751178 -0.1584914691996317 0 0.0289235378334733 -0.18945167300732549 0 0.045170774132888697 -0.16814364557434419 0 0.021367170270536671 -0.17275456229158179 0 0.0289235378334733 -0.18945167300732549 0 0.058338700123826012 -0.18487458711981261 0 0.0289235378334733 -0.18945167300732549 0 0.058338700123826012 -0.18487458711981261 0 0.045170774132888697 -0.16814364557434419 0 -0.00049162445687959901 -0.19402875889483709 0 0.0289235378334733 -0.18945167300732549 0 0.021367170270536671 -0.17275456229158179 0 0.021367170270536671 -0.17275456229158179 0 0.029940655855751178 -0.1584914691996317 0 0.017415372860468219 -0.15754409887949589 0 0.017415372860468219 -0.15754409887949589 0 0.0045529290094580514 -0.16649437468720599 0 0.0081420224945937605 -0.15021763520186909 0 0.021367170270536671 -0.17275456229158179 0 0.017415372860468219 -0.15754409887949589 0 0.0045529290094580514 -0.16649437468720599 0 -0.00049162445687959901 -0.19402875889483709 0 0.021367170270536671 -0.17275456229158179 0 0.0045529290094580514 -0.16649437468720599 0 -0.00049162445687959901 -0.19402875889483709 0 0.0045529290094580514 -0.16649437468720599 0 0.02994307602620639 -0.1302085557321985 0 0.021552263821482009 -0.14568381398358879 0 0.01384528498829672 -0.13149261392808079 0 0.02994307602620639 -0.1302085557321985 0 0.02994166374111246 -0.14671298707624239 0 0.02994307602620639 -0.1302085557321985 0 0.01384528498829672 -0.13149261392808079 0 0.020460964667249011 -0.1226010928848057 0 0.021552263821482009 -0.14568381398358879 0 0.01148726543628026 -0.14172322127082199 0 0.01384528498829672 -0.13149261392808079 0 0.02994307602620639 -0.1302085557321985 0 0.02994166374111246 -0.14671298707624239 0 0.021552263821482009 -0.14568381398358879 0 0.02994166374111246 -0.14671298707624239 0 0.024961423864271581 -0.1526018020216601 0 0.021552263821482009 -0.14568381398358879 0 0.02994166374111246 -0.14671298707624239 0 0.021552263821482009 -0.14568381398358879 0 0.029940655855751178 -0.1584914691996317 0 0.02994166374111246 -0.14671298707624239 0 0.029940655855751178 -0.1584914691996317 0 0.02994166374111246 -0.14671298707624239 0 0.024961423864271581 -0.1526018020216601 0 0.029940655855751178 -0.1584914691996317 0 0.017415372860468219 -0.15754409887949589 0 0.024961423864271581 -0.1526018020216601 0 0.017415372860468219 -0.15754409887949589 0 0.021552263821482009 -0.14568381398358879 0 0.0081420224945937605 -0.15021763520186909 0 0.017415372860468219 -0.15754409887949589 0 0.024961423864271581 -0.1526018020216601 0 0.021552263821482009 -0.14568381398358879 0 0.021552263821482009 -0.14568381398358879 0 0.01148726543628026 -0.14172322127082199 0 0.0081420224945937605 -0.15021763520186909 0 -0.0035108828440678619 -0.1496249683051637 0 0.0045529290094580514 -0.16649437468720599 0 0.0081420224945937605 -0.15021763520186909 0 0.01148726543628026 -0.14172322127082199 0 0.0081420224945937605 -0.15021763520186909 0 0.0018587621706557061 -0.13941655462574831 0 -0.0035108828440678619 -0.1496249683051637 0 0.0081420224945937605 -0.15021763520186909 0 0.0018587621706557061 -0.13941655462574831 0 -0.00060019710931625701 -0.1280105309801354 0 0.0018587621706557061 -0.13941655462574831 0 0.01384528498829672 -0.13149261392808079 0 0.01148726543628026 -0.14172322127082199 0 0.0018587621706557061 -0.13941655462574831 0 0.01384528498829672 -0.13149261392808079 0 -0.00060019710931625701 -0.1280105309801354 0 0.01384528498829672 -0.13149261392808079 0 0.0081110093431909468 -0.1149990774907888 0 0.01384528498829672 -0.13149261392808079 0 0.0081110093431909468 -0.1149990774907888 0 0.020460964667249011 -0.1226010928848057 0 0.02994307602620639 -0.1302085557321985 0 0.029944488311302 -0.11370412438815471 0 0.0081110093431909468 -0.1149990774907888 0 0.029944488311302 -0.11370412438815471 0 0.0081110093431909468 -0.1149990774907888 0 0.029944488311302 -0.11370412438815471 0 0.020460964667249011 -0.1226010928848057 0 0.02994307602620639 -0.1302085557321985 0 0.029944488311302 -0.11370412438815471 0 0.020460964667249011 -0.1226010928848057 0 0.029944488311302 -0.11370412438815471 0 0.013447956091944111 -0.097466683051136149 0 0.029946579828349539 -0.089261963475297856 0 0.029944488311302 -0.11370412438815471 0 0.029946579828349539 -0.089261963475297856 0 0.0081110093431909468 -0.1149990774907888 0 0.029944488311302 -0.11370412438815471 0 0.013447956091944111 -0.097466683051136149 0 -0.0070024162044401784 -0.094622532792259906 0 0.0081110093431909468 -0.1149990774907888 0 0.013447956091944111 -0.097466683051136149 0 -0.0070024162044401784 -0.094622532792259906 0 0.013447956091944111 -0.097466683051136149 0 0.0089909008657989391 -0.078088127261437795 0 0.0089909008657989391 -0.078088127261437795 0 0.029948671345398199 -0.064819802562441076 0 0.004632517862548236 -0.052891088833740857 0 0.0089909008657989391 -0.078088127261437795 0 0.029948671345398199 -0.064819802562441076 0 0.029946579828349539 -0.089261963475297856 0 0.029948671345398199 -0.064819802562441076 0 0.029946579828349539 -0.089261963475297856 0 0.013447956091944111 -0.097466683051136149 0 0.0089909008657989391 -0.078088127261437795 0 0.029946579828349539 -0.089261963475297856 0 0.029946579828349539 -0.089261963475297856 0 0.046349488464227727 -0.081813499199973022 0 0.041242982932059628 -0.10148401065504389 0 0.029948671345398199 -0.064819802562441076 0 0.029946579828349539 -0.089261963475297856 0 0.046349488464227727 -0.081813499199973022 0 0.029948671345398199 -0.064819802562441076 0 0.046349488464227727 -0.081813499199973022 0 0.058664794472251723 -0.066104883037522683 0 0.046349488464227727 -0.081813499199973022 0 0.061444402701742597 -0.092233587767357517 0 0.041242982932059628 -0.10148401065504389 0 0.046349488464227727 -0.081813499199973022 0 0.058664794472251723 -0.066104883037522683 0 0.061444402701742597 -0.092233587767357517 0 0.061444402701742597 -0.092233587767357517 0 0.053906745347831589 -0.11228291253543581 0 0.041242982932059628 -0.10148401065504389 0 0.057404929854258248 -0.12898751164630839 0 0.053906745347831589 -0.11228291253543581 0 0.071688368861640955 -0.124394371535689 0 0.057404929854258248 -0.12898751164630839 0 0.053906745347831589 -0.11228291253543581 0 0.042959882144076929 -0.1241861045337368 0 0.029944488311302 -0.11370412438815471 0 0.053906745347831589 -0.11228291253543581 0 0.042959882144076929 -0.1241861045337368 0 0.029944488311302 -0.11370412438815471 0 0.053906745347831589 -0.11228291253543581 0 0.02994307602620639 -0.1302085557321985 0 0.029944488311302 -0.11370412438815471 0 0.042959882144076929 -0.1241861045337368 0 0.029944488311302 -0.11370412438815471 0 0.053906745347831589 -0.11228291253543581 0 0.041242982932059628 -0.10148401065504389 0 0.029944488311302 -0.11370412438815471 0 0.029946579828349539 -0.089261963475297856 0 0.041242982932059628 -0.10148401065504389 0 0.016490069688421989 0.0076122190127568684 0 0.021720869125120609 -0.0127913485751548 0 0.031393634162498907 -0.0021996921210678411 0 0.016490069688421989 0.0076122190127568684 0 0.021720869125120609 -0.0127913485751548 0 0.0037229942501223771 -0.0054435731040199864 0 0.021720869125120609 -0.0127913485751548 0 0.0037229942501223771 -0.0054435731040199864 0 0.0031266594148062592 -0.02045282401460909 0 -0.012258548817000531 -0.035198849189172293 0 0.0031266594148062592 -0.02045282401460909 0 0.013462920702231131 -0.033573587988045481 0 0.021720869125120609 -0.0127913485751548 0 0.0031266594148062592 -0.02045282401460909 0 0.013462920702231131 -0.033573587988045481 0 0.021720869125120609 -0.0127913485751548 0 0.013462920702231131 -0.033573587988045481 0 0.034016603788095012 -0.025132155778880901 0 0.029950762862446849 -0.040377641649584309 0 0.013462920702231131 -0.033573587988045481 0 0.034016603788095012 -0.025132155778880901 0 0.029950762862446849 -0.040377641649584309 0 0.013462920702231131 -0.033573587988045481 0 0.004632517862548236 -0.052891088833740857 0 -0.012258548817000531 -0.035198849189172293 0 0.013462920702231131 -0.033573587988045481 0 0.004632517862548236 -0.052891088833740857 0 0.029948671345398199 -0.064819802562441076 0 0.029950762862446849 -0.040377641649584309 0 0.004632517862548236 -0.052891088833740857 0 0.029948671345398199 -0.064819802562441076 0 0.029950762862446849 -0.040377641649584309 0 0.029948671345398199 -0.064819802562441076 0 0.058664794472251723 -0.066104883037522683 0 0.044953903474513272 -0.050892090221025851 0 0.029948671345398199 -0.064819802562441076 0 0.029950762862446849 -0.040377641649584309 0 0.044953903474513272 -0.050892090221025851 0 0.058664794472251723 -0.066104883037522683 0 0.044953903474513272 -0.050892090221025851 0 0.059288486397216227 -0.045452231419734222 0 0.044953903474513272 -0.050892090221025851 0 0.050120472095432259 -0.033004507749111803 0 0.059288486397216227 -0.045452231419734222 0 0.050120472095432259 -0.033004507749111803 0 0.059288486397216227 -0.045452231419734222 0 0.070671185020834248 -0.035987919253586992 0 0.029950762862446849 -0.040377641649584309 0 0.050120472095432259 -0.033004507749111803 0 0.034016603788095012 -0.025132155778880901 0 0.029950762862446849 -0.040377641649584309 0 0.044953903474513272 -0.050892090221025851 0 0.050120472095432259 -0.033004507749111803 0 0.050120472095432259 -0.033004507749111803 0 0.034016603788095012 -0.025132155778880901 0 0.045098048872853902 -0.011685924263091041 0 0.021720869125120609 -0.0127913485751548 0 0.034016603788095012 -0.025132155778880901 0 0.045098048872853902 -0.011685924263091041 0 0.050120472095432259 -0.033004507749111803 0 0.045098048872853902 -0.011685924263091041 0 0.068466149152155764 -0.01915289931451172 0 0.06031765369581981 0.0032434375821666292 0 0.045098048872853902 -0.011685924263091041 0 0.068466149152155764 -0.01915289931451172 0 0.042265548963599173 0.0080662853412176022 0 0.06031765369581981 0.0032434375821666292 0 0.045098048872853902 -0.011685924263091041 0 0.042265548963599173 0.0080662853412176022 0 0.045098048872853902 -0.011685924263091041 0 0.031393634162498907 -0.0021996921210678411 0 0.021720869125120609 -0.0127913485751548 0 0.045098048872853902 -0.011685924263091041 0 0.031393634162498907 -0.0021996921210678411 0 0.088091323937851365 -0.0030215899881911559 0 0.09200472150143417 -0.015532069348867941 0 0.080999532691734863 -0.01360257596320387 0 0.088091323937851365 -0.0030215899881911559 0 0.080999532691734863 -0.01360257596320387 0 0.07437522696527217 -0.0036839363458185462 0 0.06031765369581981 0.0032434375821666292 0 0.068466149152155764 -0.01915289931451172 0 0.06031765369581981 0.0032434375821666292 0 0.07437522696527217 -0.0036839363458185462 0 0.068466149152155764 -0.01915289931451172 0 0.080999532691734863 -0.01360257596320387 0 0.07437522696527217 -0.0036839363458185462 0 0.068466149152155764 -0.01915289931451172 0 0.050120472095432259 -0.033004507749111803 0 0.068466149152155764 -0.01915289931451172 0 0.070671185020834248 -0.035987919253586992 0 0.068466149152155764 -0.01915289931451172 0 0.081602877015507835 -0.025436186293520988 0 0.070671185020834248 -0.035987919253586992 0 0.080999532691734863 -0.01360257596320387 0 0.068466149152155764 -0.01915289931451172 0 0.081602877015507835 -0.025436186293520988 0 0.09200472150143417 -0.015532069348867941 0 0.080999532691734863 -0.01360257596320387 0 0.081602877015507835 -0.025436186293520988 0 0.09200472150143417 -0.015532069348867941 0 0.081602877015507835 -0.025436186293520988 0 0.095758114417993936 -0.028763079857342819 0 0.081602877015507835 -0.025436186293520988 0 0.085860685177210322 -0.03904208261232428 0 0.095758114417993936 -0.028763079857342819 0 0.085860685177210322 -0.03904208261232428 0 0.098055012798115446 -0.039932881673304221 0 0.095758114417993936 -0.028763079857342819 0 0.085860685177210322 -0.03904208261232428 0 0.092903918700590518 -0.051600115024395682 0 0.098055012798115446 -0.039932881673304221 0 0.081602877015507835 -0.025436186293520988 0 0.085860685177210322 -0.03904208261232428 0 0.070671185020834248 -0.035987919253586992 0 0.059288486397216227 -0.045452231419734222 0 0.070671185020834248 -0.035987919253586992 0 0.074141206525264403 -0.050275686821543687 0 0.085860685177210322 -0.03904208261232428 0 0.070671185020834248 -0.035987919253586992 0 0.074141206525264403 -0.050275686821543687 0 0.058664794472251723 -0.066104883037522683 0 0.074141206525264403 -0.050275686821543687 0 0.077458169383483474 -0.063466889581698258 0 0.058664794472251723 -0.066104883037522683 0 0.059288486397216227 -0.045452231419734222 0 0.074141206525264403 -0.050275686821543687 0 0.092903918700590518 -0.051600115024395682 0 0.077458169383483474 -0.063466889581698258 0 0.090533789875318918 -0.069290266202562678 0 0.074141206525264403 -0.050275686821543687 0 0.092903918700590518 -0.051600115024395682 0 0.077458169383483474 -0.063466889581698258 0 0.085860685177210322 -0.03904208261232428 0 0.074141206525264403 -0.050275686821543687 0 0.092903918700590518 -0.051600115024395682 0 0.092903918700590518 -0.051600115024395682 0 0.1058968311989647 -0.060993626678817692 0 0.090533789875318918 -0.069290266202562678 0 0.092903918700590518 -0.051600115024395682 0 0.1071546387560883 -0.047253474037982288 0 0.1058968311989647 -0.060993626678817692 0 0.1058968311989647 -0.060993626678817692 0 0.1168646859363206 -0.061050681046618663 0 0.1152480071283729 -0.052536995765730572 0 0.1168646859363206 -0.061050681046618663 0 0.1245558364702334 -0.052313403426850043 0 0.1152480071283729 -0.052536995765730572 0 0.1168646859363206 -0.061050681046618663 0 0.1245558364702334 -0.052313403426850043 0 0.1237030989836324 -0.062992651827214696 0 0.1245558364702334 -0.052313403426850043 0 0.1152480071283729 -0.052536995765730572 0 0.11860188081740081 -0.041099872312539837 0 0.1071546387560883 -0.047253474037982288 0 0.1058968311989647 -0.060993626678817692 0 0.1152480071283729 -0.052536995765730572 0 0.1071546387560883 -0.047253474037982288 0 0.1152480071283729 -0.052536995765730572 0 0.11860188081740081 -0.041099872312539837 0 0.1071546387560883 -0.047253474037982288 0 0.11860188081740081 -0.041099872312539837 0 0.1085977069386941 -0.033005656834476052 0 0.1245558364702334 -0.052313403426850043 0 0.11860188081740081 -0.041099872312539837 0 0.12899409754962701 -0.04301184284377476 0 0.11860188081740081 -0.041099872312539837 0 0.1272220342287628 -0.033808920446429733 0 0.12899409754962701 -0.04301184284377476 0 0.11860188081740081 -0.041099872312539837 0 0.1189214432404653 -0.02810288185535308 0 0.1272220342287628 -0.033808920446429733 0 0.11860188081740081 -0.041099872312539837 0 0.1085977069386941 -0.033005656834476052 0 0.1189214432404653 -0.02810288185535308 0 0.1071546387560883 -0.047253474037982288 0 0.1085977069386941 -0.033005656834476052 0 0.098055012798115446 -0.039932881673304221 0 0.092903918700590518 -0.051600115024395682 0 0.1071546387560883 -0.047253474037982288 0 0.098055012798115446 -0.039932881673304221 0 0.1085977069386941 -0.033005656834476052 0 0.098055012798115446 -0.039932881673304221 0 0.095758114417993936 -0.028763079857342819 0 0.09200472150143417 -0.015532069348867941 0 0.095758114417993936 -0.028763079857342819 0 0.10846488663890121 -0.018006358066145419 0 0.1085977069386941 -0.033005656834476052 0 0.095758114417993936 -0.028763079857342819 0 0.10846488663890121 -0.018006358066145419 0 0.1085977069386941 -0.033005656834476052 0 0.10846488663890121 -0.018006358066145419 0 0.1189214432404653 -0.02810288185535308 0 0.1189214432404653 -0.02810288185535308 0 0.12822832507352269 -0.024907388227285179 0 0.1272220342287628 -0.033808920446429733 0 0.1189214432404653 -0.02810288185535308 0 0.1224138257455101 -0.01778909524524229 0 0.12822832507352269 -0.024907388227285179 0 0.10846488663890121 -0.018006358066145419 0 0.1189214432404653 -0.02810288185535308 0 0.1224138257455101 -0.01778909524524229 0 0.1030093627271547 8.4439359333516673e-05 0 0.10846488663890121 -0.018006358066145419 0 0.1228652333266796 -0.0028958187831469389 0 0.10846488663890121 -0.018006358066145419 0 0.1224138257455101 -0.01778909524524229 0 0.1228652333266796 -0.0028958187831469389 0 0.1030093627271547 8.4439359333516673e-05 0 0.09200472150143417 -0.015532069348867941 0 0.10846488663890121 -0.018006358066145419 0 0.1030093627271547 8.4439359333516673e-05 0 0.088091323937851365 -0.0030215899881911559 0 0.09200472150143417 -0.015532069348867941 0 0.077869002384361174 -0.1108617006827169 0 0.093811414809748417 -0.095055195297283943 0 0.1018312594208908 -0.10944048882999791 0 0.077869002384361174 -0.1108617006827169 0 0.079517751128665812 -0.091807925745739621 0 0.093811414809748417 -0.095055195297283943 0 0.084926885720396653 -0.1223350585082847 0 0.077869002384361174 -0.1108617006827169 0 0.1018312594208908 -0.10944048882999791 0 0.077869002384361174 -0.1108617006827169 0 0.1018312594208908 -0.10944048882999791 0 0.084926885720396653 -0.1223350585082847 0 0.077869002384361174 -0.1108617006827169 0 0.071688368861640955 -0.124394371535689 0 0.053906745347831589 -0.11228291253543581 0 0.077869002384361174 -0.1108617006827169 0 0.071688368861640955 -0.124394371535689 0 0.053906745347831589 -0.11228291253543581 0 0.077869002384361174 -0.1108617006827169 0 0.061444402701742597 -0.092233587767357517 0 0.053906745347831589 -0.11228291253543581 0 0.077869002384361174 -0.1108617006827169 0 0.061444402701742597 -0.092233587767357517 0 0.077869002384361174 -0.1108617006827169 0 0.079517751128665812 -0.091807925745739621 0 0.058664794472251723 -0.066104883037522683 0 0.061444402701742597 -0.092233587767357517 0 0.076029764701329369 -0.078107983244387794 0 0.061444402701742597 -0.092233587767357517 0 0.076029764701329369 -0.078107983244387794 0 0.079517751128665812 -0.091807925745739621 0 0.058664794472251723 -0.066104883037522683 0 0.076029764701329369 -0.078107983244387794 0 0.077458169383483474 -0.063466889581698258 0 0.076029764701329369 -0.078107983244387794 0 0.077458169383483474 -0.063466889581698258 0 0.090533789875318918 -0.069290266202562678 0 0.076029764701329369 -0.078107983244387794 0 0.090533789875318918 -0.069290266202562678 0 0.088420909254054686 -0.08246806099788874 0 0.076029764701329369 -0.078107983244387794 0 0.079517751128665812 -0.091807925745739621 0 0.088420909254054686 -0.08246806099788874 0 0.079517751128665812 -0.091807925745739621 0 0.088420909254054686 -0.08246806099788874 0 0.093811414809748417 -0.095055195297283943 0 0.088420909254054686 -0.08246806099788874 0 0.102479884221398 -0.078791820949124791 0 0.093811414809748417 -0.095055195297283943 0 0.102479884221398 -0.078791820949124791 0 0.1101304265094054 -0.094725644763863706 0 0.093811414809748417 -0.095055195297283943 0 0.102479884221398 -0.078791820949124791 0 0.11220029493452249 -0.079716562378995395 0 0.1101304265094054 -0.094725644763863706 0 0.1058968311989647 -0.060993626678817692 0 0.102479884221398 -0.078791820949124791 0 0.1154657298707852 -0.070434345393393535 0 0.1058968311989647 -0.060993626678817692 0 0.090533789875318918 -0.069290266202562678 0 0.102479884221398 -0.078791820949124791 0 0.090533789875318918 -0.069290266202562678 0 0.088420909254054686 -0.08246806099788874 0 0.102479884221398 -0.078791820949124791 0 0.1058968311989647 -0.060993626678817692 0 0.1168646859363206 -0.061050681046618663 0 0.1154657298707852 -0.070434345393393535 0 0.1154657298707852 -0.070434345393393535 0 0.11220029493452249 -0.079716562378995395 0 0.1191643064953174 -0.078992601742826324 0 0.102479884221398 -0.078791820949124791 0 0.1154657298707852 -0.070434345393393535 0 0.11220029493452249 -0.079716562378995395 0 0.1154657298707852 -0.070434345393393535 0 0.1191643064953174 -0.078992601742826324 0 0.1262012560774656 -0.07173505982455948 0 0.1191643064953174 -0.078992601742826324 0 0.12832432258865731 -0.080816569742124145 0 0.1262012560774656 -0.07173505982455948 0 0.1168646859363206 -0.061050681046618663 0 0.1154657298707852 -0.070434345393393535 0 0.1237030989836324 -0.062992651827214696 0 0.1154657298707852 -0.070434345393393535 0 0.1237030989836324 -0.062992651827214696 0 0.1262012560774656 -0.07173505982455948 0 0.1101304265094054 -0.094725644763863706 0 0.12579934138853791 -0.094772226137302934 0 0.12832432258865731 -0.080816569742124145 0 0.1191643064953174 -0.078992601742826324 0 0.1101304265094054 -0.094725644763863706 0 0.12832432258865731 -0.080816569742124145 0 0.11220029493452249 -0.079716562378995395 0 0.1191643064953174 -0.078992601742826324 0 0.1101304265094054 -0.094725644763863706 0 0.1101304265094054 -0.094725644763863706 0 0.12832432258865731 -0.080816569742124145 0 0.1101304265094054 -0.094725644763863706 0 0.12652594466821909 -0.10893583878221839 0 0.12579934138853791 -0.094772226137302934 0 0.1101304265094054 -0.094725644763863706 0 0.1140768276282496 -0.1149434181550807 0 0.12652594466821909 -0.10893583878221839 0 0.1101304265094054 -0.094725644763863706 0 0.093811414809748417 -0.095055195297283943 0 0.1018312594208908 -0.10944048882999791 0 0.1101304265094054 -0.094725644763863706 0 0.1018312594208908 -0.10944048882999791 0 0.1140768276282496 -0.1149434181550807 0 0.084926885720396653 -0.1223350585082847 0 0.099461458653524237 -0.1244112859199554 0 0.1018312594208908 -0.10944048882999791 0 0.099461458653524237 -0.1244112859199554 0 0.1018312594208908 -0.10944048882999791 0 0.1140768276282496 -0.1149434181550807 0 0.1128921698085297 -0.12835317579432351 0 0.099461458653524237 -0.1244112859199554 0 0.1140768276282496 -0.1149434181550807 0 0.1128921698085297 -0.12835317579432351 0 0.1140768276282496 -0.1149434181550807 0 0.13144179296803249 -0.1295558362820802 0 0.1140768276282496 -0.1149434181550807 0 0.12652594466821909 -0.10893583878221839 0 0.13144179296803249 -0.1295558362820802 0 0.14208414312145179 -0.10702819399348031 0 0.12652594466821909 -0.10893583878221839 0 0.13144179296803249 -0.1295558362820802 0 0.15645139372305761 -0.1153877411607382 0 0.13144179296803249 -0.1295558362820802 0 0.14208414312145179 -0.10702819399348031 0 0.15645139372305761 -0.1153877411607382 0 0.13144179296803249 -0.1295558362820802 0 0.14208414312145179 -0.10702819399348031 0 0.1392546680278669 -0.090290032421027663 0 0.1567469162200828 -0.090971521321336846 0 0.14208414312145179 -0.10702819399348031 0 0.1567469162200828 -0.090971521321336846 0 0.15645139372305761 -0.1153877411607382 0 0.14208414312145179 -0.10702819399348031 0 0.12652594466821909 -0.10893583878221839 0 0.1392546680278669 -0.090290032421027663 0 0.12652594466821909 -0.10893583878221839 0 0.12579934138853791 -0.094772226137302934 0 0.1392546680278669 -0.090290032421027663 0 0.12652594466821909 -0.10893583878221839 0 0.1392546680278669 -0.090290032421027663 0 0.12579934138853791 -0.094772226137302934 0 0.12832432258865731 -0.080816569742124145 0 0.1392546680278669 -0.090290032421027663 0 0.12832432258865731 -0.080816569742124145 0 0.1392546680278669 -0.090290032421027663 0 0.14152718754725641 -0.077788892984972546 0 0.12832432258865731 -0.080816569742124145 0 0.1262012560774656 -0.07173505982455948 0 0.14651821866790921 -0.066907494720384542 0 0.12832432258865731 -0.080816569742124145 0 0.14651821866790921 -0.066907494720384542 0 0.14152718754725641 -0.077788892984972546 0 0.1262012560774656 -0.07173505982455948 0 0.14520894132710349 -0.056450249912892207 0 0.12832432258865731 -0.080816569742124145 0 0.14651821866790921 -0.066907494720384542 0 0.1262012560774656 -0.07173505982455948 0 0.14651821866790921 -0.066907494720384542 0 0.14520894132710349 -0.056450249912892207 0 0.1237030989836324 -0.062992651827214696 0 0.1262012560774656 -0.07173505982455948 0 0.1313913910575038 -0.058590671075732438 0 0.15198339138751471 -0.071644226059836891 0 0.1567469162200828 -0.090971521321336846 0 0.15704243871710821 -0.066555301481935419 0 0.14651821866790921 -0.066907494720384542 0 0.15198339138751471 -0.071644226059836891 0 0.16471211474716169 -0.052998419698645723 0 0.14651821866790921 -0.066907494720384542 0 0.14152718754725641 -0.077788892984972546 0 0.15198339138751471 -0.071644226059836891 0 0.1392546680278669 -0.090290032421027663 0 0.15198339138751471 -0.071644226059836891 0 0.1392546680278669 -0.090290032421027663 0 0.14152718754725641 -0.077788892984972546 0 0.15198339138751471 -0.071644226059836891 0 0.1392546680278669 -0.090290032421027663 0 0.15198339138751471 -0.071644226059836891 0 0.1567469162200828 -0.090971521321336846 0 0.1567469162200828 -0.090971521321336846 0 0.16926423390562889 -0.080674063394112594 0 0.17334682218298239 -0.091346162928849145 0 0.1567469162200828 -0.090971521321336846 0 0.15704243871710821 -0.066555301481935419 0 0.1567469162200828 -0.090971521321336846 0 0.16926423390562889 -0.080674063394112594 0 0.1643183703409731 -0.074206467315817468 0 0.15198339138751471 -0.071644226059836891 0 0.15704243871710821 -0.066555301481935419 0 0.16471211474716169 -0.052998419698645723 0 0.1567469162200828 -0.090971521321336846 0 0.15704243871710821 -0.066555301481935419 0 0.1643183703409731 -0.074206467315817468 0 0.15704243871710821 -0.066555301481935419 0 0.1643183703409731 -0.074206467315817468 0 0.16546292218129191 -0.062371145584873923 0 0.16926423390562889 -0.080674063394112594 0 0.1643183703409731 -0.074206467315817468 0 0.17307534068075381 -0.070460304796828591 0 0.17307534068075381 -0.070460304796828591 0 0.16546292218129191 -0.062371145584873923 0 0.17440288097106019 -0.059457584331226887 0 0.1643183703409731 -0.074206467315817468 0 0.17307534068075381 -0.070460304796828591 0 0.16546292218129191 -0.062371145584873923 0 0.17307534068075381 -0.070460304796828591 0 0.18421967778399109 -0.068151225359158407 0 0.17440288097106019 -0.059457584331226887 0 0.17307534068075381 -0.070460304796828591 0 0.18421967778399109 -0.068151225359158407 0 0.18077725839576081 -0.081461496565561106 0 0.16926423390562889 -0.080674063394112594 0 0.17307534068075381 -0.070460304796828591 0 0.18077725839576081 -0.081461496565561106 0 0.18421967778399109 -0.068151225359158407 0 0.18077725839576081 -0.081461496565561106 0 0.19230275598577931 -0.077980613544801319 0 0.17334682218298239 -0.091346162928849145 0 0.18077725839576081 -0.081461496565561106 0 0.19175452677867 -0.095388295663280526 0 0.16926423390562889 -0.080674063394112594 0 0.17334682218298239 -0.091346162928849145 0 0.18077725839576081 -0.081461496565561106 0 0.17334682218298239 -0.091346162928849145 0 0.1741029602508638 -0.1053880184120094 0 0.19175452677867 -0.095388295663280526 0 0.1741029602508638 -0.1053880184120094 0 0.19175452677867 -0.095388295663280526 0 0.1741029602508638 -0.1053880184120094 0 0.18727222598307999 -0.123729888386405 0 0.19876549330955351 -0.11040695734528259 0 0.1741029602508638 -0.1053880184120094 0 0.18727222598307999 -0.123729888386405 0 0.17191343209849189 -0.1208587068153484 0 0.1741029602508638 -0.1053880184120094 0 0.17191343209849189 -0.1208587068153484 0 0.15645139372305761 -0.1153877411607382 0 0.17191343209849189 -0.1208587068153484 0 0.15645139372305761 -0.1153877411607382 0 0.16836620892132059 -0.13607558694678709 0 0.1741029602508638 -0.1053880184120094 0 0.15645139372305761 -0.1153877411607382 0 0.1567469162200828 -0.090971521321336846 0 0.17334682218298239 -0.091346162928849145 0 0.1741029602508638 -0.1053880184120094 0 0.1567469162200828 -0.090971521321336846 0 0.1741029602508638 -0.1053880184120094 0 0.15645139372305761 -0.1153877411607382 0 0.1567469162200828 -0.090971521321336846 0 0.15645139372305761 -0.1153877411607382 0 0.14363760820126389 -0.0065168637453057706 0 0.1467680404667393 -0.021366663211075661 0 0.16018644344485641 -0.016692567199826251 0 0.15834286245691501 0.0030565393019177712 0 0.14363760820126389 -0.0065168637453057706 0 0.16018644344485641 -0.016692567199826251 0 0.14363760820126389 -0.0065168637453057706 0 0.13435352582022461 -0.017065195461839589 0 0.1467680404667393 -0.021366663211075661 0 0.1228652333266796 -0.0028958187831469389 0 0.14363760820126389 -0.0065168637453057706 0 0.13435352582022461 -0.017065195461839589 0 0.1224138257455101 -0.01778909524524229 0 0.1228652333266796 -0.0028958187831469389 0 0.13435352582022461 -0.017065195461839589 0 0.13435352582022461 -0.017065195461839589 0 0.13753190760688239 -0.028056776005839869 0 0.1467680404667393 -0.021366663211075661 0 0.13435352582022461 -0.017065195461839589 0 0.12822832507352269 -0.024907388227285179 0 0.13753190760688239 -0.028056776005839869 0 0.1224138257455101 -0.01778909524524229 0 0.13435352582022461 -0.017065195461839589 0 0.12822832507352269 -0.024907388227285179 0 0.12822832507352269 -0.024907388227285179 0 0.13753190760688239 -0.028056776005839869 0 0.1272220342287628 -0.033808920446429733 0 0.13753190760688239 -0.028056776005839869 0 0.1467680404667393 -0.021366663211075661 0 0.1470543054404661 -0.031916008966152022 0 0.1467680404667393 -0.021366663211075661 0 0.15750132628097099 -0.028259708257312 0 0.16018644344485641 -0.016692567199826251 0 0.1467680404667393 -0.021366663211075661 0 0.1470543054404661 -0.031916008966152022 0 0.15750132628097099 -0.028259708257312 0 0.15378700483527211 -0.039523378420863363 0 0.14410070168959591 -0.044588646968605067 0 0.14520894132710349 -0.056450249912892207 0 0.15378700483527211 -0.039523378420863363 0 0.14520894132710349 -0.056450249912892207 0 0.16421662657674149 -0.041165440001224962 0 0.15378700483527211 -0.039523378420863363 0 0.1470543054404661 -0.031916008966152022 0 0.15750132628097099 -0.028259708257312 0 0.15378700483527211 -0.039523378420863363 0 0.14691682605386619 -0.039132588476215632 0 0.1470543054404661 -0.031916008966152022 0 0.15378700483527211 -0.039523378420863363 0 0.14691682605386619 -0.039132588476215632 0 0.14410070168959591 -0.044588646968605067 0 0.14691682605386619 -0.039132588476215632 0 0.14410070168959591 -0.044588646968605067 0 0.13867704202442679 -0.03855771065329841 0 0.14691682605386619 -0.039132588476215632 0 0.1470543054404661 -0.031916008966152022 0 0.13867704202442679 -0.03855771065329841 0 0.13753190760688239 -0.028056776005839869 0 0.1470543054404661 -0.031916008966152022 0 0.13867704202442679 -0.03855771065329841 0 0.13753190760688239 -0.028056776005839869 0 0.13867704202442679 -0.03855771065329841 0 0.1272220342287628 -0.033808920446429733 0 0.13867704202442679 -0.03855771065329841 0 0.1272220342287628 -0.033808920446429733 0 0.12899409754962701 -0.04301184284377476 0 0.14410070168959591 -0.044588646968605067 0 0.13867704202442679 -0.03855771065329841 0 0.135913694207311 -0.049279307379755763 0 0.13867704202442679 -0.03855771065329841 0 0.12899409754962701 -0.04301184284377476 0 0.135913694207311 -0.049279307379755763 0 0.1262012560774656 -0.07173505982455948 0 0.1313913910575038 -0.058590671075732438 0 0.14520894132710349 -0.056450249912892207 0 0.1245558364702334 -0.052313403426850043 0 0.12899409754962701 -0.04301184284377476 0 0.135913694207311 -0.049279307379755763 0 0.1245558364702334 -0.052313403426850043 0 0.135913694207311 -0.049279307379755763 0 0.1313913910575038 -0.058590671075732438 0 0.1245558364702334 -0.052313403426850043 0 0.1237030989836324 -0.062992651827214696 0 0.1313913910575038 -0.058590671075732438 0 0.135913694207311 -0.049279307379755763 0 0.1313913910575038 -0.058590671075732438 0 0.14520894132710349 -0.056450249912892207 0 0.14651821866790921 -0.066907494720384542 0 0.14520894132710349 -0.056450249912892207 0 0.16471211474716169 -0.052998419698645723 0 0.14520894132710349 -0.056450249912892207 0 0.16421662657674149 -0.041165440001224962 0 0.14651821866790921 -0.066907494720384542 0 0.16471211474716169 -0.052998419698645723 0 0.14410070168959591 -0.044588646968605067 0 0.135913694207311 -0.049279307379755763 0 0.14520894132710349 -0.056450249912892207 0 0.14520894132710349 -0.056450249912892207 0 0.1594166523928171 -0.048595653402542759 0 0.16421662657674149 -0.041165440001224962 0 0.14520894132710349 -0.056450249912892207 0 0.1594166523928171 -0.048595653402542759 0 0.16471211474716169 -0.052998419698645723 0 0.15198339138751471 -0.071644226059836891 0 0.16471211474716169 -0.052998419698645723 0 0.15704243871710821 -0.066555301481935419 0 0.16471211474716169 -0.052998419698645723 0 0.16546292218129191 -0.062371145584873923 0 0.1594166523928171 -0.048595653402542759 0 0.16471211474716169 -0.052998419698645723 0 0.16781087699015551 -0.048459164730993307 0 0.1594166523928171 -0.048595653402542759 0 0.16781087699015551 -0.048459164730993307 0 0.16471211474716169 -0.052998419698645723 0 0.16781087699015551 -0.048459164730993307 0 0.16471211474716169 -0.052998419698645723 0 0.17071142095529329 -0.048412002376933168 0 0.16471211474716169 -0.052998419698645723 0 0.16781087699015551 -0.048459164730993307 0 0.17071142095529329 -0.048412002376933168 0 0.16781087699015551 -0.048459164730993307 0 0.17071142095529329 -0.048412002376933168 0 0.16471211474716169 -0.052998419698645723 0 0.17071142095529329 -0.048412002376933168 0 0.17019064229115319 -0.053988490561383599 0 0.17071142095529329 -0.048412002376933168 0 0.17019064229115319 -0.053988490561383599 0 0.17386902335417839 -0.052884120009060828 0 0.16471211474716169 -0.052998419698645723 0 0.16546292218129191 -0.062371145584873923 0 0.16812114290391031 -0.05730454219596845 0 0.17019064229115319 -0.053988490561383599 0 0.16812114290391031 -0.05730454219596845 0 0.17440288097106019 -0.059457584331226887 0 0.16546292218129191 -0.062371145584873923 0 0.16812114290391031 -0.05730454219596845 0 0.17440288097106019 -0.059457584331226887 0 0.16471211474716169 -0.052998419698645723 0 0.17019064229115319 -0.053988490561383599 0 0.16812114290391031 -0.05730454219596845 0 0.17071142095529329 -0.048412002376933168 0 0.17926855498552191 -0.051863676662311141 0 0.19157509965442859 -0.048072762491680021 0 0.17071142095529329 -0.048412002376933168 0 0.19157509965442859 -0.048072762491680021 0 0.17019064229115319 -0.053988490561383599 0 0.17440288097106019 -0.059457584331226887 0 0.17386902335417839 -0.052884120009060828 0 0.17440288097106019 -0.059457584331226887 0 0.17926855498552191 -0.051863676662311141 0 0.17386902335417839 -0.052884120009060828 0 0.18421967778399109 -0.068151225359158407 0 0.17440288097106019 -0.059457584331226887 0 0.1858304473867359 -0.058051065886686681 0 0.17440288097106019 -0.059457584331226887 0 0.1858304473867359 -0.058051065886686681 0 0.17926855498552191 -0.051863676662311141 0 0.1858304473867359 -0.058051065886686681 0 0.17926855498552191 -0.051863676662311141 0 0.19157509965442859 -0.048072762491680021 0 0.17071142095529329 -0.048412002376933168 0 0.17926855498552191 -0.051863676662311141 0 0.17386902335417839 -0.052884120009060828 0 0.17071142095529329 -0.048412002376933168 0 0.1788414980518131 -0.042196629277326911 0 0.16781087699015551 -0.048459164730993307 0 0.17071142095529329 -0.048412002376933168 0 0.1788414980518131 -0.042196629277326911 0 0.16781087699015551 -0.048459164730993307 0 0.18322431182637849 -0.02588063008955659 0 0.16421662657674149 -0.041165440001224962 0 0.1691112161264961 -0.027791120013863191 0 0.18322431182637849 -0.02588063008955659 0 0.1788414980518131 -0.042196629277326911 0 0.1868060269129288 -0.035638882052097268 0 0.18322431182637849 -0.02588063008955659 0 0.16781087699015551 -0.048459164730993307 0 0.1788414980518131 -0.042196629277326911 0 0.18322431182637849 -0.02588063008955659 0 0.16421662657674149 -0.041165440001224962 0 0.18322431182637849 -0.02588063008955659 0 0.17071142095529329 -0.048412002376933168 0 0.1788414980518131 -0.042196629277326911 0 0.19157509965442859 -0.048072762491680021 0 0.1788414980518131 -0.042196629277326911 0 0.1868060269129288 -0.035638882052097268 0 0.19157509965442859 -0.048072762491680021 0 0.16781087699015551 -0.048459164730993307 0 0.16421662657674149 -0.041165440001224962 0 0.18322431182637849 -0.02588063008955659 0 0.16421662657674149 -0.041165440001224962 0 0.16115404345487019 -0.034184911673315867 0 0.1691112161264961 -0.027791120013863191 0 0.1594166523928171 -0.048595653402542759 0 0.16781087699015551 -0.048459164730993307 0 0.16421662657674149 -0.041165440001224962 0 0.15378700483527211 -0.039523378420863363 0 0.16115404345487019 -0.034184911673315867 0 0.15750132628097099 -0.028259708257312 0 0.15378700483527211 -0.039523378420863363 0 0.16421662657674149 -0.041165440001224962 0 0.16115404345487019 -0.034184911673315867 0 0.16018644344485641 -0.016692567199826251 0 0.1691112161264961 -0.027791120013863191 0 0.17370449856314829 -0.0112133245677503 0 0.15750132628097099 -0.028259708257312 0 0.16018644344485641 -0.016692567199826251 0 0.1691112161264961 -0.027791120013863191 0 0.16115404345487019 -0.034184911673315867 0 0.15750132628097099 -0.028259708257312 0 0.1691112161264961 -0.027791120013863191 0 0.1691112161264961 -0.027791120013863191 0 0.18322431182637849 -0.02588063008955659 0 0.17370449856314829 -0.0112133245677503 0 0.1868060269129288 -0.035638882052097268 0 0.18322431182637849 -0.02588063008955659 0 0.1897730362453145 -0.028942298942325809 0 0.18322431182637849 -0.02588063008955659 0 0.1904075328456262 -0.020104326116154571 0 0.1766932410735671 0.0087056689283906211 0 0.17370449856314829 -0.0112133245677503 0 0.1951066969379473 -0.0084745913502882377 0 0.18322431182637849 -0.02588063008955659 0 0.17370449856314829 -0.0112133245677503 0 0.1951066969379473 -0.0084745913502882377 0 0.15834286245691501 0.0030565393019177712 0 0.16018644344485641 -0.016692567199826251 0 0.17370449856314829 -0.0112133245677503 0 0.20942549508811459 0.01250045305042244 0 0.20647051946502179 -0.0051953043201833577 0 0.1951066969379473 -0.0084745913502882377 0 0.21169972920572319 -0.01098967468396128 0 0.2172815438315604 -0.017718809693100451 0 0.22130978995272199 -0.00090614564100172101 0 0.21169972920572319 -0.01098967468396128 0 0.20647051946502179 -0.0051953043201833577 0 0.22130978995272199 -0.00090614564100172101 0 0.21169972920572319 -0.01098967468396128 0 0.2043760907267094 -0.013149115985374771 0 0.20647051946502179 -0.0051953043201833577 0 0.1951066969379473 -0.0084745913502882377 0 0.1969053148789183 -0.01015275131089214 0 0.1904075328456262 -0.020104326116154571 0 0.1969053148789183 -0.01015275131089214 0 0.19795467530430491 -0.016017537059401281 0 0.1904075328456262 -0.020104326116154571 0 0.2043760907267094 -0.013149115985374771 0 0.20647051946502179 -0.0051953043201833577 0 0.1969053148789183 -0.01015275131089214 0 0.20647051946502179 -0.0051953043201833577 0 0.1951066969379473 -0.0084745913502882377 0 0.1969053148789183 -0.01015275131089214 0 0.1951066969379473 -0.0084745913502882377 0 0.1969053148789183 -0.01015275131089214 0 0.2043760907267094 -0.013149115985374771 0 0.1969053148789183 -0.01015275131089214 0 0.19795467530430491 -0.016017537059401281 0 0.18322431182637849 -0.02588063008955659 0 0.1951066969379473 -0.0084745913502882377 0 0.2043760907267094 -0.013149115985374771 0 0.20012976276596581 -0.020663954825183631 0 0.19795467530430491 -0.016017537059401281 0 0.20012976276596581 -0.020663954825183631 0 0.19795467530430491 -0.016017537059401281 0 0.1904075328456262 -0.020104326116154571 0 0.20012976276596581 -0.020663954825183631 0 0.1904075328456262 -0.020104326116154571 0 0.19569466961674301 -0.026294391171109651 0 0.18322431182637849 -0.02588063008955659 0 0.1951066969379473 -0.0084745913502882377 0 0.1904075328456262 -0.020104326116154571 0 0.1904075328456262 -0.020104326116154571 0 0.1897730362453145 -0.028942298942325809 0 0.19569466961674301 -0.026294391171109651 0 0.18322431182637849 -0.02588063008955659 0 0.1904075328456262 -0.020104326116154571 0 0.1897730362453145 -0.028942298942325809 0 0.1897730362453145 -0.028942298942325809 0 0.19569466961674301 -0.026294391171109651 0 0.19541553561217551 -0.034255033807958038 0 0.19569466961674301 -0.026294391171109651 0 0.20196998284504331 -0.029113266824139949 0 0.19541553561217551 -0.034255033807958038 0 0.20012976276596581 -0.020663954825183631 0 0.19569466961674301 -0.026294391171109651 0 0.20196998284504331 -0.029113266824139949 0 0.20012976276596581 -0.020663954825183631 0 0.20196998284504331 -0.029113266824139949 0 0.20860355755288121 -0.02329228741195475 0 0.20860355755288121 -0.02329228741195475 0 0.21663645386861161 -0.028215046402722321 0 0.20718282928912909 -0.03643598599260809 0 0.20196998284504331 -0.029113266824139949 0 0.20860355755288121 -0.02329228741195475 0 0.20718282928912909 -0.03643598599260809 0 0.21169972920572319 -0.01098967468396128 0 0.2043760907267094 -0.013149115985374771 0 0.20860355755288121 -0.02329228741195475 0 0.2043760907267094 -0.013149115985374771 0 0.20012976276596581 -0.020663954825183631 0 0.20860355755288121 -0.02329228741195475 0 0.20860355755288121 -0.02329228741195475 0 0.2172815438315604 -0.017718809693100451 0 0.21663645386861161 -0.028215046402722321 0 0.21169972920572319 -0.01098967468396128 0 0.20860355755288121 -0.02329228741195475 0 0.2172815438315604 -0.017718809693100451 0 0.20718282928912909 -0.03643598599260809 0 0.19157509965442859 -0.048072762491680021 0 0.2124387783535639 -0.047733522606427187 0 0.21663645386861161 -0.028215046402722321 0 0.20718282928912909 -0.03643598599260809 0 0.22110408501646961 -0.037396574445312317 0 0.20718282928912909 -0.03643598599260809 0 0.2124387783535639 -0.047733522606427187 0 0.22110408501646961 -0.037396574445312317 0 0.20196998284504331 -0.029113266824139949 0 0.20718282928912909 -0.03643598599260809 0 0.19541553561217551 -0.034255033807958038 0 0.1868060269129288 -0.035638882052097268 0 0.1897730362453145 -0.028942298942325809 0 0.19541553561217551 -0.034255033807958038 0 0.1868060269129288 -0.035638882052097268 0 0.19541553561217551 -0.034255033807958038 0 0.19157509965442859 -0.048072762491680021 0 0.20718282928912909 -0.03643598599260809 0 0.19541553561217551 -0.034255033807958038 0 0.19157509965442859 -0.048072762491680021 0 0.19157509965442859 -0.048072762491680021 0 0.2124387783535639 -0.047733522606427187 0 0.2000889903581772 -0.064991806358769458 0 0.1858304473867359 -0.058051065886686681 0 0.19157509965442859 -0.048072762491680021 0 0.2000889903581772 -0.064991806358769458 0 0.19157509965442859 -0.048072762491680021 0 0.2124387783535639 -0.047733522606427187 0 0.2124387783535639 -0.047733522606427187 0 0.22654851815863089 -0.059178473389889082 0 0.2169247080231734 -0.064512171072603847 0 0.2124387783535639 -0.047733522606427187 0 0.2000889903581772 -0.064991806358769458 0 0.2169247080231734 -0.064512171072603847 0 0.2124387783535639 -0.047733522606427187 0 0.2333024570526992 -0.047394282721174671 0 0.2124387783535639 -0.047733522606427187 0 0.22654851815863089 -0.059178473389889082 0 0.2333024570526992 -0.047394282721174671 0 0.22654851815863089 -0.059178473389889082 0 0.2333024570526992 -0.047394282721174671 0 0.23694164536593559 -0.061501160178549112 0 0.22654851815863089 -0.059178473389889082 0 0.23694164536593559 -0.061501160178549112 0 0.23258580671023649 -0.065687099957920145 0 0.23694164536593559 -0.061501160178549112 0 0.24480635460980801 -0.056837926932729668 0 0.2412650958284055 -0.051946316601352967 0 0.25315278222618243 -0.056604001830095702 0 0.24480635460980801 -0.056837926932729668 0 0.24666800958294369 -0.065591004639232148 0 0.23694164536593559 -0.061501160178549112 0 0.24480635460980801 -0.056837926932729668 0 0.24666800958294369 -0.065591004639232148 0 0.25315278222618243 -0.056604001830095702 0 0.24480635460980801 -0.056837926932729668 0 0.24606508946702521 -0.049478735792214457 0 0.25358167832110989 -0.048859069267911732 0 0.24606508946702521 -0.049478735792214457 0 0.24974425786470661 -0.043017581543783628 0 0.24480635460980801 -0.056837926932729668 0 0.24606508946702521 -0.049478735792214457 0 0.2412650958284055 -0.051946316601352967 0 0.24606508946702521 -0.049478735792214457 0 0.23940202967769281 -0.047295104702415859 0 0.2412650958284055 -0.051946316601352967 0 0.24606508946702521 -0.049478735792214457 0 0.23940202967769281 -0.047295104702415859 0 0.24369886585260431 -0.044179862759408058 0 0.23940202967769281 -0.047295104702415859 0 0.2412650958284055 -0.051946316601352967 0 0.2374607047460302 -0.047326670317308348 0 0.23694164536593559 -0.061501160178549112 0 0.2412650958284055 -0.051946316601352967 0 0.2374607047460302 -0.047326670317308348 0 0.2333024570526992 -0.047394282721174671 0 0.23694164536593559 -0.061501160178549112 0 0.2333024570526992 -0.047394282721174671 0 0.23694164536593559 -0.061501160178549112 0 0.2374607047460302 -0.047326670317308348 0 0.23694164536593559 -0.061501160178549112 0 0.2374607047460302 -0.047326670317308348 0 0.23940202967769281 -0.047295104702415859 0 0.2374607047460302 -0.047326670317308348 0 0.2333024570526992 -0.047394282721174671 0 0.2374607047460302 -0.047326670317308348 0 0.2374607047460302 -0.047326670317308348 0 0.23841496838321999 -0.021267608928776691 0 0.2374607047460302 -0.047326670317308348 0 0.24480358969731791 -0.036185957013231559 0 0.23841496838321999 -0.021267608928776691 0 0.2374607047460302 -0.047326670317308348 0 0.24369886585260431 -0.044179862759408058 0 0.24480358969731791 -0.036185957013231559 0 0.23940202967769281 -0.047295104702415859 0 0.2374607047460302 -0.047326670317308348 0 0.24369886585260431 -0.044179862759408058 0 0.24369886585260431 -0.044179862759408058 0 0.24974425786470661 -0.043017581543783628 0 0.24480358969731791 -0.036185957013231559 0 0.24606508946702521 -0.049478735792214457 0 0.24369886585260431 -0.044179862759408058 0 0.24974425786470661 -0.043017581543783628 0 0.25407738084389903 -0.033861706745482251 0 0.24974425786470661 -0.043017581543783628 0 0.24480358969731791 -0.036185957013231559 0 0.25407738084389903 -0.033861706745482251 0 0.24480358969731791 -0.036185957013231559 0 0.24751020808162311 -0.024473078810739231 0 0.2333024570526992 -0.047394282721174671 0 0.22110408501646961 -0.037396574445312317 0 0.2273061235027099 -0.024150214181088391 0 0.2124387783535639 -0.047733522606427187 0 0.2333024570526992 -0.047394282721174671 0 0.22110408501646961 -0.037396574445312317 0 0.2333024570526992 -0.047394282721174671 0 0.2374607047460302 -0.047326670317308348 0 0.2273061235027099 -0.024150214181088391 0 0.2333024570526992 -0.047394282721174671 0 0.2273061235027099 -0.024150214181088391 0 0.2273061235027099 -0.024150214181088391 0 0.23841496838321999 -0.021267608928776691 0 0.2348408711428675 -0.0072894450365570476 0 0.21663645386861161 -0.028215046402722321 0 0.22110408501646961 -0.037396574445312317 0 0.2273061235027099 -0.024150214181088391 0 0.2172815438315604 -0.017718809693100451 0 0.21663645386861161 -0.028215046402722321 0 0.2273061235027099 -0.024150214181088391 0 0.2374607047460302 -0.047326670317308348 0 0.2273061235027099 -0.024150214181088391 0 0.23841496838321999 -0.021267608928776691 0 0.24480358969731791 -0.036185957013231559 0 0.24751020808162311 -0.024473078810739231 0 0.23841496838321999 -0.021267608928776691 0 0.24751020808162311 -0.024473078810739231 0 0.23841496838321999 -0.021267608928776691 0 0.2446622685541878 -0.01192932178931785 0 0.25559283292949081 -0.019120799576887788 0 0.24751020808162311 -0.024473078810739231 0 0.2446622685541878 -0.01192932178931785 0 0.24942856085965889 0.00090749762840000299 0 0.25559283292949081 -0.019120799576887788 0 0.2446622685541878 -0.01192932178931785 0 0.23841496838321999 -0.021267608928776691 0 0.2446622685541878 -0.01192932178931785 0 0.2348408711428675 -0.0072894450365570476 0 0.24942856085965889 0.00090749762840000299 0 0.2446622685541878 -0.01192932178931785 0 0.2348408711428675 -0.0072894450365570476 0 0.2273061235027099 -0.024150214181088391 0 0.2348408711428675 -0.0072894450365570476 0 0.22130978995272199 -0.00090614564100172101 0 0.2172815438315604 -0.017718809693100451 0 0.2273061235027099 -0.024150214181088391 0 0.22130978995272199 -0.00090614564100172101 0 0.2273061235027099 -0.024150214181088391 0 0.22130978995272199 -0.00090614564100172101 0 0.21366510504268599 -0.1024840054861287 0 0.21559901275945051 -0.086686570472075286 0 0.22420427427123499 -0.094808743376884524 0 0.21366510504268599 -0.1024840054861287 0 0.19876549330955351 -0.11040695734528259 0 0.20522133980127691 -0.093682994503376554 0 0.21366510504268599 -0.1024840054861287 0 0.20522133980127691 -0.093682994503376554 0 0.21559901275945051 -0.086686570472075286 0 0.21366510504268599 -0.1024840054861287 0 0.21695901082195879 -0.1175968613325266 0 0.22551212750372079 -0.10746396197805259 0 0.21366510504268599 -0.1024840054861287 0 0.21695901082195879 -0.1175968613325266 0 0.19876549330955351 -0.11040695734528259 0 0.21695901082195879 -0.1175968613325266 0 0.19876549330955351 -0.11040695734528259 0 0.20444581157231881 -0.13174360728370099 0 0.18727222598307999 -0.123729888386405 0 0.19876549330955351 -0.11040695734528259 0 0.20444581157231881 -0.13174360728370099 0 0.1741029602508638 -0.1053880184120094 0 0.19876549330955351 -0.11040695734528259 0 0.19175452677867 -0.095388295663280526 0 0.19876549330955351 -0.11040695734528259 0 0.19175452677867 -0.095388295663280526 0 0.20522133980127691 -0.093682994503376554 0 0.19175452677867 -0.095388295663280526 0 0.19230275598577931 -0.077980613544801319 0 0.2038024463700091 -0.081899940512393132 0 0.18077725839576081 -0.081461496565561106 0 0.19175452677867 -0.095388295663280526 0 0.19230275598577931 -0.077980613544801319 0 0.19175452677867 -0.095388295663280526 0 0.20522133980127691 -0.093682994503376554 0 0.2038024463700091 -0.081899940512393132 0 0.2000889903581772 -0.064991806358769458 0 0.19230275598577931 -0.077980613544801319 0 0.2038024463700091 -0.081899940512393132 0 0.18421967778399109 -0.068151225359158407 0 0.2000889903581772 -0.064991806358769458 0 0.19230275598577931 -0.077980613544801319 0 0.18421967778399109 -0.068151225359158407 0 0.1858304473867359 -0.058051065886686681 0 0.2000889903581772 -0.064991806358769458 0 0.2000889903581772 -0.064991806358769458 0 0.21253975544513931 -0.074602138158747472 0 0.2169247080231734 -0.064512171072603847 0 0.2000889903581772 -0.064991806358769458 0 0.21253975544513931 -0.074602138158747472 0 0.2038024463700091 -0.081899940512393132 0 0.21253975544513931 -0.074602138158747472 0 0.2169247080231734 -0.064512171072603847 0 0.2231981137559097 -0.07527607627276435 0 0.20522133980127691 -0.093682994503376554 0 0.2038024463700091 -0.081899940512393132 0 0.21559901275945051 -0.086686570472075286 0 0.21253975544513931 -0.074602138158747472 0 0.2038024463700091 -0.081899940512393132 0 0.21559901275945051 -0.086686570472075286 0 0.21253975544513931 -0.074602138158747472 0 0.21559901275945051 -0.086686570472075286 0 0.2231981137559097 -0.07527607627276435 0 0.21559901275945051 -0.086686570472075286 0 0.22591924088844409 -0.084126235388996551 0 0.22420427427123499 -0.094808743376884524 0 0.21559901275945051 -0.086686570472075286 0 0.22591924088844409 -0.084126235388996551 0 0.2231981137559097 -0.07527607627276435 0 0.22591924088844409 -0.084126235388996551 0 0.23183920477471279 -0.083482784156751089 0 0.2298878054194585 -0.08996989091237273 0 0.22591924088844409 -0.084126235388996551 0 0.2231981137559097 -0.07527607627276435 0 0.23110028372312849 -0.076770172167018438 0 0.22591924088844409 -0.084126235388996551 0 0.23183920477471279 -0.083482784156751089 0 0.23110028372312849 -0.076770172167018438 0 0.23183920477471279 -0.083482784156751089 0 0.2298878054194585 -0.08996989091237273 0 0.23568769845055901 -0.095743981944245798 0 0.2298878054194585 -0.08996989091237273 0 0.23568769845055901 -0.095743981944245798 0 0.22420427427123499 -0.094808743376884524 0 0.22591924088844409 -0.084126235388996551 0 0.2298878054194585 -0.08996989091237273 0 0.22420427427123499 -0.094808743376884524 0 0.2169247080231734 -0.064512171072603847 0 0.2231981137559097 -0.07527607627276435 0 0.2270977134461763 -0.068242603802659646 0 0.22654851815863089 -0.059178473389889082 0 0.2169247080231734 -0.064512171072603847 0 0.2270977134461763 -0.068242603802659646 0 0.23183920477471279 -0.083482784156751089 0 0.23110028372312849 -0.076770172167018438 0 0.23660099539197421 -0.070803640371121968 0 0.2231981137559097 -0.07527607627276435 0 0.23110028372312849 -0.076770172167018438 0 0.23039888394385519 -0.071865759585505562 0 0.23110028372312849 -0.076770172167018438 0 0.2338053811588145 -0.071582973458628962 0 0.23660099539197421 -0.070803640371121968 0 0.23110028372312849 -0.076770172167018438 0 0.2338053811588145 -0.071582973458628962 0 0.23039888394385519 -0.071865759585505562 0 0.2338053811588145 -0.071582973458628962 0 0.23238016277182641 -0.069400869217554839 0 0.23660099539197421 -0.070803640371121968 0 0.2338053811588145 -0.071582973458628962 0 0.23039888394385519 -0.071865759585505562 0 0.23238016277182641 -0.069400869217554839 0 0.2231981137559097 -0.07527607627276435 0 0.23039888394385519 -0.071865759585505562 0 0.2270977134461763 -0.068242603802659646 0 0.22654851815863089 -0.059178473389889082 0 0.2270977134461763 -0.068242603802659646 0 0.23258580671023649 -0.065687099957920145 0 0.23039888394385519 -0.071865759585505562 0 0.2270977134461763 -0.068242603802659646 0 0.23238016277182641 -0.069400869217554839 0 0.2270977134461763 -0.068242603802659646 0 0.23238016277182641 -0.069400869217554839 0 0.23258580671023649 -0.065687099957920145 0 0.23238016277182641 -0.069400869217554839 0 0.23258580671023649 -0.065687099957920145 0 0.23660099539197421 -0.070803640371121968 0 0.23694164536593559 -0.061501160178549112 0 0.23258580671023649 -0.065687099957920145 0 0.23660099539197421 -0.070803640371121968 0 0.23694164536593559 -0.061501160178549112 0 0.24013391295287201 -0.073875602989383823 0 0.24666800958294369 -0.065591004639232148 0 0.23694164536593559 -0.061501160178549112 0 0.24013391295287201 -0.073875602989383823 0 0.23660099539197421 -0.070803640371121968 0 0.23694164536593559 -0.061501160178549112 0 0.23660099539197421 -0.070803640371121968 0 0.23694164536593559 -0.061501160178549112 0 0.24013391295287201 -0.073875602989383823 0 0.24013391295287201 -0.073875602989383823 0 0.23660099539197421 -0.070803640371121968 0 0.251651063522844 -0.076824540261702406 0 0.24013391295287201 -0.073875602989383823 0 0.24666800958294369 -0.065591004639232148 0 0.23660099539197421 -0.070803640371121968 0 0.23568769845055901 -0.095743981944245798 0 0.24013391295287201 -0.073875602989383823 0 0.24697104621940599 -0.1003789308880348 0 0.23183920477471279 -0.083482784156751089 0 0.23660099539197421 -0.070803640371121968 0 0.23568769845055901 -0.095743981944245798 0 0.24013391295287201 -0.073875602989383823 0 0.24697104621940599 -0.1003789308880348 0 0.23568769845055901 -0.095743981944245798 0 0.24013391295287201 -0.073875602989383823 0 0.23660099539197421 -0.070803640371121968 0 0.23568769845055901 -0.095743981944245798 0 0.26215062696164571 -0.093019701668763999 0 0.24013391295287201 -0.073875602989383823 0 0.24697104621940599 -0.1003789308880348 0 0.24697104621940599 -0.1003789308880348 0 0.23568769845055901 -0.095743981944245798 0 0.23477440150914439 -0.1206843235173696 0 0.23568769845055901 -0.095743981944245798 0 0.23477440150914439 -0.1206843235173696 0 0.23568769845055901 -0.095743981944245798 0 0.22551212750372079 -0.10746396197805259 0 0.22420427427123499 -0.094808743376884524 0 0.23568769845055901 -0.095743981944245798 0 0.22551212750372079 -0.10746396197805259 0 0.23477440150914439 -0.1206843235173696 0 0.21366510504268599 -0.1024840054861287 0 0.22551212750372079 -0.10746396197805259 0 0.22420427427123499 -0.094808743376884524 0 0.21695901082195879 -0.1175968613325266 0 0.22551212750372079 -0.10746396197805259 0 0.23477440150914439 -0.1206843235173696 0 0.21695901082195879 -0.1175968613325266 0 0.23477440150914439 -0.1206843235173696 0 0.2215204555025419 -0.1343306593454307 0 0.25380817948593959 -0.12688225878668591 0 0.24697104621940599 -0.1003789308880348 0 0.23477440150914439 -0.1206843235173696 0 0.25380817948593959 -0.12688225878668591 0 0.23477440150914439 -0.1206843235173696 0 0.24746948455308529 -0.14159979779264459 0 0.23477440150914439 -0.1206843235173696 0 0.24746948455308529 -0.14159979779264459 0 0.2338611045677299 -0.14562466509049321 0 0.24746948455308529 -0.14159979779264459 0 0.2338611045677299 -0.14562466509049321 0 0.2450773481394258 -0.15874471061177939 0 0.2338611045677299 -0.14562466509049321 0 0.2215204555025419 -0.1343306593454307 0 0.2114206080579826 -0.159068533424674 0 0.23477440150914439 -0.1206843235173696 0 0.2338611045677299 -0.14562466509049321 0 0.2215204555025419 -0.1343306593454307 0 0.23477440150914439 -0.1206843235173696 0 0.2338611045677299 -0.14562466509049321 0 0.21695901082195879 -0.1175968613325266 0 0.2215204555025419 -0.1343306593454307 0 0.20444581157231881 -0.13174360728370099 0 0.2215204555025419 -0.1343306593454307 0 0.20444581157231881 -0.13174360728370099 0 0.2114206080579826 -0.159068533424674 0 0.20444581157231881 -0.13174360728370099 0 0.18989340848965161 -0.1475720601857306 0 0.2114206080579826 -0.159068533424674 0 0.18989340848965161 -0.1475720601857306 0 0.2114206080579826 -0.159068533424674 0 0.18727222598307999 -0.123729888386405 0 0.20444581157231881 -0.13174360728370099 0 0.18989340848965161 -0.1475720601857306 0 0.20178431000581279 -0.18169384622167861 0 0.18015782977800879 -0.19932629108382871 0 0.18669438018246029 -0.17211976987226371 0 0.18989340848965161 -0.1475720601857306 0 0.2114206080579826 -0.159068533424674 0 0.18669438018246029 -0.17211976987226371 0 0.20178431000581279 -0.18169384622167861 0 0.2114206080579826 -0.159068533424674 0 0.18669438018246029 -0.17211976987226371 0 0.20178431000581279 -0.18169384622167861 0 0.2114206080579826 -0.159068533424674 0 0.21801681807292339 -0.17501174960863419 0 0.20178431000581279 -0.18169384622167861 0 0.21801681807292339 -0.17501174960863419 0 0.21780211813774969 -0.18643276083861551 0 0.21801681807292339 -0.17501174960863419 0 0.21780211813774969 -0.18643276083861551 0 0.23260344649651521 -0.17996883121647439 0 0.23260344649651521 -0.17996883121647439 0 0.24092757152555541 -0.18534040148658559 0 0.22902314008401109 -0.19709787156994091 0 0.21801681807292339 -0.17501174960863419 0 0.23260344649651521 -0.17996883121647439 0 0.2329478076263139 -0.1705650066636169 0 0.23260344649651521 -0.17996883121647439 0 0.2329478076263139 -0.1705650066636169 0 0.2338611045677299 -0.14562466509049321 0 0.2329478076263139 -0.1705650066636169 0 0.2114206080579826 -0.159068533424674 0 0.21801681807292339 -0.17501174960863419 0 0.2329478076263139 -0.1705650066636169 0 0.2338611045677299 -0.14562466509049321 0 0.2114206080579826 -0.159068533424674 0 0.2329478076263139 -0.1705650066636169 0 0.2114206080579826 -0.159068533424674 0 0.2329478076263139 -0.1705650066636169 0 0.2338611045677299 -0.14562466509049321 0 0.2329478076263139 -0.1705650066636169 0 0.2450773481394258 -0.15874471061177939 0 0.2329478076263139 -0.1705650066636169 0 0.24377558119211529 -0.1692064057300989 0 0.2450773481394258 -0.15874471061177939 0 0.25124340570169301 -0.16689575431661829 0 0.24377558119211529 -0.1692064057300989 0 0.24836912691924221 -0.17880067075906131 0 0.25124340570169301 -0.16689575431661829 0 0.24377558119211529 -0.1692064057300989 0 0.2450773481394258 -0.15874471061177939 0 0.23260344649651521 -0.17996883121647439 0 0.24092757152555541 -0.18534040148658559 0 0.24836912691924221 -0.17880067075906131 0 0.23260344649651521 -0.17996883121647439 0 0.2329478076263139 -0.1705650066636169 0 0.24836912691924221 -0.17880067075906131 0 0.2329478076263139 -0.1705650066636169 0 0.24836912691924221 -0.17880067075906131 0 0.2329478076263139 -0.1705650066636169 0 0.24377558119211529 -0.1692064057300989 0 0.24836912691924221 -0.17880067075906131 0 0.24092757152555541 -0.18534040148658559 0 0.24836912691924221 -0.17880067075906131 0 0.24619533100963789 -0.19373060617322449 0 0.24619533100963789 -0.19373060617322449 0 0.23245640025268369 -0.21425698990545891 0 0.22902314008401109 -0.19709787156994091 0 0.24092757152555541 -0.18534040148658559 0 0.24619533100963789 -0.19373060617322449 0 0.22902314008401109 -0.19709787156994091 0 0.2550257632903376 -0.21904230316456769 0 0.25320287684030279 -0.2054820746983472 0 0.23245640025268369 -0.21425698990545891 0 0.25320287684030279 -0.2054820746983472 0 0.24619533100963789 -0.19373060617322449 0 0.23245640025268369 -0.21425698990545891 0 0.24619533100963789 -0.19373060617322449 0 0.23245640025268369 -0.21425698990545891 0 0.23245640025268369 -0.21425698990545891 0 0.22902314008401109 -0.19709787156994091 0 0.2147531752244306 -0.2137947937577474 0 0.21780211813774969 -0.18643276083861551 0 0.23260344649651521 -0.17996883121647439 0 0.22902314008401109 -0.19709787156994091 0 0.23245640025268369 -0.21425698990545891 0 0.24255183189338941 -0.24661944873281219 0 0.21871746949572959 -0.23478337363769319 0 0.25241691095469759 -0.2323490653766527 0 0.23245640025268369 -0.21425698990545891 0 0.24255183189338941 -0.24661944873281219 0 0.25241691095469759 -0.2323490653766527 0 0.2550257632903376 -0.21904230316456769 0 0.23245640025268369 -0.21425698990545891 0 0.23245640025268369 -0.21425698990545891 0 0.21871746949572959 -0.23478337363769319 0 0.2147531752244306 -0.2137947937577474 0 0.23245640025268369 -0.21425698990545891 0 0.21871746949572959 -0.23478337363769319 0 0.2266036716243916 -0.26323704153784239 0 0.24255183189338941 -0.24661944873281219 0 0.21871746949572959 -0.23478337363769319 0 0.2049785387387755 -0.25530975736992773 0 0.21871746949572959 -0.23478337363769319 0 0.2049785387387755 -0.25530975736992773 0 0.21871746949572959 -0.23478337363769319 0 0.19034781848719259 -0.23977941352787691 0 0.21871746949572959 -0.23478337363769319 0 0.19813494456655431 -0.21991461495460851 0 0.2147531752244306 -0.2137947937577474 0 0.21871746949572959 -0.23478337363769319 0 0.19813494456655431 -0.21991461495460851 0 0.19034781848719259 -0.23977941352787691 0 0.20178431000581279 -0.18169384622167861 0 0.21780211813774969 -0.18643276083861551 0 0.20826630553699629 -0.19840319017124861 0 0.22902314008401109 -0.19709787156994091 0 0.20826630553699629 -0.19840319017124861 0 0.2147531752244306 -0.2137947937577474 0 0.21780211813774969 -0.18643276083861551 0 0.22902314008401109 -0.19709787156994091 0 0.20826630553699629 -0.19840319017124861 0 0.19813494456655431 -0.21991461495460851 0 0.20826630553699629 -0.19840319017124861 0 0.2147531752244306 -0.2137947937577474 0 0.19813494456655431 -0.21991461495460851 0 0.20826630553699629 -0.19840319017124861 0 0.18015782977800879 -0.19932629108382871 0 0.20178431000581279 -0.18169384622167861 0 0.20826630553699629 -0.19840319017124861 0 0.18015782977800879 -0.19932629108382871 0 0.19813494456655431 -0.21991461495460851 0 0.18015782977800879 -0.19932629108382871 0 0.1736212793735572 -0.22653281229539379 0 0.18015782977800879 -0.19932629108382871 0 0.1736212793735572 -0.22653281229539379 0 0.18015782977800879 -0.19932629108382871 0 0.1736212793735572 -0.22653281229539379 0 0.15573703316474349 -0.21009807035264561 0 0.18015782977800879 -0.19932629108382871 0 0.15573703316474349 -0.21009807035264561 0 0.15562335151441181 -0.18380101191373799 0 0.1670847289691057 -0.25373933350695871 0 0.19034781848719259 -0.23977941352787691 0 0.1736212793735572 -0.22653281229539379 0 0.18754933303336119 -0.25580207571609143 0 0.1670847289691057 -0.25373933350695871 0 0.19034781848719259 -0.23977941352787691 0 0.19813494456655431 -0.21991461495460851 0 0.19034781848719259 -0.23977941352787691 0 0.1736212793735572 -0.22653281229539379 0 0.1736212793735572 -0.22653281229539379 0 0.15404768928263771 -0.22880866729670429 0 0.15573703316474349 -0.21009807035264561 0 0.1670847289691057 -0.25373933350695871 0 0.1736212793735572 -0.22653281229539379 0 0.15404768928263771 -0.22880866729670429 0 0.1670847289691057 -0.25373933350695871 0 0.1736212793735572 -0.22653281229539379 0 0.1670847289691057 -0.25373933350695871 0 0.15404768928263771 -0.22880866729670429 0 0.1370486552902388 -0.24152729681687701 0 0.15404768928263771 -0.22880866729670429 0 0.15573703316474349 -0.21009807035264561 0 0.13168821898817909 -0.21859320219168199 0 0.15404768928263771 -0.22880866729670429 0 0.1370486552902388 -0.24152729681687701 0 0.13168821898817909 -0.21859320219168199 0 0.1157688639029463 -0.23644681987152499 0 0.1370486552902388 -0.24152729681687701 0 0.13168821898817909 -0.21859320219168199 0 0.1279614478507384 -0.25872736966379251 0 0.1176307108926951 -0.24961825485572839 0 0.1370486552902388 -0.24152729681687701 0 0.1392838300516667 -0.20352643733452699 0 0.13567322206665311 -0.18704419778199241 0 0.15562335151441181 -0.18380101191373799 0 0.15573703316474349 -0.21009807035264561 0 0.1392838300516667 -0.20352643733452699 0 0.15562335151441181 -0.18380101191373799 0 0.15573703316474349 -0.21009807035264561 0 0.1392838300516667 -0.20352643733452699 0 0.13168821898817909 -0.21859320219168199 0 0.1162100793575169 -0.199852984643762 0 0.1392838300516667 -0.20352643733452699 0 0.13168821898817909 -0.21859320219168199 0 0.1162100793575169 -0.199852984643762 0 0.13567322206665311 -0.18704419778199241 0 0.1162100793575169 -0.199852984643762 0 0.1392838300516667 -0.20352643733452699 0 0.13567322206665311 -0.18704419778199241 0 0.11716902470453119 -0.17572041534478691 0 0.13098487785540139 -0.17215369172101061 0 0.13567322206665311 -0.18704419778199241 0 0.13098487785540139 -0.17215369172101061 0 0.13567322206665311 -0.18704419778199241 0 0.1432292968174273 -0.17363736081731251 0 0.15562335151441181 -0.18380101191373799 0 0.1432292968174273 -0.17363736081731251 0 0.15584893227602711 -0.16516341402329379 0 0.13567322206665311 -0.18704419778199241 0 0.15562335151441181 -0.18380101191373799 0 0.1432292968174273 -0.17363736081731251 0 0.15562335151441181 -0.18380101191373799 0 0.15584893227602711 -0.16516341402329379 0 0.1432292968174273 -0.17363736081731251 0 0.15584893227602711 -0.16516341402329379 0 0.1384813117910452 -0.1600281331330759 0 0.155885245850651 -0.16216316791649951 0 0.15584893227602711 -0.16516341402329379 0 0.1384813117910452 -0.1600281331330759 0 0.155885245850651 -0.16216316791649951 0 0.1384813117910452 -0.1600281331330759 0 0.14463030726533771 -0.14896895134571631 0 0.155885245850651 -0.16216316791649951 0 0.1384813117910452 -0.1600281331330759 0 0.15584893227602711 -0.16516341402329379 0 0.1384813117910452 -0.1600281331330759 0 0.155885245850651 -0.16216316791649951 0 0.15584893227602711 -0.16516341402329379 0 0.11557270046160389 -0.1531562365640948 0 0.1384813117910452 -0.1600281331330759 0 0.1207165837680156 -0.16637559274851441 0 0.13098487785540139 -0.17215369172101061 0 0.1384813117910452 -0.1600281331330759 0 0.13098487785540139 -0.17215369172101061 0 0.1432292968174273 -0.17363736081731251 0 0.1384813117910452 -0.1600281331330759 0 0.11557270046160389 -0.1531562365640948 0 0.1384813117910452 -0.1600281331330759 0 0.12982257951988471 -0.1455713738541235 0 0.12982257951988471 -0.1455713738541235 0 0.14237717242028161 -0.13799515439635199 0 0.14463030726533771 -0.14896895134571631 0 0.1384813117910452 -0.1600281331330759 0 0.12982257951988471 -0.1455713738541235 0 0.14463030726533771 -0.14896895134571631 0 0.12982257951988471 -0.1455713738541235 0 0.13144179296803249 -0.1295558362820802 0 0.14237717242028161 -0.13799515439635199 0 0.15645139372305761 -0.1153877411607382 0 0.13144179296803249 -0.1295558362820802 0 0.14237717242028161 -0.13799515439635199 0 0.15645139372305761 -0.1153877411607382 0 0.14237717242028161 -0.13799515439635199 0 0.15616831978685419 -0.13877545453861889 0 0.155885245850651 -0.16216316791649951 0 0.15616831978685419 -0.13877545453861889 0 0.155885245850651 -0.16216316791649951 0 0.15616831978685419 -0.13877545453861889 0 0.14463030726533771 -0.14896895134571631 0 0.14237717242028161 -0.13799515439635199 0 0.15616831978685419 -0.13877545453861889 0 0.14463030726533771 -0.14896895134571631 0 0.155885245850651 -0.16216316791649951 0 0.15616831978685419 -0.13877545453861889 0 0.16064447362347151 -0.15388367260238159 0 0.15616831978685419 -0.13877545453861889 0 0.16518916240102591 -0.14812304666177389 0 0.16836620892132059 -0.13607558694678709 0 0.15616831978685419 -0.13877545453861889 0 0.16064447362347151 -0.15388367260238159 0 0.16518916240102591 -0.14812304666177389 0 0.16518916240102591 -0.14812304666177389 0 0.16836620892132059 -0.13607558694678709 0 0.17348438493517579 -0.15083964014765891 0 0.16518916240102591 -0.14812304666177389 0 0.17348438493517579 -0.15083964014765891 0 0.16678732521069009 -0.15778782992385809 0 0.16064447362347151 -0.15388367260238159 0 0.16518916240102591 -0.14812304666177389 0 0.16678732521069009 -0.15778782992385809 0 0.15645139372305761 -0.1153877411607382 0 0.15616831978685419 -0.13877545453861889 0 0.15645139372305761 -0.1153877411607382 0 0.15616831978685419 -0.13877545453861889 0 0.16836620892132059 -0.13607558694678709 0 0.18727222598307999 -0.123729888386405 0 0.18989340848965161 -0.1475720601857306 0 0.179361318873136 -0.13205906058356781 0 0.18989340848965161 -0.1475720601857306 0 0.16836620892132059 -0.13607558694678709 0 0.179361318873136 -0.13205906058356781 0 0.18727222598307999 -0.123729888386405 0 0.17191343209849189 -0.1208587068153484 0 0.179361318873136 -0.13205906058356781 0 0.17191343209849189 -0.1208587068153484 0 0.16836620892132059 -0.13607558694678709 0 0.179361318873136 -0.13205906058356781 0 0.18989340848965161 -0.1475720601857306 0 0.16836620892132059 -0.13607558694678709 0 0.17348438493517579 -0.15083964014765891 0 0.18989340848965161 -0.1475720601857306 0 0.16836620892132059 -0.13607558694678709 0 0.18989340848965161 -0.1475720601857306 0 0.17348438493517579 -0.15083964014765891 0 0.1753102269841165 -0.16194948852446769 0 0.1753102269841165 -0.16194948852446769 0 0.18669438018246029 -0.17211976987226371 0 0.16753837397884569 -0.17488780516634 0 0.18989340848965161 -0.1475720601857306 0 0.1753102269841165 -0.16194948852446769 0 0.18669438018246029 -0.17211976987226371 0 0.18015782977800879 -0.19932629108382871 0 0.18669438018246029 -0.17211976987226371 0 0.18015782977800879 -0.19932629108382871 0 0.18669438018246029 -0.17211976987226371 0 0.16753837397884569 -0.17488780516634 0 0.15562335151441181 -0.18380101191373799 0 0.16753837397884569 -0.17488780516634 0 0.15919231486813651 -0.16256886397115719 0 0.18015782977800879 -0.19932629108382871 0 0.15562335151441181 -0.18380101191373799 0 0.16753837397884569 -0.17488780516634 0 0.15562335151441181 -0.18380101191373799 0 0.15584893227602711 -0.16516341402329379 0 0.15919231486813651 -0.16256886397115719 0 0.155885245850651 -0.16216316791649951 0 0.16064447362347151 -0.15388367260238159 0 0.15919231486813651 -0.16256886397115719 0 0.155885245850651 -0.16216316791649951 0 0.15919231486813651 -0.16256886397115719 0 0.16064447362347151 -0.15388367260238159 0 0.15919231486813651 -0.16256886397115719 0 0.16678732521069009 -0.15778782992385809 0 0.155885245850651 -0.16216316791649951 0 0.15584893227602711 -0.16516341402329379 0 0.15919231486813651 -0.16256886397115719 0 0.17348438493517579 -0.15083964014765891 0 0.1753102269841165 -0.16194948852446769 0 0.16678732521069009 -0.15778782992385809 0 0.15919231486813651 -0.16256886397115719 0 0.16678732521069009 -0.15778782992385809 0 0.16720706026044721 -0.16429849689645579 0 0.1753102269841165 -0.16194948852446769 0 0.16678732521069009 -0.15778782992385809 0 0.16720706026044721 -0.16429849689645579 0 0.1753102269841165 -0.16194948852446769 0 0.16753837397884569 -0.17488780516634 0 0.16720706026044721 -0.16429849689645579 0 0.16753837397884569 -0.17488780516634 0 0.15919231486813651 -0.16256886397115719 0 0.16720706026044721 -0.16429849689645579 0 
</DataArray>
</Points>
<Cells>
<DataArray type="UInt32" Name="connectivity" format="ascii">
0 1 2 3 4 5 6 7 8 9 10 11 12 13 14 15 16 17 18 19 20 21 22 23 24 25 26 27 28 29 30 31 32 33 34 35 36 37 38 39 40 41 42 43 44 45 46 47 48 49 50 51 52 53 54 55 56 57 58 59 60 61 62 63 64 65 66 67 68 69 70 71 72 73 74 75 76 77 78 79 80 81 82 83 84 85 86 87 88 89 90 91 92 93 94 95 96 97 98 99 100 101 102 103 104 105 106 107 108 109 110 111 112 113 114 115 116 117 118 119 120 121 122 123 124 125 126 127 128 129 130 131 132 133 134 135 136 137 138 139 140 141 142 143 144 145 146 147 148 149 150 151 152 153 154 155 156 157 158 159 160 161 162 163 164 165 166 167 168 169 170 171 172 173 174 175 176 177 178 179 180 181 182 183 184 185 186 187 188 189 190 191 192 193 194 195 196 197 198 199 200 201 202 203 204 205 206 207 208 209 210 211 212 213 214 215 216 217 218 219 220 221 222 223 224 225 226 227 228 229 230 231 232 233 234 235 236 237 238 239 240 241 242 243 244 245 246 247 248 249 250 251 252 253 254 255 256 257 258 259 260 261 262 263 264 265 266 267 268 269 270 271 272 273 274 275 276 277 278 279 280 281 282 283 284 285 286 287 288 289 290 291 292 293 294 295 296 297 298 299 300 301 302 303 304 305 306 307 308 309 310 311 312 313 314 315 316 317 318 319 320 321 322 323 324 325 326 327 328 329 330 331 332 333 334 335 336 337 338 339 340 341 342 343 344 345 346 347 348 349 350 351 352 353 354 355 356 357 358 359 360 361 362 363 364 365 366 367 368 369 370 371 372 373 374 375 376 377 378 379 380 381 382 383 384 385 386 387 388 389 390 391 392 393 394 395 396 397 398 399 400 401 402 403 404 405 406 407 408 409 410 411 412 413 414 415 416 417 418 419 420 421 422 423 424 425 426 427 428 429 430 431 432 433 434 435 436 437 438 439 440 441 442 443 444 445 446 447 448 449 450 451 452 453 454 455 456 457 458 459 460 461 462 463 464 465 466 467 468 469 470 471 472 473 474 475 476 477 478 479 480 481 482 483 484 485 486 487 488 489 490 491 492 493 494 495 496 497 498 499 500 501 502 503 504 505 506 507 508 509 510 511 512 513 514 515 516 517 518 519 520 521 522 523 524 525 526 527 528 529 530 531 532 533 534 535 536 537 538 539 540 541 542 543 544 545 546 547 548 549 550 551 552 553 554 555 556 557 558 559 560 561 562 563 564 565 566 567 568 569 570 571 572 573 574 575 576 577 578 579 580 581 582 583 584 585 586 587 588 589 590 591 592 593 594 595 596 597 598 599 600 601 602 603 604 605 606 607 608 609 610 611 612 613 614 615 616 617 618 619 620 621 622 623 624 625 626 627 628 629 630 631 632 633 634 635 636 637 638 639 640 641 642 643 644 645 646 647 648 649 650 651 652 653 654 655 656 657 658 659 660 661 662 663 664 665 666 667 668 669 670 671 672 673 674 675 676 677 678 679 680 681 682 683 684 685 686 687 688 689 690 691 692 693 694 695 696 697 698 699 700 701 702 703 704 705 706 707 708 709 710 711 712 713 714 715 716 717 718 719 720 721 722 723 724 725 726 727 728 729 730 731 732 733 734 735 736 737 738 739 740 741 742 743 744 745 746 747 748 749 750 751 752 753 754 755 756 757 758 759 760 761 762 763 764 765 766 767 768 769 770 771 772 773 774 775 776 777 778 779 780 781 782 783 784 785 786 787 788 789 790 791 792 793 794 795 796 797 798 799 800 801 802 803 804 805 806 807 808 809 810 811 812 813 814 815 816 817 818 819 820 821 822 823 824 825 826 827 828 829 830 831 832 833 834 835 836 837 838 839 840 841 842 843 844 845 846 847 848 849 850 851 852 853 854 855 856 857 858 859 860 861 862 863 864 865 866 867 868 869 870 871 872 873 874 875 876 877 878 879 880 881 882 883 884 885 886 887 888 889 890 891 892 893 894 895 896 897 898 899 900 901 902 903 904 905 906 907 908 909 910 911 912 913 914 915 916 917 918 919 920 921 922 923 924 925 926 927 928 929 930 931 932 933 934 935 936 937 938 939 940 941 942 943 944 945 946 947 948 949 950 951 952 953 954 955 956 957 958 959 960 961 962 963 964 965 966 967 968 969 970 971 972 973 974 975 976 977 978 979 980 981 982 983 984 985 986 987 988 989 990 991 992 993 994 995 996 997 998 999 1000 1001 1002 1003 1004 1005 1006 1007 1008 1009 1010 1011 1012 1013 1014 1015 1016 1017 1018 1019 1020 1021 1022 1023 1024 1025 1026 1027 1028 1029 1030 1031 1032 1033 1034 1035 1036 1037 1038 1039 1040 1041 1042 1043 1044 1045 1046 1047 1048 1049 1050 1051 1052 1053 1054 1055 1056 1057 1058 1059 1060 1061 1062 1063 1064 1065 1066 1067 1068 1069 1070 1071 1072 1073 1074 1075 1076 1077 1078 1079 1080 1081 1082 1083 1084 1085 1086 1087 1088 1089 1090 1091 1092 1093 1094 1095 1096 1097 1098 1099 1100 1101 1102 1103 1104 1105 1106 1107 1108 1109 1110 1111 1112 1113 1114 1115 1116 1117 1118 1119 1120 1121 1122 1123 1124 1125 1126 1127 1128 1129 1130 1131 1132 1133 1134 1135 1136 1137 1138 1139 1140 1141 1142 1143 1144 1145 1146 1147 1148 1149 1150 1151 1152 1153 1154 1155 1156 1157 1158 1159 1160 1161 1162 1163 1164 1165 1166 1167 1168 1169 1170 1171 1172 1173 1174 1175 1176 1177 1178 1179 1180 1181 1182 1183 1184 1185 1186 1187 1188 1189 1190 1191 1192 1193 1194 1195 1196 1197 1198 1199 1200 1201 1202 1203 1204 1205 1206 1207 1208 1209 1210 1211 1212 1213 1214 1215 1216 1217 1218 1219 1220 1221 1222 1223 1224 1225 1226 1227 1228 1229 1230 1231 1232 1233 1234 1235 1236 1237 1238 1239 1240 1241 1242 1243 1244 1245 1246 1247 1248 1249 1250 1251 1252 1253 1254 1255 1256 1257 1258 1259 1260 1261 1262 1263 1264 1265 1266 1267 1268 1269 1270 1271 1272 1273 1274 1275 1276 1277 1278 1279 1280 1281 1282 1283 1284 1285 1286 1287 1288 1289 1290 1291 1292 1293 1294 1295 1296 1297 1298 1299 1300 1301 1302 1303 1304 1305 1306 1307 1308 1309 1310 1311 1312 1313 1314 1315 1316 1317 1318 1319 1320 1321 1322 1323 1324 1325 1326 1327 1328 1329 1330 1331 1332 1333 1334 1335 1336 1337 1338 1339 1340 1341 1342 1343 1344 1345 1346 1347 1348 1349 1350 1351 1352 1353 1354 1355 1356 1357 1358 1359 1360 1361 1362 1363 1364 1365 1366 1367 1368 1369 1370 1371 1372 1373 1374 1375 1376 1377 1378 1379 1380 1381 1382 1383 1384 1385 1386 1387 1388 1389 1390 1391 1392 1393 1394 1395 1396 1397 1398 1399 1400 1401 1402 1403 1404 1405 1406 1407 1408 1409 1410 1411 1412 1413 1414 1415 1416 1417 1418 1419 1420 1421 1422 1423 1424 1425 1426 1427 1428 1429 1430 1431 1432 1433 1434 1435 1436 1437 1438 1439 1440 1441 1442 1443 1444 1445 1446 1447 1448 1449 1450 1451 1452 1453 1454 1455 1456 1457 1458 1459 1460 1461 1462 1463 1464 1465 1466 1467 1468 1469 1470 1471 1472 1473 1474 1475 1476 1477 1478 1479 1480 1481 1482 1483 1484 1485 1486 1487 1488 1489 1490 1491 1492 1493 1494 1495 1496 1497 1498 1499 1500 1501 1502 1503 1504 1505 1506 1507 1508 1509 1510 1511 1512 1513 1514 1515 1516 1517 1518 1519 1520 1521 1522 1523 1524 1525 1526 1527 1528 1529 1530 1531 1532 1533 1534 1535 1536 1537 1538 1539 1540 1541 1542 1543 1544 1545 1546 1547 1548 1549 1550 1551 1552 1553 1554 1555 1556 1557 1558 1559 1560 1561 1562 1563 1564 1565 1566 1567 1568 1569 1570 1571 1572 1573 1574 1575 1576 1577 1578 1579 1580 1581 1582 1583 1584 1585 1586 1587 1588 1589 1590 1591 1592 1593 1594 1595 1596 1597 1598 1599 1600 1601 1602 1603 1604 1605 1606 1607 1608 1609 1610 1611 1612 1613 1614 1615 1616 1617 1618 1619 1620 1621 1622 1623 1624 1625 1626 1627 1628 1629 1630 1631 1632 1633 1634 1635 1636 1637 1638 1639 1640 1641 1642 1643 1644 1645 1646 1647 1648 1649 1650 1651 1652 1653 1654 1655 1656 1657 1658 1659 1660 1661 1662 1663 1664 1665 1666 1667 1668 1669 1670 1671 1672 1673 1674 1675 1676 1677 1678 1679 1680 1681 1682 1683 1684 1685 1686 1687 1688 1689 1690 1691 1692 1693 1694 1695 1696 1697 1698 1699 1700 1701 1702 1703 1704 1705 1706 1707 1708 1709 1710 1711 1712 1713 1714 1715 1716 1717 1718 1719 1720 1721 1722 1723 1724 1725 1726 1727 1728 1729 1730 1731 1732 1733 1734 1735 1736 1737 1738 1739 1740 1741 1742 1743 1744 1745 1746 1747 1748 1749 1750 1751 1752 1753 1754 1755 1756 1757 1758 1759 1760 1761 1762 1763 1764 1765 1766 1767 1768 1769 1770 1771 1772 1773 1774 1775 1776 1777 1778 1779 1780 1781 1782 1783 1784 1785 1786 1787 1788 1789 1790 1791 1792 1793 1794 1795 1796 1797 1798 1799 1800 1801 1802 1803 1804 1805 1806 1807 1808 1809 1810 1811 1812 1813 1814 1815 1816 1817 1818 1819 1820 1821 1822 1823 1824 1825 1826 1827 1828 1829 1830 1831 1832 1833 1834 1835 1836 1837 1838 1839 1840 1841 1842 1843 1844 1845 1846 1847 1848 1849 1850 1851 1852 1853 1854 1855 1856 1857 1858 1859 1860 1861 1862 1863 1864 1865 1866 1867 1868 1869 1870 1871 1872 1873 1874 1875 1876 1877 1878 1879 1880 1881 1882 1883 1884 1885 1886 1887 1888 1889 1890 1891 1892 1893 1894 1895 1896 1897 1898 1899 1900 1901 1902 1903 1904 1905 1906 1907 1908 1909 1910 1911 1912 1913 1914 1915 1916 1917 1918 1919 1920 1921 1922 1923 1924 1925 1926 1927 1928 1929 1930 1931 1932 1933 1934 1935 1936 1937 1938 1939 1940 1941 1942 1943 1944 1945 1946 1947 1948 1949 1950 1951 1952 1953 1954 1955 1956 1957 1958 1959 1960 1961 1962 1963 1964 1965 1966 1967 1968 1969 1970 1971 1972 1973 1974 1975 1976 1977 1978 1979 1980 1981 1982 1983 1984 1985 1986 1987 1988 1989 1990 1991 1992 1993 1994 1995 1996 1997 1998 1999 2000 2001 2002 2003 2004 2005 2006 2007 2008 2009 2010 2011 2012 2013 2014 2015 2016 2017 2018 2019 2020 2021 2022 2023 2024 2025 2026 2027 2028 2029 2030 2031 2032 2033 2034 2035 2036 2037 2038 2039 2040 2041 2042 2043 2044 2045 2046 2047 2048 2049 2050 2051 2052 2053 2054 2055 2056 2057 2058 2059 2060 2061 2062 2063 2064 2065 2066 2067 2068 2069 2070 2071 2072 2073 2074 2075 2076 2077 2078 2079 2080 2081 2082 2083 2084 2085 2086 2087 2088 2089 2090 2091 2092 2093 2094 2095 2096 2097 2098 2099 2100 2101 2102 2103 2104 2105 2106 2107 2108 2109 2110 2111 2112 2113 2114 2115 2116 2117 2118 2119 2120 2121 2122 2123 2124 2125 2126 2127 2128 2129 2130 2131 2132 2133 2134 2135 2136 2137 2138 2139 2140 2141 2142 2143 2144 2145 2146 2147 2148 2149 2150 2151 2152 2153 2154 2155 2156 2157 2158 2159 2160 2161 2162 2163 2164 2165 2166 2167 2168 2169 2170 2171 2172 2173 2174 2175 2176 2177 2178 2179 2180 2181 2182 2183 2184 2185 2186 2187 2188 2189 2190 2191 2192 2193 2194 2195 2196 2197 2198 2199 2200 2201 2202 2203 2204 2205 2206 2207 2208 2209 2210 2211 2212 2213 2214 2215 2216 2217 2218 2219 2220 2221 2222 2223 2224 2225 2226 2227 2228 2229 2230 2231 2232 2233 2234 2235 2236 2237 2238 2239 2240 2241 2242 2243 2244 2245 2246 2247 2248 2249 2250 2251 2252 2253 2254 2255 2256 2257 2258 2259 2260 2261 2262 2263 2264 2265 2266 2267 2268 2269 2270 2271 2272 2273 2274 2275 2276 2277 2278 2279 2280 2281 2282 2283 2284 2285 2286 2287 2288 2289 2290 2291 2292 2293 2294 2295 2296 2297 2298 2299 2300 2301 2302 2303 2304 2305 2306 2307 2308 2309 2310 2311 2312 2313 2314 2315 2316 2317 2318 2319 2320 2321 2322 2323 2324 2325 2326 2327 2328 2329 2330 2331 2332 2333 2334 2335 2336 2337 2338 2339 2340 2341 2342 2343 2344 2345 2346 2347 2348 2349 2350 2351 2352 2353 2354 2355 2356 2357 2358 2359 2360 2361 2362 2363 2364 2365 2366 2367 2368 2369 2370 2371 2372 2373 2374 2375 2376 2377 2378 2379 2380 2381 2382 2383 2384 2385 2386 2387 2388 2389 2390 2391 2392 2393 2394 2395 2396 2397 2398 2399 2400 2401 2402 2403 2404 2405 2406 2407 2408 2409 2410 2411 2412 2413 2414 2415 2416 2417 2418 2419 2420 2421 2422 2423 2424 2425 2426 2427 2428 2429 2430 2431 2432 2433 2434 2435 2436 2437 2438 2439 2440 2441 2442 2443 2444 2445 2446 2447 2448 2449 2450 2451 2452 2453 2454 2455 2456 2457 2458 2459 2460 2461 2462 2463 2464 2465 2466 2467 2468 2469 2470 2471 2472 2473 2474 2475 2476 2477 2478 2479 2480 2481 2482 2483 2484 2485 2486 2487 2488 2489 2490 2491 2492 2493 2494 2495 2496 2497 2498 2499 2500 2501 2502 2503 2504 2505 2506 2507 2508 2509 2510 2511 2512 2513 2514 2515 2516 2517 2518 2519 2520 2521 2522 2523 2524 2525 2526 2527 2528 2529 2530 2531 2532 2533 2534 2535 2536 2537 2538 2539 2540 2541 2542 2543 2544 2545 2546 2547 2548 2549 2550 2551 2552 2553 2554 2555 2556 2557 2558 2559 2560 2561 2562 2563 2564 2565 2566 2567 2568 2569 2570 2571 2572 2573 2574 2575 2576 2577 2578 2579 2580 2581 2582 2583 2584 2585 2586 2587 2588 2589 2590 2591 2592 2593 2594 2595 2596 2597 2598 2599 2600 2601 2602 2603 2604 2605 2606 2607 2608 2609 2610 2611 2612 2613 2614 2615 2616 2617 2618 2619 2620 2621 2622 2623 2624 2625 2626 2627 2628 2629 2630 2631 2632 2633 2634 2635 2636 2637 2638 2639 2640 2641 2642 2643 2644 2645 2646 2647 2648 2649 2650 2651 2652 2653 2654 2655 2656 2657 2658 2659 2660 2661 2662 2663 2664 2665 2666 2667 2668 2669 2670 2671 2672 2673 2674 2675 2676 2677 2678 2679 2680 2681 2682 2683 2684 2685 2686 2687 2688 2689 2690 2691 2692 2693 2694 2695 2696 2697 2698 2699 2700 2701 2702 2703 2704 2705 2706 2707 2708 2709 2710 2711 2712 2713 2714 2715 2716 2717 2718 2719 2720 2721 2722 2723 2724 2725 2726 2727 2728 2729 2730 2731 2732 2733 2734 2735 2736 2737 2738 2739 2740 2741 2742 2743 2744 2745 2746 2747 2748 2749 2750 2751 2752 2753 2754 2755 2756 2757 2758 2759 2760 2761 2762 2763 2764 2765 2766 2767 2768 2769 2770 2771 2772 2773 2774 2775 2776 2777 2778 2779 2780 2781 2782 2783 2784 2785 2786 2787 2788 2789 2790 2791 2792 2793 2794 2795 2796 2797 2798 2799 2800 2801 2802 2803 2804 2805 2806 2807 2808 2809 2810 2811 2812 2813 2814 2815 2816 2817 2818 2819 2820 2821 2822 2823 2824 2825 2826 2827 2828 2829 2830 2831 2832 2833 2834 2835 2836 2837 2838 2839 2840 2841 2842 2843 2844 2845 2846 2847 2848 2849 2850 2851 2852 2853 2854 2855 2856 2857 2858 2859 2860 2861 2862 2863 2864 2865 2866 2867 2868 2869 2870 2871 2872 2873 2874 2875 2876 2877 2878 2879 2880 2881 2882 2883 2884 2885 2886 2887 2888 2889 2890 2891 2892 2893 2894 2895 2896 2897 2898 2899 2900 2901 2902 2903 2904 2905 2906 2907 2908 2909 2910 2911 2912 2913 2914 2915 2916 2917 2918 2919 2920 2921 2922 2923 2924 2925 2926 2927 2928 2929 2930 2931 2932 2933 2934 2935 2936 2937 2938 2939 2940 2941 2942 2943 2944 2945 2946 2947 2948 2949 2950 2951 2952 2953 2954 2955 2956 2957 2958 2959 2960 2961 2962 2963 2964 2965 2966 2967 2968 2969 2970 2971 2972 2973 2974 2975 2976 2977 2978 2979 2980 2981 2982 2983 2984 2985 2986 2987 2988 2989 2990 2991 2992 2993 2994 2995 2996 2997 2998 2999 3000 3001 3002 3003 3004 3005 3006 3007 3008 3009 3010 3011 3012 3013 3014 3015 3016 3017 3018 3019 3020 3021 3022 3023 3024 3025 3026 3027 3028 3029 3030 3031 3032 3033 3034 3035 3036 3037 3038 3039 3040 3041 3042 3043 3044 3045 3046 3047 3048 3049 3050 3051 3052 3053 3054 3055 3056 3057 3058 3059 3060 3061 3062 3063 3064 3065 3066 3067 3068 3069 3070 3071 3072 3073 3074 3075 3076 3077 3078 3079 3080 3081 3082 3083 3084 3085 3086 3087 3088 3089 3090 3091 3092 3093 3094 3095 3096 3097 3098 3099 3100 3101 3102 3103 3104 3105 3106 3107 3108 3109 3110 3111 3112 3113 3114 3115 3116 3117 3118 3119 3120 3121 3122 3123 3124 3125 3126 3127 3128 3129 3130 3131 3132 3133 3134 3135 3136 3137 3138 3139 3140 3141 3142 3143 3144 3145 3146 3147 3148 3149 3150 3151 3152 3153 3154 3155 3156 3157 3158 3159 3160 3161 3162 3163 3164 3165 3166 3167 3168 3169 3170 3171 3172 3173 3174 3175 3176 3177 3178 3179 3180 3181 3182 3183 3184 3185 3186 3187 3188 3189 3190 3191 3192 3193 3194 3195 3196 3197 3198 3199 3200 3201 3202 3203 3204 3205 3206 3207 3208 3209 3210 3211 3212 3213 3214 3215 3216 3217 3218 3219 3220 3221 3222 3223 3224 3225 3226 3227 3228 3229 3230 3231 3232 3233 3234 3235 3236 3237 3238 3239 3240 3241 3242 3243 3244 3245 3246 3247 3248 3249 3250 3251 3252 3253 3254 3255 3256 3257 3258 3259 3260 3261 3262 3263 3264 3265 3266 3267 3268 3269 3270 3271 3272 3273 3274 3275 3276 3277 3278 3279 3280 3281 3282 3283 3284 3285 3286 3287 3288 3289 3290 3291 3292 3293 3294 3295 3296 3297 3298 3299 3300 3301 3302 3303 3304 3305 3306 3307 3308 3309 3310 3311 3312 3313 3314 3315 3316 3317 3318 3319 3320 3321 3322 3323 3324 3325 3326 3327 3328 3329 3330 3331 3332 3333 3334 3335 3336 3337 3338 3339 3340 3341 3342 3343 3344 3345 3346 3347 3348 3349 3350 3351 3352 3353 3354 3355 3356 3357 3358 3359 3360 3361 3362 3363 3364 3365 3366 3367 3368 3369 3370 3371 3372 3373 3374 3375 3376 3377 3378 3379 3380 3381 3382 3383 3384 3385 3386 3387 3388 3389 3390 3391 3392 3393 3394 3395 3396 3397 3398 3399 3400 3401 3402 3403 3404 3405 3406 3407 3408 3409 3410 3411 3412 3413 3414 3415 3416 3417 3418 3419 3420 3421 3422 3423 3424 3425 3426 3427 3428 3429 3430 3431 3432 3433 3434 3435 3436 3437 3438 3439 3440 3441 3442 3443 3444 3445 3446 3447 3448 3449 3450 3451 3452 3453 3454 3455 3456 3457 3458 3459 3460 3461 3462 3463 3464 3465 3466 3467 3468 3469 3470 3471 3472 3473 3474 3475 3476 3477 3478 3479 3480 3481 3482 3483 3484 3485 3486 3487 3488 3489 3490 3491 3492 3493 3494 3495 3496 3497 3498 3499 3500 3501 3502 3503 3504 3505 3506 3507 3508 3509 3510 3511 3512 3513 3514 3515 3516 3517 3518 3519 3520 3521 3522 3523 3524 3525 3526 3527 3528 3529 3530 3531 3532 3533 3534 3535 3536 3537 3538 3539 3540 3541 3542 3543 3544 3545 3546 3547 3548 3549 3550 3551 3552 3553 3554 3555 3556 3557 3558 3559 3560 3561 3562 3563 3564 3565 3566 3567 3568 3569 3570 3571 3572 3573 3574 3575 3576 3577 3578 3579 3580 3581 3582 3583 3584 3585 3586 3587 3588 3589 3590 3591 3592 3593 3594 3595 3596 3597 3598 3599 3600 3601 3602 3603 3604 3605 3606 3607 3608 3609 3610 3611 3612 3613 3614 3615 3616 3617 3618 3619 3620 3621 3622 3623 3624 3625 3626 3627 3628 3629 3630 3631 3632 3633 3634 3635 3636 3637 3638 3639 3640 3641 3642 3643 3644 3645 3646 3647 3648 3649 3650 3651 3652 3653 3654 3655 3656 3657 3658 3659 3660 3661 3662 3663 3664 3665 3666 3667 3668 3669 3670 3671 3672 3673 3674 3675 3676 3677 3678 3679 3680 3681 3682 3683 3684 3685 3686 3687 3688 3689 3690 3691 3692 3693 3694 3695 3696 3697 3698 3699 3700 3701 3702 3703 3704 3705 3706 3707 3708 3709 3710 3711 3712 3713 3714 3715 3716 3717 3718 3719 3720 3721 3722 3723 3724 3725 3726 3727 3728 3729 3730 3731 3732 3733 3734 3735 3736 3737 3738 3739 3740 3741 3742 3743 3744 3745 3746 3747 3748 3749 3750 3751 3752 3753 3754 3755 3756 3757 3758 3759 3760 3761 3762 3763 3764 3765 3766 3767 3768 3769 3770 3771 3772 3773 3774 3775 3776 3777 3778 3779 3780 3781 3782 3783 3784 3785 3786 3787 3788 3789 3790 3791 3792 3793 3794 3795 3796 3797 3798 3799 3800 3801 3802 3803 3804 3805 3806 3807 3808 3809 3810 3811 3812 3813 3814 3815 3816 3817 3818 3819 3820 3821 3822 3823 3824 3825 3826 3827 3828 3829 3830 3831 3832 3833 3834 3835 3836 3837 3838 3839 3840 3841 3842 3843 3844 3845 3846 3847 3848 3849 3850 3851 3852 3853 3854 3855 3856 3857 3858 3859 3860 3861 3862 3863 3864 3865 3866 3867 3868 3869 3870 3871 3872 3873 3874 3875 3876 3877 3878 3879 3880 3881 3882 3883 3884 3885 3886 3887 3888 3889 3890 3891 3892 3893 3894 3895 3896 3897 3898 3899 3900 3901 3902 3903 3904 3905 3906 3907 3908 3909 3910 3911 3912 3913 3914 3915 3916 3917 3918 3919 3920 3921 3922 3923 3924 3925 3926 3927 3928 3929 3930 3931 3932 3933 3934 3935 3936 3937 3938 3939 3940 3941 3942 3943 3944 3945 3946 3947 3948 3949 3950 3951 3952 3953 3954 3955 3956 3957 3958 3959 3960 3961 3962 3963 3964 3965 3966 3967 3968 3969 3970 3971 3972 3973 3974 3975 3976 3977 3978 3979 3980 3981 3982 3983 3984 3985 3986 3987 3988 3989 3990 3991 3992 3993 3994 3995 3996 3997 3998 3999 4000 4001 4002 4003 4004 4005 4006 4007 4008 4009 4010 4011 4012 4013 4014 4015 4016 4017 4018 4019 4020 4021 4022 4023 4024 4025 4026 4027 4028 4029 4030 4031 4032 4033 4034 4035 4036 4037 4038 4039 4040 4041 4042 4043 4044 4045 4046 4047 4048 4049 4050 4051 4052 4053 4054 4055 4056 4057 4058 4059 4060 4061 4062 4063 4064 4065 4066 4067 4068 4069 4070 4071 4072 4073 4074 4075 4076 4077 4078 4079 4080 4081 4082 4083 4084 4085 4086 4087 4088 4089 4090 4091 4092 4093 4094 4095 4096 4097 4098 4099 4100 4101 4102 4103 4104 4105 4106 4107 4108 4109 4110 4111 4112 4113 4114 4115 4116 4117 4118 4119 4120 4121 4122 4123 4124 4125 4126 4127 4128 4129 4130 4131 4132 4133 4134 4135 4136 4137 4138 4139 4140 4141 4142 4143 4144 4145 4146 4147 4148 4149 4150 4151 4152 4153 4154 4155 4156 4157 4158 4159 4160 4161 4162 4163 4164 4165 4166 4167 4168 4169 4170 4171 4172 4173 4174 4175 4176 4177 4178 4179 4180 4181 4182 4183 4184 4185 4186 4187 4188 4189 4190 4191 4192 4193 4194 4195 4196 4197 4198 4199 4200 4201 4202 4203 4204 4205 4206 4207 4208 4209 4210 4211 4212 4213 4214 4215 4216 4217 4218 4219 4220 4221 4222 4223 4224 4225 4226 4227 4228 4229 4230 4231 4232 4233 4234 4235 4236 4237 4238 4239 4240 4241 4242 4243 4244 4245 4246 4247 4248 4249 4250 4251 4252 4253 4254 4255 4256 4257 4258 4259 4260 4261 4262 4263 4264 4265 4266 4267 4268 4269 4270 4271 4272 4273 4274 4275 4276 4277 4278 4279 4280 4281 4282 4283 4284 4285 4286 4287 4288 4289 4290 4291 4292 4293 4294 4295 4296 4297 4298 4299 4300 4301 4302 4303 4304 4305 4306 4307 4308 4309 4310 4311 4312 4313 4314 4315 4316 4317 4318 4319 4320 4321 4322 4323 4324 4325 4326 4327 4328 4329 4330 4331 4332 4333 4334 4335 4336 4337 4338 4339 4340 4341 4342 4343 4344 4345 4346 4347 4348 4349 4350 4351 4352 4353 4354 4355 4356 4357 4358 4359 4360 4361 4362 4363 4364 4365 4366 4367 4368 4369 4370 4371 4372 4373 4374 4375 4376 4377 4378 4379 4380 4381 4382 4383 4384 4385 4386 4387 4388 4389 4390 4391 4392 4393 4394 4395 4396 4397 4398 4399 4400 4401 4402 4403 4404 4405 4406 4407 4408 4409 4410 4411 4412 4413 4414 4415 4416 4417 4418 4419 4420 4421 4422 4423 4424 4425 4426 4427 4428 4429 4430 4431 4432 4433 4434 4435 4436 4437 4438 4439 4440 4441 4442 4443 4444 4445 4446 4447 4448 4449 4450 4451 4452 4453 4454 4455 4456 4457 4458 4459 4460 4461 4462 4463 4464 4465 4466 4467 4468 4469 4470 4471 4472 4473 4474 4475 4476 4477 4478 4479 4480 4481 4482 4483 4484 4485 4486 4487 4488 4489 4490 4491 4492 4493 4494 4495 4496 4497 4498 4499 4500 4501 4502 4503 4504 4505 4506 4507 4508 4509 4510 4511 4512 4513 4514 4515 4516 4517 4518 4519 4520 4521 4522 4523 4524 4525 4526 4527 4528 4529 4530 4531 4532 4533 4534 4535 4536 4537 4538 4539 4540 4541 4542 4543 4544 4545 4546 4547 4548 4549 4550 4551 4552 4553 4554 4555 4556 4557 4558 4559 4560 4561 4562 4563 4564 4565 4566 4567 4568 4569 4570 4571 4572 4573 4574 4575 4576 4577 4578 4579 4580 4581 4582 4583 4584 4585 4586 4587 4588 4589 4590 4591 4592 4593 4594 4595 4596 4597 4598 4599 4600 4601 4602 4603 4604 4605 4606 4607 4608 4609 4610 4611 4612 4613 4614 4615 4616 4617 4618 4619 4620 4621 4622 4623 4624 4625 4626 4627 4628 4629 4630 4631 4632 4633 4634 4635 4636 4637 4638 4639 4640 4641 4642 4643 4644 4645 4646 4647 4648 4649 4650 4651 4652 4653 4654 4655 4656 4657 4658 4659 4660 4661 4662 4663 4664 4665 4666 4667 4668 4669 4670 4671 4672 4673 4674 4675 4676 4677 4678 4679 4680 4681 4682 4683 4684 4685 4686 4687 4688 4689 4690 4691 4692 4693 4694 4695 4696 4697 4698 4699 4700 4701 4702 4703 4704 4705 4706 4707 4708 4709 4710 4711 4712 4713 4714 4715 4716 4717 4718 4719 4720 4721 4722 4723 4724 4725 4726 4727 4728 4729 4730 4731 4732 4733 4734 4735 4736 4737 4738 4739 4740 4741 4742 4743 4744 4745 4746 4747 4748 4749 4750 4751 4752 4753 4754 4755 4756 4757 4758 4759 4760 4761 4762 4763 4764 4765 4766 4767 4768 4769 4770 4771 4772 4773 4774 4775 4776 4777 4778 4779 4780 4781 4782 4783 4784 4785 4786 4787 4788 4789 4790 4791 4792 4793 4794 4795 4796 4797 4798 4799 4800 4801 4802 4803 4804 4805 4806 4807 4808 4809 4810 4811 4812 4813 4814 4815 4816 4817 4818 4819 4820 4821 4822 4823 4824 4825 4826 4827 4828 4829 4830 4831 4832 4833 4834 4835 4836 4837 4838 4839 4840 4841 4842 4843 4844 4845 4846 4847 4848 4849 4850 4851 4852 4853 4854 4855 4856 4857 4858 4859 4860 4861 4862 4863 4864 4865 4866 4867 4868 4869 4870 4871 4872 4873 4874 4875 4876 4877 4878 4879 4880 4881 4882 4883 4884 4885 4886 4887 4888 4889 4890 4891 4892 4893 4894 4895 4896 4897 4898 4899 4900 4901 4902 4903 4904 4905 4906 4907 4908 4909 4910 4911 4912 4913 4914 4915 4916 4917 4918 4919 4920 4921 4922 4923 4924 4925 4926 4927 4928 4929 4930 4931 4932 4933 4934 4935 4936 4937 4938 4939 4940 4941 4942 4943 4944 4945 4946 4947 4948 4949 4950 4951 4952 4953 4954 4955 4956 4957 4958 4959 4960 4961 4962 4963 4964 4965 4966 4967 4968 4969 4970 4971 4972 4973 4974 4975 4976 4977 4978 4979 4980 4981 4982 4983 4984 4985 4986 4987 4988 4989 4990 4991 4992 4993 4994 4995 4996 4997 4998 4999 5000 5001 5002 5003 5004 5005 5006 5007 5008 5009 5010 5011 5012 5013 5014 5015 5016 5017 5018 5019 5020 5021 5022 5023 5024 5025 5026 5027 5028 5029 5030 5031 5032 5033 5034 5035 5036 5037 5038 5039 5040 5041 5042 5043 5044 5045 5046 5047 5048 5049 5050 5051 5052 5053 5054 5055 5056 5057 5058 5059 5060 5061 5062 5063 5064 5065 5066 5067 5068 5069 5070 5071 5072 5073 5074 5075 5076 5077 5078 5079 5080 5081 5082 5083 5084 5085 5086 5087 5088 5089 5090 5091 5092 5093 5094 5095 5096 5097 5098 5099 5100 5101 5102 5103 5104 5105 5106 5107 5108 5109 5110 5111 5112 5113 5114 5115 5116 5117 5118 5119 5120 5121 5122 5123 5124 5125 5126 5127 5128 5129 5130 5131 5132 5133 5134 5135 5136 5137 5138 5139 5140 5141 5142 5143 5144 5145 5146 5147 5148 5149 5150 5151 5152 5153 5154 5155 5156 5157 5158 5159 5160 5161 5162 5163 5164 5165 5166 5167 5168 5169 5170 5171 5172 5173 5174 5175 5176 5177 5178 5179 5180 5181 5182 5183 5184 5185 5186 5187 5188 5189 5190 5191 5192 5193 5194 5195 5196 5197 5198 5199 5200 5201 5202 5203 5204 5205 5206 5207 5208 5209 5210 5211 5212 5213 5214 5215 5216 5217 5218 5219 5220 5221 5222 5223 5224 5225 5226 5227 5228 5229 5230 5231 5232 5233 5234 5235 5236 5237 5238 5239 5240 5241 5242 5243 5244 5245 5246 5247 5248 5249 5250 5251 5252 5253 5254 5255 5256 5257 5258 5259 5260 5261 5262 5263 5264 5265 5266 5267 5268 5269 5270 5271 5272 5273 5274 5275 5276 5277 5278 5279 5280 5281 5282 5283 5284 5285 5286 5287 5288 5289 5290 5291 5292 5293 5294 5295 5296 5297 5298 5299 5300 5301 5302 5303 5304 5305 5306 5307 5308 5309 5310 5311 5312 5313 5314 5315 5316 5317 5318 5319 5320 5321 5322 5323 5324 5325 5326 5327 5328 5329 5330 5331 5332 5333 5334 5335 5336 5337 5338 5339 5340 5341 5342 5343 5344 5345 5346 5347 5348 5349 5350 5351 5352 5353 5354 5355 5356 5357 5358 5359 5360 5361 5362 5363 5364 5365 5366 5367 5368 5369 5370 5371 5372 5373 5374 5375 5376 5377 5378 5379 5380 5381 5382 5383 5384 5385 5386 5387 5388 5389 5390 5391 5392 5393 5394 5395 5396 5397 5398 5399 5400 5401 5402 5403 5404 5405 5406 5407 5408 5409 5410 5411 5412 5413 5414 5415 5416 5417 5418 5419 5420 5421 5422 5423 5424 5425 5426 5427 5428 5429 5430 5431 5432 5433 5434 5435 5436 5437 5438 5439 5440 5441 5442 5443 5444 5445 5446 5447 5448 5449 5450 5451 5452 5453 5454 5455 5456 5457 5458 5459 5460 5461 5462 5463 5464 5465 5466 5467 5468 5469 5470 5471 5472 5473 5474 5475 5476 5477 5478 5479 5480 5481 5482 5483 5484 5485 5486 5487 5488 5489 5490 5491 5492 5493 5494 5495 5496 5497 5498 5499 5500 5501 5502 5503 5504 5505 5506 5507 5508 5509 5510 5511 5512 5513 5514 5515 5516 5517 5518 5519 5520 5521 5522 5523 5524 5525 5526 5527 5528 5529 5530 5531 5532 5533 5534 5535 5536 5537 5538 5539 5540 5541 5542 5543 5544 5545 5546 5547 5548 5549 5550 5551 5552 5553 5554 5555 5556 5557 5558 5559 5560 5561 5562 5563 5564 5565 5566 5567 5568 5569 5570 5571 5572 5573 5574 5575 5576 5577 5578 5579 5580 5581 5582 5583 5584 5585 5586 5587 5588 5589 5590 5591 5592 5593 5594 5595 5596 5597 5598 5599 5600 5601 5602 5603 5604 5605 5606 5607 5608 5609 5610 5611 5612 5613 5614 5615 5616 5617 5618 5619 5620 5621 5622 5623 5624 5625 5626 5627 5628 5629 5630 5631 5632 5633 5634 5635 5636 5637 5638 5639 5640 5641 5642 5643 5644 5645 5646 5647 5648 5649 5650 5651 5652 5653 5654 5655 5656 5657 5658 5659 5660 5661 5662 5663 5664 5665 5666 5667 5668 5669 5670 5671 5672 5673 5674 5675 5676 5677 5678 5679 5680 5681 5682 5683 5684 5685 5686 5687 5688 5689 5690 5691 5692 5693 5694 5695 5696 5697 5698 5699 5700 5701 5702 5703 5704 5705 5706 5707 5708 5709 5710 5711 5712 5713 5714 5715 5716 5717 5718 5719 5720 5721 5722 5723 5724 5725 5726 5727 5728 5729 5730 5731 5732 5733 5734 5735 5736 5737 5738 5739 5740 5741 5742 5743 5744 5745 5746 5747 5748 5749 5750 5751 5752 5753 5754 5755 5756 5757 5758 5759 5760 5761 5762 5763 5764 5765 5766 5767 5768 5769 5770 5771 5772 5773 5774 5775 5776 5777 5778 5779 5780 5781 5782 5783 5784 5785 5786 5787 5788 5789 5790 5791 5792 5793 5794 5795 5796 5797 5798 5799 5800 5801 5802 5803 5804 5805 5806 5807 5808 5809 5810 5811 5812 5813 5814 5815 5816 5817 5818 5819 5820 5821 5822 5823 5824 5825 5826 5827 5828 5829 5830 5831 5832 5833 5834 5835 5836 5837 5838 5839 5840 5841 5842 5843 5844 5845 5846 5847 5848 5849 5850 5851 5852 5853 5854 5855 5856 5857 5858 5859 5860 5861 5862 5863 5864 5865 5866 5867 5868 5869 5870 5871 5872 5873 5874 5875 5876 5877 5878 5879 5880 5881 5882 5883 5884 5885 5886 5887 5888 5889 5890 5891 5892 5893 5894 5895 5896 5897 5898 5899 5900 5901 5902 5903 5904 5905 5906 5907 5908 5909 5910 5911 5912 5913 5914 5915 5916 5917 5918 5919 5920 5921 5922 5923 5924 5925 5926 5927 5928 5929 5930 5931 5932 5933 5934 5935 5936 5937 5938 5939 5940 5941 5942 5943 5944 5945 5946 5947 5948 5949 5950 5951 5952 5953 5954 5955 5956 5957 5958 5959 5960 5961 5962 5963 5964 5965 5966 5967 5968 5969 5970 5971 5972 5973 5974 5975 5976 5977 5978 5979 5980 5981 5982 5983 5984 5985 5986 5987 5988 5989 5990 5991 5992 5993 5994 5995 5996 5997 5998 5999 6000 6001 6002 6003 6004 6005 6006 6007 6008 6009 6010 6011 6012 6013 6014 6015 6016 6017 6018 6019 6020 6021 6022 6023 6024 6025 6026 6027 6028 6029 6030 6031 6032 6033 6034 6035 6036 6037 6038 6039 6040 6041 6042 6043 6044 6045 6046 6047 6048 6049 6050 6051 6052 6053 6054 6055 6056 6057 6058 6059 6060 6061 6062 6063 6064 6065 6066 6067 6068 6069 6070 6071 6072 6073 6074 6075 6076 6077 6078 6079 6080 6081 6082 6083 6084 6085 6086 6087 6088 6089 6090 6091 6092 6093 6094 6095 6096 6097 6098 6099 6100 6101 6102 6103 6104 6105 6106 6107 6108 6109 6110 6111 6112 6113 6114 6115 6116 6117 6118 6119 6120 6121 6122 6123 6124 6125 6126 6127 6128 6129 6130 6131 6132 6133 6134 6135 6136 6137 6138 6139 6140 6141 6142 6143 6144 6145 6146 6147 6148 6149 6150 6151 6152 6153 6154 6155 6156 6157 6158 6159 6160 6161 6162 6163 6164 6165 6166 6167 6168 6169 6170 6171 6172 6173 6174 6175 6176 6177 6178 6179 6180 6181 6182 6183 6184 6185 6186 6187 6188 6189 6190 6191 6192 6193 6194 6195 6196 6197 6198 6199 6200 6201 6202 6203 6204 6205 6206 6207 6208 6209 6210 6211 6212 6213 6214 6215 6216 6217 6218 6219 6220 6221 6222 6223 6224 6225 6226 6227 6228 6229 6230 6231 6232 6233 6234 6235 6236 6237 6238 6239 6240 6241 6242 6243 6244 6245 6246 6247 6248 6249 6250 6251 6252 6253 6254 6255 6256 6257 6258 6259 6260 6261 6262 6263 6264 6265 6266 6267 6268 6269 6270 6271 6272 6273 6274 6275 6276 6277 6278 6279 6280 6281 6282 6283 6284 6285 6286 6287 6288 6289 6290 6291 6292 6293 6294 6295 6296 6297 6298 6299 6300 6301 6302 6303 6304 6305 6306 6307 6308 6309 6310 6311 6312 6313 6314 6315 6316 6317 6318 6319 6320 6321 6322 6323 6324 6325 6326 6327 6328 6329 6330 6331 6332 6333 6334 6335 6336 6337 6338 6339 6340 6341 6342 6343 6344 6345 6346 6347 6348 6349 6350 6351 6352 6353 6354 6355 6356 6357 6358 6359 6360 6361 6362 6363 6364 6365 6366 6367 6368 6369 6370 6371 6372 6373 6374 6375 6376 6377 6378 6379 6380 6381 6382 6383 6384 6385 6386 6387 6388 6389 6390 6391 6392 6393 6394 6395 6396 6397 6398 6399 6400 6401 6402 6403 6404 6405 6406 6407 6408 6409 6410 6411 6412 6413 6414 6415 6416 6417 6418 6419 6420 6421 6422 6423 6424 6425 6426 6427 6428 6429 6430 6431 6432 6433 6434 6435 6436 6437 6438 6439 6440 6441 6442 6443 6444 6445 6446 6447 6448 6449 6450 6451 6452 6453 6454 6455 6456 6457 6458 6459 6460 6461 6462 6463 6464 6465 6466 6467 6468 6469 6470 6471 6472 6473 6474 6475 6476 6477 6478 6479 6480 6481 6482 6483 6484 6485 6486 6487 6488 6489 6490 6491 6492 6493 6494 6495 6496 6497 6498 6499 6500 6501 6502 6503 6504 6505 6506 6507 6508 6509 6510 6511 6512 6513 6514 6515 6516 6517 6518 6519 6520 6521 6522 6523 6524 6525 6526 6527 6528 6529 6530 6531 6532 6533 6534 6535 6536 6537 6538 6539 6540 6541 6542 6543 6544 6545 6546 6547 6548 6549 6550 6551 6552 6553 6554 6555 6556 6557 6558 6559 6560 6561 6562 6563 6564 6565 6566 6567 6568 6569 6570 6571 6572 6573 6574 6575 6576 6577 6578 6579 6580 6581 6582 6583 6584 6585 6586 6587 6588 6589 6590 6591 6592 6593 6594 6595 6596 6597 6598 6599 6600 6601 6602 6603 6604 6605 6606 6607 6608 6609 6610 6611 6612 6613 6614 6615 6616 6617 6618 6619 6620 6621 6622 6623 6624 6625 6626 6627 6628 6629 6630 6631 6632 6633 6634 6635 6636 6637 6638 6639 6640 6641 6642 6643 6644 6645 6646 6647 6648 6649 6650 6651 6652 6653 6654 6655 6656 6657 6658 6659 6660 6661 6662 6663 6664 6665 6666 6667 6668 6669 6670 6671 6672 6673 6674 6675 6676 6677 6678 6679 6680 6681 6682 6683 6684 6685 6686 6687 6688 6689 6690 6691 6692 6693 6694 6695 6696 6697 6698 6699 6700 6701 6702 6703 6704 6705 6706 6707 6708 6709 6710 6711 6712 6713 6714 6715 6716 6717 6718 6719 6720 6721 6722 6723 6724 6725 6726 6727 6728 6729 6730 6731 6732 6733 6734 6735 6736 6737 6738 6739 6740 6741 6742 6743 6744 6745 6746 6747 6748 6749 6750 6751 6752 6753 6754 6755 6756 6757 6758 6759 6760 6761 6762 6763 6764 6765 6766 6767 6768 6769 6770 6771 6772 6773 6774 6775 6776 6777 6778 6779 6780 6781 6782 6783 6784 6785 6786 6787 6788 6789 6790 6791 6792 6793 6794 6795 6796 6797 6798 6799 6800 6801 6802 6803 6804 6805 6806 6807 6808 6809 6810 6811 6812 6813 6814 6815 6816 6817 6818 6819 6820 6821 6822 6823 6824 6825 6826 6827 6828 6829 6830 6831 6832 6833 6834 6835 6836 6837 6838 6839 6840 6841 6842 6843 6844 6845 6846 6847 6848 6849 6850 6851 6852 6853 6854 6855 6856 6857 6858 6859 6860 6861 6862 6863 6864 6865 6866 6867 6868 6869 6870 6871 6872 6873 6874 6875 6876 6877 6878 6879 6880 6881 6882 6883 6884 6885 6886 6887 6888 6889 6890 6891 6892 6893 6894 6895 6896 6897 6898 6899 6900 6901 6902 6903 6904 6905 6906 6907 6908 6909 6910 6911 6912 6913 6914 6915 6916 6917 6918 6919 6920 6921 6922 6923 6924 6925 6926 6927 6928 6929 6930 6931 6932 6933 6934 6935 6936 6937 6938 6939 6940 6941 6942 6943 6944 6945 6946 6947 6948 6949 6950 6951 6952 6953 6954 6955 6956 6957 6958 6959 6960 6961 6962 6963 6964 6965 6966 6967 6968 6969 6970 6971 6972 6973 6974 6975 6976 6977 6978 6979 6980 6981 6982 6983 6984 6985 6986 6987 6988 6989 6990 6991 6992 6993 6994 6995 6996 6997 6998 6999 7000 7001 7002 7003 7004 7005 7006 7007 7008 7009 7010 7011 7012 7013 7014 7015 7016 7017 7018 7019 7020 7021 7022 7023 7024 7025 7026 7027 7028 7029 7030 7031 7032 7033 7034 7035 7036 7037 7038 7039 7040 7041 7042 7043 7044 7045 7046 7047 7048 7049 7050 7051 7052 7053 7054 7055 7056 7057 7058 7059 7060 7061 7062 7063 7064 7065 7066 7067 7068 7069 7070 7071 7072 7073 7074 7075 7076 7077 7078 7079 7080 7081 7082 7083 7084 7085 7086 7087 7088 7089 7090 7091 7092 7093 7094 7095 7096 7097 7098 7099 7100 7101 7102 7103 7104 7105 7106 7107 7108 7109 7110 7111 7112 7113 7114 7115 7116 7117 7118 7119 7120 7121 7122 7123 7124 7125 7126 7127 7128 7129 7130 7131 7132 7133 7134 7135 7136 7137 7138 7139 7140 7141 7142 7143 7144 7145 7146 7147 7148 7149 7150 7151 7152 7153 7154 7155 7156 7157 7158 7159 7160 7161 7162 7163 7164 7165 7166 7167 7168 7169 7170 7171 7172 7173 7174 7175 7176 7177 7178 7179 7180 7181 7182 7183 7184 7185 7186 7187 7188 7189 7190 7191 7192 7193 7194 7195 7196 7197 7198 7199 7200 7201 7202 7203 7204 7205 7206 7207 7208 7209 7210 7211 7212 7213 7214 7215 7216 7217 7218 7219 7220 7221 7222 7223 7224 7225 7226 7227 7228 7229 7230 7231 7232 7233 7234 7235 7236 7237 7238 7239 7240 7241 7242 7243 7244 7245 7246 7247 7248 7249 7250 7251 7252 7253 7254 7255 7256 7257 7258 7259 7260 7261 7262 7263 7264 7265 7266 7267 7268 7269 7270 7271 7272 7273 7274 7275 7276 7277 7278 7279 7280 7281 7282 7283 7284 7285 7286 7287 7288 7289 7290 7291 7292 7293 7294 7295 7296 7297 7298 7299 7300 7301 7302 7303 7304 7305 7306 7307 7308 7309 7310 7311 7312 7313 7314 7315 7316 7317 7318 7319 7320 7321 7322 7323 7324 7325 7326 7327 7328 7329 7330 7331 7332 7333 7334 7335 7336 7337 7338 7339 7340 7341 7342 7343 7344 7345 7346 7347 7348 7349 7350 7351 7352 7353 7354 7355 7356 7357 7358 7359 7360 7361 7362 7363 7364 7365 7366 7367 7368 7369 7370 7371 7372 7373 7374 7375 7376 7377 7378 7379 7380 7381 7382 7383 7384 7385 7386 7387 7388 7389 7390 7391 7392 7393 7394 7395 7396 7397 7398 7399 7400 7401 7402 7403 7404 7405 7406 7407 7408 7409 7410 7411 7412 7413 7414 7415 7416 7417 7418 7419 7420 7421 7422 7423 7424 7425 7426 7427 7428 7429 7430 7431 7432 7433 7434 7435 7436 7437 7438 7439 7440 7441 7442 7443 7444 7445 7446 7447 7448 7449 7450 7451 7452 7453 7454 7455 7456 7457 7458 7459 7460 7461 7462 7463 7464 7465 7466 7467 7468 7469 7470 7471 7472 7473 7474 7475 7476 7477 7478 7479 7480 7481 7482 7483 7484 7485 7486 7487 7488 7489 7490 7491 7492 7493 7494 7495 7496 7497 7498 7499 7500 7501 7502 7503 7504 7505 7506 7507 7508 7509 7510 7511 7512 7513 7514 7515 7516 7517 7518 7519 7520 7521 7522 7523 7524 7525 7526 7527 7528 7529 7530 7531 7532 7533 7534 7535 7536 7537 7538 7539 7540 7541 7542 7543 7544 7545 7546 7547 7548 7549 7550 7551 7552 7553 7554 7555 7556 7557 7558 7559 7560 7561 7562 7563 7564 7565 7566 7567 7568 7569 7570 7571 7572 7573 7574 7575 7576 7577 7578 7579 7580 7581 7582 7583 7584 7585 7586 7587 7588 7589 7590 7591 7592 7593 7594 7595 7596 7597 7598 7599 7600 7601 7602 7603 7604 7605 7606 7607 7608 7609 7610 7611 7612 7613 7614 7615 7616 7617 7618 7619 7620 7621 7622 7623 7624 7625 7626 7627 7628 7629 7630 7631 7632 7633 7634 7635 7636 7637 7638 7639 7640 7641 7642 7643 7644 7645 7646 7647 7648 7649 7650 7651 7652 7653 7654 7655 7656 7657 7658 7659 7660 7661 7662 7663 7664 7665 7666 7667 7668 7669 7670 7671 7672 7673 7674 7675 7676 7677 7678 7679 7680 7681 7682 7683 7684 7685 7686 7687 7688 7689 7690 7691 7692 7693 7694 7695 7696 7697 7698 7699 7700 7701 7702 7703 7704 7705 7706 7707 7708 7709 7710 7711 7712 7713 7714 7715 7716 7717 7718 7719 7720 7721 7722 7723 7724 7725 7726 7727 7728 7729 7730 7731 7732 7733 7734 7735 7736 7737 7738 7739 7740 7741 7742 7743 7744 7745 7746 7747 7748 7749 7750 7751 7752 7753 7754 7755 7756 7757 7758 7759 7760 7761 7762 7763 7764 7765 7766 7767 7768 7769 7770 7771 7772 7773 7774 7775 7776 7777 7778 7779 7780 7781 7782 7783 7784 7785 7786 7787 7788 7789 7790 7791 7792 7793 7794 7795 7796 7797 7798 7799 7800 7801 7802 7803 7804 7805 7806 7807 7808 7809 7810 7811 7812 7813 7814 7815 7816 7817 7818 7819 7820 7821 7822 7823 7824 7825 7826 7827 7828 7829 7830 7831 7832 7833 7834 7835 7836 7837 7838 7839 7840 7841 7842 7843 7844 7845 7846 7847 7848 7849 7850 7851 7852 7853 7854 7855 7856 7857 7858 7859 7860 7861 7862 7863 7864 7865 7866 7867 7868 7869 7870 7871 7872 7873 7874 7875 7876 7877 7878 7879 7880 7881 7882 7883 7884 7885 7886 7887 7888 7889 7890 7891 7892 7893 7894 7895 7896 7897 7898 7899 7900 7901 7902 7903 7904 7905 7906 7907 7908 7909 7910 7911 7912 7913 7914 7915 7916 7917 7918 7919 7920 7921 7922 7923 7924 7925 7926 7927 7928 7929 7930 7931 7932 7933 7934 7935 7936 7937 7938 7939 7940 7941 7942 7943 7944 7945 7946 7947 7948 7949 7950 7951 7952 7953 7954 7955 7956 7957 7958 7959 7960 7961 7962 7963 7964 7965 7966 7967 7968 7969 7970 7971 7972 7973 7974 7975 7976 7977 7978 7979 7980 7981 7982 7983 7984 7985 7986 7987 7988 7989 7990 7991 7992 7993 7994 7995 7996 7997 7998 7999 8000 8001 8002 8003 8004 8005 8006 8007 8008 8009 8010 8011 8012 8013 8014 8015 8016 8017 8018 8019 8020 8021 8022 8023 8024 8025 8026 8027 8028 8029 8030 8031 8032 8033 8034 8035 8036 8037 8038 8039 8040 8041 8042 8043 8044 8045 8046 8047 8048 8049 8050 8051 8052 8053 8054 8055 8056 8057 8058 8059 8060 8061 8062 8063 8064 8065 8066 8067 8068 8069 8070 8071 8072 8073 8074 8075 8076 8077 8078 8079 8080 8081 8082 8083 8084 8085 8086 8087 8088 8089 8090 8091 8092 8093 8094 8095 8096 8097 8098 8099 8100 8101 8102 8103 8104 8105 8106 8107 8108 8109 8110 8111 8112 8113 8114 8115 8116 8117 8118 8119 8120 8121 8122 8123 8124 8125 8126 8127 8128 8129 8130 8131 8132 8133 8134 8135 8136 8137 8138 8139 8140 8141 8142 8143 8144 8145 8146 8147 8148 8149 8150 8151 8152 8153 8154 8155 8156 8157 8158 8159 8160 8161 8162 8163 8164 8165 8166 8167 8168 8169 8170 8171 8172 8173 8174 8175 8176 8177 8178 8179 8180 8181 8182 8183 8184 8185 8186 8187 8188 8189 8190 8191 8192 8193 8194 8195 8196 8197 8198 8199 8200 8201 8202 8203 8204 8205 8206 8207 8208 8209 8210 8211 8212 8213 8214 8215 8216 8217 8218 8219 8220 8221 8222 8223 8224 8225 8226 8227 8228 8229 8230 8231 8232 8233 8234 8235 8236 8237 8238 8239 8240 8241 8242 8243 8244 8245 8246 8247 8248 8249 8250 8251 8252 8253 8254 8255 8256 8257 8258 8259 8260 8261 8262 8263 8264 8265 8266 8267 8268 8269 8270 8271 8272 8273 8274 8275 8276 8277 8278 8279 8280 8281 8282 8283 8284 8285 8286 8287 8288 8289 8290 8291 8292 8293 8294 8295 8296 8297 8298 8299 8300 8301 8302 8303 8304 8305 8306 8307 8308 8309 8310 8311 8312 8313 8314 8315 8316 8317 8318 8319 8320 8321 8322 8323 8324 8325 8326 8327 8328 8329 8330 8331 8332 8333 8334 8335 8336 8337 8338 8339 8340 8341 8342 8343 8344 8345 8346 8347 8348 8349 8350 8351 8352 8353 8354 8355 8356 8357 8358 8359 8360 8361 8362 8363 8364 8365 8366 8367 8368 8369 8370 8371 8372 8373 8374 8375 8376 8377 8378 8379 8380 8381 8382 8383 8384 8385 8386 8387 8388 8389 8390 8391 8392 8393 8394 8395 8396 8397 8398 8399 8400 8401 8402 8403 8404 8405 8406 8407 8408 8409 8410 8411 8412 8413 8414 8415 8416 8417 8418 8419 8420 8421 8422 8423 8424 8425 8426 8427 8428 8429 8430 8431 8432 8433 8434 8435 8436 8437 8438 8439 8440 8441 8442 8443 8444 8445 8446 8447 8448 8449 8450 8451 8452 8453 8454 8455 8456 8457 8458 8459 8460 8461 8462 8463 8464 8465 8466 8467 8468 8469 8470 8471 8472 8473 8474 8475 8476 8477 8478 8479 8480 8481 8482 8483 8484 8485 8486 8487 8488 8489 8490 8491 8492 8493 8494 8495 8496 8497 8498 8499 8500 8501 8502 8503 8504 8505 8506 8507 8508 8509 8510 8511 8512 8513 8514 8515 8516 8517 8518 8519 8520 8521 8522 8523 8524 8525 8526 8527 8528 8529 8530 8531 8532 8533 8534 8535 8536 8537 8538 8539 8540 8541 8542 8543 8544 8545 8546 8547 8548 8549 8550 8551 8552 8553 8554 8555 8556 8557 8558 8559 8560 8561 8562 8563 8564 8565 8566 8567 8568 8569 8570 8571 8572 8573 8574 8575 8576 8577 8578 8579 8580 8581 8582 8583 8584 8585 8586 8587 8588 8589 8590 8591 8592 8593 8594 8595 8596 8597 8598 8599 8600 8601 8602 8603 8604 8605 8606 8607 8608 8609 8610 8611 8612 8613 8614 8615 8616 8617 8618 8619 8620 8621 8622 8623 8624 8625 8626 8627 8628 8629 8630 8631 8632 8633 8634 8635 8636 8637 8638 8639 8640 8641 8642 8643 8644 8645 8646 8647 8648 8649 8650 8651 8652 8653 8654 8655 8656 8657 8658 8659 8660 8661 8662 8663 8664 8665 8666 8667 8668 8669 8670 8671 8672 8673 8674 8675 8676 8677 8678 8679 8680 8681 8682 8683 8684 8685 8686 8687 8688 8689 8690 8691 8692 8693 8694 8695 8696 8697 8698 8699 8700 8701 8702 8703 8704 8705 8706 8707 8708 8709 8710 8711 8712 8713 8714 8715 8716 8717 8718 8719 8720 8721 8722 8723 8724 8725 8726 8727 8728 8729 8730 8731 8732 8733 8734 8735 8736 8737 8738 8739 8740 8741 8742 8743 8744 8745 8746 8747 8748 8749 8750 8751 8752 8753 8754 8755 8756 8757 8758 8759 8760 8761 8762 8763 8764 8765 8766 8767 8768 8769 8770 8771 8772 8773 8774 8775 8776 8777 8778 8779 8780 8781 8782 8783 8784 8785 8786 8787 8788 8789 8790 8791 8792 8793 8794 8795 8796 8797 8798 8799 8800 8801 8802 8803 8804 8805 8806 8807 8808 8809 8810 8811 8812 8813 8814 8815 8816 8817 8818 8819 8820 8821 8822 8823 8824 8825 8826 8827 8828 8829 8830 8831 8832 8833 8834 8835 8836 8837 8838 8839 8840 8841 8842 8843 8844 8845 8846 8847 8848 8849 8850 8851 8852 8853 8854 8855 8856 8857 8858 8859 8860 8861 8862 8863 8864 8865 8866 8867 8868 8869 8870 8871 8872 8873 8874 8875 8876 8877 8878 8879 8880 8881 8882 8883 8884 8885 8886 8887 8888 8889 8890 8891 8892 8893 8894 8895 8896 8897 8898 8899 8900 8901 8902 8903 8904 8905 8906 8907 8908 8909 8910 8911 8912 8913 8914 8915 8916 8917 8918 8919 8920 8921 8922 8923 8924 8925 8926 8927 8928 8929 8930 8931 8932 8933 8934 8935 8936 8937 8938 8939 8940 8941 8942 8943 8944 8945 8946 8947 8948 8949 8950 8951 8952 8953 8954 8955 8956 8957 8958 8959 8960 8961 8962 8963 8964 8965 8966 8967 8968 8969 8970 8971 8972 8973 8974 8975 8976 8977 8978 8979 8980 8981 8982 8983 8984 8985 8986 8987 8988 8989 8990 8991 8992 8993 8994 8995 8996 8997 8998 8999 9000 9001 9002 9003 9004 9005 9006 9007 9008 9009 9010 9011 9012 9013 9014 9015 9016 9017 9018 9019 9020 9021 9022 9023 9024 9025 9026 9027 9028 9029 9030 9031 9032 9033 9034 9035 9036 9037 9038 9039 9040 9041 9042 9043 9044 9045 9046 9047 9048 9049 9050 9051 9052 9053 9054 9055 9056 9057 9058 9059 9060 9061 9062 9063 9064 9065 9066 9067 9068 9069 9070 9071 9072 9073 9074 9075 9076 9077 9078 9079 9080 9081 9082 9083 9084 9085 9086 9087 9088 9089 9090 9091 9092 9093 9094 9095 9096 9097 9098 9099 9100 9101 9102 9103 9104 9105 9106 9107 9108 9109 9110 9111 9112 9113 9114 9115 9116 9117 9118 9119 9120 9121 9122 9123 9124 9125 9126 9127 9128 9129 9130 9131 9132 9133 9134 9135 9136 9137 9138 9139 9140 9141 9142 9143 9144 9145 9146 9147 9148 9149 9150 9151 9152 9153 9154 9155 9156 9157 9158 9159 9160 9161 9162 9163 9164 9165 9166 9167 9168 9169 9170 9171 9172 9173 9174 9175 9176 9177 9178 9179 9180 9181 9182 9183 9184 9185 9186 9187 9188 9189 9190 9191 9192 9193 9194 9195 9196 9197 9198 9199 9200 9201 9202 9203 9204 9205 9206 9207 9208 9209 9210 9211 9212 9213 9214 9215 9216 9217 9218 9219 9220 9221 9222 9223 9224 9225 9226 9227 9228 9229 9230 9231 9232 9233 9234 9235 9236 9237 9238 9239 9240 9241 9242 9243 9244 9245 9246 9247 9248 9249 9250 9251 9252 9253 9254 9255 9256 9257 9258 9259 9260 9261 9262 9263 9264 9265 9266 9267 9268 9269 9270 9271 9272 9273 9274 9275 9276 9277 9278 9279 9280 9281 9282 9283 9284 9285 9286 9287 9288 9289 9290 9291 9292 9293 9294 9295 9296 9297 9298 9299 9300 9301 9302 9303 9304 9305 9306 9307 9308 9309 9310 9311 9312 9313 9314 9315 9316 9317 9318 9319 9320 9321 9322 9323 9324 9325 9326 9327 9328 9329 9330 9331 9332 9333 9334 9335 9336 9337 9338 9339 9340 9341 9342 9343 9344 9345 9346 9347 9348 9349 9350 9351 9352 9353 9354 9355 9356 9357 9358 9359 9360 9361 9362 9363 9364 9365 9366 9367 9368 9369 9370 9371 9372 9373 9374 9375 9376 9377 9378 9379 9380 9381 9382 9383 9384 9385 9386 9387 9388 9389 9390 9391 9392 9393 9394 9395 9396 9397 9398 9399 9400 9401 9402 9403 9404 9405 9406 9407 9408 9409 9410 9411 9412 9413 9414 9415 9416 9417 9418 9419 9420 9421 9422 9423 9424 9425 9426 9427 9428 9429 9430 9431 9432 9433 9434 9435 9436 9437 9438 9439 9440 9441 9442 9443 9444 9445 9446 9447 9448 9449 9450 9451 9452 9453 9454 9455 9456 9457 9458 9459 9460 9461 9462 9463 9464 9465 9466 9467 9468 9469 9470 9471 9472 9473 9474 9475 9476 9477 9478 9479 9480 9481 9482 9483 9484 9485 9486 9487 9488 9489 9490 9491 9492 9493 9494 9495 9496 9497 9498 9499 9500 9501 9502 9503 9504 9505 9506 9507 9508 9509 9510 9511 9512 9513 9514 9515 9516 9517 9518 9519 9520 9521 9522 9523 9524 9525 9526 9527 9528 9529 9530 9531 9532 9533 9534 9535 9536 9537 9538 9539 9540 9541 9542 9543 9544 9545 9546 9547 9548 9549 9550 9551 9552 9553 9554 9555 9556 9557 9558 9559 9560 9561 9562 9563 9564 9565 9566 9567 9568 9569 9570 9571 9572 9573 9574 9575 9576 9577 9578 9579 9580 9581 9582 9583 9584 9585 9586 9587 9588 9589 9590 9591 9592 9593 9594 9595 9596 9597 9598 9599 9600 9601 9602 9603 9604 9605 9606 9607 9608 9609 9610 9611 9612 9613 9614 9615 9616 9617 9618 9619 9620 9621 9622 9623 9624 9625 9626 9627 9628 9629 9630 9631 9632 9633 9634 9635 9636 9637 9638 9639 9640 9641 9642 9643 9644 9645 9646 9647 9648 9649 9650 9651 9652 9653 9654 9655 9656 9657 9658 9659 9660 9661 9662 9663 9664 9665 9666 9667 9668 9669 9670 9671 9672 9673 9674 9675 9676 9677 9678 9679 9680 9681 9682 9683 9684 9685 9686 9687 9688 9689 9690 9691 9692 9693 9694 9695 9696 9697 9698 9699 9700 9701 9702 9703 9704 9705 9706 9707 9708 9709 9710 9711 9712 9713 9714 9715 9716 9717 9718 9719 9720 9721 9722 9723 9724 9725 9726 9727 9728 9729 9730 9731 9732 9733 9734 9735 9736 9737 9738 9739 9740 9741 9742 9743 9744 9745 9746 9747 9748 9749 9750 9751 9752 9753 9754 9755 9756 9757 9758 9759 9760 9761 9762 9763 9764 9765 9766 9767 9768 9769 9770 9771 9772 9773 9774 9775 9776 9777 9778 9779 9780 9781 9782 9783 9784 9785 9786 9787 9788 9789 9790 9791 9792 9793 9794 9795 9796 9797 9798 9799 9800 9801 9802 9803 9804 9805 9806 9807 9808 9809 9810 9811 9812 9813 9814 9815 9816 9817 9818 9819 9820 9821 9822 9823 9824 9825 9826 9827 9828 9829 9830 9831 9832 9833 9834 9835 9836 9837 9838 9839 9840 9841 9842 9843 9844 9845 9846 9847 9848 9849 9850 9851 9852 9853 9854 9855 9856 9857 9858 9859 9860 9861 9862 9863 9864 9865 9866 9867 9868 9869 9870 9871 9872 9873 9874 9875 9876 9877 9878 9879 9880 9881 9882 9883 9884 9885 9886 9887 9888 9889 9890 9891 9892 9893 9894 9895 9896 9897 9898 9899 9900 9901 9902 9903 9904 9905 9906 9907 9908 9909 9910 9911 9912 9913 9914 9915 9916 9917 9918 9919 9920 9921 9922 9923 9924 9925 9926 9927 9928 9929 9930 9931 9932 9933 9934 9935 9936 9937 9938 9939 9940 9941 9942 9943 9944 9945 9946 9947 9948 9949 9950 9951 9952 9953 9954 9955 9956 9957 9958 9959 9960 9961 9962 9963 9964 9965 9966 9967 9968 9969 9970 9971 9972 9973 9974 9975 9976 9977 9978 9979 9980 9981 9982 9983 9984 9985 9986 9987 9988 9989 9990 9991 9992 9993 9994 9995 9996 9997 9998 9999 10000 10001 10002 10003 10004 10005 10006 10007 10008 10009 10010 10011 10012 10013 10014 10015 10016 10017 10018 10019 10020 10021 10022 10023 10024 10025 10026 10027 10028 10029 10030 10031 10032 10033 10034 10035 10036 10037 10038 10039 10040 10041 10042 10043 10044 10045 10046 10047 10048 10049 10050 10051 10052 10053 10054 10055 10056 10057 10058 10059 10060 10061 10062 10063 10064 10065 10066 10067 10068 10069 10070 10071 10072 10073 10074 10075 10076 10077 10078 10079 10080 10081 10082 10083 10084 10085 10086 10087 10088 10089 10090 10091 10092 10093 10094 10095 10096 10097 10098 10099 10100 10101 10102 10103 10104 10105 10106 10107 10108 10109 10110 10111 10112 10113 10114 10115 10116 10117 10118 10119 10120 10121 10122 10123 10124 10125 10126 10127 10128 10129 10130 10131 10132 10133 10134 10135 10136 10137 10138 10139 10140 10141 10142 10143 10144 10145 10146 10147 10148 10149 10150 10151 10152 10153 10154 10155 10156 10157 10158 10159 10160 10161 10162 10163 10164 10165 10166 10167 10168 10169 10170 10171 10172 10173 10174 10175 10176 10177 10178 10179 10180 10181 10182 10183 10184 10185 10186 10187 10188 10189 10190 10191 10192 10193 10194 10195 10196 10197 10198 10199 10200 10201 10202 10203 10204 10205 10206 10207 10208 10209 10210 10211 10212 10213 10214 10215 10216 10217 10218 10219 10220 10221 10222 10223 10224 10225 10226 10227 10228 10229 10230 10231 10232 10233 10234 10235 10236 10237 10238 10239 10240 10241 10242 10243 10244 10245 10246 10247 10248 10249 10250 10251 10252 10253 10254 10255 10256 10257 10258 10259 10260 10261 10262 10263 10264 10265 10266 10267 10268 10269 10270 10271 10272 10273 10274 10275 10276 10277 10278 10279 10280 10281 10282 10283 10284 10285 10286 10287 10288 10289 10290 10291 10292 10293 10294 10295 10296 10297 10298 10299 10300 10301 10302 10303 10304 10305 10306 10307 10308 10309 10310 10311 10312 10313 10314 10315 10316 10317 10318 10319 10320 10321 10322 10323 10324 10325 10326 10327 10328 10329 10330 10331 10332 10333 10334 10335 10336 10337 10338 10339 10340 10341 10342 10343 10344 10345 10346 10347 10348 10349 10350 10351 10352 10353 10354 10355 10356 10357 10358 10359 10360 10361 10362 10363 10364 10365 10366 10367 10368 10369 10370 10371 10372 10373 10374 10375 10376 10377 10378 10379 10380 10381 10382 10383 10384 10385 10386 10387 10388 10389 10390 10391 10392 10393 10394 10395 10396 10397 10398 10399 10400 10401 10402 10403 10404 10405 10406 10407 10408 10409 10410 10411 10412 10413 10414 10415 10416 10417 10418 10419 10420 10421 10422 10423 10424 10425 10426 10427 10428 10429 10430 10431 10432 10433 10434 10435 10436 10437 10438 10439 10440 10441 10442 10443 10444 10445 10446 10447 10448 10449 10450 10451 10452 10453 10454 10455 10456 10457 10458 10459 10460 10461 10462 10463 10464 10465 10466 10467 10468 10469 10470 10471 10472 10473 10474 10475 10476 10477 10478 10479 10480 10481 10482 10483 10484 10485 10486 10487 10488 10489 10490 10491 10492 10493 10494 10495 10496 10497 10498 10499 10500 10501 10502 10503 10504 10505 10506 10507 10508 10509 10510 10511 10512 10513 10514 10515 10516 10517 10518 10519 10520 10521 10522 10523 10524 10525 10526 10527 10528 10529 10530 10531 10532 10533 10534 10535 10536 10537 10538 10539 10540 10541 10542 10543 10544 10545 10546 10547 10548 10549 10550 10551 10552 10553 10554 10555 10556 10557 10558 10559 10560 10561 10562 10563 10564 10565 10566 10567 10568 10569 10570 10571 10572 10573 10574 10575 10576 10577 10578 10579 10580 10581 10582 10583 10584 10585 10586 10587 10588 10589 10590 10591 10592 10593 10594 10595 10596 10597 10598 10599 10600 10601 10602 10603 10604 10605 10606 10607 10608 10609 10610 10611 10612 10613 10614 10615 10616 10617 10618 10619 10620 10621 10622 10623 10624 10625 10626 10627 10628 10629 10630 10631 10632 10633 10634 10635 10636 10637 10638 10639 10640 10641 10642 10643 10644 10645 10646 10647 10648 10649 10650 10651 10652 10653 10654 10655 10656 10657 10658 10659 10660 10661 10662 10663 10664 10665 10666 10667 10668 10669 10670 10671 10672 10673 10674 10675 10676 10677 10678 10679 10680 10681 10682 10683 10684 10685 10686 10687 10688 10689 10690 10691 10692 10693 10694 10695 10696 10697 10698 10699 10700 10701 10702 10703 10704 10705 10706 10707 10708 10709 10710 10711 10712 10713 10714 10715 10716 10717 10718 10719 10720 10721 10722 10723 10724 10725 10726 10727 10728 10729 10730 10731 10732 10733 10734 10735 10736 10737 10738 10739 10740 10741 10742 10743 10744 10745 10746 10747 10748 10749 10750 10751 10752 10753 10754 10755 10756 10757 10758 10759 10760 10761 10762 10763 10764 10765 10766 10767 10768 10769 10770 10771 10772 10773 10774 10775 10776 10777 10778 10779 10780 10781 10782 10783 10784 10785 10786 10787 10788 10789 10790 10791 10792 10793 10794 10795 10796 10797 10798 10799 10800 10801 10802 10803 10804 10805 10806 10807 10808 10809 10810 10811 10812 10813 10814 10815 10816 10817 10818 10819 10820 10821 10822 10823 10824 10825 10826 10827 10828 10829 10830 10831 10832 10833 10834 10835 10836 10837 10838 10839 10840 10841 10842 10843 10844 10845 10846 10847 10848 10849 10850 10851 10852 10853 10854 10855 10856 10857 10858 10859 10860 10861 10862 10863 10864 10865 10866 10867 10868 10869 10870 10871 10872 10873 10874 10875 10876 10877 10878 10879 10880 10881 10882 10883 10884 10885 10886 10887 10888 10889 10890 10891 10892 10893 10894 10895 10896 10897 10898 10899 10900 10901 10902 10903 10904 10905 10906 10907 10908 10909 10910 10911 10912 10913 10914 10915 10916 10917 10918 10919 10920 10921 10922 10923 10924 10925 10926 10927 10928 10929 10930 10931 10932 10933 10934 10935 10936 10937 10938 10939 10940 10941 10942 10943 10944 10945 10946 10947 10948 10949 10950 10951 10952 10953 10954 10955 10956 10957 10958 10959 10960 10961 10962 10963 10964 10965 10966 10967 10968 10969 10970 10971 10972 10973 10974 10975 10976 10977 10978 10979 10980 10981 10982 10983 10984 10985 10986 10987 10988 10989 10990 10991 10992 10993 10994 10995 10996 10997 10998 10999 11000 11001 11002 11003 11004 11005 11006 11007 11008 11009 11010 11011 11012 11013 11014 11015 11016 11017 11018 11019 11020 11021 11022 11023 11024 11025 11026 11027 11028 11029 11030 11031 11032 11033 11034 11035 11036 11037 11038 11039 11040 11041 11042 11043 11044 11045 11046 11047 11048 11049 11050 11051 11052 11053 11054 11055 11056 11057 11058 11059 11060 11061 11062 11063 11064 11065 11066 11067 11068 11069 11070 11071 11072 11073 11074 11075 11076 11077 11078 11079 11080 11081 11082 11083 11084 11085 11086 11087 11088 11089 11090 11091 11092 11093 11094 11095 11096 11097 11098 11099 11100 11101 11102 11103 11104 11105 11106 11107 11108 11109 11110 11111 11112 11113 11114 11115 11116 11117 11118 11119 11120 11121 11122 11123 11124 11125 11126 11127 11128 11129 11130 11131 11132 11133 11134 11135 11136 11137 11138 11139 11140 11141 11142 11143 11144 11145 11146 11147 11148 11149 11150 11151 11152 11153 11154 11155 11156 11157 11158 11159 11160 11161 11162 11163 11164 11165 11166 11167 11168 11169 11170 11171 11172 11173 11174 11175 11176 11177 11178 11179 11180 11181 11182 11183 11184 11185 11186 11187 11188 11189 11190 11191 11192 11193 11194 11195 11196 11197 11198 11199 11200 11201 11202 11203 11204 11205 11206 11207 11208 11209 11210 11211 11212 11213 11214 11215 11216 11217 11218 11219 11220 11221 11222 11223 11224 11225 11226 11227 11228 11229 11230 11231 11232 11233 11234 11235 11236 11237 11238 11239 11240 11241 11242 11243 11244 11245 11246 11247 11248 11249 11250 11251 11252 11253 11254 11255 11256 11257 11258 11259 11260 11261 11262 11263 11264 11265 11266 11267 11268 11269 11270 11271 11272 11273 11274 11275 11276 11277 11278 11279 11280 11281 11282 11283 11284 11285 11286 11287 11288 11289 11290 11291 11292 11293 11294 11295 11296 11297 11298 11299 11300 11301 11302 11303 11304 11305 11306 11307 11308 11309 11310 11311 11312 11313 11314 11315 11316 11317 11318 11319 11320 11321 11322 11323 11324 11325 11326 11327 11328 11329 11330 11331 11332 11333 11334 11335 11336 11337 11338 11339 11340 11341 11342 11343 11344 11345 11346 11347 11348 11349 11350 11351 11352 11353 11354 11355 11356 11357 11358 11359 11360 11361 11362 11363 11364 11365 11366 11367 11368 11369 11370 11371 11372 11373 11374 11375 11376 11377 11378 11379 11380 11381 11382 11383 11384 11385 11386 11387 11388 11389 11390 11391 11392 11393 11394 11395 11396 11397 11398 11399 11400 11401 11402 11403 11404 11405 11406 11407 11408 11409 11410 11411 11412 11413 11414 11415 11416 11417 11418 11419 11420 11421 11422 11423 11424 11425 11426 11427 11428 11429 11430 11431 11432 11433 11434 11435 11436 11437 11438 11439 11440 11441 11442 11443 11444 11445 11446 11447 11448 11449 11450 11451 11452 11453 11454 11455 11456 11457 11458 11459 11460 11461 11462 11463 11464 11465 11466 11467 11468 11469 11470 11471 11472 11473 11474 11475 11476 11477 11478 11479 11480 11481 11482 11483 11484 11485 11486 11487 11488 11489 11490 11491 11492 11493 11494 11495 11496 11497 11498 11499 11500 11501 11502 11503 11504 11505 11506 11507 11508 11509 11510 11511 11512 11513 11514 11515 11516 11517 11518 11519 11520 11521 11522 11523 11524 11525 11526 11527 11528 11529 11530 11531 11532 11533 11534 11535 11536 11537 11538 11539 11540 11541 11542 11543 11544 11545 11546 11547 11548 11549 11550 11551 11552 11553 11554 11555 11556 11557 11558 11559 11560 11561 11562 11563 11564 11565 11566 11567 11568 11569 11570 11571 11572 11573 11574 11575 11576 11577 11578 11579 11580 11581 11582 11583 11584 11585 11586 11587 11588 11589 11590 11591 11592 11593 11594 11595 11596 11597 11598 11599 11600 11601 11602 11603 11604 11605 11606 11607 11608 11609 11610 11611 11612 11613 11614 11615 11616 11617 11618 11619 11620 11621 11622 11623 11624 11625 11626 11627 11628 11629 11630 11631 11632 11633 11634 11635 11636 11637 11638 11639 11640 11641 11642 11643 11644 11645 11646 11647 11648 11649 11650 11651 11652 11653 11654 11655 11656 11657 11658 11659 11660 11661 11662 11663 11664 11665 11666 11667 11668 11669 11670 11671 11672 11673 11674 11675 11676 11677 11678 11679 11680 11681 11682 11683 11684 11685 11686 11687 11688 11689 11690 11691 11692 11693 11694 11695 11696 11697 11698 11699 11700 11701 11702 11703 11704 11705 11706 11707 11708 11709 11710 11711 11712 11713 11714 11715 11716 11717 11718 11719 11720 11721 11722 11723 11724 11725 11726 11727 11728 11729 11730 11731 11732 11733 11734 11735 11736 11737 11738 11739 11740 11741 11742 11743 11744 11745 11746 11747 11748 11749 11750 11751 11752 11753 11754 11755 11756 11757 11758 11759 11760 11761 11762 11763 11764 11765 11766 11767 11768 11769 11770 11771 11772 11773 11774 11775 11776 11777 11778 11779 11780 11781 11782 11783 11784 11785 11786 11787 11788 11789 11790 11791 11792 11793 11794 11795 11796 11797 11798 11799 11800 11801 11802 11803 11804 11805 11806 11807 11808 11809 11810 11811 11812 11813 11814 11815 11816 11817 11818 11819 11820 11821 11822 11823 11824 11825 11826 11827 11828 11829 11830 11831 11832 11833 11834 11835 11836 11837 11838 11839 11840 11841 11842 11843 11844 11845 11846 11847 11848 11849 11850 11851 11852 11853 11854 11855 11856 11857 11858 11859 11860 11861 11862 11863 11864 11865 11866 11867 11868 11869 11870 11871 11872 11873 11874 11875 11876 11877 11878 11879 11880 11881 11882 11883 11884 11885 11886 11887 11888 11889 11890 11891 11892 11893 11894 11895 11896 11897 11898 11899 11900 11901 11902 11903 11904 11905 11906 11907 11908 11909 11910 11911 11912 11913 11914 11915 11916 11917 11918 11919 11920 11921 11922 11923 11924 11925 11926 11927 11928 11929 11930 11931 11932 11933 11934 11935 11936 11937 11938 11939 11940 11941 11942 11943 11944 11945 11946 11947 11948 11949 11950 11951 11952 11953 11954 11955 11956 11957 11958 11959 11960 11961 11962 11963 11964 11965 11966 11967 11968 11969 11970 11971 11972 11973 11974 11975 11976 11977 11978 11979 11980 11981 11982 11983 11984 11985 11986 11987 11988 11989 11990 11991 11992 11993 11994 11995 11996 11997 11998 11999 12000 12001 12002 12003 12004 12005 12006 12007 12008 12009 12010 12011 12012 12013 12014 12015 12016 12017 12018 12019 12020 12021 12022 12023 12024 12025 12026 12027 12028 12029 12030 12031 12032 12033 12034 12035 12036 12037 12038 12039 12040 12041 12042 12043 12044 12045 12046 12047 12048 12049 12050 12051 12052 12053 12054 12055 12056 12057 12058 12059 12060 12061 12062 12063 12064 12065 12066 12067 12068 12069 12070 12071 12072 12073 12074 12075 12076 12077 12078 12079 12080 12081 12082 12083 12084 12085 12086 12087 12088 12089 12090 12091 12092 12093 12094 12095 12096 12097 12098 12099 12100 12101 12102 12103 12104 12105 12106 12107 12108 12109 12110 12111 12112 12113 12114 12115 12116 12117 12118 12119 12120 12121 12122 12123 12124 12125 12126 12127 12128 12129 12130 12131 12132 12133 12134 12135 12136 12137 12138 12139 12140 12141 12142 12143 12144 12145 12146 12147 12148 12149 12150 12151 12152 12153 12154 12155 12156 12157 12158 12159 12160 12161 12162 12163 12164 12165 12166 12167 12168 12169 12170 12171 12172 12173 12174 12175 12176 12177 12178 12179 12180 12181 12182 12183 12184 12185 12186 12187 12188 12189 12190 12191 12192 12193 12194 12195 12196 12197 12198 12199 12200 12201 12202 12203 12204 12205 12206 12207 12208 12209 12210 12211 12212 12213 12214 12215 12216 12217 12218 12219 12220 12221 12222 12223 12224 12225 12226 12227 12228 12229 12230 12231 12232 12233 12234 12235 12236 12237 12238 12239 12240 12241 12242 12243 12244 12245 12246 12247 12248 12249 12250 12251 12252 12253 12254 12255 12256 12257 12258 12259 12260 12261 12262 12263 12264 12265 12266 12267 12268 12269 12270 12271 12272 12273 12274 12275 12276 12277 12278 12279 12280 12281 12282 12283 12284 12285 12286 12287 12288 12289 12290 12291 12292 12293 12294 12295 12296 12297 12298 12299 12300 12301 12302 12303 12304 12305 12306 12307 12308 12309 12310 12311 12312 12313 12314 12315 12316 12317 12318 12319 12320 12321 12322 12323 12324 12325 12326 12327 12328 12329 12330 12331 12332 12333 12334 12335 12336 12337 12338 12339 12340 12341 12342 12343 12344 12345 12346 12347 12348 12349 12350 12351 12352 12353 12354 12355 12356 12357 12358 12359 12360 12361 12362 12363 12364 12365 12366 12367 12368 12369 12370 12371 12372 12373 12374 12375 12376 12377 12378 12379 12380 12381 12382 12383 12384 12385 12386 12387 12388 12389 12390 12391 12392 12393 12394 12395 12396 12397 12398 12399 12400 12401 12402 12403 12404 12405 12406 12407 12408 12409 12410 12411 12412 12413 12414 12415 12416 12417 12418 12419 12420 12421 12422 12423 12424 12425 12426 12427 12428 12429 12430 12431 12432 12433 12434 12435 12436 12437 12438 12439 12440 12441 12442 12443 12444 12445 12446 12447 12448 12449 12450 12451 12452 12453 12454 12455 12456 12457 12458 12459 12460 12461 12462 12463 12464 12465 12466 12467 12468 12469 12470 12471 12472 12473 12474 12475 12476 12477 12478 12479 12480 12481 12482 12483 12484 12485 12486 12487 12488 12489 12490 12491 12492 12493 12494 12495 12496 12497 12498 12499 12500 12501 12502 12503 12504 12505 12506 12507 12508 12509 12510 12511 12512 12513 12514 12515 12516 12517 12518 12519 12520 12521 12522 12523 12524 12525 12526 12527 12528 12529 12530 12531 12532 12533 12534 12535 12536 12537 12538 12539 12540 12541 12542 12543 12544 12545 12546 12547 12548 12549 12550 12551 12552 12553 12554 12555 12556 12557 12558 12559 12560 12561 12562 12563 12564 12565 12566 12567 12568 12569 12570 12571 12572 12573 12574 12575 12576 12577 12578 12579 12580 12581 12582 12583 12584 12585 12586 12587 12588 12589 12590 12591 12592 12593 12594 12595 12596 12597 12598 12599 12600 12601 12602 12603 12604 12605 12606 12607 12608 12609 12610 12611 12612 12613 12614 12615 12616 12617 12618 12619 12620 12621 12622 12623 12624 12625 12626 12627 12628 12629 12630 12631 12632 12633 12634 12635 12636 12637 12638 12639 12640 12641 12642 12643 12644 12645 12646 12647 12648 12649 12650 12651 12652 12653 12654 12655 12656 12657 12658 12659 12660 12661 12662 12663 12664 12665 12666 12667 12668 12669 12670 12671 12672 12673 12674 12675 12676 12677 12678 12679 12680 12681 12682 12683 12684 12685 12686 12687 12688 12689 12690 12691 12692 12693 12694 12695 12696 12697 12698 12699 12700 12701 12702 12703 12704 12705 12706 12707 12708 12709 12710 12711 12712 12713 12714 12715 12716 12717 12718 12719 12720 12721 12722 12723 12724 12725 12726 12727 12728 12729 12730 12731 12732 12733 12734 12735 12736 12737 12738 12739 12740 12741 12742 12743 12744 12745 12746 12747 12748 12749 12750 12751 12752 12753 12754 12755 12756 12757 12758 12759 12760 12761 12762 12763 12764 12765 12766 12767 12768 12769 12770 12771 12772 12773 12774 12775 12776 12777 12778 12779 12780 12781 12782 12783 12784 12785 12786 12787 12788 12789 12790 12791 12792 12793 12794 12795 12796 12797 12798 12799 12800 12801 12802 12803 12804 12805 12806 12807 12808 12809 12810 12811 12812 12813 12814 12815 12816 12817 12818 12819 12820 12821 12822 12823 12824 12825 12826 12827 12828 12829 12830 12831 12832 12833 12834 12835 12836 12837 12838 12839 12840 12841 12842 12843 12844 12845 12846 12847 12848 12849 12850 12851 12852 12853 12854 12855 12856 12857 12858 12859 12860 12861 12862 12863 12864 12865 12866 12867 12868 12869 12870 12871 12872 12873 12874 12875 12876 12877 12878 12879 12880 12881 12882 12883 12884 12885 12886 12887 12888 12889 12890 12891 12892 12893 12894 12895 12896 12897 12898 12899 12900 12901 12902 12903 12904 12905 12906 12907 12908 12909 12910 12911 12912 12913 12914 12915 12916 12917 12918 12919 12920 12921 12922 12923 12924 12925 12926 12927 12928 12929 12930 12931 12932 12933 12934 12935 12936 12937 12938 12939 12940 12941 12942 12943 12944 12945 12946 12947 12948 12949 12950 12951 12952 12953 12954 12955 12956 12957 12958 12959 12960 12961 12962 12963 12964 12965 12966 12967 12968 12969 12970 12971 12972 12973 12974 12975 12976 12977 12978 12979 12980 12981 12982 12983 12984 12985 12986 12987 12988 12989 12990 12991 12992 12993 12994 12995 12996 12997 12998 12999 13000 13001 13002 13003 13004 13005 13006 13007 13008 13009 13010 13011 13012 13013 13014 13015 13016 13017 13018 13019 13020 13021 13022 13023 13024 13025 13026 13027 13028 13029 13030 13031 13032 13033 13034 13035 13036 13037 13038 13039 13040 13041 13042 13043 13044 13045 13046 13047 13048 13049 13050 13051 13052 13053 13054 13055 13056 13057 13058 13059 13060 13061 13062 13063 13064 13065 13066 13067 13068 13069 13070 13071 13072 13073 13074 13075 13076 13077 13078 13079 13080 13081 13082 13083 13084 13085 13086 13087 13088 13089 13090 13091 13092 13093 13094 13095 13096 13097 13098 13099 13100 13101 13102 13103 13104 13105 13106 13107 13108 13109 13110 13111 13112 13113 13114 13115 13116 13117 13118 13119 13120 13121 13122 13123 13124 13125 13126 13127 13128 13129 13130 13131 13132 13133 13134 13135 13136 13137 13138 13139 13140 13141 13142 13143 13144 13145 13146 13147 13148 13149 13150 13151 13152 13153 13154 13155 13156 13157 13158 13159 13160 13161 13162 13163 13164 13165 13166 13167 13168 13169 13170 13171 13172 13173 13174 13175 13176 13177 13178 13179 13180 13181 13182 13183 13184 13185 13186 13187 13188 13189 13190 13191 13192 13193 13194 13195 13196 13197 13198 13199 13200 13201 13202 13203 13204 13205 13206 13207 13208 13209 13210 13211 13212 13213 13214 13215 13216 13217 13218 13219 13220 13221 13222 13223 13224 13225 13226 13227 13228 13229 13230 13231 13232 13233 13234 13235 13236 13237 13238 13239 13240 13241 13242 13243 13244 13245 13246 13247 13248 13249 13250 13251 13252 13253 13254 13255 13256 13257 13258 13259 13260 13261 13262 13263 13264 13265 13266 13267 13268 13269 13270 13271 13272 13273 13274 13275 13276 13277 13278 13279 13280 13281 13282 13283 13284 13285 13286 13287 13288 13289 13290 13291 13292 13293 13294 13295 13296 13297 13298 13299 13300 13301 13302 13303 13304 13305 13306 13307 13308 13309 13310 13311 13312 13313 13314 13315 13316 13317 13318 13319 13320 13321 13322 13323 13324 13325 13326 13327 13328 13329 13330 13331 13332 13333 13334 13335 13336 13337 13338 13339 13340 13341 13342 13343 13344 13345 13346 13347 13348 13349 13350 13351 13352 13353 13354 13355 13356 13357 13358 13359 13360 13361 13362 13363 13364 13365 13366 13367 13368 13369 13370 13371 13372 13373 13374 13375 13376 13377 13378 13379 13380 13381 13382 13383 13384 13385 13386 13387 13388 13389 13390 13391 13392 13393 13394 13395 13396 13397 13398 13399 13400 13401 13402 13403 13404 13405 13406 13407 13408 13409 13410 13411 13412 13413 13414 13415 13416 13417 13418 13419 13420 13421 13422 13423 13424 13425 13426 13427 13428 13429 13430 13431 13432 13433 13434 13435 13436 13437 13438 13439 13440 13441 13442 13443 13444 13445 13446 13447 13448 13449 13450 13451 13452 13453 13454 13455 13456 13457 13458 13459 13460 13461 13462 13463 13464 13465 13466 13467 13468 13469 13470 13471 13472 13473 13474 13475 13476 13477 13478 13479 13480 13481 13482 13483 13484 13485 13486 13487 13488 13489 13490 13491 13492 13493 13494 13495 13496 13497 13498 13499 13500 13501 13502 13503 13504 13505 13506 13507 13508 13509 13510 13511 13512 13513 13514 13515 13516 13517 13518 13519 13520 13521 13522 13523 13524 13525 13526 13527 13528 13529 13530 13531 13532 13533 13534 13535 13536 13537 13538 13539 13540 13541 13542 13543 13544 13545 13546 13547 13548 13549 13550 13551 13552 13553 13554 13555 13556 13557 13558 13559 13560 13561 13562 13563 13564 13565 13566 13567 13568 13569 13570 13571 13572 13573 13574 13575 13576 13577 13578 13579 13580 13581 13582 13583 13584 13585 13586 13587 13588 13589 13590 13591 13592 13593 13594 13595 13596 13597 13598 13599 13600 13601 13602 13603 13604 13605 13606 13607 13608 13609 13610 13611 13612 13613 13614 13615 13616 13617 13618 13619 13620 13621 13622 13623 13624 13625 13626 13627 13628 13629 13630 13631 13632 13633 13634 13635 13636 13637 13638 13639 13640 13641 13642 13643 13644 13645 13646 13647 13648 13649 13650 13651 13652 13653 13654 13655 13656 13657 13658 13659 13660 13661 13662 13663 13664 13665 13666 13667 13668 13669 13670 13671 13672 13673 13674 13675 13676 13677 13678 13679 13680 13681 13682 13683 13684 13685 13686 13687 13688 13689 13690 13691 13692 13693 13694 13695 13696 13697 13698 13699 13700 13701 13702 13703 13704 13705 13706 13707 13708 13709 13710 13711 13712 13713 13714 13715 13716 13717 13718 13719 13720 13721 13722 13723 13724 13725 13726 13727 13728 13729 13730 13731 13732 13733 13734 13735 13736 13737 13738 13739 13740 13741 13742 13743 13744 13745 13746 13747 13748 13749 13750 13751 13752 13753 13754 13755 13756 13757 13758 13759 13760 13761 13762 13763 13764 13765 13766 13767 13768 13769 13770 13771 13772 13773 13774 13775 13776 13777 13778 13779 13780 13781 13782 13783 13784 13785 13786 13787 13788 13789 13790 13791 13792 13793 13794 13795 13796 13797 13798 13799 13800 13801 13802 13803 13804 13805 13806 13807 13808 13809 13810 13811 13812 13813 13814 13815 13816 13817 13818 13819 13820 13821 13822 13823 13824 13825 13826 13827 13828 13829 13830 13831 13832 13833 13834 13835 13836 13837 13838 13839 13840 13841 13842 13843 13844 13845 13846 13847 13848 13849 13850 13851 13852 13853 13854 13855 13856 13857 13858 13859 13860 13861 13862 13863 13864 13865 13866 13867 13868 13869 13870 13871 13872 13873 13874 13875 13876 13877 13878 13879 13880 13881 13882 13883 13884 13885 13886 13887 13888 13889 13890 13891 13892 13893 13894 13895 13896 13897 13898 13899 13900 13901 13902 13903 13904 13905 13906 13907 13908 13909 13910 13911 13912 13913 13914 13915 13916 13917 13918 13919 13920 13921 13922 13923 13924 13925 13926 13927 13928 13929 13930 13931 13932 13933 13934 13935 13936 13937 13938 13939 13940 13941 13942 13943 13944 13945 13946 13947 13948 13949 13950 13951 13952 13953 13954 13955 13956 13957 13958 13959 13960 13961 13962 13963 13964 13965 13966 13967 13968 13969 13970 13971 13972 13973 13974 13975 13976 13977 13978 13979 13980 13981 13982 13983 13984 13985 13986 13987 13988 13989 13990 13991 13992 13993 13994 13995 13996 13997 13998 13999 14000 14001 14002 14003 14004 14005 14006 14007 14008 14009 14010 14011 14012 14013 14014 14015 14016 14017 14018 14019 14020 14021 14022 14023 14024 14025 14026 14027 14028 14029 14030 14031 14032 14033 14034 14035 14036 14037 14038 14039 14040 14041 14042 14043 14044 14045 14046 14047 14048 14049 14050 14051 14052 14053 14054 14055 14056 14057 14058 14059 14060 14061 14062 14063 14064 14065 14066 14067 14068 14069 14070 14071 14072 14073 14074 14075 14076 14077 14078 14079 14080 14081 14082 14083 14084 14085 14086 14087 14088 14089 14090 14091 14092 14093 14094 14095 14096 14097 14098 14099 14100 14101 14102 14103 14104 14105 14106 14107 14108 14109 14110 14111 14112 14113 14114 14115 14116 14117 14118 14119 14120 14121 14122 14123 14124 14125 14126 14127 14128 14129 14130 14131 14132 14133 14134 14135 14136 14137 14138 14139 14140 14141 14142 14143 14144 14145 14146 14147 14148 14149 14150 14151 14152 14153 14154 14155 14156 14157 14158 14159 14160 14161 14162 14163 14164 14165 14166 14167 14168 14169 14170 14171 14172 14173 14174 14175 14176 14177 14178 14179 14180 14181 14182 14183 14184 14185 14186 14187 14188 14189 14190 14191 14192 14193 14194 14195 14196 14197 14198 14199 14200 14201 14202 14203 14204 14205 14206 14207 14208 14209 14210 14211 14212 14213 14214 14215 14216 14217 14218 14219 14220 14221 14222 14223 14224 14225 14226 14227 14228 14229 14230 14231 14232 14233 14234 14235 14236 14237 14238 14239 14240 14241 14242 14243 14244 14245 14246 14247 14248 14249 14250 14251 14252 14253 14254 14255 14256 14257 14258 14259 14260 14261 14262 14263 14264 14265 14266 14267 14268 14269 14270 14271 14272 14273 14274 14275 14276 14277 14278 14279 14280 14281 14282 14283 14284 14285 14286 14287 14288 14289 14290 14291 14292 14293 14294 14295 14296 14297 14298 14299 14300 14301 14302 14303 14304 14305 14306 14307 14308 14309 14310 14311 14312 14313 14314 14315 14316 14317 14318 14319 14320 14321 14322 14323 14324 14325 14326 14327 14328 14329 14330 14331 14332 14333 14334 14335 14336 14337 14338 14339 14340 14341 14342 14343 14344 14345 14346 14347 14348 14349 14350 14351 14352 14353 14354 14355 14356 14357 14358 14359 14360 14361 14362 14363 14364 14365 14366 14367 14368 14369 14370 14371 14372 14373 14374 14375 14376 14377 14378 14379 14380 14381 14382 14383 14384 14385 14386 14387 14388 14389 14390 14391 14392 14393 14394 14395 14396 14397 14398 14399 14400 14401 14402 14403 14404 14405 14406 14407 14408 14409 14410 14411 14412 14413 14414 14415 14416 14417 14418 14419 14420 14421 14422 14423 14424 14425 14426 14427 14428 14429 14430 14431 14432 14433 14434 14435 14436 14437 14438 14439 14440 14441 14442 14443 14444 14445 14446 14447 14448 14449 14450 14451 14452 14453 14454 14455 14456 14457 14458 14459 14460 14461 14462 14463 14464 14465 14466 14467 14468 14469 14470 14471 14472 14473 14474 14475 14476 14477 14478 14479 14480 14481 14482 14483 14484 14485 14486 14487 14488 14489 14490 14491 14492 14493 14494 14495 14496 14497 14498 14499 14500 14501 14502 14503 14504 14505 14506 14507 14508 14509 14510 14511 14512 14513 14514 14515 14516 14517 14518 14519 14520 14521 14522 14523 14524 14525 14526 14527 14528 14529 14530 14531 14532 14533 14534 14535 14536 14537 14538 14539 14540 14541 14542 14543 14544 14545 14546 14547 14548 14549 14550 14551 14552 14553 14554 14555 14556 14557 14558 14559 14560 14561 14562 14563 14564 14565 14566 14567 14568 14569 14570 14571 14572 14573 14574 14575 14576 14577 14578 14579 14580 14581 14582 14583 14584 14585 14586 14587 14588 14589 14590 14591 14592 14593 14594 14595 14596 14597 14598 14599 14600 14601 14602 14603 14604 14605 14606 14607 14608 14609 14610 14611 14612 14613 14614 14615 14616 14617 14618 14619 14620 14621 14622 14623 14624 14625 14626 14627 14628 14629 14630 14631 14632 14633 14634 14635 14636 14637 14638 14639 14640 14641 14642 14643 14644 14645 14646 14647 14648 14649 14650 14651 14652 14653 14654 14655 14656 14657 14658 14659 14660 14661 14662 14663 14664 14665 14666 14667 14668 14669 14670 14671 14672 14673 14674 14675 14676 14677 14678 14679 14680 14681 14682 14683 14684 14685 14686 14687 14688 14689 14690 14691 14692 14693 14694 14695 14696 14697 14698 14699 14700 14701 14702 14703 14704 14705 14706 14707 14708 14709 14710 14711 14712 14713 14714 14715 14716 14717 14718 14719 14720 14721 14722 14723 14724 14725 14726 14727 14728 14729 14730 14731 14732 14733 14734 14735 14736 14737 14738 14739 14740 14741 14742 14743 14744 14745 14746 14747 14748 14749 14750 14751 14752 14753 14754 14755 14756 14757 14758 14759 14760 14761 14762 14763 14764 14765 14766 14767 14768 14769 14770 14771 14772 14773 14774 14775 14776 14777 14778 14779 14780 14781 14782 14783 14784 14785 14786 14787 14788 14789 14790 14791 14792 14793 14794 14795 14796 14797 14798 14799 14800 14801 14802 14803 14804 14805 14806 14807 14808 14809 14810 14811 14812 14813 14814 14815 14816 14817 14818 14819 14820 14821 14822 14823 14824 14825 14826 14827 14828 14829 14830 14831 14832 14833 14834 14835 14836 14837 14838 14839 14840 14841 14842 14843 14844 14845 14846 14847 14848 14849 14850 14851 14852 14853 14854 14855 14856 14857 14858 14859 14860 14861 14862 14863 14864 14865 14866 14867 14868 14869 14870 14871 14872 14873 14874 14875 14876 14877 14878 14879 14880 14881 14882 14883 14884 14885 14886 14887 14888 14889 14890 14891 14892 14893 14894 14895 14896 14897 14898 14899 14900 14901 14902 14903 14904 14905 14906 14907 14908 14909 14910 14911 14912 14913 14914 14915 14916 14917 14918 14919 14920 14921 14922 14923 14924 14925 14926 14927 14928 14929 14930 14931 14932 14933 14934 14935 14936 14937 14938 14939 14940 14941 14942 14943 14944 14945 14946 14947 14948 14949 14950 14951 14952 14953 14954 14955 14956 14957 14958 14959 14960 14961 14962 14963 14964 14965 14966 14967 14968 14969 14970 14971 14972 14973 14974 14975 14976 14977 14978 14979 14980 14981 14982 14983 14984 14985 14986 14987 14988 14989 14990 14991 14992 14993 14994 14995 14996 14997 14998 14999 15000 15001 15002 15003 15004 15005 15006 15007 15008 15009 15010 15011 15012 15013 15014 15015 15016 15017 15018 15019 15020 15021 15022 15023 15024 15025 15026 15027 15028 15029 15030 15031 15032 15033 15034 15035 15036 15037 15038 15039 15040 15041 15042 15043 15044 15045 15046 15047 15048 15049 15050 15051 15052 15053 15054 15055 15056 15057 15058 15059 15060 15061 15062 15063 15064 15065 15066 15067 15068 15069 15070 15071 15072 15073 15074 15075 15076 15077 15078 15079 15080 15081 15082 15083 15084 15085 15086 15087 15088 15089 15090 15091 15092 15093 15094 15095 15096 15097 15098 15099 15100 15101 15102 15103 15104 15105 15106 15107 15108 15109 15110 15111 15112 15113 15114 15115 15116 15117 15118 15119 15120 15121 15122 15123 15124 15125 15126 15127 15128 15129 15130 15131 15132 15133 15134 15135 15136 15137 15138 15139 15140 15141 15142 15143 15144 15145 15146 15147 15148 15149 15150 15151 15152 15153 15154 15155 15156 15157 15158 15159 15160 15161 15162 15163 15164 15165 15166 15167 15168 15169 15170 15171 15172 15173 15174 15175 15176 15177 15178 15179 15180 15181 15182 15183 15184 15185 15186 15187 15188 15189 15190 15191 15192 15193 15194 15195 15196 15197 15198 15199 15200 15201 15202 15203 15204 15205 15206 15207 15208 15209 15210 15211 15212 15213 15214 15215 15216 15217 15218 15219 15220 15221 15222 15223 15224 15225 15226 15227 15228 15229 15230 15231 15232 15233 15234 15235 15236 15237 15238 15239 15240 15241 15242 15243 15244 15245 15246 15247 15248 15249 15250 15251 15252 15253 15254 15255 15256 15257 15258 15259 15260 15261 15262 15263 15264 15265 15266 15267 15268 15269 15270 15271 15272 15273 15274 15275 15276 15277 15278 15279 15280 15281 15282 15283 15284 15285 15286 15287 15288 15289 15290 15291 15292 15293 15294 15295 15296 15297 15298 15299 15300 15301 15302 15303 15304 15305 15306 15307 15308 15309 15310 15311 15312 15313 15314 15315 15316 15317 15318 15319 15320 15321 15322 15323 15324 15325 15326 15327 15328 15329 15330 15331 15332 15333 15334 15335 15336 15337 15338 15339 15340 15341 15342 15343 15344 15345 15346 15347 15348 15349 15350 15351 15352 15353 15354 15355 15356 15357 15358 15359 15360 15361 15362 15363 15364 15365 15366 15367 15368 15369 15370 15371 15372 15373 15374 15375 15376 15377 15378 15379 15380 15381 15382 15383 15384 15385 15386 15387 15388 15389 15390 15391 15392 15393 15394 15395 15396 15397 15398 15399 15400 15401 15402 15403 15404 15405 15406 15407 15408 15409 15410 15411 15412 15413 15414 15415 15416 15417 15418 15419 15420 15421 15422 15423 15424 15425 15426 15427 15428 15429 15430 15431 15432 15433 15434 15435 15436 15437 15438 15439 15440 15441 15442 15443 15444 15445 15446 15447 15448 15449 15450 15451 15452 15453 15454 15455 15456 15457 15458 15459 15460 15461 15462 15463 15464 15465 15466 15467 15468 15469 15470 15471 15472 15473 15474 15475 15476 15477 15478 15479 15480 15481 15482 15483 15484 15485 15486 15487 15488 15489 15490 15491 15492 15493 15494 15495 15496 15497 15498 15499 15500 15501 15502 15503 15504 15505 15506 15507 15508 15509 15510 15511 15512 15513 15514 15515 15516 15517 15518 15519 15520 15521 15522 15523 15524 15525 15526 15527 15528 15529 15530 15531 15532 15533 15534 15535 15536 15537 15538 15539 15540 15541 15542 15543 15544 15545 15546 15547 15548 15549 15550 15551 15552 15553 15554 15555 15556 15557 15558 15559 15560 15561 15562 15563 15564 15565 15566 15567 15568 15569 15570 15571 15572 15573 15574 15575 15576 15577 15578 15579 15580 15581 15582 15583 15584 15585 15586 15587 15588 15589 15590 15591 15592 15593 15594 15595 15596 15597 15598 15599 15600 15601 15602 15603 15604 15605 15606 15607 15608 15609 15610 15611 15612 15613 15614 15615 15616 15617 15618 15619 15620 15621 15622 15623 15624 15625 15626 15627 15628 15629 15630 15631 15632 15633 15634 15635 15636 15637 15638 15639 15640 15641 15642 15643 15644 15645 15646 15647 15648 15649 15650 15651 15652 15653 15654 15655 15656 15657 15658 15659 15660 15661 15662 15663 15664 15665 15666 15667 15668 15669 15670 15671 15672 15673 15674 15675 15676 15677 15678 15679 15680 15681 15682 15683 15684 15685 15686 15687 15688 15689 15690 15691 15692 15693 15694 15695 15696 15697 15698 15699 15700 15701 15702 15703 15704 15705 15706 15707 15708 15709 15710 15711 15712 15713 15714 15715 15716 15717 15718 15719 15720 15721 15722 15723 15724 15725 15726 15727 15728 15729 15730 15731 15732 15733 15734 15735 15736 15737 15738 15739 15740 15741 15742 15743 15744 15745 15746 15747 15748 15749 15750 15751 15752 15753 15754 15755 15756 15757 15758 15759 15760 15761 15762 15763 15764 15765 15766 15767 15768 15769 15770 15771 15772 15773 15774 15775 15776 15777 15778 15779 15780 15781 15782 15783 15784 15785 15786 15787 15788 15789 15790 15791 15792 15793 15794 15795 15796 15797 15798 15799 15800 15801 15802 15803 15804 15805 15806 15807 15808 15809 15810 15811 15812 15813 15814 15815 15816 15817 15818 15819 15820 15821 15822 15823 15824 15825 15826 15827 15828 15829 15830 15831 15832 15833 15834 15835 15836 15837 15838 15839 15840 15841 15842 15843 15844 15845 15846 15847 15848 15849 15850 15851 15852 15853 15854 15855 15856 15857 15858 15859 15860 15861 15862 15863 15864 15865 15866 15867 15868 15869 15870 15871 15872 15873 15874 15875 15876 15877 15878 15879 15880 15881 15882 15883 15884 15885 15886 15887 15888 15889 15890 15891 15892 15893 15894 15895 15896 15897 15898 15899 15900 15901 15902 15903 15904 15905 15906 15907 15908 15909 15910 15911 15912 15913 15914 15915 15916 15917 15918 15919 15920 15921 15922 15923 15924 15925 15926 15927 15928 15929 15930 15931 15932 15933 15934 15935 15936 15937 15938 15939 15940 15941 15942 15943 15944 15945 15946 15947 15948 15949 15950 15951 15952 15953 15954 15955 15956 15957 15958 15959 15960 15961 15962 15963 15964 15965 15966 15967 15968 15969 15970 15971 15972 15973 15974 15975 15976 15977 15978 15979 15980 15981 15982 15983 15984 15985 15986 15987 15988 15989 15990 15991 15992 15993 15994 15995 15996 15997 15998 15999 16000 16001 16002 16003 16004 16005 16006 16007 16008 16009 16010 16011 16012 16013 16014 16015 16016 16017 16018 16019 16020 16021 16022 16023 16024 16025 16026 16027 16028 16029 16030 16031 16032 16033 16034 16035 16036 16037 16038 16039 16040 16041 16042 16043 16044 16045 16046 16047 16048 16049 16050 16051 16052 16053 16054 16055 16056 16057 16058 16059 16060 16061 16062 16063 16064 16065 16066 16067 16068 16069 16070 16071 16072 16073 16074 16075 16076 16077 16078 16079 16080 16081 16082 16083 16084 16085 16086 16087 16088 16089 16090 16091 16092 16093 16094 16095 16096 16097 16098 16099 16100 16101 16102 16103 16104 16105 16106 16107 16108 16109 16110 16111 16112 16113 16114 16115 16116 16117 16118 16119 16120 16121 16122 16123 16124 16125 16126 16127 16128 16129 16130 16131 16132 16133 16134 16135 16136 16137 16138 16139 16140 16141 16142 16143 16144 16145 16146 16147 16148 16149 16150 16151 16152 16153 16154 16155 16156 16157 16158 16159 16160 16161 16162 16163 16164 16165 16166 16167 16168 16169 16170 16171 16172 16173 16174 16175 16176 16177 16178 16179 16180 16181 16182 16183 16184 16185 16186 16187 16188 16189 16190 16191 16192 16193 16194 16195 16196 16197 16198 16199 16200 16201 16202 16203 16204 16205 16206 16207 16208 16209 16210 16211 16212 16213 16214 16215 16216 16217 16218 16219 16220 16221 16222 16223 16224 16225 16226 16227 16228 16229 16230 16231 16232 16233 16234 16235 16236 16237 16238 16239 16240 16241 16242 16243 16244 16245 16246 16247 16248 16249 16250 16251 16252 16253 16254 16255 16256 16257 16258 16259 16260 16261 16262 16263 16264 16265 16266 16267 16268 16269 16270 16271 16272 16273 16274 16275 16276 16277 16278 16279 16280 16281 16282 16283 16284 16285 16286 16287 16288 16289 16290 16291 16292 16293 16294 16295 16296 16297 16298 16299 16300 16301 16302 16303 16304 16305 16306 16307 16308 16309 16310 16311 16312 16313 16314 16315 16316 16317 16318 16319 16320 16321 16322 16323 16324 16325 16326 16327 16328 16329 16330 16331 16332 16333 16334 16335 16336 16337 16338 16339 16340 16341 16342 16343 16344 16345 16346 16347 16348 16349 16350 16351 16352 16353 16354 16355 16356 16357 16358 16359 16360 16361 16362 16363 16364 16365 16366 16367 16368 16369 16370 16371 16372 16373 16374 16375 16376 16377 16378 16379 16380 16381 16382 16383 16384 16385 16386 16387 16388 16389 16390 16391 16392 16393 16394 16395 16396 16397 16398 16399 16400 16401 16402 16403 16404 16405 16406 16407 16408 16409 16410 16411 16412 16413 16414 16415 16416 16417 16418 16419 16420 16421 16422 16423 16424 16425 16426 16427 16428 16429 16430 16431 16432 16433 16434 16435 16436 16437 16438 16439 16440 16441 16442 16443 16444 16445 16446 16447 16448 16449 16450 16451 16452 16453 16454 16455 16456 16457 16458 16459 16460 16461 16462 16463 16464 16465 16466 16467 16468 16469 16470 16471 16472 16473 16474 16475 16476 16477 16478 16479 16480 16481 16482 16483 16484 16485 16486 16487 16488 16489 16490 16491 16492 16493 16494 16495 16496 16497 16498 16499 16500 16501 16502 16503 16504 16505 16506 16507 16508 16509 16510 16511 16512 16513 16514 16515 16516 16517 16518 16519 16520 16521 16522 16523 16524 16525 16526 16527 16528 16529 16530 16531 16532 16533 16534 16535 16536 16537 16538 16539 16540 16541 16542 16543 16544 16545 16546 16547 16548 16549 16550 16551 16552 16553 16554 16555 16556 16557 16558 16559 16560 16561 16562 16563 16564 16565 16566 16567 16568 16569 16570 16571 16572 16573 16574 16575 16576 16577 16578 16579 16580 16581 16582 16583 16584 16585 16586 16587 16588 16589 16590 16591 16592 16593 16594 16595 16596 16597 16598 16599 16600 16601 16602 16603 16604 16605 16606 16607 16608 16609 16610 16611 16612 16613 16614 16615 16616 16617 16618 16619 16620 16621 16622 16623 16624 16625 16626 16627 16628 16629 16630 16631 16632 16633 16634 16635 16636 16637 16638 16639 16640 16641 16642 16643 16644 16645 16646 16647 16648 16649 16650 16651 16652 16653 16654 16655 16656 16657 16658 16659 16660 16661 16662 16663 16664 16665 16666 16667 16668 16669 16670 16671 16672 16673 16674 16675 16676 16677 16678 16679 16680 16681 16682 16683 16684 16685 16686 16687 16688 16689 16690 16691 16692 16693 16694 16695 16696 16697 16698 16699 16700 16701 16702 16703 16704 16705 16706 16707 16708 16709 16710 16711 16712 16713 16714 16715 16716 16717 16718 16719 16720 16721 16722 16723 16724 16725 16726 16727 16728 16729 16730 16731 16732 16733 16734 16735 16736 16737 16738 16739 16740 16741 16742 16743 16744 16745 16746 16747 16748 16749 16750 16751 16752 16753 16754 16755 16756 16757 16758 16759 16760 16761 16762 16763 16764 16765 16766 16767 16768 16769 16770 16771 16772 16773 16774 16775 16776 16777 16778 16779 16780 16781 16782 16783 16784 16785 16786 16787 16788 16789 16790 16791 16792 16793 16794 16795 16796 16797 16798 16799 16800 16801 16802 16803 16804 16805 16806 16807 16808 16809 16810 16811 16812 16813 16814 16815 16816 16817 16818 16819 16820 16821 16822 16823 16824 16825 16826 16827 16828 16829 16830 16831 16832 16833 16834 16835 16836 16837 16838 16839 16840 16841 16842 16843 16844 16845 16846 16847 16848 16849 16850 16851 16852 16853 16854 16855 16856 16857 16858 16859 16860 16861 16862 16863 16864 16865 16866 16867 16868 16869 16870 16871 16872 16873 16874 16875 16876 16877 16878 16879 16880 16881 16882 16883 16884 16885 16886 16887 16888 16889 16890 16891 16892 16893 16894 16895 16896 16897 16898 16899 16900 16901 16902 16903 16904 16905 16906 16907 16908 16909 16910 16911 16912 16913 16914 16915 16916 16917 16918 16919 16920 16921 16922 16923 16924 16925 16926 16927 16928 16929 16930 16931 16932 16933 16934 16935 16936 16937 16938 16939 16940 16941 16942 16943 16944 16945 16946 16947 16948 16949 16950 16951 16952 16953 16954 16955 16956 16957 16958 16959 16960 16961 16962 16963 16964 16965 16966 16967 16968 16969 16970 16971 16972 16973 16974 16975 16976 16977 16978 16979 16980 16981 16982 16983 16984 16985 16986 16987 16988 16989 16990 16991 16992 16993 16994 16995 16996 16997 16998 16999 17000 17001 17002 17003 17004 17005 17006 17007 17008 17009 17010 17011 17012 17013 17014 17015 17016 17017 17018 17019 17020 17021 17022 17023 17024 17025 17026 17027 17028 17029 17030 17031 17032 17033 17034 17035 17036 17037 17038 17039 17040 17041 17042 17043 17044 17045 17046 17047 17048 17049 17050 17051 17052 17053 17054 17055 17056 17057 17058 17059 17060 17061 17062 17063 17064 17065 17066 17067 17068 17069 17070 17071 17072 17073 17074 17075 17076 17077 17078 17079 17080 17081 17082 17083 17084 17085 17086 17087 17088 17089 17090 17091 17092 17093 17094 17095 17096 17097 17098 17099 17100 17101 17102 17103 17104 17105 17106 17107 17108 17109 17110 17111 17112 17113 17114 17115 17116 17117 17118 17119 17120 17121 17122 17123 17124 17125 17126 17127 17128 17129 17130 17131 17132 17133 17134 17135 17136 17137 17138 17139 17140 17141 17142 17143 17144 17145 17146 17147 17148 17149 17150 17151 17152 17153 17154 17155 17156 17157 17158 17159 17160 17161 17162 17163 17164 17165 17166 17167 17168 17169 17170 17171 17172 17173 17174 17175 17176 17177 17178 17179 17180 17181 17182 17183 17184 17185 17186 17187 17188 17189 17190 17191 17192 17193 17194 17195 17196 17197 17198 17199 17200 17201 17202 17203 17204 17205 17206 17207 17208 17209 17210 17211 17212 17213 17214 17215 17216 17217 17218 17219 17220 17221 17222 17223 17224 17225 17226 17227 17228 17229 17230 17231 17232 17233 17234 17235 17236 17237 17238 17239 17240 17241 17242 17243 17244 17245 17246 17247 17248 17249 17250 17251 17252 17253 17254 17255 17256 17257 17258 17259 17260 17261 17262 17263 17264 17265 17266 17267 17268 17269 17270 17271 17272 17273 17274 17275 17276 17277 17278 17279 17280 17281 17282 17283 17284 17285 17286 17287 17288 17289 17290 17291 17292 17293 17294 17295 17296 17297 17298 17299 17300 17301 17302 17303 17304 17305 17306 17307 17308 17309 17310 17311 17312 17313 17314 17315 17316 17317 17318 17319 17320 17321 17322 17323 17324 17325 17326 17327 17328 17329 17330 17331 17332 17333 17334 17335 17336 17337 17338 17339 17340 17341 17342 17343 17344 17345 17346 17347 17348 17349 17350 17351 17352 17353 17354 17355 17356 17357 17358 17359 17360 17361 17362 17363 17364 17365 17366 17367 17368 17369 17370 17371 17372 17373 17374 17375 17376 17377 17378 17379 17380 17381 17382 17383 17384 17385 17386 17387 17388 17389 17390 17391 17392 17393 17394 17395 17396 17397 17398 17399 17400 17401 17402 17403 17404 17405 17406 17407 17408 17409 17410 17411 17412 17413 17414 17415 17416 17417 17418 17419 17420 17421 17422 17423 17424 17425 17426 17427 17428 17429 17430 17431 17432 17433 17434 17435 17436 17437 17438 17439 17440 17441 17442 17443 17444 17445 17446 17447 17448 17449 17450 17451 17452 17453 17454 17455 17456 17457 17458 17459 17460 17461 17462 17463 17464 17465 17466 17467 17468 17469 17470 17471 17472 17473 17474 17475 17476 17477 17478 17479 17480 17481 17482 17483 17484 17485 17486 17487 17488 17489 17490 17491 17492 17493 17494 17495 17496 17497 17498 17499 17500 17501 17502 17503 17504 17505 17506 17507 17508 17509 17510 17511 17512 17513 17514 17515 17516 17517 17518 17519 17520 17521 17522 17523 17524 17525 17526 17527 17528 17529 17530 17531 17532 17533 17534 17535 17536 17537 17538 17539 17540 17541 17542 17543 17544 17545 17546 17547 17548 17549 17550 17551 17552 17553 17554 17555 17556 17557 17558 17559 17560 17561 17562 17563 17564 17565 17566 17567 17568 17569 17570 17571 17572 17573 17574 17575 17576 17577 17578 17579 17580 17581 17582 17583 17584 17585 17586 17587 17588 17589 17590 17591 17592 17593 17594 17595 17596 17597 17598 17599 17600 17601 17602 17603 17604 17605 17606 17607 17608 17609 17610 17611 17612 17613 17614 17615 17616 17617 17618 17619 17620 17621 17622 17623 17624 17625 17626 17627 17628 17629 17630 17631 17632 17633 17634 17635 17636 17637 17638 17639 17640 17641 17642 17643 17644 17645 17646 17647 17648 17649 17650 17651 17652 17653 17654 17655 17656 17657 17658 17659 17660 17661 17662 17663 17664 17665 17666 17667 17668 17669 17670 17671 17672 17673 17674 17675 17676 17677 17678 17679 17680 17681 17682 17683 17684 17685 17686 17687 17688 17689 17690 17691 17692 17693 17694 17695 17696 17697 17698 17699 17700 17701 17702 17703 17704 17705 17706 17707 17708 17709 17710 17711 17712 17713 17714 17715 17716 17717 17718 17719 17720 17721 17722 17723 17724 17725 17726 17727 17728 17729 17730 17731 17732 17733 17734 17735 17736 17737 17738 17739 17740 17741 17742 17743 17744 17745 17746 17747 17748 17749 17750 17751 17752 17753 17754 17755 17756 17757 17758 17759 17760 17761 17762 17763 17764 17765 17766 17767 17768 17769 17770 17771 17772 17773 17774 17775 17776 17777 17778 17779 17780 17781 17782 17783 17784 17785 17786 17787 17788 17789 17790 17791 17792 17793 17794 17795 17796 17797 17798 17799 17800 17801 17802 17803 17804 17805 17806 17807 17808 17809 17810 17811 17812 17813 17814 17815 17816 17817 17818 17819 17820 17821 17822 17823 17824 17825 17826 17827 17828 17829 17830 17831 17832 17833 17834 17835 17836 17837 17838 17839 17840 17841 17842 17843 17844 17845 17846 17847 17848 17849 17850 17851 17852 17853 17854 17855 17856 17857 17858 17859 17860 17861 17862 17863 17864 17865 17866 17867 17868 17869 17870 17871 17872 17873 17874 17875 17876 17877 17878 17879 17880 17881 17882 17883 17884 17885 17886 17887 17888 17889 17890 17891 17892 17893 17894 17895 17896 17897 17898 17899 17900 17901 17902 17903 17904 17905 17906 17907 17908 17909 17910 17911 17912 17913 17914 17915 17916 17917 17918 17919 17920 17921 17922 17923 17924 17925 17926 17927 17928 17929 17930 17931 17932 17933 17934 17935 17936 17937 17938 17939 17940 17941 17942 17943 17944 17945 17946 17947 17948 17949 17950 17951 17952 17953 17954 17955 17956 17957 17958 17959 17960 17961 17962 17963 17964 17965 17966 17967 17968 17969 17970 17971 17972 17973 17974 17975 17976 17977 17978 17979 17980 17981 17982 17983 17984 17985 17986 17987 17988 17989 17990 17991 17992 17993 17994 17995 17996 17997 17998 17999 18000 18001 18002 18003 18004 18005 18006 18007 18008 18009 18010 18011 18012 18013 18014 18015 18016 18017 18018 18019 18020 18021 18022 18023 18024 18025 18026 18027 18028 18029 18030 18031 18032 18033 18034 18035 18036 18037 18038 18039 18040 18041 18042 18043 18044 18045 18046 18047 18048 18049 18050 18051 18052 18053 18054 18055 18056 18057 18058 18059 18060 18061 18062 18063 18064 18065 18066 18067 18068 18069 18070 18071 18072 18073 18074 18075 18076 18077 18078 18079 18080 18081 18082 18083 18084 18085 18086 18087 18088 18089 18090 18091 18092 18093 18094 18095 18096 18097 18098 18099 18100 18101 18102 18103 18104 18105 18106 18107 18108 18109 18110 18111 18112 18113 18114 18115 18116 18117 18118 18119 18120 18121 18122 18123 18124 18125 18126 18127 18128 18129 18130 18131 18132 18133 18134 18135 18136 18137 18138 18139 18140 18141 18142 18143 18144 18145 18146 18147 18148 18149 18150 18151 18152 18153 18154 18155 18156 18157 18158 18159 18160 18161 18162 18163 18164 18165 18166 18167 18168 18169 18170 18171 18172 18173 18174 18175 18176 18177 18178 18179 18180 18181 18182 18183 18184 18185 18186 18187 18188 18189 18190 18191 18192 18193 18194 18195 18196 18197 18198 18199 18200 18201 18202 18203 18204 18205 18206 18207 18208 18209 18210 18211 18212 18213 18214 18215 18216 18217 18218 18219 18220 18221 18222 18223 18224 18225 18226 18227 18228 18229 18230 18231 18232 18233 18234 18235 18236 18237 18238 18239 18240 18241 18242 18243 18244 18245 18246 18247 18248 18249 18250 18251 18252 18253 18254 18255 18256 18257 18258 18259 18260 18261 18262 18263 18264 18265 18266 18267 18268 18269 18270 18271 18272 18273 18274 18275 18276 18277 18278 18279 18280 18281 18282 18283 18284 18285 18286 18287 18288 18289 18290 18291 18292 18293 18294 18295 18296 18297 18298 18299 18300 18301 18302 18303 18304 18305 18306 18307 18308 18309 18310 18311 18312 18313 18314 18315 18316 18317 18318 18319 18320 18321 18322 18323 18324 18325 18326 18327 18328 18329 18330 18331 18332 18333 18334 18335 18336 18337 18338 18339 18340 18341 18342 18343 18344 18345 18346 18347 18348 18349 18350 18351 18352 18353 18354 18355 18356 18357 18358 18359 18360 18361 18362 18363 18364 18365 18366 18367 18368 18369 18370 18371 18372 18373 18374 18375 18376 18377 18378 18379 18380 18381 18382 18383 18384 18385 18386 18387 18388 18389 18390 18391 18392 18393 18394 18395 18396 18397 18398 18399 18400 18401 18402 18403 18404 18405 18406 18407 18408 18409 18410 18411 18412 18413 18414 18415 18416 18417 18418 18419 18420 18421 18422 18423 18424 18425 18426 18427 18428 18429 18430 18431 18432 18433 18434 18435 18436 18437 18438 18439 18440 18441 18442 18443 18444 18445 18446 18447 18448 18449 18450 18451 18452 18453 18454 18455 18456 18457 18458 18459 18460 18461 18462 18463 18464 18465 18466 18467 18468 18469 18470 18471 18472 18473 18474 18475 18476 18477 18478 18479 18480 18481 18482 18483 18484 18485 18486 18487 18488 18489 18490 18491 18492 18493 18494 18495 18496 18497 18498 18499 18500 18501 18502 18503 18504 18505 18506 18507 18508 18509 18510 18511 18512 18513 18514 18515 18516 18517 18518 18519 18520 18521 18522 18523 18524 18525 18526 18527 18528 18529 18530 18531 18532 18533 18534 18535 18536 18537 18538 18539 18540 18541 18542 18543 18544 18545 18546 18547 18548 18549 18550 18551 18552 18553 18554 18555 18556 18557 18558 18559 18560 18561 18562 18563 18564 18565 18566 18567 18568 18569 18570 18571 18572 18573 18574 18575 18576 18577 18578 18579 18580 18581 18582 18583 18584 18585 18586 18587 18588 18589 18590 18591 18592 18593 18594 18595 18596 18597 18598 18599 18600 18601 18602 18603 18604 18605 18606 18607 18608 18609 18610 18611 18612 18613 18614 18615 18616 18617 18618 18619 18620 18621 18622 18623 18624 18625 18626 18627 18628 18629 18630 18631 18632 18633 18634 18635 18636 18637 18638 18639 18640 18641 18642 18643 18644 18645 18646 18647 18648 18649 18650 18651 18652 18653 18654 18655 18656 18657 18658 18659 18660 18661 18662 18663 18664 18665 18666 18667 18668 18669 18670 18671 18672 18673 18674 18675 18676 18677 18678 18679 18680 18681 18682 18683 18684 18685 18686 18687 18688 18689 18690 18691 18692 18693 18694 18695 18696 18697 18698 18699 18700 18701 18702 18703 18704 18705 18706 18707 18708 18709 18710 18711 18712 18713 18714 18715 18716 18717 18718 18719 18720 18721 18722 18723 18724 18725 18726 18727 18728 18729 18730 18731 18732 18733 18734 18735 18736 18737 18738 18739 18740 18741 18742 18743 18744 18745 18746 18747 18748 18749 18750 18751 18752 18753 18754 18755 18756 18757 18758 18759 18760 18761 18762 18763 18764 18765 18766 18767 18768 18769 18770 18771 18772 18773 18774 18775 18776 18777 18778 18779 18780 18781 18782 18783 18784 18785 18786 18787 18788 18789 18790 18791 18792 18793 18794 18795 18796 18797 18798 18799 18800 18801 18802 18803 18804 18805 18806 18807 18808 18809 18810 18811 18812 18813 18814 18815 18816 18817 18818 18819 18820 18821 18822 18823 18824 18825 18826 18827 18828 18829 18830 18831 18832 18833 18834 18835 18836 18837 18838 18839 18840 18841 18842 18843 18844 18845 18846 18847 18848 18849 18850 18851 18852 18853 18854 18855 18856 18857 18858 18859 18860 18861 18862 18863 18864 18865 18866 18867 18868 18869 18870 18871 18872 18873 18874 18875 18876 18877 18878 18879 18880 18881 18882 18883 18884 18885 18886 18887 18888 18889 18890 18891 18892 18893 18894 18895 18896 18897 18898 18899 18900 18901 18902 18903 18904 18905 18906 18907 18908 18909 18910 18911 18912 18913 18914 18915 18916 18917 18918 18919 18920 18921 18922 18923 18924 18925 18926 18927 18928 18929 18930 18931 18932 18933 18934 18935 18936 18937 18938 18939 18940 18941 18942 18943 18944 18945 18946 18947 18948 18949 18950 18951 18952 18953 18954 18955 18956 18957 18958 18959 18960 18961 18962 18963 18964 18965 18966 18967 18968 18969 18970 18971 18972 18973 18974 18975 18976 18977 18978 18979 18980 18981 18982 18983 18984 18985 18986 18987 18988 18989 18990 18991 18992 18993 18994 18995 18996 18997 18998 18999 19000 19001 19002 19003 19004 19005 19006 19007 19008 19009 19010 19011 19012 19013 19014 19015 19016 19017 19018 19019 19020 19021 19022 19023 19024 19025 19026 19027 19028 19029 19030 19031 19032 19033 19034 19035 19036 19037 19038 19039 19040 19041 19042 19043 19044 19045 19046 19047 19048 19049 19050 19051 19052 19053 19054 19055 19056 19057 19058 19059 19060 19061 19062 19063 19064 19065 19066 19067 19068 19069 19070 19071 19072 19073 19074 19075 19076 19077 19078 19079 19080 19081 19082 19083 19084 19085 19086 19087 19088 19089 19090 19091 19092 19093 19094 19095 19096 19097 19098 19099 19100 19101 19102 19103 19104 19105 19106 19107 19108 19109 19110 19111 19112 19113 19114 19115 19116 19117 19118 19119 19120 19121 19122 19123 19124 19125 19126 19127 19128 19129 19130 19131 19132 19133 19134 19135 19136 19137 19138 19139 19140 19141 19142 19143 19144 19145 19146 19147 19148 19149 19150 19151 19152 19153 19154 19155 19156 19157 19158 19159 19160 19161 19162 19163 19164 19165 19166 19167 19168 19169 19170 19171 19172 19173 19174 19175 19176 19177 19178 19179 19180 19181 19182 19183 19184 19185 19186 19187 19188 19189 19190 19191 19192 19193 19194 19195 19196 19197 19198 19199 19200 19201 19202 19203 19204 19205 19206 19207 19208 19209 19210 19211 19212 19213 19214 19215 19216 19217 19218 19219 19220 19221 19222 19223 19224 19225 19226 19227 19228 19229 19230 19231 19232 19233 19234 19235 19236 19237 19238 19239 19240 19241 19242 19243 19244 19245 19246 19247 19248 19249 19250 19251 19252 19253 19254 19255 19256 19257 19258 19259 19260 19261 19262 19263 19264 19265 19266 19267 19268 19269 19270 19271 19272 19273 19274 19275 19276 19277 19278 19279 19280 19281 19282 19283 19284 19285 19286 19287 19288 19289 19290 19291 19292 19293 19294 19295 19296 19297 19298 19299 19300 19301 19302 19303 19304 19305 19306 19307 19308 19309 19310 19311 19312 19313 19314 19315 19316 19317 19318 19319 19320 19321 19322 19323 19324 19325 19326 19327 19328 19329 19330 19331 19332 19333 19334 19335 19336 19337 19338 19339 19340 19341 19342 19343 19344 19345 19346 19347 19348 19349 19350 19351 19352 19353 19354 19355 19356 19357 19358 19359 19360 19361 19362 19363 19364 19365 19366 19367 19368 19369 19370 19371 19372 19373 19374 19375 19376 19377 19378 19379 19380 19381 19382 19383 19384 19385 19386 19387 19388 19389 19390 19391 19392 19393 19394 19395 19396 19397 19398 19399 19400 19401 19402 19403 19404 19405 19406 19407 19408 19409 19410 19411 19412 19413 19414 19415 19416 19417 19418 19419 19420 19421 19422 19423 19424 19425 19426 19427 19428 19429 19430 19431 19432 19433 19434 19435 19436 19437 19438 19439 19440 19441 19442 19443 19444 19445 19446 19447 19448 19449 19450 19451 19452 19453 19454 19455 19456 19457 19458 19459 19460 19461 19462 19463 19464 19465 19466 19467 19468 19469 19470 19471 19472 19473 19474 19475 19476 19477 19478 19479 19480 19481 19482 19483 19484 19485 19486 19487 19488 19489 19490 19491 19492 19493 19494 19495 19496 19497 19498 19499 19500 19501 19502 19503 19504 19505 19506 19507 19508 19509 19510 19511 19512 19513 19514 19515 19516 19517 19518 19519 19520 19521 19522 19523 19524 19525 19526 19527 19528 19529 19530 19531 19532 19533 19534 19535 19536 19537 19538 19539 19540 19541 19542 19543 19544 19545 19546 19547 19548 19549 19550 19551 19552 19553 19554 19555 19556 19557 19558 19559 19560 19561 19562 19563 19564 19565 19566 19567 19568 19569 19570 19571 19572 19573 19574 19575 19576 19577 19578 19579 19580 19581 19582 19583 19584 19585 19586 19587 19588 19589 19590 19591 19592 19593 19594 19595 19596 19597 19598 19599 19600 19601 19602 19603 19604 19605 19606 19607 19608 19609 19610 19611 19612 19613 19614 19615 19616 19617 19618 19619 19620 19621 19622 19623 19624 19625 19626 19627 19628 19629 19630 19631 19632 19633 19634 19635 19636 19637 19638 19639 19640 19641 19642 19643 19644 19645 19646 19647 19648 19649 19650 19651 19652 19653 19654 19655 19656 19657 19658 19659 19660 19661 19662 19663 19664 19665 19666 19667 19668 19669 19670 19671 19672 19673 19674 19675 19676 19677 19678 19679 19680 19681 19682 19683 19684 19685 19686 19687 19688 19689 19690 19691 19692 19693 19694 19695 19696 19697 19698 19699 19700 19701 19702 19703 19704 19705 19706 19707 19708 19709 19710 19711 19712 19713 19714 19715 19716 19717 19718 19719 19720 19721 19722 19723 19724 19725 19726 19727 19728 19729 19730 19731 19732 19733 19734 19735 19736 19737 19738 19739 19740 19741 19742 19743 19744 19745 19746 19747 19748 19749 19750 19751 19752 19753 19754 19755 19756 19757 19758 19759 19760 19761 19762 19763 19764 19765 19766 19767 19768 19769 19770 19771 19772 19773 19774 19775 19776 19777 19778 19779 19780 19781 19782 19783 19784 19785 19786 19787 19788 19789 19790 19791 19792 19793 19794 19795 19796 19797 19798 19799 19800 19801 19802 19803 19804 19805 19806 19807 19808 19809 19810 19811 19812 19813 19814 19815 19816 19817 19818 19819 19820 19821 19822 19823 19824 19825 19826 19827 19828 19829 19830 19831 19832 19833 19834 19835 19836 19837 19838 19839 19840 19841 19842 19843 19844 19845 19846 19847 19848 19849 19850 19851 19852 19853 19854 19855 19856 19857 19858 19859 19860 19861 19862 19863 19864 19865 19866 19867 19868 19869 19870 19871 19872 19873 19874 19875 19876 19877 19878 19879 19880 19881 19882 19883 19884 19885 19886 19887 19888 19889 19890 19891 19892 19893 19894 19895 19896 19897 19898 19899 19900 19901 19902 19903 19904 19905 19906 19907 19908 19909 19910 19911 19912 19913 19914 19915 19916 19917 19918 19919 19920 19921 19922 19923 19924 19925 19926 19927 19928 19929 19930 19931 19932 19933 19934 19935 19936 19937 19938 19939 19940 19941 19942 19943 19944 19945 19946 19947 19948 19949 19950 19951 19952 19953 19954 19955 19956 19957 19958 19959 19960 19961 19962 19963 19964 19965 19966 19967 19968 19969 19970 19971 19972 19973 19974 19975 19976 19977 19978 19979 19980 19981 19982 19983 19984 19985 19986 19987 19988 19989 19990 19991 19992 19993 19994 19995 19996 19997 19998 19999 20000 20001 20002 20003 20004 20005 20006 20007 20008 20009 20010 20011 20012 20013 20014 20015 20016 20017 20018 20019 20020 20021 20022 20023 20024 20025 20026 20027 20028 20029 20030 20031 20032 20033 20034 20035 20036 20037 20038 20039 20040 20041 20042 20043 20044 20045 20046 20047 20048 20049 20050 20051 20052 20053 20054 20055 20056 20057 20058 20059 20060 20061 20062 20063 20064 20065 20066 20067 20068 20069 20070 20071 20072 20073 20074 20075 20076 20077 20078 20079 20080 20081 20082 20083 20084 20085 20086 20087 20088 20089 20090 20091 20092 20093 20094 20095 20096 20097 20098 20099 20100 20101 20102 20103 20104 20105 20106 20107 20108 20109 20110 20111 20112 20113 20114 20115 20116 20117 20118 20119 20120 20121 20122 20123 20124 20125 20126 20127 20128 20129 20130 20131 20132 20133 20134 20135 20136 20137 20138 20139 20140 20141 20142 20143 20144 20145 20146 20147 20148 20149 20150 20151 20152 20153 20154 20155 20156 20157 20158 20159 20160 20161 20162 20163 20164 20165 20166 20167 20168 20169 20170 20171 20172 20173 20174 20175 20176 20177 20178 20179 20180 20181 20182 20183 20184 20185 20186 20187 20188 20189 20190 20191 20192 20193 20194 20195 20196 20197 20198 20199 20200 20201 20202 20203 20204 20205 20206 20207 20208 20209 20210 20211 20212 20213 20214 20215 20216 20217 20218 20219 20220 20221 20222 20223 20224 20225 20226 20227 20228 20229 20230 20231 20232 20233 20234 20235 20236 20237 20238 20239 20240 20241 20242 20243 20244 20245 20246 20247 20248 20249 20250 20251 20252 20253 20254 20255 20256 20257 20258 20259 20260 20261 20262 20263 20264 20265 20266 20267 20268 20269 20270 20271 20272 20273 20274 20275 20276 20277 20278 20279 20280 20281 20282 20283 20284 20285 20286 20287 20288 20289 20290 20291 20292 20293 20294 20295 20296 20297 20298 20299 20300 20301 20302 20303 20304 20305 20306 20307 20308 20309 20310 20311 20312 20313 20314 20315 20316 20317 20318 20319 20320 20321 20322 20323 20324 20325 20326 20327 20328 20329 20330 20331 20332 20333 20334 20335 20336 20337 20338 20339 20340 20341 20342 20343 20344 20345 20346 20347 20348 20349 20350 20351 20352 20353 20354 20355 20356 20357 20358 20359 20360 20361 20362 20363 20364 20365 20366 20367 20368 20369 20370 20371 20372 20373 20374 20375 20376 20377 20378 20379 20380 20381 20382 20383 20384 20385 20386 20387 20388 20389 20390 20391 20392 20393 20394 20395 20396 20397 20398 20399 20400 20401 20402 20403 20404 20405 20406 20407 20408 20409 20410 20411 20412 20413 20414 20415 20416 20417 20418 20419 20420 20421 20422 20423 20424 20425 20426 20427 20428 20429 20430 20431 20432 20433 20434 20435 20436 20437 20438 20439 20440 20441 20442 20443 20444 20445 20446 20447 20448 20449 20450 20451 20452 20453 20454 20455 20456 20457 20458 20459 20460 20461 20462 20463 20464 20465 20466 20467 20468 20469 20470 20471 20472 20473 20474 20475 20476 20477 20478 20479 20480 20481 20482 20483 20484 20485 20486 20487 20488 20489 20490 20491 20492 20493 20494 20495 20496 20497 20498 20499 20500 20501 20502 20503 20504 20505 20506 20507 20508 20509 20510 20511 20512 20513 20514 20515 20516 20517 20518 20519 20520 20521 20522 20523 20524 20525 20526 20527 20528 20529 20530 20531 20532 20533 20534 20535 20536 20537 20538 20539 20540 20541 20542 20543 20544 20545 20546 20547 20548 20549 20550 20551 20552 20553 20554 20555 20556 20557 20558 20559 20560 20561 20562 20563 20564 20565 20566 20567 20568 20569 20570 20571 20572 20573 20574 20575 20576 20577 20578 20579 20580 20581 20582 20583 20584 20585 20586 20587 20588 20589 20590 20591 20592 20593 20594 20595 20596 20597 20598 20599 20600 20601 20602 20603 20604 20605 20606 20607 20608 20609 20610 20611 20612 20613 20614 20615 20616 20617 20618 20619 20620 20621 20622 20623 20624 20625 20626 20627 20628 20629 20630 20631 20632 20633 20634 20635 20636 20637 20638 20639 20640 20641 20642 20643 20644 20645 20646 20647 20648 20649 20650 20651 20652 20653 20654 20655 20656 20657 20658 20659 20660 20661 20662 20663 20664 20665 20666 20667 20668 20669 20670 20671 20672 20673 20674 20675 20676 20677 20678 20679 20680 20681 20682 20683 20684 20685 20686 20687 20688 20689 20690 20691 20692 20693 20694 20695 20696 20697 20698 20699 20700 20701 20702 20703 20704 20705 20706 20707 20708 20709 20710 20711 20712 20713 20714 20715 20716 20717 20718 20719 20720 20721 20722 20723 20724 20725 20726 20727 20728 20729 20730 20731 20732 20733 20734 20735 20736 20737 20738 20739 20740 20741 20742 20743 20744 20745 20746 20747 20748 20749 20750 20751 20752 20753 20754 20755 20756 20757 20758 20759 20760 20761 20762 20763 20764 20765 20766 20767 20768 20769 20770 20771 20772 20773 20774 20775 20776 20777 20778 20779 20780 20781 20782 20783 20784 20785 20786 20787 20788 20789 20790 20791 20792 20793 20794 20795 20796 20797 20798 20799 20800 20801 20802 20803 20804 20805 20806 20807 20808 20809 20810 20811 20812 20813 20814 20815 20816 20817 20818 20819 20820 20821 20822 20823 20824 20825 20826 20827 20828 20829 20830 20831 20832 20833 20834 20835 20836 20837 20838 20839 20840 20841 20842 20843 20844 20845 20846 20847 20848 20849 20850 20851 20852 20853 20854 20855 20856 20857 20858 20859 20860 20861 20862 20863 20864 20865 20866 20867 20868 20869 20870 20871 20872 20873 20874 20875 20876 20877 20878 20879 20880 20881 20882 20883 20884 20885 20886 20887 20888 20889 20890 20891 20892 20893 20894 20895 20896 20897 20898 20899 20900 20901 20902 20903 20904 20905 20906 20907 20908 20909 20910 20911 20912 20913 20914 20915 20916 20917 20918 20919 20920 20921 20922 20923 20924 20925 20926 20927 20928 20929 20930 20931 20932 20933 20934 20935 20936 20937 20938 20939 20940 20941 20942 20943 20944 20945 20946 20947 20948 20949 20950 20951 20952 20953 20954 20955 20956 20957 20958 20959 20960 20961 20962 20963 20964 20965 20966 20967 20968 20969 20970 20971 20972 20973 20974 20975 20976 20977 20978 20979 20980 20981 20982 20983 20984 20985 20986 20987 20988 20989 20990 20991 20992 20993 20994 20995 20996 20997 20998 20999 21000 21001 21002 21003 21004 21005 21006 21007 21008 21009 21010 21011 21012 21013 21014 21015 21016 21017 21018 21019 21020 21021 21022 21023 21024 21025 21026 21027 21028 21029 21030 21031 21032 21033 21034 21035 21036 21037 21038 21039 21040 21041 21042 21043 21044 21045 21046 21047 21048 21049 21050 21051 21052 21053 21054 21055 21056 21057 21058 21059 21060 21061 21062 21063 21064 21065 21066 21067 21068 21069 21070 21071 21072 21073 21074 21075 21076 21077 21078 21079 21080 21081 21082 21083 21084 21085 21086 21087 21088 21089 21090 21091 21092 21093 21094 21095 21096 21097 21098 21099 21100 21101 21102 21103 21104 21105 21106 21107 21108 21109 21110 21111 21112 21113 21114 21115 21116 21117 21118 21119 21120 21121 21122 21123 21124 21125 21126 21127 21128 21129 21130 21131 21132 21133 21134 21135 21136 21137 21138 21139 21140 21141 21142 21143 21144 21145 21146 21147 21148 21149 21150 21151 21152 21153 21154 21155 21156 21157 21158 21159 21160 21161 21162 21163 21164 21165 21166 21167 21168 21169 21170 21171 21172 21173 21174 21175 21176 21177 21178 21179 21180 21181 21182 21183 21184 21185 21186 21187 21188 21189 21190 21191 21192 21193 21194 21195 21196 21197 21198 21199 21200 21201 21202 21203 21204 21205 21206 21207 21208 21209 21210 21211 21212 21213 21214 21215 21216 21217 21218 21219 21220 21221 21222 21223 21224 21225 21226 21227 21228 21229 21230 21231 21232 21233 21234 21235 21236 21237 21238 21239 21240 21241 21242 21243 21244 21245 21246 21247 21248 21249 21250 21251 21252 21253 21254 21255 21256 21257 21258 21259 21260 21261 21262 21263 21264 21265 21266 21267 21268 21269 21270 21271 21272 21273 21274 21275 21276 21277 21278 21279 21280 21281 21282 21283 21284 21285 21286 21287 21288 21289 21290 21291 21292 21293 21294 21295 21296 21297 21298 21299 21300 21301 21302 21303 21304 21305 21306 21307 21308 21309 21310 21311 21312 21313 21314 21315 21316 21317 21318 21319 21320 21321 21322 21323 21324 21325 21326 21327 21328 21329 21330 21331 21332 21333 21334 21335 21336 21337 21338 21339 21340 21341 21342 21343 21344 21345 21346 21347 21348 21349 21350 21351 21352 21353 21354 21355 21356 21357 21358 21359 21360 21361 21362 21363 21364 21365 21366 21367 21368 21369 21370 21371 21372 21373 21374 21375 21376 21377 21378 21379 21380 21381 21382 21383 21384 21385 21386 21387 21388 21389 21390 21391 21392 21393 21394 21395 21396 21397 21398 21399 21400 21401 21402 21403 21404 21405 21406 21407 21408 21409 21410 21411 21412 21413 21414 21415 21416 21417 21418 21419 21420 21421 21422 21423 21424 21425 21426 21427 21428 21429 21430 21431 21432 21433 21434 21435 21436 21437 21438 21439 21440 21441 21442 21443 21444 21445 21446 21447 21448 21449 21450 21451 21452 21453 21454 21455 21456 21457 21458 21459 21460 21461 21462 21463 21464 21465 21466 21467 21468 21469 21470 21471 21472 21473 21474 21475 21476 21477 21478 21479 21480 21481 21482 21483 21484 21485 21486 21487 21488 21489 21490 21491 21492 21493 21494 21495 21496 21497 21498 21499 21500 21501 21502 21503 21504 21505 21506 21507 21508 21509 21510 21511 21512 21513 21514 21515 21516 21517 21518 21519 21520 21521 21522 21523 21524 21525 21526 21527 21528 21529 21530 21531 21532 21533 21534 21535 21536 21537 21538 21539 21540 21541 21542 21543 21544 21545 21546 21547 21548 21549 21550 21551 21552 21553 21554 21555 21556 21557 21558 21559 21560 21561 21562 21563 21564 21565 21566 21567 21568 21569 21570 21571 21572 21573 21574 21575 21576 21577 21578 21579 21580 21581 21582 21583 21584 21585 21586 21587 21588 21589 21590 21591 21592 21593 21594 21595 21596 21597 21598 21599 21600 21601 21602 21603 21604 21605 21606 21607 21608 21609 21610 21611 21612 21613 21614 21615 21616 21617 21618 21619 21620 21621 21622 21623 21624 21625 21626 21627 21628 21629 21630 21631 21632 21633 21634 21635 21636 21637 21638 21639 21640 21641 21642 21643 21644 21645 21646 21647 21648 21649 21650 21651 21652 21653 21654 21655 21656 21657 21658 21659 21660 21661 21662 21663 21664 21665 21666 21667 21668 21669 21670 21671 21672 21673 21674 21675 21676 21677 21678 21679 21680 21681 21682 21683 21684 21685 21686 21687 21688 21689 21690 21691 21692 21693 21694 21695 21696 21697 21698 21699 21700 21701 21702 21703 21704 21705 21706 21707 21708 21709 21710 21711 21712 21713 21714 21715 21716 21717 21718 21719 21720 21721 21722 21723 21724 21725 21726 21727 21728 21729 21730 21731 21732 21733 21734 21735 21736 21737 21738 21739 21740 21741 21742 21743 21744 21745 21746 21747 21748 21749 21750 21751 21752 21753 21754 21755 21756 21757 21758 21759 21760 21761 21762 21763 21764 21765 21766 21767 21768 21769 21770 21771 21772 21773 21774 21775 21776 21777 21778 21779 21780 21781 21782 21783 21784 21785 21786 21787 21788 21789 21790 21791 21792 21793 21794 21795 21796 21797 21798 21799 21800 21801 21802 21803 21804 21805 21806 21807 21808 21809 21810 21811 21812 21813 21814 21815 21816 21817 21818 21819 21820 21821 21822 21823 21824 21825 21826 21827 21828 21829 21830 21831 21832 21833 21834 21835 21836 21837 21838 21839 21840 21841 21842 21843 21844 21845 21846 21847 21848 21849 21850 21851 21852 21853 21854 21855 21856 21857 21858 21859 21860 21861 21862 21863 21864 21865 21866 21867 21868 21869 21870 21871 21872 21873 21874 21875 21876 21877 21878 21879 21880 21881 21882 21883 21884 21885 21886 21887 21888 21889 21890 21891 21892 21893 21894 21895 21896 21897 21898 21899 21900 21901 21902 21903 21904 21905 21906 21907 21908 21909 21910 21911 21912 21913 21914 21915 21916 21917 21918 21919 21920 21921 21922 21923 21924 21925 21926 21927 21928 21929 21930 21931 21932 21933 21934 21935 21936 21937 21938 21939 21940 21941 21942 21943 21944 21945 21946 21947 21948 21949 21950 21951 21952 21953 21954 21955 21956 21957 21958 21959 21960 21961 21962 21963 21964 21965 21966 21967 21968 21969 21970 21971 21972 21973 21974 21975 21976 21977 21978 21979 21980 21981 21982 21983 21984 21985 21986 21987 21988 21989 21990 21991 21992 21993 21994 21995 21996 21997 21998 21999 22000 22001 22002 22003 22004 22005 22006 22007 22008 22009 22010 22011 22012 22013 22014 22015 22016 22017 22018 22019 22020 22021 22022 22023 22024 22025 22026 22027 22028 22029 22030 22031 22032 22033 22034 22035 22036 22037 22038 22039 22040 22041 22042 22043 22044 22045 22046 22047 22048 22049 22050 22051 22052 22053 22054 22055 22056 22057 22058 22059 22060 22061 22062 22063 22064 22065 22066 22067 22068 22069 22070 22071 22072 22073 22074 22075 22076 22077 22078 22079 22080 22081 22082 22083 22084 22085 22086 22087 22088 22089 22090 22091 22092 22093 22094 22095 22096 22097 22098 22099 22100 22101 22102 22103 22104 22105 22106 22107 22108 22109 22110 22111 22112 22113 22114 22115 22116 22117 22118 22119 22120 22121 22122 22123 22124 22125 22126 22127 22128 22129 22130 22131 22132 22133 22134 22135 22136 22137 22138 22139 22140 22141 22142 22143 22144 22145 22146 22147 22148 22149 22150 22151 22152 22153 22154 22155 22156 22157 22158 22159 22160 22161 22162 22163 22164 22165 22166 22167 22168 22169 22170 22171 22172 22173 22174 22175 22176 22177 22178 22179 22180 22181 22182 22183 22184 22185 22186 22187 22188 22189 22190 22191 22192 22193 22194 22195 22196 22197 22198 22199 22200 22201 22202 22203 22204 22205 22206 22207 22208 22209 22210 22211 22212 22213 22214 22215 22216 22217 22218 22219 22220 22221 22222 22223 22224 22225 22226 22227 22228 22229 22230 22231 22232 22233 22234 22235 22236 22237 22238 22239 22240 22241 22242 22243 22244 22245 22246 22247 22248 22249 22250 22251 22252 22253 22254 22255 22256 22257 22258 22259 22260 22261 22262 22263 22264 22265 22266 22267 22268 22269 22270 22271 22272 22273 22274 22275 22276 22277 22278 22279 22280 22281 22282 22283 22284 22285 22286 22287 22288 22289 22290 22291 22292 22293 22294 22295 22296 22297 22298 22299 22300 22301 22302 22303 22304 22305 22306 22307 22308 22309 22310 22311 22312 22313 22314 22315 22316 22317 22318 22319 22320 22321 22322 22323 22324 22325 22326 22327 22328 22329 22330 22331 22332 22333 22334 22335 22336 22337 22338 22339 22340 22341 22342 22343 22344 22345 22346 22347 22348 22349 22350 22351 22352 22353 22354 22355 22356 22357 22358 22359 22360 22361 22362 22363 22364 22365 22366 22367 22368 22369 22370 22371 22372 22373 22374 22375 22376 22377 22378 22379 22380 22381 22382 22383 22384 22385 22386 22387 22388 22389 22390 22391 22392 22393 22394 22395 22396 22397 22398 22399 22400 22401 22402 22403 22404 22405 22406 22407 22408 22409 22410 22411 22412 22413 22414 22415 22416 22417 22418 22419 22420 22421 22422 22423 22424 22425 22426 22427 22428 22429 22430 22431 22432 22433 22434 22435 22436 22437 22438 22439 22440 22441 22442 22443 22444 22445 22446 22447 22448 22449 22450 22451 22452 22453 22454 22455 22456 22457 22458 22459 22460 22461 22462 22463 22464 22465 22466 22467 22468 22469 22470 22471 22472 22473 22474 22475 22476 22477 22478 22479 22480 22481 22482 22483 22484 22485 22486 22487 22488 22489 22490 22491 22492 22493 22494 22495 22496 22497 22498 22499 22500 22501 22502 22503 22504 22505 22506 22507 22508 22509 22510 22511 22512 22513 22514 22515 22516 22517 22518 22519 22520 22521 22522 22523 22524 22525 22526 22527 22528 22529 22530 22531 22532 22533 22534 22535 22536 22537 22538 22539 22540 22541 22542 22543 22544 22545 22546 22547 22548 22549 22550 22551 22552 22553 22554 22555 22556 22557 22558 22559 22560 22561 22562 22563 22564 22565 22566 22567 22568 22569 22570 22571 22572 22573 22574 22575 22576 22577 22578 22579 22580 22581 22582 22583 22584 22585 22586 22587 22588 22589 22590 22591 22592 22593 22594 22595 22596 22597 22598 22599 22600 22601 22602 22603 22604 22605 22606 22607 22608 22609 22610 22611 22612 22613 22614 22615 22616 22617 22618 22619 22620 22621 22622 22623 22624 22625 22626 22627 22628 22629 22630 22631 22632 22633 22634 22635 22636 22637 22638 22639 22640 22641 22642 22643 22644 22645 22646 22647 22648 22649 22650 22651 22652 22653 22654 22655 22656 22657 22658 22659 22660 22661 22662 22663 22664 22665 22666 22667 22668 22669 22670 22671 22672 22673 22674 22675 22676 22677 22678 22679 22680 22681 22682 22683 22684 22685 22686 22687 22688 22689 22690 22691 22692 22693 22694 22695 22696 22697 22698 22699 22700 22701 22702 22703 22704 22705 22706 22707 22708 22709 22710 22711 22712 22713 22714 22715 22716 22717 22718 22719 22720 22721 22722 22723 22724 22725 22726 22727 22728 22729 22730 22731 22732 22733 22734 22735 22736 22737 22738 22739 22740 22741 22742 22743 22744 22745 22746 22747 22748 22749 22750 22751 22752 22753 22754 22755 22756 22757 22758 22759 22760 22761 22762 22763 22764 22765 22766 22767 22768 22769 22770 22771 22772 22773 22774 22775 22776 22777 22778 22779 22780 22781 22782 22783 22784 22785 22786 22787 22788 22789 22790 22791 22792 22793 22794 22795 22796 22797 22798 22799 22800 22801 22802 22803 22804 22805 22806 22807 22808 22809 22810 22811 22812 22813 22814 22815 22816 22817 22818 22819 22820 22821 22822 22823 22824 22825 22826 22827 22828 22829 22830 22831 22832 22833 22834 22835 22836 22837 22838 22839 22840 22841 22842 22843 22844 22845 22846 22847 22848 22849 22850 22851 22852 22853 22854 22855 22856 22857 22858 22859 22860 22861 22862 22863 22864 22865 22866 22867 22868 22869 22870 22871 22872 22873 22874 22875 22876 22877 22878 22879 22880 22881 22882 22883 22884 22885 22886 22887 22888 22889 22890 22891 22892 22893 22894 22895 22896 22897 22898 22899 22900 22901 22902 22903 22904 22905 22906 22907 22908 22909 22910 22911 22912 22913 22914 22915 22916 22917 22918 22919 22920 22921 22922 22923 22924 22925 22926 22927 22928 22929 22930 22931 22932 22933 22934 22935 22936 22937 22938 22939 22940 22941 22942 22943 22944 22945 22946 22947 22948 22949 22950 22951 22952 22953 22954 22955 22956 22957 22958 22959 22960 22961 22962 22963 22964 22965 22966 22967 22968 22969 22970 22971 22972 22973 22974 22975 22976 22977 22978 22979 22980 22981 22982 22983 22984 22985 22986 22987 22988 22989 22990 22991 22992 22993 22994 22995 22996 22997 22998 22999 23000 23001 23002 23003 23004 23005 23006 23007 23008 23009 23010 23011 23012 23013 23014 23015 23016 23017 23018 23019 23020 23021 23022 23023 23024 23025 23026 23027 23028 23029 23030 23031 23032 23033 23034 23035 23036 23037 23038 23039 23040 23041 23042 23043 23044 23045 23046 23047 23048 23049 23050 23051 23052 23053 23054 23055 23056 23057 23058 23059 23060 23061 23062 23063 23064 23065 23066 23067 23068 23069 23070 23071 23072 23073 23074 23075 23076 23077 23078 23079 23080 23081 23082 23083 23084 23085 23086 23087 23088 23089 23090 23091 23092 23093 23094 23095 23096 23097 23098 23099 23100 23101 23102 23103 23104 23105 23106 23107 23108 23109 23110 23111 23112 23113 23114 23115 23116 23117 23118 23119 23120 23121 23122 23123 23124 23125 23126 23127 23128 23129 23130 23131 23132 23133 23134 23135 23136 23137 23138 23139 23140 23141 23142 23143 23144 23145 23146 23147 23148 23149 23150 23151 23152 23153 23154 23155 23156 23157 23158 23159 23160 23161 23162 23163 23164 23165 23166 23167 23168 23169 23170 23171 23172 23173 23174 23175 23176 23177 23178 23179 23180 23181 23182 23183 23184 23185 23186 23187 23188 23189 23190 23191 23192 23193 23194 23195 23196 23197 23198 23199 23200 23201 23202 23203 23204 23205 23206 23207 23208 23209 23210 23211 23212 23213 23214 23215 23216 23217 23218 23219 23220 23221 23222 23223 23224 23225 23226 23227 23228 23229 23230 23231 23232 23233 23234 23235 23236 23237 23238 23239 23240 23241 23242 23243 23244 23245 23246 23247 23248 23249 23250 23251 23252 23253 23254 23255 23256 23257 23258 23259 23260 23261 23262 23263 23264 23265 23266 23267 23268 23269 23270 23271 23272 23273 23274 23275 23276 23277 23278 23279 23280 23281 23282 23283 23284 23285 23286 23287 23288 23289 23290 23291 23292 23293 23294 23295 23296 23297 23298 23299 23300 23301 23302 23303 23304 23305 23306 23307 23308 23309 23310 23311 23312 23313 23314 23315 23316 23317 23318 23319 23320 23321 23322 23323 23324 23325 23326 23327 23328 23329 23330 23331 23332 23333 23334 23335 23336 23337 23338 23339 23340 23341 23342 23343 23344 23345 23346 23347 23348 23349 23350 23351 23352 23353 23354 23355 23356 23357 23358 23359 23360 23361 23362 23363 23364 23365 23366 23367 23368 23369 23370 23371 23372 23373 23374 23375 23376 23377 23378 23379 23380 23381 23382 23383 23384 23385 23386 23387 23388 23389 23390 23391 23392 23393 23394 23395 23396 23397 23398 23399 23400 23401 23402 23403 23404 23405 23406 23407 23408 23409 23410 23411 23412 23413 23414 23415 23416 23417 23418 23419 23420 23421 23422 23423 23424 23425 23426 23427 23428 23429 23430 23431 23432 23433 23434 23435 23436 23437 23438 23439 23440 23441 23442 23443 23444 23445 23446 23447 23448 23449 23450 23451 23452 23453 23454 23455 23456 23457 23458 23459 23460 23461 23462 23463 23464 23465 23466 23467 23468 23469 23470 23471 23472 23473 23474 23475 23476 23477 23478 23479 23480 23481 23482 23483 23484 23485 23486 23487 23488 23489 23490 23491 23492 23493 23494 23495 23496 23497 23498 23499 23500 23501 23502 23503 23504 23505 23506 23507 23508 23509 23510 23511 23512 23513 23514 23515 23516 23517 23518 23519 23520 23521 23522 23523 23524 23525 23526 23527 23528 23529 23530 23531 23532 23533 23534 23535 23536 23537 23538 23539 23540 23541 23542 23543 23544 23545 23546 23547 23548 23549 23550 23551 23552 23553 23554 23555 23556 23557 23558 23559 23560 23561 23562 23563 23564 23565 23566 23567 23568 23569 23570 23571 23572 23573 23574 23575 23576 23577 23578 23579 23580 23581 23582 23583 23584 23585 23586 23587 23588 23589 23590 23591 23592 23593 23594 23595 23596 23597 23598 23599 23600 23601 23602 23603 23604 23605 23606 23607 23608 23609 23610 23611 23612 23613 23614 23615 23616 23617 23618 23619 23620 23621 23622 23623 23624 23625 23626 23627 23628 23629 23630 23631 23632 23633 23634 23635 23636 23637 23638 23639 23640 23641 23642 23643 23644 23645 23646 23647 23648 23649 23650 23651 23652 23653 23654 23655 23656 23657 23658 23659 23660 23661 23662 23663 23664 23665 23666 23667 23668 23669 23670 23671 23672 23673 23674 23675 23676 23677 23678 23679 23680 23681 23682 23683 23684 23685 23686 23687 23688 23689 23690 23691 23692 23693 23694 23695 23696 23697 23698 23699 23700 23701 23702 23703 23704 23705 23706 23707 23708 23709 23710 23711 23712 23713 23714 23715 23716 23717 23718 23719 23720 23721 23722 23723 23724 23725 23726 23727 23728 23729 23730 23731 23732 23733 23734 23735 23736 23737 23738 23739 23740 23741 23742 23743 23744 23745 23746 23747 23748 23749 23750 23751 23752 23753 23754 23755 23756 23757 23758 23759 23760 23761 23762 23763 23764 23765 23766 23767 23768 23769 23770 23771 23772 23773 23774 23775 23776 23777 23778 23779 23780 23781 23782 23783 23784 23785 23786 23787 23788 23789 23790 23791 23792 23793 23794 23795 23796 23797 23798 23799 23800 23801 23802 23803 23804 23805 23806 23807 23808 23809 23810 23811 23812 23813 23814 23815 23816 23817 23818 23819 23820 23821 23822 23823 23824 23825 23826 23827 23828 23829 23830 23831 23832 23833 23834 23835 23836 23837 23838 23839 23840 23841 23842 23843 23844 23845 23846 23847 23848 23849 23850 23851 23852 23853 23854 23855 23856 23857 23858 23859 23860 23861 23862 23863 23864 23865 23866 23867 23868 23869 23870 23871 23872 23873 23874 23875 23876 23877 23878 23879 23880 23881 23882 23883 23884 23885 23886 23887 23888 23889 23890 23891 23892 23893 23894 23895 23896 23897 23898 23899 23900 23901 23902 23903 23904 23905 23906 23907 23908 23909 23910 23911 23912 23913 23914 23915 23916 23917 23918 23919 23920 23921 23922 23923 23924 23925 23926 23927 23928 23929 23930 23931 23932 23933 23934 23935 23936 23937 23938 23939 23940 23941 23942 23943 23944 23945 23946 23947 23948 23949 23950 23951 23952 23953 23954 23955 23956 23957 23958 23959 23960 23961 23962 23963 23964 23965 23966 23967 23968 23969 23970 23971 23972 23973 23974 23975 23976 23977 23978 23979 23980 23981 23982 23983 23984 23985 23986 23987 23988 23989 23990 23991 23992 23993 23994 23995 23996 23997 23998 23999 24000 24001 24002 24003 24004 24005 24006 24007 24008 24009 24010 24011 24012 24013 24014 24015 24016 24017 24018 24019 24020 24021 24022 24023 24024 24025 24026 24027 24028 24029 24030 24031 24032 24033 24034 24035 24036 24037 24038 24039 24040 24041 24042 24043 24044 24045 24046 24047 24048 24049 24050 24051 24052 24053 24054 24055 24056 24057 24058 24059 24060 24061 24062 24063 24064 24065 24066 24067 24068 24069 24070 24071 24072 24073 24074 24075 24076 24077 24078 24079 24080 24081 24082 24083 24084 24085 24086 24087 24088 24089 24090 24091 24092 24093 24094 24095 24096 24097 24098 24099 24100 24101 24102 24103 24104 24105 24106 24107 24108 24109 24110 24111 24112 24113 24114 24115 24116 24117 24118 24119 24120 24121 24122 24123 24124 24125 24126 24127 24128 24129 24130 24131 24132 24133 24134 24135 24136 24137 24138 24139 24140 24141 24142 24143 24144 24145 24146 24147 24148 24149 24150 24151 24152 24153 24154 24155 24156 24157 24158 24159 24160 24161 24162 24163 24164 24165 24166 24167 24168 24169 24170 24171 24172 24173 24174 24175 24176 24177 24178 24179 24180 24181 24182 24183 24184 24185 24186 24187 24188 24189 24190 24191 24192 24193 24194 24195 24196 24197 24198 24199 24200 24201 24202 24203 24204 24205 24206 24207 24208 24209 24210 24211 24212 24213 24214 24215 24216 24217 24218 24219 24220 24221 24222 24223 24224 24225 24226 24227 24228 24229 24230 24231 24232 24233 24234 24235 24236 24237 24238 24239 24240 24241 24242 24243 24244 24245 24246 24247 24248 24249 24250 24251 24252 24253 24254 24255 24256 24257 24258 24259 24260 24261 24262 24263 24264 24265 24266 24267 24268 24269 24270 24271 24272 24273 24274 24275 24276 24277 24278 24279 24280 24281 24282 24283 24284 24285 24286 24287 24288 24289 24290 24291 24292 24293 24294 24295 24296 24297 24298 24299 24300 24301 24302 24303 24304 24305 24306 24307 24308 24309 24310 24311 24312 24313 24314 24315 24316 24317 24318 24319 24320 24321 24322 24323 24324 24325 24326 24327 24328 24329 24330 24331 24332 24333 24334 24335 24336 24337 24338 24339 24340 24341 24342 24343 24344 24345 24346 24347 24348 24349 24350 24351 24352 24353 24354 24355 24356 24357 24358 24359 24360 24361 24362 24363 24364 24365 24366 24367 24368 24369 24370 24371 24372 24373 24374 24375 24376 24377 24378 24379 24380 24381 24382 24383 24384 24385 24386 24387 24388 24389 24390 24391 24392 24393 24394 24395 24396 24397 24398 24399 24400 24401 24402 24403 24404 24405 24406 24407 24408 24409 24410 24411 24412 24413 24414 24415 24416 24417 24418 24419 24420 24421 24422 24423 24424 24425 24426 24427 24428 24429 24430 24431 24432 24433 24434 24435 24436 24437 24438 24439 24440 24441 24442 24443 24444 24445 24446 24447 24448 24449 24450 24451 24452 24453 24454 24455 24456 24457 24458 24459 24460 24461 24462 24463 24464 24465 24466 24467 24468 24469 24470 24471 24472 24473 24474 24475 24476 24477 24478 24479 24480 24481 24482 24483 24484 24485 24486 24487 24488 24489 24490 24491 24492 24493 24494 24495 24496 24497 24498 24499 24500 24501 24502 24503 24504 24505 24506 24507 24508 24509 24510 24511 24512 24513 24514 24515 24516 24517 24518 24519 24520 24521 24522 24523 24524 24525 24526 24527 24528 24529 24530 24531 24532 24533 24534 24535 24536 24537 24538 24539 24540 24541 24542 24543 24544 24545 24546 24547 24548 24549 24550 24551 24552 24553 24554 24555 24556 24557 24558 24559 24560 24561 24562 24563 24564 24565 24566 24567 24568 24569 24570 24571 24572 24573 24574 24575 24576 24577 24578 24579 24580 24581 24582 24583 24584 24585 24586 24587 24588 24589 24590 24591 24592 24593 24594 24595 24596 24597 24598 24599 24600 24601 24602 24603 24604 24605 24606 24607 24608 24609 24610 24611 24612 24613 24614 24615 24616 24617 24618 24619 24620 24621 24622 24623 24624 24625 24626 24627 24628 24629 24630 24631 24632 24633 24634 24635 24636 24637 24638 24639 24640 24641 24642 24643 24644 24645 24646 24647 24648 24649 24650 24651 24652 24653 24654 24655 24656 24657 24658 24659 24660 24661 24662 24663 24664 24665 24666 24667 24668 24669 24670 24671 24672 24673 24674 24675 24676 24677 24678 24679 24680 24681 24682 24683 24684 24685 24686 24687 24688 24689 24690 24691 24692 24693 24694 24695 24696 24697 24698 24699 24700 24701 24702 24703 24704 24705 24706 24707 24708 24709 24710 24711 24712 24713 24714 24715 24716 24717 24718 24719 24720 24721 24722 24723 24724 24725 24726 24727 24728 24729 24730 24731 24732 24733 24734 24735 24736 24737 24738 24739 24740 24741 24742 24743 24744 24745 24746 24747 24748 24749 24750 24751 24752 24753 24754 24755 24756 24757 24758 24759 24760 24761 24762 24763 24764 24765 24766 24767 24768 24769 24770 24771 24772 24773 24774 24775 24776 24777 24778 24779 24780 24781 24782 24783 24784 24785 24786 24787 24788 24789 24790 24791 24792 24793 24794 24795 24796 24797 24798 24799 24800 24801 24802 24803 24804 24805 24806 24807 24808 24809 24810 24811 24812 24813 24814 24815 24816 24817 24818 24819 24820 24821 24822 24823 24824 24825 24826 24827 24828 24829 24830 24831 24832 24833 24834 24835 24836 24837 24838 24839 24840 24841 24842 24843 24844 24845 24846 24847 24848 24849 24850 24851 24852 24853 24854 24855 24856 24857 24858 24859 24860 24861 24862 24863 24864 24865 24866 24867 24868 24869 24870 24871 24872 24873 24874 24875 24876 24877 24878 24879 24880 24881 24882 24883 24884 24885 24886 24887 24888 24889 24890 24891 24892 24893 24894 24895 24896 24897 24898 24899 24900 24901 24902 24903 24904 24905 24906 24907 24908 24909 24910 24911 24912 24913 24914 24915 24916 24917 24918 24919 24920 24921 24922 24923 24924 24925 24926 24927 24928 24929 24930 24931 24932 24933 24934 24935 24936 24937 24938 24939 24940 24941 24942 24943 24944 24945 24946 24947 24948 24949 24950 24951 24952 24953 24954 24955 24956 24957 24958 24959 24960 24961 24962 24963 24964 24965 24966 24967 24968 24969 24970 24971 24972 24973 24974 24975 24976 24977 24978 24979 24980 24981 24982 24983 24984 24985 24986 24987 24988 24989 24990 24991 24992 24993 24994 24995 24996 24997 24998 24999 25000 25001 25002 25003 25004 25005 25006 25007 25008 25009 25010 25011 25012 25013 25014 25015 25016 25017 25018 25019 25020 25021 25022 25023 25024 25025 25026 25027 25028 25029 25030 25031 25032 25033 25034 25035 25036 25037 25038 25039 25040 25041 25042 25043 25044 25045 25046 25047 25048 25049 25050 25051 25052 25053 25054 25055 25056 25057 25058 25059 25060 25061 25062 25063 25064 25065 25066 25067 25068 25069 25070 25071 25072 25073 25074 25075 25076 25077 25078 25079 25080 25081 25082 25083 25084 25085 25086 25087 25088 25089 25090 25091 25092 25093 25094 25095 25096 25097 25098 25099 25100 25101 25102 25103 25104 25105 25106 25107 25108 25109 25110 25111 25112 25113 25114 25115 25116 25117 25118 25119 25120 25121 25122 25123 25124 25125 25126 25127 25128 25129 25130 25131 25132 25133 25134 25135 25136 25137 25138 25139 25140 25141 25142 25143 25144 25145 25146 25147 25148 25149 25150 25151 25152 25153 25154 25155 25156 25157 25158 25159 25160 25161 25162 25163 25164 25165 25166 25167 25168 25169 25170 25171 25172 25173 25174 25175 25176 25177 25178 25179 25180 25181 25182 25183 25184 25185 25186 25187 25188 25189 25190 25191 25192 25193 25194 25195 25196 25197 25198 25199 25200 25201 25202 25203 25204 25205 25206 25207 25208 25209 25210 25211 25212 25213 25214 25215 25216 25217 25218 25219 25220 25221 25222 25223 25224 25225 25226 25227 25228 25229 25230 25231 25232 25233 25234 25235 25236 25237 25238 25239 25240 25241 25242 25243 25244 25245 25246 25247 25248 25249 25250 25251 25252 25253 25254 25255 25256 25257 25258 25259 25260 25261 25262 25263 25264 25265 25266 25267 25268 25269 25270 25271 25272 25273 25274 25275 25276 25277 25278 25279 25280 25281 25282 25283 25284 25285 25286 25287 25288 25289 25290 25291 25292 25293 25294 25295 25296 25297 25298 25299 25300 25301 25302 25303 25304 25305 25306 25307 25308 25309 25310 25311 25312 25313 25314 25315 25316 25317 25318 25319 25320 25321 25322 25323 25324 25325 25326 25327 25328 25329 25330 25331 25332 25333 25334 25335 25336 25337 25338 25339 25340 25341 25342 25343 25344 25345 25346 25347 25348 25349 25350 25351 25352 25353 25354 25355 25356 25357 25358 25359 25360 25361 25362 25363 25364 25365 25366 25367 25368 25369 25370 25371 25372 25373 25374 25375 25376 25377 25378 25379 25380 25381 25382 25383 25384 25385 25386 25387 25388 25389 25390 25391 25392 25393 25394 25395 25396 25397 25398 25399 25400 25401 25402 25403 25404 25405 25406 25407 25408 25409 25410 25411 25412 25413 25414 25415 25416 25417 25418 25419 25420 25421 25422 25423 25424 25425 25426 25427 25428 25429 25430 25431 25432 25433 25434 25435 25436 25437 25438 25439 25440 25441 25442 25443 25444 25445 25446 25447 25448 25449 25450 25451 25452 25453 25454 25455 25456 25457 25458 25459 25460 25461 25462 25463 25464 25465 25466 25467 25468 25469 25470 25471 25472 25473 25474 25475 25476 25477 25478 25479 25480 25481 25482 25483 25484 25485 25486 25487 25488 25489 25490 25491 25492 25493 25494 25495 25496 25497 25498 25499 25500 25501 25502 25503 25504 25505 25506 25507 25508 25509 25510 25511 25512 25513 25514 25515 25516 25517 25518 25519 25520 25521 25522 25523 25524 25525 25526 25527 25528 25529 25530 25531 25532 25533 25534 25535 25536 25537 25538 25539 25540 25541 25542 25543 25544 25545 25546 25547 25548 25549 25550 25551 25552 25553 25554 25555 25556 25557 25558 25559 25560 25561 25562 25563 25564 25565 25566 25567 25568 25569 25570 25571 25572 25573 25574 25575 25576 25577 25578 25579 25580 25581 25582 25583 25584 25585 25586 25587 25588 25589 25590 25591 25592 25593 25594 25595 25596 25597 25598 25599 25600 25601 25602 25603 25604 25605 25606 25607 25608 25609 25610 25611 25612 25613 25614 25615 25616 25617 25618 25619 25620 25621 25622 25623 25624 25625 25626 25627 25628 25629 25630 25631 25632 25633 25634 25635 25636 25637 25638 25639 25640 25641 25642 25643 25644 25645 25646 25647 25648 25649 25650 25651 25652 25653 25654 25655 25656 25657 25658 25659 25660 25661 25662 25663 25664 25665 25666 25667 25668 25669 25670 25671 25672 25673 25674 25675 25676 25677 25678 25679 25680 25681 25682 25683 25684 25685 25686 25687 25688 25689 25690 25691 25692 25693 25694 25695 25696 25697 25698 25699 25700 25701 25702 25703 25704 25705 25706 25707 25708 25709 25710 25711 25712 25713 25714 25715 25716 25717 25718 25719 25720 25721 25722 25723 25724 25725 25726 25727 25728 25729 25730 25731 25732 25733 25734 25735 25736 25737 25738 25739 25740 25741 25742 25743 25744 25745 25746 25747 25748 25749 25750 25751 25752 25753 25754 25755 25756 25757 25758 25759 25760 25761 25762 25763 25764 25765 25766 25767 25768 25769 25770 25771 25772 25773 25774 25775 25776 25777 25778 25779 25780 25781 25782 25783 25784 25785 25786 25787 25788 25789 25790 25791 25792 25793 25794 25795 25796 25797 25798 25799 25800 25801 25802 25803 25804 25805 25806 25807 25808 25809 25810 25811 25812 25813 25814 25815 25816 25817 25818 25819 25820 25821 25822 25823 25824 25825 25826 25827 25828 25829 25830 25831 25832 25833 25834 25835 25836 25837 25838 25839 25840 25841 25842 25843 25844 25845 25846 25847 25848 25849 25850 25851 25852 25853 25854 25855 25856 25857 25858 25859 25860 25861 25862 25863 25864 25865 25866 25867 25868 25869 25870 25871 25872 25873 25874 25875 25876 25877 25878 25879 25880 25881 25882 25883 25884 25885 25886 25887 25888 25889 25890 25891 25892 25893 25894 25895 25896 25897 25898 25899 25900 25901 25902 25903 25904 25905 25906 25907 25908 25909 25910 25911 25912 25913 25914 25915 25916 25917 25918 25919 25920 25921 25922 25923 25924 25925 25926 25927 25928 25929 25930 25931 25932 25933 25934 25935 25936 25937 25938 25939 25940 25941 25942 25943 25944 25945 25946 25947 25948 25949 25950 25951 25952 25953 25954 25955 25956 25957 25958 25959 25960 25961 25962 25963 25964 25965 25966 25967 25968 25969 25970 25971 25972 25973 25974 25975 25976 25977 25978 25979 25980 25981 25982 25983 25984 25985 25986 25987 25988 25989 25990 25991 25992 25993 25994 25995 25996 25997 25998 25999 26000 26001 26002 26003 26004 26005 26006 26007 26008 26009 26010 26011 26012 26013 26014 26015 26016 26017 26018 26019 26020 26021 26022 26023 26024 26025 26026 26027 26028 26029 26030 26031 26032 26033 26034 26035 26036 26037 26038 26039 26040 26041 26042 26043 26044 26045 26046 26047 26048 26049 26050 26051 26052 26053 26054 26055 26056 26057 26058 26059 26060 26061 26062 26063 26064 26065 26066 26067 26068 26069 26070 26071 26072 26073 26074 26075 26076 26077 26078 26079 26080 26081 26082 26083 26084 26085 26086 26087 26088 26089 26090 26091 26092 26093 26094 26095 26096 26097 26098 26099 26100 26101 26102 26103 26104 26105 26106 26107 26108 26109 26110 26111 26112 26113 26114 26115 26116 26117 26118 26119 26120 26121 26122 26123 26124 26125 26126 26127 26128 26129 26130 26131 26132 26133 26134 26135 26136 26137 26138 26139 26140 26141 26142 26143 26144 26145 26146 26147 26148 26149 26150 26151 26152 26153 26154 26155 26156 26157 26158 26159 26160 26161 26162 26163 26164 26165 26166 26167 26168 26169 26170 26171 26172 26173 26174 26175 26176 26177 26178 26179 26180 26181 26182 26183 26184 26185 26186 26187 26188 26189 26190 26191 26192 26193 26194 26195 26196 26197 26198 26199 26200 26201 26202 26203 26204 26205 26206 26207 26208 26209 26210 26211 26212 26213 26214 26215 26216 26217 26218 26219 26220 26221 26222 26223 26224 26225 26226 26227 26228 26229 26230 26231 26232 26233 26234 26235 26236 26237 26238 26239 26240 26241 26242 26243 26244 26245 26246 26247 26248 26249 26250 26251 26252 26253 26254 26255 26256 26257 26258 26259 26260 26261 26262 26263 26264 26265 26266 26267 26268 26269 26270 26271 26272 26273 26274 26275 26276 26277 26278 26279 26280 26281 26282 26283 26284 26285 26286 26287 26288 26289 26290 26291 26292 26293 26294 26295 26296 26297 26298 26299 26300 26301 26302 26303 26304 26305 26306 26307 26308 26309 26310 26311 26312 26313 26314 26315 26316 26317 26318 26319 26320 26321 26322 26323 26324 26325 26326 26327 26328 26329 26330 26331 26332 26333 26334 26335 26336 26337 26338 26339 26340 26341 26342 26343 26344 26345 26346 26347 26348 26349 26350 26351 26352 26353 26354 26355 26356 26357 26358 26359 26360 26361 26362 26363 26364 26365 26366 26367 26368 26369 26370 26371 26372 26373 26374 26375 26376 26377 26378 26379 26380 26381 26382 26383 26384 26385 26386 26387 26388 26389 26390 26391 26392 26393 26394 26395 26396 26397 26398 26399 26400 26401 26402 26403 26404 26405 26406 26407 26408 26409 26410 26411 26412 26413 26414 26415 26416 26417 26418 26419 26420 26421 26422 26423 26424 26425 26426 26427 26428 26429 26430 26431 26432 26433 26434 26435 26436 26437 26438 26439 26440 26441 26442 26443 26444 26445 26446 26447 26448 26449 26450 26451 26452 26453 26454 26455 26456 26457 26458 26459 26460 26461 26462 26463 26464 26465 26466 26467 26468 26469 26470 26471 26472 26473 26474 26475 26476 26477 26478 26479 26480 26481 26482 26483 26484 26485 26486 26487 26488 26489 26490 26491 26492 26493 26494 26495 26496 26497 26498 26499 26500 26501 26502 26503 26504 26505 26506 26507 26508 26509 26510 26511 26512 26513 26514 26515 26516 26517 26518 26519 26520 26521 26522 26523 26524 26525 26526 26527 26528 26529 26530 26531 26532 26533 26534 26535 26536 26537 26538 26539 26540 26541 26542 26543 26544 26545 26546 26547 26548 26549 26550 26551 26552 26553 26554 26555 26556 26557 26558 26559 26560 26561 26562 26563 26564 26565 26566 26567 26568 26569 26570 26571 26572 26573 26574 26575 26576 26577 26578 26579 26580 26581 26582 26583 26584 26585 26586 26587 26588 26589 26590 26591 26592 26593 26594 26595 26596 26597 26598 26599 26600 26601 26602 26603 26604 26605 26606 26607 26608 26609 26610 26611 26612 26613 26614 26615 26616 26617 26618 26619 26620 26621 26622 26623 26624 26625 26626 26627 26628 26629 26630 26631 26632 26633 26634 26635 26636 26637 26638 26639 26640 26641 26642 26643 26644 26645 26646 26647 26648 26649 26650 26651 26652 26653 26654 26655 26656 26657 26658 26659 26660 26661 26662 26663 26664 26665 26666 26667 26668 26669 26670 26671 26672 26673 26674 26675 26676 26677 26678 26679 26680 26681 26682 26683 26684 26685 26686 26687 26688 26689 26690 26691 26692 26693 26694 26695 26696 26697 26698 26699 26700 26701 26702 26703 26704 26705 26706 26707 26708 26709 26710 26711 26712 26713 26714 26715 26716 26717 26718 26719 26720 26721 26722 26723 26724 26725 26726 26727 26728 26729 26730 26731 26732 26733 26734 26735 26736 26737 26738 26739 26740 26741 26742 26743 26744 26745 26746 26747 26748 26749 26750 26751 26752 26753 26754 26755 26756 26757 26758 26759 26760 26761 26762 26763 26764 26765 26766 26767 26768 26769 26770 26771 26772 26773 26774 26775 26776 26777 26778 26779 26780 26781 26782 26783 26784 26785 26786 26787 26788 26789 26790 26791 26792 26793 26794 26795 26796 26797 26798 26799 26800 26801 26802 26803 26804 26805 26806 26807 26808 26809 26810 26811 26812 26813 26814 26815 26816 26817 26818 26819 26820 26821 26822 26823 26824 26825 26826 26827 26828 26829 26830 26831 26832 26833 26834 26835 26836 26837 26838 26839 26840 26841 26842 26843 26844 26845 26846 26847 26848 26849 26850 26851 26852 26853 26854 26855 26856 26857 26858 26859 26860 26861 26862 26863 26864 26865 26866 26867 26868 26869 26870 26871 26872 26873 26874 26875 26876 26877 26878 26879 26880 26881 26882 26883 26884 26885 26886 26887 26888 26889 26890 26891 26892 26893 26894 26895 26896 26897 26898 26899 26900 26901 26902 26903 26904 26905 26906 26907 26908 26909 26910 26911 26912 26913 26914 26915 26916 26917 26918 26919 26920 26921 26922 26923 26924 26925 26926 26927 26928 26929 26930 26931 26932 26933 26934 26935 26936 26937 26938 26939 26940 26941 26942 26943 26944 26945 26946 26947 26948 26949 26950 26951 26952 26953 26954 26955 26956 26957 26958 26959 26960 26961 26962 26963 26964 26965 26966 26967 26968 26969 26970 26971 26972 26973 26974 26975 26976 26977 26978 26979 26980 26981 26982 26983 26984 26985 26986 26987 26988 26989 26990 26991 26992 26993 26994 26995 26996 26997 26998 26999 27000 27001 27002 27003 27004 27005 27006 27007 27008 27009 27010 27011 27012 27013 27014 27015 27016 27017 27018 27019 27020 27021 27022 27023 27024 27025 27026 27027 27028 27029 27030 27031 27032 27033 27034 27035 27036 27037 27038 27039 27040 27041 27042 27043 27044 27045 27046 27047 27048 27049 27050 27051 27052 27053 27054 27055 27056 27057 27058 27059 27060 27061 27062 27063 27064 27065 27066 27067 27068 27069 27070 27071 27072 27073 27074 27075 27076 27077 27078 27079 27080 27081 27082 27083 27084 27085 27086 27087 27088 27089 27090 27091 27092 27093 27094 27095 27096 27097 27098 27099 27100 27101 27102 27103 27104 27105 27106 27107 27108 27109 27110 27111 27112 27113 27114 27115 27116 27117 27118 27119 27120 27121 27122 27123 27124 27125 27126 27127 27128 27129 27130 27131 27132 27133 27134 27135 27136 27137 27138 27139 27140 27141 27142 27143 27144 27145 27146 27147 27148 27149 27150 27151 27152 27153 27154 27155 27156 27157 27158 27159 27160 27161 27162 27163 27164 27165 27166 27167 27168 27169 27170 27171 27172 27173 27174 27175 27176 27177 27178 27179 27180 27181 27182 27183 27184 27185 27186 27187 27188 27189 27190 27191 27192 27193 27194 27195 27196 27197 27198 27199 27200 27201 27202 27203 27204 27205 27206 27207 27208 27209 27210 27211 27212 27213 27214 27215 27216 27217 27218 27219 27220 27221 27222 27223 27224 27225 27226 27227 27228 27229 27230 27231 27232 27233 27234 27235 27236 27237 27238 27239 27240 27241 27242 27243 27244 27245 27246 27247 27248 27249 27250 27251 27252 27253 27254 27255 27256 27257 27258 27259 27260 27261 27262 27263 27264 27265 27266 27267 27268 27269 27270 27271 27272 27273 27274 27275 27276 27277 27278 27279 27280 27281 27282 27283 27284 27285 27286 27287 27288 27289 27290 27291 27292 27293 27294 27295 27296 27297 27298 27299 27300 27301 27302 27303 27304 27305 27306 27307 27308 27309 27310 27311 27312 27313 27314 27315 27316 27317 27318 27319 27320 27321 27322 27323 27324 27325 27326 27327 27328 27329 27330 27331 27332 27333 27334 27335 27336 27337 27338 27339 27340 27341 27342 27343 27344 27345 27346 27347 27348 27349 27350 27351 27352 27353 27354 27355 27356 27357 27358 27359 27360 27361 27362 27363 27364 27365 27366 27367 27368 27369 27370 27371 27372 27373 27374 27375 27376 27377 27378 27379 27380 27381 27382 27383 27384 27385 27386 27387 27388 27389 27390 27391 27392 27393 27394 27395 27396 27397 27398 27399 27400 27401 27402 27403 27404 27405 27406 27407 27408 27409 27410 27411 27412 27413 27414 27415 27416 27417 27418 27419 27420 27421 27422 27423 27424 27425 27426 27427 27428 27429 27430 27431 27432 27433 27434 27435 27436 27437 27438 27439 27440 27441 27442 27443 27444 27445 27446 27447 27448 27449 27450 27451 27452 27453 27454 27455 27456 27457 27458 27459 27460 27461 27462 27463 27464 27465 27466 27467 27468 27469 27470 27471 27472 27473 27474 27475 27476 27477 27478 27479 27480 27481 27482 27483 27484 27485 27486 27487 27488 27489 27490 27491 27492 27493 27494 27495 27496 27497 27498 27499 27500 27501 27502 27503 27504 27505 27506 27507 27508 27509 27510 27511 27512 27513 27514 27515 27516 27517 27518 27519 27520 27521 27522 27523 27524 27525 27526 27527 27528 27529 27530 27531 27532 27533 27534 27535 27536 27537 27538 27539 27540 27541 27542 27543 27544 27545 27546 27547 27548 27549 27550 27551 27552 27553 27554 27555 27556 27557 27558 27559 27560 27561 27562 27563 27564 27565 27566 27567 27568 27569 27570 27571 27572 27573 27574 27575 27576 27577 27578 27579 27580 27581 27582 27583 27584 27585 27586 27587 27588 27589 27590 27591 27592 27593 27594 27595 27596 27597 27598 27599 27600 27601 27602 27603 27604 27605 27606 27607 27608 27609 27610 27611 27612 27613 27614 27615 27616 27617 27618 27619 27620 27621 27622 27623 27624 27625 27626 27627 27628 27629 27630 27631 27632 27633 27634 27635 27636 27637 27638 27639 27640 27641 27642 27643 27644 27645 27646 27647 27648 27649 27650 27651 27652 27653 27654 27655 27656 27657 27658 27659 27660 27661 27662 27663 27664 27665 27666 27667 27668 27669 27670 27671 27672 27673 27674 27675 27676 27677 27678 27679 27680 27681 27682 27683 27684 27685 27686 27687 27688 27689 27690 27691 27692 27693 27694 27695 27696 27697 27698 27699 27700 27701 27702 27703 27704 27705 27706 27707 27708 27709 27710 27711 27712 27713 27714 27715 27716 27717 27718 27719 27720 27721 27722 27723 27724 27725 27726 27727 27728 27729 27730 27731 27732 27733 27734 27735 27736 27737 27738 27739 27740 27741 27742 27743 27744 27745 27746 27747 27748 27749 27750 27751 27752 27753 27754 27755 27756 27757 27758 27759 27760 27761 27762 27763 27764 27765 27766 27767 27768 27769 27770 27771 27772 27773 27774 27775 27776 27777 27778 27779 27780 27781 27782 27783 27784 27785 27786 27787 27788 27789 27790 27791 27792 27793 27794 27795 27796 27797 27798 27799 27800 27801 27802 27803 27804 27805 27806 27807 27808 27809 27810 27811 27812 27813 27814 27815 27816 27817 27818 27819 27820 27821 27822 27823 27824 27825 27826 27827 27828 27829 27830 27831 27832 27833 27834 27835 27836 27837 27838 27839 27840 27841 27842 27843 27844 27845 27846 27847 27848 27849 27850 27851 27852 27853 27854 27855 27856 27857 27858 27859 27860 27861 27862 27863 27864 27865 27866 27867 27868 27869 27870 27871 27872 27873 27874 27875 27876 27877 27878 27879 27880 27881 27882 27883 27884 27885 27886 27887 27888 27889 27890 27891 27892 27893 27894 27895 27896 27897 27898 27899 27900 27901 27902 27903 27904 27905 27906 27907 27908 27909 27910 27911 27912 27913 27914 27915 27916 27917 27918 27919 27920 27921 27922 27923 27924 27925 27926 27927 27928 27929 27930 27931 27932 27933 27934 27935 27936 27937 27938 27939 27940 27941 27942 27943 27944 27945 27946 27947 27948 27949 27950 27951 27952 27953 27954 27955 27956 27957 27958 27959 27960 27961 27962 27963 27964 27965 27966 27967 27968 27969 27970 27971 27972 27973 27974 27975 27976 27977 27978 27979 27980 27981 27982 27983 27984 27985 27986 27987 27988 27989 27990 27991 27992 27993 27994 27995 27996 27997 27998 27999 28000 28001 28002 28003 28004 28005 28006 28007 28008 28009 28010 28011 28012 28013 28014 28015 28016 28017 28018 28019 28020 28021 28022 28023 28024 28025 28026 28027 28028 28029 28030 28031 28032 28033 28034 28035 28036 28037 28038 28039 28040 28041 28042 28043 28044 28045 28046 28047 28048 28049 28050 28051 28052 28053 28054 28055 28056 28057 28058 28059 28060 28061 28062 28063 28064 28065 28066 28067 28068 28069 28070 28071 28072 28073 28074 28075 28076 28077 28078 28079 28080 28081 28082 28083 28084 28085 28086 28087 28088 28089 28090 28091 28092 28093 28094 28095 28096 28097 28098 28099 28100 28101 28102 28103 28104 28105 28106 28107 28108 28109 28110 28111 28112 28113 28114 28115 28116 28117 28118 28119 28120 28121 28122 28123 28124 28125 28126 28127 28128 28129 28130 28131 28132 28133 28134 28135 28136 28137 28138 28139 28140 28141 28142 28143 28144 28145 28146 28147 28148 28149 28150 28151 28152 28153 28154 28155 28156 28157 28158 28159 28160 28161 28162 28163 28164 28165 28166 28167 28168 28169 28170 28171 28172 28173 28174 28175 28176 28177 28178 28179 28180 28181 28182 28183 28184 28185 28186 28187 28188 28189 28190 28191 28192 28193 28194 28195 28196 28197 28198 28199 28200 28201 28202 28203 28204 28205 28206 28207 28208 28209 28210 28211 28212 28213 28214 28215 28216 28217 28218 28219 28220 28221 28222 28223 28224 28225 28226 28227 28228 28229 28230 28231 28232 28233 28234 28235 28236 28237 28238 28239 28240 28241 28242 28243 28244 28245 28246 28247 28248 28249 28250 28251 28252 28253 28254 28255 28256 28257 28258 28259 28260 28261 28262 28263 28264 28265 28266 28267 28268 28269 28270 28271 28272 28273 28274 28275 28276 28277 28278 28279 28280 28281 28282 28283 28284 28285 28286 28287 28288 28289 28290 28291 28292 28293 28294 28295 28296 28297 28298 28299 28300 28301 28302 28303 28304 28305 28306 28307 28308 28309 28310 28311 28312 28313 28314 28315 28316 28317 28318 28319 28320 28321 28322 28323 28324 28325 28326 28327 28328 28329 28330 28331 28332 28333 28334 28335 28336 28337 28338 28339 28340 28341 28342 28343 28344 28345 28346 28347 28348 28349 28350 28351 28352 28353 28354 28355 28356 28357 28358 28359 28360 28361 28362 28363 28364 28365 28366 28367 28368 28369 28370 28371 28372 28373 28374 28375 28376 28377 28378 28379 28380 28381 28382 28383 28384 28385 28386 28387 28388 28389 28390 28391 28392 28393 28394 28395 28396 28397 28398 28399 28400 28401 28402 28403 28404 28405 28406 28407 28408 28409 28410 28411 28412 28413 28414 28415 28416 28417 28418 28419 28420 28421 28422 28423 28424 28425 28426 28427 28428 28429 28430 28431 28432 28433 28434 28435 28436 28437 28438 28439 28440 28441 28442 28443 28444 28445 28446 28447 28448 28449 28450 28451 28452 28453 28454 28455 28456 28457 28458 28459 28460 28461 28462 28463 28464 28465 28466 28467 28468 28469 28470 28471 28472 28473 28474 28475 28476 28477 28478 28479 28480 28481 28482 28483 28484 28485 28486 28487 28488 28489 28490 28491 28492 28493 28494 28495 28496 28497 28498 28499 28500 28501 28502 28503 28504 28505 28506 28507 28508 28509 28510 28511 28512 28513 28514 28515 28516 28517 28518 28519 28520 28521 28522 28523 28524 28525 28526 28527 28528 28529 28530 28531 28532 28533 28534 28535 28536 28537 28538 28539 28540 28541 28542 28543 28544 28545 28546 28547 28548 28549 28550 28551 28552 28553 28554 28555 28556 28557 28558 28559 28560 28561 28562 28563 28564 28565 28566 28567 28568 28569 28570 28571 28572 28573 28574 28575 28576 28577 28578 28579 28580 28581 28582 28583 28584 28585 28586 28587 28588 28589 28590 28591 28592 28593 28594 28595 28596 28597 28598 28599 28600 28601 28602 28603 28604 28605 28606 28607 28608 28609 28610 28611 28612 28613 28614 28615 28616 28617 28618 28619 28620 28621 28622 28623 28624 28625 28626 28627 28628 28629 28630 28631 28632 28633 28634 28635 28636 28637 28638 28639 28640 28641 28642 28643 28644 28645 28646 28647 28648 28649 28650 28651 28652 28653 28654 28655 28656 28657 28658 28659 28660 28661 28662 28663 28664 28665 28666 28667 28668 28669 28670 28671 28672 28673 28674 28675 28676 28677 28678 28679 28680 28681 28682 28683 28684 28685 28686 28687 28688 28689 28690 28691 28692 28693 28694 28695 28696 28697 28698 28699 28700 28701 28702 28703 28704 28705 28706 28707 28708 28709 28710 28711 28712 28713 28714 28715 28716 28717 28718 28719 28720 28721 28722 28723 28724 28725 28726 28727 28728 28729 28730 28731 28732 28733 28734 28735 28736 28737 28738 28739 28740 28741 28742 28743 28744 28745 28746 28747 28748 28749 28750 28751 28752 28753 28754 28755 28756 28757 28758 28759 28760 28761 28762 28763 28764 28765 28766 28767 28768 28769 28770 28771 28772 28773 28774 28775 28776 28777 28778 28779 28780 28781 28782 28783 28784 28785 28786 28787 28788 28789 28790 28791 28792 28793 28794 28795 28796 28797 28798 28799 28800 28801 28802 28803 28804 28805 28806 28807 28808 28809 28810 28811 28812 28813 28814 28815 28816 28817 28818 28819 28820 28821 28822 28823 28824 28825 28826 28827 28828 28829 28830 28831 28832 28833 28834 28835 28836 28837 28838 28839 28840 28841 28842 28843 28844 28845 28846 28847 28848 28849 28850 28851 28852 28853 28854 28855 28856 28857 28858 28859 28860 28861 28862 28863 28864 28865 28866 28867 28868 28869 28870 28871 28872 28873 28874 28875 28876 28877 28878 28879 28880 28881 28882 28883 28884 28885 28886 28887 28888 28889 28890 28891 28892 28893 28894 28895 28896 28897 28898 28899 28900 28901 28902 28903 28904 28905 28906 28907 28908 28909 28910 28911 28912 28913 28914 28915 28916 28917 28918 28919 28920 28921 28922 28923 28924 28925 28926 28927 28928 28929 28930 28931 28932 28933 28934 28935 28936 28937 28938 28939 28940 28941 28942 28943 28944 28945 28946 28947 28948 28949 28950 28951 28952 28953 28954 28955 28956 28957 28958 28959 28960 28961 28962 28963 28964 28965 28966 28967 28968 28969 28970 28971 28972 28973 28974 28975 28976 28977 28978 28979 28980 28981 28982 28983 28984 28985 28986 28987 28988 28989 28990 28991 28992 28993 28994 28995 28996 28997 28998 28999 29000 29001 29002 29003 29004 29005 29006 29007 29008 29009 29010 29011 29012 29013 29014 29015 29016 29017 29018 29019 29020 29021 29022 29023 29024 29025 29026 29027 29028 29029 29030 29031 29032 29033 29034 29035 29036 29037 29038 29039 29040 29041 29042 29043 29044 29045 29046 29047 29048 29049 29050 29051 29052 29053 29054 29055 29056 29057 29058 29059 29060 29061 29062 29063 29064 29065 29066 29067 29068 29069 29070 29071 29072 29073 29074 29075 29076 29077 29078 29079 29080 29081 29082 29083 29084 29085 29086 29087 29088 29089 29090 29091 29092 29093 29094 29095 29096 29097 29098 29099 29100 29101 29102 29103 29104 29105 29106 29107 29108 29109 29110 29111 29112 29113 29114 29115 29116 29117 29118 29119 29120 29121 29122 29123 29124 29125 29126 29127 29128 29129 29130 29131 29132 29133 29134 29135 29136 29137 29138 29139 29140 29141 29142 29143 29144 29145 29146 29147 29148 29149 29150 29151 29152 29153 29154 29155 29156 29157 29158 29159 29160 29161 29162 29163 29164 29165 29166 29167 29168 29169 29170 29171 29172 29173 29174 29175 29176 29177 29178 29179 29180 29181 29182 29183 29184 29185 29186 29187 29188 29189 29190 29191 29192 29193 29194 29195 29196 29197 29198 29199 29200 29201 29202 29203 29204 29205 29206 29207 29208 29209 29210 29211 29212 29213 29214 29215 29216 29217 29218 29219 29220 29221 29222 29223 29224 29225 29226 29227 29228 29229 29230 29231 29232 29233 29234 29235 29236 29237 29238 29239 29240 29241 29242 29243 29244 29245 29246 29247 29248 29249 29250 29251 29252 29253 29254 29255 29256 29257 29258 29259 29260 29261 29262 29263 29264 29265 29266 29267 29268 29269 29270 29271 29272 29273 29274 29275 29276 29277 29278 29279 29280 29281 29282 29283 29284 29285 29286 29287 29288 29289 29290 29291 29292 29293 29294 29295 29296 29297 29298 29299 29300 29301 29302 29303 29304 29305 29306 29307 29308 29309 29310 29311 29312 29313 29314 29315 29316 29317 29318 29319 29320 29321 29322 29323 29324 29325 29326 29327 29328 29329 29330 29331 29332 29333 29334 29335 29336 29337 29338 29339 29340 29341 29342 29343 29344 29345 29346 29347 29348 29349 29350 29351 29352 29353 29354 29355 29356 29357 29358 29359 29360 29361 29362 29363 29364 29365 29366 29367 29368 29369 29370 29371 29372 29373 29374 29375 29376 29377 29378 29379 29380 29381 29382 29383 29384 29385 29386 29387 29388 29389 29390 29391 29392 29393 29394 29395 29396 29397 29398 29399 29400 29401 29402 29403 29404 29405 29406 29407 29408 29409 29410 29411 29412 29413 29414 29415 29416 29417 29418 29419 29420 29421 29422 29423 29424 29425 29426 29427 29428 29429 29430 29431 29432 29433 29434 29435 29436 29437 29438 29439 29440 29441 29442 29443 29444 29445 29446 29447 29448 29449 29450 29451 29452 29453 29454 29455 29456 29457 29458 29459 29460 29461 29462 29463 29464 29465 29466 29467 29468 29469 29470 29471 29472 29473 29474 29475 29476 29477 29478 29479 29480 29481 29482 29483 29484 29485 29486 29487 29488 29489 29490 29491 29492 29493 29494 29495 29496 29497 29498 29499 29500 29501 29502 29503 29504 29505 29506 29507 29508 29509 29510 29511 29512 29513 29514 29515 29516 29517 29518 29519 29520 29521 29522 29523 29524 29525 29526 29527 29528 29529 29530 29531 29532 29533 29534 29535 29536 29537 29538 29539 29540 29541 29542 29543 29544 29545 29546 29547 29548 29549 29550 29551 29552 29553 29554 29555 29556 29557 29558 29559 29560 29561 29562 29563 29564 29565 29566 29567 29568 29569 29570 29571 29572 29573 29574 29575 29576 29577 29578 29579 29580 29581 29582 29583 29584 29585 29586 29587 29588 29589 29590 29591 29592 29593 29594 29595 29596 29597 29598 29599 29600 29601 29602 29603 29604 29605 29606 29607 29608 29609 29610 29611 29612 29613 29614 29615 29616 29617 29618 29619 29620 29621 29622 29623 29624 29625 29626 29627 29628 29629 29630 29631 29632 29633 29634 29635 29636 29637 29638 29639 29640 29641 29642 29643 29644 29645 29646 29647 29648 29649 29650 29651 29652 29653 29654 29655 29656 29657 29658 29659 29660 29661 29662 29663 29664 29665 29666 29667 29668 29669 29670 29671 29672 29673 29674 29675 29676 29677 29678 29679 29680 29681 29682 29683 29684 29685 29686 29687 29688 29689 29690 29691 29692 29693 29694 29695 29696 29697 29698 29699 29700 29701 29702 29703 29704 29705 29706 29707 29708 29709 29710 29711 29712 29713 29714 29715 29716 29717 29718 29719 29720 29721 29722 29723 29724 29725 29726 29727 29728 29729 29730 29731 29732 29733 29734 29735 29736 29737 29738 29739 29740 29741 29742 29743 29744 29745 29746 29747 29748 29749 29750 29751 29752 29753 29754 29755 29756 29757 29758 29759 29760 29761 29762 29763 29764 29765 29766 29767 29768 29769 29770 29771 29772 29773 29774 29775 29776 29777 29778 29779 29780 29781 29782 29783 29784 29785 29786 29787 29788 29789 29790 29791 29792 29793 29794 29795 29796 29797 29798 29799 29800 29801 29802 29803 29804 29805 29806 29807 29808 29809 29810 29811 29812 29813 29814 29815 29816 29817 29818 29819 29820 29821 29822 29823 29824 29825 29826 29827 29828 29829 29830 29831 29832 29833 29834 29835 29836 29837 29838 29839 29840 29841 29842 29843 29844 29845 29846 29847 29848 29849 29850 29851 29852 29853 29854 29855 29856 29857 29858 29859 29860 29861 29862 29863 29864 29865 29866 29867 29868 29869 29870 29871 29872 29873 29874 29875 29876 29877 29878 29879 29880 29881 29882 29883 29884 29885 29886 29887 29888 29889 29890 29891 29892 29893 29894 29895 29896 29897 29898 29899 29900 29901 29902 29903 29904 29905 29906 29907 29908 29909 29910 29911 29912 29913 29914 29915 29916 29917 29918 29919 29920 29921 29922 29923 29924 29925 29926 29927 29928 29929 29930 29931 29932 29933 29934 29935 29936 29937 29938 29939 29940 29941 29942 29943 29944 29945 29946 29947 29948 29949 29950 29951 29952 29953 29954 29955 29956 29957 29958 29959 29960 29961 29962 29963 29964 29965 29966 29967 29968 29969 29970 29971 29972 29973 29974 29975 29976 29977 29978 29979 29980 29981 29982 29983 29984 29985 29986 29987 29988 29989 29990 29991 29992 29993 29994 29995 29996 29997 29998 29999 30000 30001 30002 30003 30004 30005 30006 30007 30008 30009 30010 30011 30012 30013 30014 30015 30016 30017 30018 30019 30020 30021 30022 30023 30024 30025 30026 30027 30028 30029 30030 30031 30032 30033 30034 30035 30036 30037 30038 30039 30040 30041 30042 30043 30044 30045 30046 30047 30048 30049 30050 30051 30052 30053 30054 30055 30056 30057 30058 30059 30060 30061 30062 30063 30064 30065 30066 30067 30068 30069 30070 30071 30072 30073 30074 30075 30076 30077 30078 30079 30080 30081 30082 30083 30084 30085 30086 30087 30088 30089 30090 30091 30092 30093 30094 30095 30096 30097 30098 30099 30100 30101 30102 30103 30104 30105 30106 30107 30108 30109 30110 30111 30112 30113 30114 30115 30116 30117 30118 30119 30120 30121 30122 30123 30124 30125 30126 30127 30128 30129 30130 30131 30132 30133 30134 30135 30136 30137 30138 30139 30140 30141 30142 30143 30144 30145 30146 30147 30148 30149 30150 30151 30152 30153 30154 30155 30156 30157 30158 30159 30160 30161 30162 30163 30164 30165 30166 30167 30168 30169 30170 30171 30172 30173 30174 30175 30176 30177 30178 30179 30180 30181 30182 30183 30184 30185 30186 30187 30188 30189 30190 30191 30192 30193 30194 30195 30196 30197 30198 30199 30200 30201 30202 30203 30204 30205 30206 30207 30208 30209 30210 30211 30212 30213 30214 30215 30216 30217 30218 30219 30220 30221 30222 30223 30224 30225 30226 30227 30228 30229 30230 30231 30232 30233 30234 30235 30236 30237 30238 30239 30240 30241 30242 30243 30244 30245 30246 30247 30248 30249 30250 30251 30252 30253 30254 30255 30256 30257 30258 30259 30260 30261 30262 30263 30264 30265 30266 30267 30268 30269 30270 30271 30272 30273 30274 30275 30276 30277 30278 30279 30280 30281 30282 30283 30284 30285 30286 30287 30288 30289 30290 30291 30292 30293 30294 30295 30296 30297 30298 30299 30300 30301 30302 30303 30304 30305 30306 30307 30308 30309 30310 30311 30312 30313 30314 30315 30316 30317 30318 30319 30320 30321 30322 30323 30324 30325 30326 30327 30328 30329 30330 30331 30332 30333 30334 30335 30336 30337 30338 30339 30340 30341 30342 30343 30344 30345 30346 30347 30348 30349 30350 30351 30352 30353 30354 30355 30356 30357 30358 30359 30360 30361 30362 30363 30364 30365 30366 30367 30368 30369 30370 30371 30372 30373 30374 30375 30376 30377 30378 30379 30380 30381 30382 30383 30384 30385 30386 30387 30388 30389 30390 30391 30392 30393 30394 30395 30396 30397 30398 30399 30400 30401 30402 30403 30404 30405 30406 30407 30408 30409 30410 30411 30412 30413 30414 30415 30416 30417 30418 30419 30420 30421 30422 30423 30424 30425 30426 30427 30428 30429 30430 30431 30432 30433 30434 30435 30436 30437 30438 30439 30440 30441 30442 30443 30444 30445 30446 30447 30448 30449 30450 30451 30452 30453 30454 30455 30456 30457 30458 30459 30460 30461 30462 30463 30464 30465 30466 30467 30468 30469 30470 30471 30472 30473 30474 30475 30476 30477 30478 30479 30480 30481 30482 30483 30484 30485 30486 30487 30488 30489 30490 30491 30492 30493 30494 30495 30496 30497 30498 30499 30500 30501 30502 30503 30504 30505 30506 30507 30508 30509 30510 30511 30512 30513 30514 30515 30516 30517 30518 30519 30520 30521 30522 30523 30524 30525 30526 30527 30528 30529 30530 30531 30532 30533 30534 30535 30536 30537 30538 30539 30540 30541 30542 30543 30544 30545 30546 30547 30548 30549 30550 30551 30552 30553 30554 30555 30556 30557 30558 30559 30560 30561 30562 30563 30564 30565 30566 30567 30568 30569 30570 30571 30572 30573 30574 30575 30576 30577 30578 30579 30580 30581 30582 30583 30584 30585 30586 30587 30588 30589 30590 30591 30592 30593 30594 30595 30596 30597 30598 30599 30600 30601 30602 30603 30604 30605 30606 30607 30608 30609 30610 30611 30612 30613 30614 30615 30616 30617 30618 30619 30620 30621 30622 30623 30624 30625 30626 30627 30628 30629 30630 30631 30632 30633 30634 30635 30636 30637 30638 30639 30640 30641 30642 30643 30644 30645 30646 30647 30648 30649 30650 30651 30652 30653 30654 30655 30656 30657 30658 30659 30660 30661 30662 30663 30664 30665 30666 30667 30668 30669 30670 30671 30672 30673 30674 30675 30676 30677 30678 30679 30680 30681 30682 30683 30684 30685 30686 30687 30688 30689 30690 30691 30692 30693 30694 30695 30696 30697 30698 30699 30700 30701 30702 30703 30704 30705 30706 30707 30708 30709 30710 30711 30712 30713 30714 30715 30716 30717 30718 30719 30720 30721 30722 30723 30724 30725 30726 30727 30728 30729 30730 30731 30732 30733 30734 30735 30736 30737 30738 30739 30740 30741 30742 30743 30744 30745 30746 30747 30748 30749 30750 30751 30752 30753 30754 30755 30756 30757 30758 30759 30760 30761 30762 30763 30764 30765 30766 30767 30768 30769 30770 30771 30772 30773 30774 30775 30776 30777 30778 30779 30780 30781 30782 30783 30784 30785 30786 30787 30788 30789 30790 30791 30792 30793 30794 30795 30796 30797 30798 30799 30800 30801 30802 30803 30804 30805 30806 30807 30808 30809 30810 30811 30812 30813 30814 30815 30816 30817 30818 30819 30820 30821 30822 30823 30824 30825 30826 30827 30828 30829 30830 30831 30832 30833 30834 30835 30836 30837 30838 30839 30840 30841 30842 30843 30844 30845 30846 30847 30848 30849 30850 30851 30852 30853 30854 30855 30856 30857 30858 30859 30860 30861 30862 30863 30864 30865 30866 30867 30868 30869 30870 30871 30872 30873 30874 30875 30876 30877 30878 30879 30880 30881 30882 30883 30884 30885 30886 30887 30888 30889 30890 30891 30892 30893 30894 30895 30896 30897 30898 30899 30900 30901 30902 30903 30904 30905 30906 30907 30908 30909 30910 30911 30912 30913 30914 30915 30916 30917 30918 30919 30920 30921 30922 30923 30924 30925 30926 30927 30928 30929 30930 30931 30932 30933 30934 30935 30936 30937 30938 30939 30940 30941 30942 30943 30944 30945 30946 30947 30948 30949 30950 30951 30952 30953 30954 30955 30956 30957 30958 30959 30960 30961 30962 30963 30964 30965 30966 30967 30968 30969 30970 30971 30972 30973 30974 30975 30976 30977 30978 
</DataArray>
<DataArray type="UInt32" Name="offsets" format="ascii">
3 6 9 12 15 18 21 24 26 29 32 35 38 41 44 47 50 52 55 58 61 64 67 70 72 75 78 81 84 87 90 93 96 99 102 104 107 110 113 116 119 122 124 127 130 133 136 139 142 145 148 151 154 157 160 162 165 168 171 174 177 180 183 186 189 192 195 198 201 203 206 209 212 215 218 221 224 227 230 233 236 239 242 245 248 251 254 257 260 263 266 269 272 274 277 279 282 284 287 290 293 295 298 301 304 307 310 313 316 319 322 324 327 330 333 336 339 342 345 348 351 354 357 360 363 366 369 372 375 378 381 384 386 389 392 395 398 401 403 406 409 412 415 418 421 423 426 429 431 434 437 440 443 446 448 451 454 457 460 463 466 469 472 475 478 481 484 487 489 492 495 498 501 504 507 510 513 516 519 522 525 528 531 534 537 540 543 546 549 551 554 557 559 562 565 567 570 573 576 579 582 584 587 590 593 596 599 602 605 608 610 613 616 619 621 624 627 630 633 635 638 641 644 647 650 653 656 659 662 665 667 670 673 676 679 682 685 688 691 694 697 700 702 705 708 711 714 716 719 722 724 727 730 733 735 738 741 744 746 749 752 755 758 761 764 767 769 772 774 777 780 783 786 789 792 795 798 801 804 807 810 813 816 819 822 825 828 831 834 837 840 843 846 849 852 855 858 861 864 867 870 873 876 879 881 884 887 890 892 895 898 901 904 907 910 912 915 918 921 924 927 930 933 936 939 942 944 947 950 953 956 959 962 965 967 970 972 975 978 981 983 986 989 992 995 998 1001 1003 1006 1009 1012 1014 1017 1019 1022 1025 1028 1031 1034 1037 1040 1043 1046 1049 1052 1055 1058 1061 1064 1066 1069 1072 1075 1078 1081 1084 1087 1090 1093 1096 1099 1102 1105 1108 1111 1114 1117 1120 1123 1126 1129 1132 1135 1138 1141 1143 1146 1149 1152 1155 1157 1160 1163 1166 1168 1171 1174 1177 1180 1183 1186 1189 1192 1195 1197 1200 1203 1205 1208 1210 1213 1215 1218 1221 1224 1227 1230 1233 1235 1238 1241 1244 1247 1250 1253 1256 1259 1262 1265 1268 1271 1274 1277 1280 1283 1286 1289 1292 1295 1298 1301 1304 1307 1310 1313 1316 1318 1320 1323 1326 1329 1332 1335 1337 1339 1342 1344 1347 1350 1353 1356 1358 1361 1364 1367 1369 1372 1375 1378 1381 1384 1387 1390 1393 1396 1399 1402 1405 1408 1411 1413 1416 1418 1421 1424 1426 1428 1430 1433 1435 1437 1440 1443 1446 1449 1452 1455 1458 1461 1464 1466 1469 1472 1474 1477 1480 1483 1485 1488 1491 1494 1497 1499 1502 1505 1507 1510 1513 1516 1519 1521 1524 1527 1530 1533 1536 1539 1542 1545 1548 1550 1553 1556 1559 1562 1565 1568 1571 1573 1576 1579 1581 1584 1587 1590 1592 1594 1597 1600 1603 1606 1608 1611 1614 1617 1620 1622 1625 1628 1631 1634 1637 1640 1643 1646 1649 1652 1654 1657 1659 1662 1665 1668 1670 1673 1676 1678 1681 1684 1687 1690 1693 1696 1699 1702 1705 1708 1711 1714 1717 1720 1723 1726 1728 1731 1734 1736 1739 1742 1745 1748 1751 1754 1757 1760 1763 1766 1769 1772 1774 1777 1780 1782 1784 1786 1789 1792 1794 1797 1799 1802 1805 1807 1810 1813 1815 1818 1820 1823 1825 1827 1830 1833 1835 1838 1841 1844 1846 1849 1852 1855 1858 1860 1863 1866 1869 1871 1873 1876 1879 1882 1884 1887 1890 1892 1895 1898 1901 1904 1906 1909 1912 1914 1916 1919 1922 1924 1927 1930 1932 1935 1937 1940 1943 1946 1949 1952 1955 1958 1961 1963 1966 1969 1972 1975 1977 1980 1983 1986 1989 1991 1994 1997 2000 2003 2006 2009 2012 2015 2018 2020 2023 2026 2028 2031 2034 2037 2040 2043 2046 2049 2052 2055 2058 2061 2064 2067 2070 2073 2076 2079 2082 2085 2088 2090 2093 2096 2098 2101 2103 2106 2109 2112 2115 2118 2121 2124 2127 2130 2133 2136 2139 2142 2145 2147 2150 2153 2156 2159 2161 2164 2167 2170 2173 2176 2179 2182 2185 2188 2191 2194 2197 2200 2203 2206 2209 2212 2215 2218 2221 2224 2227 2230 2233 2236 2239 2242 2245 2247 2250 2253 2255 2258 2261 2264 2267 2269 2272 2275 2278 2281 2284 2287 2289 2292 2295 2297 2300 2302 2305 2308 2311 2314 2316 2319 2321 2323 2326 2329 2331 2334 2337 2340 2343 2346 2349 2352 2355 2358 2361 2364 2367 2370 2373 2376 2378 2381 2384 2387 2390 2393 2396 2399 2402 2405 2408 2411 2414 2417 2420 2423 2426 2429 2432 2435 2438 2441 2443 2446 2449 2452 2455 2457 2460 2463 2466 2469 2472 2475 2478 2480 2483 2486 2489 2492 2495 2498 2501 2504 2507 2510 2513 2516 2519 2522 2525 2528 2531 2534 2537 2540 2543 2546 2549 2552 2555 2558 2561 2564 2567 2570 2573 2576 2579 2582 2585 2588 2591 2594 2597 2600 2603 2606 2609 2612 2615 2618 2621 2624 2627 2630 2633 2636 2639 2642 2645 2647 2650 2653 2655 2658 2660 2663 2666 2669 2672 2675 2678 2681 2684 2687 2690 2692 2695 2698 2701 2704 2706 2708 2711 2714 2717 2720 2723 2726 2729 2731 2733 2736 2739 2742 2745 2748 2751 2754 2756 2759 2762 2765 2768 2771 2774 2777 2780 2783 2786 2789 2792 2795 2798 2801 2804 2807 2810 2813 2816 2818 2821 2824 2827 2830 2833 2836 2839 2842 2844 2847 2850 2852 2855 2858 2861 2864 2867 2870 2873 2876 2879 2882 2885 2888 2891 2894 2897 2900 2903 2906 2909 2912 2915 2918 2921 2924 2927 2930 2933 2936 2938 2941 2944 2947 2950 2953 2956 2959 2962 2965 2968 2971 2974 2977 2980 2983 2986 2989 2992 2995 2998 3001 3004 3007 3009 3012 3015 3018 3021 3024 3027 3030 3033 3036 3039 3042 3045 3048 3051 3054 3057 3060 3063 3066 3068 3071 3074 3077 3080 3082 3085 3088 3091 3094 3097 3099 3102 3105 3108 3111 3114 3116 3119 3122 3125 3127 3130 3133 3136 3138 3141 3144 3146 3149 3151 3154 3157 3160 3162 3165 3168 3171 3174 3176 3179 3182 3185 3188 3191 3194 3197 3200 3203 3206 3209 3212 3215 3218 3221 3224 3227 3230 3233 3236 3238 3241 3244 3247 3250 3253 3256 3258 3261 3264 3267 3269 3272 3275 3278 3281 3284 3287 3290 3293 3296 3298 3301 3304 3307 3310 3312 3315 3318 3321 3324 3327 3330 3332 3335 3338 3341 3343 3346 3349 3352 3355 3357 3360 3363 3366 3369 3372 3375 3378 3381 3384 3387 3389 3392 3395 3398 3401 3404 3407 3410 3413 3416 3419 3421 3424 3427 3430 3432 3435 3438 3441 3444 3447 3450 3453 3456 3459 3462 3465 3467 3470 3473 3476 3479 3482 3485 3487 3489 3492 3494 3497 3500 3503 3506 3509 3512 3515 3518 3521 3524 3527 3530 3532 3534 3537 3540 3543 3546 3548 3551 3553 3556 3559 3562 3565 3568 3571 3574 3577 3580 3582 3585 3587 3590 3593 3595 3598 3601 3603 3606 3609 3611 3614 3616 3619 3622 3625 3627 3630 3633 3636 3638 3640 3643 3646 3649 3651 3654 3656 3659 3662 3665 3668 3671 3674 3677 3680 3683 3686 3689 3692 3695 3697 3700 3702 3705 3707 3710 3713 3715 3718 3721 3724 3727 3730 3732 3735 3738 3741 3744 3747 3750 3753 3756 3759 3762 3765 3768 3771 3774 3777 3780 3783 3786 3789 3792 3795 3798 3801 3804 3807 3810 3813 3816 3819 3822 3824 3827 3830 3833 3836 3838 3841 3844 3846 3849 3852 3855 3858 3861 3864 3867 3870 3873 3876 3879 3881 3884 3887 3890 3893 3896 3899 3902 3905 3908 3911 3914 3917 3920 3923 3925 3928 3930 3932 3935 3938 3941 3943 3946 3949 3952 3955 3958 3961 3964 3967 3970 3973 3976 3979 3981 3984 3987 3990 3993 3996 3999 4001 4004 4007 4010 4013 4015 4018 4021 4024 4027 4030 4033 4035 4038 4041 4044 4047 4050 4053 4056 4058 4061 4063 4066 4069 4071 4074 4076 4079 4082 4085 4088 4091 4094 4097 4100 4103 4106 4109 4112 4115 4118 4121 4124 4127 4130 4133 4136 4139 4142 4145 4148 4151 4154 4157 4160 4163 4166 4169 4172 4175 4178 4181 4184 4187 4190 4193 4195 4198 4201 4204 4207 4210 4213 4216 4219 4222 4225 4228 4231 4234 4237 4240 4243 4246 4249 4252 4255 4258 4261 4264 4267 4270 4273 4276 4279 4282 4285 4288 4290 4293 4296 4299 4302 4304 4307 4310 4313 4316 4319 4322 4324 4327 4329 4332 4335 4337 4340 4343 4346 4349 4352 4354 4357 4360 4362 4365 4368 4371 4374 4377 4379 4382 4385 4388 4391 4394 4397 4400 4403 4406 4409 4412 4415 4418 4420 4423 4425 4428 4431 4433 4436 4439 4442 4445 4447 4450 4453 4456 4459 4462 4465 4468 4471 4474 4477 4479 4482 4485 4488 4491 4494 4497 4500 4503 4506 4509 4512 4515 4518 4521 4524 4527 4530 4533 4535 4538 4541 4544 4547 4550 4553 4556 4559 4562 4565 4568 4571 4574 4577 4580 4583 4585 4588 4591 4594 4597 4600 4603 4606 4609 4612 4615 4618 4621 4624 4626 4629 4632 4635 4637 4640 4643 4646 4649 4652 4655 4658 4661 4664 4667 4670 4673 4676 4679 4681 4684 4687 4690 4692 4695 4698 4701 4704 4707 4710 4713 4715 4718 4721 4723 4726 4729 4732 4735 4738 4741 4744 4747 4749 4752 4755 4758 4761 4764 4767 4770 4773 4776 4779 4782 4785 4788 4791 4794 4797 4800 4803 4806 4809 4812 4815 4818 4821 4824 4827 4830 4833 4836 4839 4841 4844 4847 4849 4852 4855 4858 4861 4864 4867 4870 4873 4876 4879 4882 4885 4888 4890 4893 4896 4899 4902 4905 4908 4911 4914 4917 4920 4923 4926 4929 4932 4935 4938 4941 4944 4947 4950 4953 4956 4959 4962 4965 4968 4971 4974 4977 4980 4983 4986 4989 4991 4994 4997 5000 5003 5006 5009 5012 5015 5018 5020 5023 5026 5029 5032 5035 5038 5041 5044 5047 5050 5053 5056 5059 5062 5065 5068 5071 5074 5077 5080 5083 5086 5089 5092 5095 5098 5101 5104 5107 5110 5113 5116 5119 5122 5125 5128 5131 5134 5137 5139 5142 5145 5147 5150 5153 5156 5158 5160 5163 5166 5169 5172 5175 5178 5181 5184 5186 5189 5192 5194 5197 5199 5202 5205 5208 5210 5213 5216 5218 5220 5223 5225 5228 5230 5233 5235 5237 5240 5243 5245 5248 5251 5254 5257 5259 5262 5265 5268 5271 5274 5277 5280 5283 5285 5288 5291 5293 5296 5298 5301 5304 5307 5310 5313 5316 5319 5322 5325 5328 5331 5334 5337 5340 5343 5346 5349 5352 5355 5357 5360 5363 5366 5369 5372 5375 5378 5381 5384 5387 5390 5393 5396 5399 5402 5405 5407 5410 5413 5415 5417 5420 5423 5426 5429 5432 5435 5438 5441 5443 5445 5448 5451 5454 5456 5459 5461 5464 5467 5470 5473 5476 5478 5481 5484 5487 5490 5493 5496 5499 5502 5504 5507 5509 5512 5515 5518 5521 5524 5527 5530 5533 5536 5539 5542 5545 5548 5550 5553 5555 5558 5561 5563 5566 5569 5571 5574 5577 5580 5583 5586 5588 5591 5593 5596 5599 5602 5605 5608 5611 5614 5616 5618 5621 5624 5626 5629 5632 5634 5636 5639 5642 5645 5648 5651 5654 5657 5660 5663 5666 5669 5672 5675 5678 5681 5684 5686 5688 5691 5694 5697 5700 5703 5706 5709 5712 5715 5717 5720 5723 5726 5728 5731 5734 5737 5740 5743 5746 5749 5752 5755 5758 5761 5764 5767 5770 5773 5776 5779 5782 5785 5788 5791 5793 5796 5799 5802 5805 5808 5811 5814 5817 5820 5823 5826 5829 5831 5833 5836 5839 5841 5843 5846 5849 5852 5855 5857 5860 5863 5866 5868 5871 5873 5876 5879 5881 5884 5887 5889 5892 5895 5898 5900 5903 5906 5909 5912 5914 5917 5920 5923 5926 5929 5932 5935 5938 5941 5944 5947 5950 5953 5956 5959 5962 5965 5968 5971 5974 5977 5980 5983 5986 5989 5992 5995 5998 6001 6004 6007 6010 6013 6016 6019 6022 6025 6028 6031 6034 6036 6039 6042 6045 6048 6051 6053 6056 6059 6062 6065 6068 6071 6074 6077 6080 6083 6085 6088 6091 6094 6097 6100 6103 6105 6108 6110 6113 6116 6119 6122 6124 6127 6130 6133 6136 6139 6142 6145 6148 6151 6154 6157 6160 6163 6166 6169 6172 6175 6178 6181 6184 6186 6189 6192 6194 6197 6200 6203 6206 6209 6212 6215 6218 6221 6224 6227 6229 6232 6235 6238 6241 6244 6247 6250 6253 6256 6259 6261 6264 6267 6270 6273 6276 6279 6282 6285 6288 6291 6294 6297 6300 6303 6306 6309 6312 6315 6318 6321 6324 6327 6330 6333 6336 6339 6342 6345 6348 6351 6353 6356 6359 6362 6365 6368 6371 6374 6376 6379 6382 6385 6388 6390 6393 6395 6398 6401 6404 6407 6409 6412 6415 6417 6420 6423 6426 6429 6432 6435 6438 6440 6443 6446 6448 6451 6453 6456 6459 6462 6465 6467 6469 6472 6474 6477 6480 6482 6485 6487 6490 6493 6496 6498 6501 6503 6505 6508 6511 6513 6516 6519 6522 6525 6528 6530 6533 6536 6539 6542 6545 6547 6550 6553 6556 6559 6561 6564 6567 6570 6573 6576 6579 6582 6585 6588 6591 6594 6597 6600 6603 6606 6608 6611 6614 6617 6620 6622 6625 6628 6631 6634 6637 6640 6643 6645 6647 6650 6653 6656 6659 6661 6664 6666 6669 6672 6675 6678 6681 6684 6687 6689 6692 6695 6698 6701 6704 6706 6709 6712 6715 6717 6720 6723 6725 6728 6730 6733 6736 6739 6741 6744 6747 6750 6752 6754 6757 6760 6763 6766 6769 6772 6775 6778 6781 6784 6787 6790 6793 6796 6799 6802 6805 6808 6811 6814 6816 6819 6822 6825 6828 6831 6834 6837 6839 6842 6845 6848 6851 6854 6857 6860 6863 6866 6869 6872 6875 6878 6881 6884 6887 6890 6893 6895 6898 6901 6904 6907 6910 6913 6916 6919 6922 6925 6928 6931 6934 6937 6940 6943 6946 6949 6952 6955 6958 6961 6964 6967 6970 6973 6976 6979 6982 6985 6988 6990 6993 6996 6999 7002 7005 7008 7011 7014 7017 7020 7023 7026 7029 7032 7035 7038 7041 7044 7047 7050 7053 7056 7059 7061 7064 7067 7070 7073 7075 7078 7081 7084 7087 7090 7092 7095 7098 7101 7104 7107 7110 7113 7116 7119 7122 7125 7128 7131 7134 7137 7140 7143 7146 7149 7151 7154 7157 7160 7162 7164 7167 7170 7172 7175 7178 7180 7183 7186 7189 7192 7194 7197 7200 7202 7205 7207 7210 7213 7216 7219 7222 7225 7228 7230 7233 7236 7239 7242 7245 7247 7250 7253 7256 7259 7262 7265 7268 7271 7274 7276 7279 7282 7285 7288 7291 7294 7297 7300 7303 7306 7308 7311 7313 7316 7319 7321 7324 7327 7330 7333 7335 7338 7341 7344 7347 7350 7352 7355 7358 7361 7364 7366 7369 7372 7375 7378 7381 7384 7387 7390 7393 7395 7398 7401 7404 7407 7410 7413 7416 7419 7422 7425 7427 7430 7433 7436 7439 7442 7445 7448 7451 7454 7456 7459 7462 7464 7467 7470 7472 7475 7478 7481 7483 7486 7489 7492 7494 7497 7499 7501 7504 7506 7509 7512 7515 7518 7521 7523 7526 7528 7531 7533 7536 7539 7542 7545 7548 7551 7554 7557 7559 7562 7565 7568 7571 7574 7577 7580 7583 7585 7588 7590 7593 7596 7598 7601 7604 7607 7610 7613 7616 7619 7622 7625 7628 7631 7634 7637 7640 7643 7645 7648 7651 7654 7657 7660 7663 7666 7668 7671 7674 7677 7680 7683 7686 7689 7692 7695 7698 7701 7704 7707 7709 7712 7715 7718 7721 7724 7727 7730 7733 7736 7739 7742 7745 7748 7751 7754 7757 7760 7763 7766 7769 7772 7775 7778 7780 7783 7786 7788 7791 7794 7797 7800 7803 7806 7808 7811 7814 7817 7819 7822 7825 7828 7831 7834 7837 7840 7843 7846 7849 7852 7855 7857 7860 7863 7866 7869 7872 7874 7877 7880 7882 7885 7888 7891 7894 7897 7900 7903 7906 7908 7910 7913 7915 7917 7920 7923 7925 7928 7931 7934 7936 7939 7942 7945 7947 7950 7953 7956 7959 7962 7965 7968 7970 7973 7976 7979 7982 7985 7988 7991 7994 7997 7999 8002 8005 8008 8011 8014 8016 8019 8022 8025 8027 8030 8033 8036 8039 8042 8045 8048 8051 8053 8056 8059 8062 8065 8068 8071 8074 8077 8080 8083 8086 8089 8092 8094 8097 8100 8103 8106 8109 8111 8114 8117 8120 8123 8126 8129 8132 8135 8138 8140 8142 8145 8148 8150 8152 8155 8158 8160 8163 8166 8169 8172 8175 8178 8181 8184 8187 8190 8192 8195 8198 8201 8204 8206 8209 8212 8214 8217 8220 8223 8226 8228 8231 8234 8236 8238 8241 8244 8246 8249 8251 8254 8256 8258 8261 8264 8267 8269 8272 8274 8277 8279 8281 8284 8287 8289 8292 8294 8297 8300 8303 8305 8308 8311 8314 8317 8319 8321 8324 8327 8330 8333 8336 8339 8341 8344 8347 8350 8353 8356 8359 8362 8365 8368 8371 8374 8377 8379 8382 8385 8387 8390 8392 8394 8397 8400 8402 8404 8407 8410 8413 8416 8418 8421 8424 8427 8430 8433 8436 8439 8441 8444 8447 8450 8453 8456 8459 8462 8464 8467 8470 8473 8476 8479 8482 8485 8488 8491 8494 8497 8500 8503 8506 8509 8512 8515 8518 8521 8523 8525 8528 8531 8534 8536 8539 8542 8545 8548 8551 8554 8557 8560 8563 8566 8569 8572 8575 8578 8581 8584 8587 8590 8593 8595 8598 8600 8603 8606 8609 8612 8615 8617 8620 8623 8626 8629 8632 8634 8637 8640 8642 8645 8648 8651 8654 8657 8660 8663 8666 8669 8672 8675 8678 8681 8684 8687 8690 8693 8696 8699 8702 8705 8708 8711 8714 8717 8720 8722 8725 8728 8730 8733 8736 8739 8742 8745 8748 8751 8754 8757 8760 8763 8766 8769 8772 8775 8778 8781 8784 8787 8790 8793 8796 8799 8802 8805 8808 8811 8814 8817 8820 8823 8826 8829 8832 8835 8838 8841 8844 8847 8850 8853 8856 8859 8862 8865 8868 8871 8874 8877 8880 8883 8886 8889 8892 8895 8898 8901 8904 8906 8909 8912 8915 8918 8921 8924 8927 8930 8933 8936 8939 8942 8945 8948 8951 8954 8957 8960 8963 8966 8968 8971 8974 8977 8980 8983 8986 8989 8992 8995 8998 9001 9004 9007 9010 9013 9016 9019 9021 9024 9027 9029 9032 9035 9038 9041 9044 9047 9050 9052 9055 9058 9061 9063 9066 9069 9072 9074 9076 9079 9082 9084 9087 9090 9092 9095 9098 9100 9103 9106 9109 9111 9114 9117 9120 9123 9125 9128 9131 9133 9136 9139 9142 9145 9147 9150 9153 9156 9159 9162 9165 9168 9170 9173 9176 9179 9182 9185 9188 9191 9193 9196 9199 9202 9205 9208 9211 9213 9216 9219 9222 9224 9227 9230 9233 9236 9239 9242 9245 9247 9250 9252 9255 9257 9260 9263 9266 9268 9271 9274 9276 9279 9281 9284 9287 9290 9292 9294 9297 9300 9303 9306 9308 9310 9313 9316 9318 9321 9323 9326 9329 9332 9335 9338 9341 9344 9347 9350 9352 9355 9358 9361 9364 9367 9370 9373 9376 9378 9381 9384 9387 9389 9392 9395 9398 9401 9404 9407 9410 9413 9415 9417 9420 9423 9426 9429 9432 9435 9438 9440 9442 9445 9448 9451 9454 9456 9459 9462 9465 9467 9470 9473 9476 9479 9482 9485 9488 9491 9494 9497 9500 9503 9506 9508 9511 9514 9516 9519 9522 9525 9528 9531 9534 9537 9539 9542 9544 9547 9549 9552 9555 9558 9561 9564 9567 9570 9573 9576 9579 9582 9585 9588 9591 9594 9597 9600 9603 9605 9608 9611 9614 9617 9620 9623 9626 9629 9632 9634 9637 9640 9643 9646 9649 9652 9655 9658 9661 9664 9667 9669 9672 9675 9678 9680 9682 9685 9688 9691 9694 9697 9700 9702 9704 9707 9710 9713 9716 9719 9722 9725 9728 9731 9734 9737 9740 9743 9746 9749 9752 9755 9758 9761 9764 9766 9768 9771 9774 9777 9780 9783 9786 9789 9791 9794 9797 9800 9802 9805 9808 9810 9813 9816 9819 9822 9825 9828 9831 9834 9837 9840 9843 9846 9849 9852 9855 9858 9861 9864 9867 9870 9873 9876 9878 9881 9883 9886 9888 9891 9894 9897 9900 9903 9906 9909 9912 9915 9918 9920 9923 9926 9929 9932 9934 9937 9940 9942 9945 9948 9951 9953 9956 9959 9961 9964 9967 9970 9973 9976 9979 9982 9985 9988 9991 9994 9997 10000 10003 10006 10009 10012 10015 10018 10021 10024 10027 10030 10033 10036 10038 10041 10044 10047 10050 10053 10055 10058 10061 10064 10067 10070 10073 10076 10079 10082 10085 10088 10091 10094 10097 10100 10103 10106 10109 10112 10115 10118 10121 10124 10127 10130 10132 10135 10138 10141 10143 10145 10148 10151 10154 10157 10160 10163 10166 10169 10172 10175 10178 10181 10184 10187 10190 10193 10196 10199 10202 10204 10207 10210 10212 10215 10218 10221 10224 10227 10230 10233 10236 10239 10242 10245 10247 10250 10253 10256 10259 10262 10264 10267 10270 10272 10275 10278 10280 10283 10286 10289 10292 10295 10298 10301 10304 10307 10310 10313 10316 10318 10320 10322 10325 10328 10331 10334 10337 10340 10343 10346 10349 10351 10354 10357 10360 10363 10366 10369 10372 10374 10377 10380 10383 10385 10388 10391 10393 10396 10399 10402 10405 10408 10411 10414 10417 10420 10423 10425 10428 10431 10434 10436 10439 10442 10445 10448 10450 10453 10456 10459 10462 10464 10467 10470 10473 10476 10479 10482 10485 10488 10491 10494 10497 10500 10503 10506 10509 10512 10515 10518 10521 10523 10526 10528 10531 10534 10537 10539 10542 10545 10547 10550 10553 10556 10558 10561 10563 10566 10569 10572 10575 10578 10581 10584 10587 10589 10592 10595 10597 10600 10603 10606 10609 10611 10614 10617 10620 10623 10626 10629 10632 10635 10638 10641 10644 10647 10649 10652 10655 10658 10661 10664 10667 10670 10673 10675 10678 10681 10684 10687 10690 10693 10696 10698 10701 10704 10706 10709 10712 10715 10717 10720 10723 10726 10729 10732 10735 10738 10741 10744 10747 10750 10753 10756 10759 10762 10765 10768 10770 10773 10775 10777 10780 10783 10786 10788 10791 10794 10796 10799 10802 10805 10807 10810 10813 10816 10818 10821 10824 10827 10829 10832 10835 10838 10841 10844 10847 10849 10851 10854 10857 10860 10862 10865 10868 10870 10872 10875 10877 10880 10883 10886 10889 10892 10895 10898 10900 10903 10906 10909 10912 10914 10917 10920 10923 10926 10929 10932 10935 10937 10940 10943 10946 10948 10950 10953 10956 10959 10962 10964 10967 10970 10972 10975 10977 10980 10983 10986 10988 10991 10994 10997 10999 11002 11005 11008 11011 11014 11017 11020 11023 11026 11029 11032 11035 11037 11040 11043 11046 11049 11052 11055 11058 11061 11064 11067 11070 11073 11075 11078 11080 11083 11086 11089 11091 11093 11096 11099 11102 11105 11107 11109 11112 11114 11117 11120 11122 11125 11128 11130 11133 11136 11139 11142 11145 11148 11151 11154 11157 11160 11163 11165 11168 11171 11173 11175 11178 11181 11184 11187 11190 11193 11196 11199 11202 11205 11208 11211 11214 11217 11220 11223 11226 11228 11231 11234 11236 11239 11242 11244 11247 11249 11252 11254 11257 11260 11262 11265 11268 11270 11273 11275 11278 11281 11284 11287 11289 11292 11295 11298 11301 11304 11307 11310 11313 11315 11318 11321 11324 11326 11329 11332 11335 11337 11340 11342 11345 11348 11351 11354 11356 11359 11362 11365 11368 11371 11374 11377 11380 11383 11386 11389 11392 11395 11398 11401 11403 11405 11408 11411 11414 11417 11420 11423 11426 11429 11432 11435 11438 11441 11443 11446 11448 11451 11454 11456 11459 11462 11465 11468 11471 11474 11477 11480 11482 11485 11488 11490 11493 11495 11497 11500 11503 11506 11508 11511 11514 11517 11519 11522 11525 11527 11529 11532 11535 11538 11540 11543 11546 11549 11551 11554 11557 11560 11562 11564 11567 11570 11573 11576 11578 11581 11584 11587 11590 11593 11596 11599 11601 11604 11607 11610 11613 11616 11619 11622 11625 11628 11631 11634 11637 11640 11643 11646 11649 11652 11655 11658 11661 11664 11667 11670 11673 11676 11679 11682 11685 11688 11691 11694 11697 11700 11703 11706 11709 11712 11715 11718 11721 11724 11727 11730 11733 11736 11739 11742 11745 11748 11751 11754 11757 11760 11763 11766 11769 11772 11775 11778 11781 11784 11787 11790 11793 11796 11799 11802 11805 11808 11811 11814 11817 11820 11823 11826 11828 11831 11834 11837 11840 11843 11846 11849 11851 11854 11857 11859 11861 11864 11867 11869 11872 11875 11878 11881 11883 11886 11889 11892 11895 11898 11901 11904 11907 11910 11913 11916 11919 11922 11925 11928 11931 11934 11937 11940 11943 11946 11949 11952 11955 11958 11961 11964 11966 11969 11971 11974 11977 11980 11983 11986 11989 11992 11995 11998 12001 12004 12007 12010 12013 12016 12019 12022 12025 12028 12031 12034 12037 12040 12043 12045 12048 12051 12054 12056 12059 12062 12065 12068 12071 12074 12077 12080 12083 12086 12088 12091 12094 12097 12100 12103 12106 12109 12112 12114 12117 12120 12123 12126 12128 12131 12134 12136 12139 12142 12145 12148 12151 12154 12157 12160 12163 12166 12169 12172 12175 12178 12181 12184 12187 12190 12193 12196 12198 12201 12204 12206 12209 12212 12215 12218 12221 12223 12226 12229 12232 12235 12238 12241 12243 12246 12249 12252 12255 12258 12261 12264 12267 12270 12273 12276 12279 12282 12285 12288 12291 12294 12297 12300 12303 12306 12309 12312 12315 12318 12321 12324 12327 12330 12333 12336 12339 12342 12345 12348 12351 12354 12357 12360 12363 12366 12369 12372 12375 12378 12381 12384 12387 12390 12393 12396 12399 12402 12405 12408 12411 12414 12417 12420 12423 12426 12429 12431 12434 12437 12440 12443 12446 12449 12452 12455 12458 12461 12464 12466 12468 12471 12474 12477 12480 12483 12486 12489 12492 12495 12498 12501 12504 12507 12510 12513 12515 12518 12521 12524 12527 12530 12533 12536 12539 12542 12545 12548 12551 12554 12557 12560 12563 12566 12569 12572 12575 12578 12581 12584 12587 12590 12593 12596 12599 12601 12604 12607 12609 12612 12615 12618 12621 12624 12627 12630 12632 12635 12638 12641 12643 12646 12649 12652 12655 12658 12661 12664 12667 12670 12673 12676 12679 12682 12685 12688 12691 12694 12697 12700 12703 12705 12708 12711 12714 12717 12719 12722 12724 12727 12729 12732 12735 12738 12741 12744 12747 12750 12753 12756 12759 12762 12765 12768 12771 12774 12777 12780 12783 12786 12789 12792 12795 12798 12800 12803 12806 12808 12811 12813 12816 12819 12822 12825 12828 12830 12833 12836 12839 12842 12845 12848 12851 12854 12856 12858 12861 12864 12867 12870 12873 12876 12879 12882 12885 12888 12891 12894 12897 12899 12902 12905 12908 12911 12914 12917 12920 12923 12926 12929 12932 12934 12937 12940 12943 12946 12949 12952 12955 12958 12961 12964 12967 12970 12973 12976 12979 12982 12985 12988 12991 12993 12996 12999 13002 13004 13007 13009 13012 13014 13017 13020 13023 13025 13028 13031 13034 13036 13039 13042 13045 13048 13051 13054 13057 13060 13063 13066 13069 13072 13075 13077 13080 13083 13086 13088 13091 13094 13097 13099 13101 13104 13107 13110 13113 13116 13119 13122 13125 13128 13131 13134 13137 13140 13143 13146 13149 13152 13155 13158 13161 13164 13167 13170 13173 13176 13179 13182 13184 13187 13190 13193 13196 13199 13201 13204 13207 13210 13213 13216 13219 13222 13225 13228 13231 13234 13237 13240 13243 13246 13249 13251 13254 13257 13260 13263 13265 13268 13271 13274 13276 13279 13282 13285 13288 13291 13293 13296 13299 13302 13304 13307 13310 13313 13316 13319 13322 13325 13328 13331 13334 13337 13340 13343 13346 13349 13352 13355 13358 13361 13363 13366 13369 13372 13375 13378 13381 13384 13387 13390 13393 13396 13399 13402 13405 13407 13410 13413 13415 13418 13421 13424 13426 13429 13432 13435 13438 13441 13444 13446 13449 13452 13455 13458 13461 13464 13467 13469 13472 13475 13478 13481 13484 13487 13490 13493 13496 13499 13502 13505 13507 13510 13513 13515 13518 13521 13524 13527 13530 13532 13535 13538 13541 13544 13547 13550 13553 13556 13559 13562 13564 13567 13570 13573 13576 13579 13582 13585 13588 13591 13594 13597 13600 13603 13606 13608 13611 13614 13617 13620 13623 13626 13629 13632 13635 13638 13641 13644 13647 13650 13653 13656 13659 13662 13665 13668 13671 13674 13677 13680 13683 13686 13689 13692 13695 13698 13701 13703 13706 13709 13711 13714 13717 13720 13723 13726 13729 13731 13734 13737 13740 13743 13746 13749 13752 13755 13758 13761 13764 13767 13770 13773 13776 13779 13782 13785 13788 13791 13794 13797 13800 13803 13806 13809 13812 13815 13818 13821 13824 13827 13830 13833 13836 13839 13842 13845 13848 13851 13854 13857 13860 13862 13865 13868 13870 13873 13876 13878 13881 13884 13887 13890 13893 13896 13899 13902 13905 13908 13911 13914 13916 13919 13922 13925 13928 13931 13934 13937 13940 13943 13946 13949 13952 13955 13958 13961 13964 13967 13970 13973 13976 13979 13982 13985 13988 13991 13994 13997 14000 14003 14006 14009 14012 14015 14018 14021 14024 14027 14030 14033 14035 14038 14041 14044 14047 14050 14053 14056 14059 14062 14065 14068 14071 14074 14077 14080 14083 14086 14089 14092 14095 14098 14101 14104 14106 14109 14112 14115 14118 14121 14124 14127 14130 14133 14136 14139 14142 14145 14148 14151 14154 14157 14160 14163 14166 14169 14172 14175 14178 14181 14184 14187 14190 14193 14196 14199 14202 14205 14207 14210 14213 14216 14218 14221 14224 14227 14229 14232 14235 14238 14241 14244 14247 14249 14252 14255 14257 14260 14263 14265 14268 14271 14273 14276 14278 14281 14284 14286 14289 14292 14295 14298 14300 14303 14306 14309 14312 14315 14318 14321 14324 14327 14330 14333 14336 14338 14340 14343 14345 14348 14351 14354 14356 14358 14361 14364 14366 14369 14372 14375 14378 14380 14383 14385 14388 14391 14394 14397 14400 14403 14406 14409 14412 14414 14417 14420 14423 14425 14428 14431 14434 14437 14440 14443 14446 14449 14452 14455 14458 14460 14463 14466 14469 14472 14475 14478 14481 14484 14487 14490 14492 14495 14497 14500 14503 14506 14509 14512 14515 14518 14521 14524 14527 14530 14533 14536 14538 14541 14544 14547 14550 14553 14556 14559 14562 14565 14568 14571 14574 14577 14580 14583 14586 14589 14592 14595 14598 14601 14604 14607 14610 14612 14614 14617 14620 14622 14624 14627 14630 14633 14636 14638 14641 14644 14647 14650 14653 14655 14658 14661 14664 14667 14670 14673 14676 14679 14682 14684 14687 14690 14693 14696 14699 14701 14704 14707 14710 14713 14715 14718 14721 14724 14727 14730 14732 14735 14738 14741 14744 14747 14750 14752 14755 14758 14761 14764 14766 14769 14772 14775 14778 14781 14784 14786 14789 14792 14795 14798 14801 14804 14807 14810 14813 14816 14818 14821 14824 14827 14830 14833 14836 14839 14841 14844 14846 14849 14852 14855 14858 14860 14863 14866 14868 14871 14874 14876 14879 14882 14884 14887 14890 14893 14896 14899 14902 14905 14908 14911 14914 14917 14920 14923 14926 14929 14932 14935 14938 14941 14944 14947 14950 14953 14956 14958 14961 14964 14967 14970 14973 14976 14979 14982 14985 14988 14991 14994 14997 15000 15003 15006 15009 15012 15015 15018 15021 15024 15027 15030 15033 15035 15038 15041 15044 15047 15050 15053 15056 15059 15062 15065 15068 15071 15074 15077 15079 15082 15085 15088 15091 15094 15096 15099 15102 15105 15107 15110 15113 15115 15118 15121 15124 15126 15129 15132 15135 15138 15140 15143 15146 15149 15152 15155 15157 15160 15163 15166 15169 15172 15174 15177 15180 15183 15186 15189 15192 15195 15198 15201 15204 15207 15210 15213 15216 15219 15222 15225 15228 15231 15234 15237 15240 15243 15246 15249 15252 15255 15258 15261 15264 15267 15270 15273 15276 15279 15282 15285 15288 15291 15294 15297 15300 15303 15306 15309 15312 15315 15318 15321 15324 15327 15330 15333 15336 15339 15342 15345 15348 15351 15354 15357 15360 15363 15366 15369 15372 15375 15378 15381 15384 15386 15389 15392 15395 15397 15400 15403 15406 15409 15412 15415 15418 15421 15424 15427 15430 15433 15436 15438 15440 15443 15446 15449 15452 15455 15458 15461 15464 15466 15468 15471 15474 15477 15480 15483 15486 15489 15492 15495 15498 15501 15504 15507 15510 15513 15516 15519 15521 15524 15527 15530 15533 15536 15538 15541 15544 15546 15549 15552 15554 15556 15559 15562 15565 15567 15569 15572 15575 15578 15581 15584 15587 15590 15593 15595 15598 15601 15604 15607 15610 15613 15616 15619 15622 15625 15628 15631 15634 15637 15640 15643 15646 15649 15652 15655 15658 15661 15664 15667 15670 15673 15676 15678 15681 15684 15687 15690 15693 15696 15698 15701 15704 15707 15710 15713 15716 15719 15722 15725 15727 15729 15732 15735 15738 15741 15743 15746 15749 15751 15754 15757 15759 15762 15765 15768 15771 15774 15777 15780 15783 15786 15789 15792 15795 15798 15801 15804 15807 15810 15813 15816 15818 15820 15823 15825 15828 15830 15833 15835 15838 15841 15844 15847 15850 15853 15856 15858 15861 15864 15867 15870 15873 15876 15879 15882 15885 15888 15891 15894 15897 15900 15903 15906 15909 15912 15915 15918 15921 15924 15927 15930 15933 15936 15939 15942 15945 15948 15951 15954 15957 15959 15962 15965 15968 15971 15973 15975 15978 15981 15983 15985 15988 15991 15994 15997 16000 16003 16006 16009 16012 16015 16018 16021 16023 16026 16028 16031 16034 16037 16039 16042 16044 16047 16049 16051 16054 16057 16060 16063 16066 16069 16072 16075 16078 16081 16084 16087 16089 16092 16095 16098 16101 16104 16107 16109 16112 16115 16118 16121 16123 16126 16129 16131 16133 16136 16139 16142 16144 16147 16150 16153 16156 16159 16161 16164 16167 16169 16172 16175 16178 16181 16184 16187 16189 16192 16195 16197 16200 16202 16205 16208 16211 16213 16216 16219 16221 16224 16227 16230 16232 16234 16237 16239 16242 16245 16248 16251 16254 16257 16259 16262 16265 16268 16271 16273 16276 16279 16282 16285 16288 16291 16294 16297 16300 16303 16306 16309 16312 16315 16318 16321 16324 16327 16330 16332 16335 16338 16341 16344 16347 16350 16353 16355 16358 16361 16364 16366 16368 16371 16374 16377 16380 16383 16386 16389 16392 16395 16398 16401 16404 16406 16408 16411 16414 16417 16420 16422 16425 16427 16429 16432 16435 16438 16440 16442 16444 16447 16449 16452 16455 16457 16459 16462 16464 16466 16469 16472 16475 16477 16480 16483 16485 16488 16491 16494 16497 16500 16503 16506 16509 16512 16515 16518 16521 16524 16526 16529 16532 16535 16538 16541 16544 16547 16550 16552 16555 16558 16561 16564 16567 16570 16573 16576 16579 16582 16585 16588 16591 16594 16597 16600 16603 16606 16609 16612 16614 16617 16620 16623 16626 16629 16632 16634 16637 16639 16642 16645 16648 16651 16654 16656 16659 16662 16665 16668 16670 16673 16676 16678 16681 16684 16686 16689 16692 16694 16696 16699 16702 16705 16708 16711 16714 16717 16720 16723 16725 16728 16731 16733 16736 16739 16742 16745 16747 16750 16753 16755 16758 16761 16763 16766 16769 16772 16775 16777 16780 16783 16786 16789 16792 16795 16798 16801 16804 16807 16810 16813 16816 16819 16822 16825 16828 16831 16834 16837 16840 16843 16846 16849 16852 16855 16858 16860 16863 16866 16869 16872 16875 16878 16881 16884 16887 16890 16893 16895 16898 16901 16904 16907 16910 16913 16915 16918 16921 16924 16927 16930 16933 16936 16939 16941 16943 16946 16949 16951 16954 16957 16960 16963 16966 16969 16972 16975 16978 16981 16984 16987 16990 16993 16996 16999 17002 17005 17007 17009 17012 17015 17017 17020 17023 17026 17028 17031 17034 17037 17040 17042 17045 17048 17051 17054 17057 17060 17063 17066 17069 17071 17074 17077 17080 17083 17086 17089 17092 17095 17098 17101 17103 17106 17108 17111 17114 17117 17120 17123 17126 17129 17132 17135 17138 17141 17144 17146 17149 17152 17155 17158 17161 17164 17167 17170 17173 17176 17178 17181 17183 17186 17189 17192 17195 17198 17200 17203 17206 17209 17212 17215 17218 17221 17224 17226 17229 17232 17235 17238 17241 17244 17247 17250 17253 17256 17259 17261 17264 17267 17270 17273 17276 17278 17281 17284 17287 17290 17293 17296 17299 17301 17304 17306 17309 17312 17315 17318 17321 17324 17327 17329 17332 17335 17337 17340 17343 17346 17349 17352 17354 17357 17360 17363 17366 17369 17372 17375 17378 17381 17384 17387 17390 17393 17396 17399 17402 17405 17408 17411 17414 17417 17419 17422 17425 17428 17431 17433 17436 17438 17441 17444 17447 17449 17452 17455 17458 17461 17464 17467 17470 17473 17476 17479 17482 17485 17488 17491 17494 17497 17500 17503 17506 17509 17512 17515 17518 17521 17524 17527 17530 17533 17536 17539 17542 17545 17547 17550 17553 17556 17559 17562 17565 17568 17571 17573 17575 17578 17581 17584 17587 17590 17593 17596 17599 17602 17605 17608 17611 17614 17617 17619 17622 17625 17628 17631 17634 17637 17640 17643 17646 17649 17652 17655 17658 17661 17664 17667 17670 17673 17676 17679 17682 17685 17688 17691 17694 17697 17700 17703 17706 17709 17711 17713 17716 17719 17721 17724 17727 17729 17732 17735 17737 17740 17743 17746 17749 17751 17754 17757 17759 17761 17763 17766 17769 17772 17774 17777 17779 17782 17785 17787 17790 17792 17795 17797 17799 17801 17804 17807 17810 17813 17816 17819 17822 17825 17828 17831 17834 17837 17840 17843 17846 17849 17852 17854 17857 17860 17862 17865 17868 17871 17874 17876 17879 17882 17885 17887 17890 17893 17896 17899 17902 17905 17908 17910 17913 17915 17918 17921 17924 17927 17930 17933 17936 17939 17942 17945 17948 17951 17954 17957 17959 17962 17965 17968 17971 17974 17977 17980 17983 17986 17989 17992 17995 17998 18001 18004 18007 18010 18013 18016 18019 18022 18025 18028 18031 18034 18037 18040 18043 18046 18049 18052 18055 18058 18061 18064 18067 18070 18073 18076 18079 18082 18085 18088 18090 18093 18096 18099 18101 18104 18107 18110 18113 18116 18119 18122 18125 18128 18131 18134 18136 18139 18142 18145 18148 18150 18153 18156 18159 18162 18164 18167 18169 18172 18175 18177 18179 18182 18185 18187 18190 18193 18196 18198 18201 18204 18207 18210 18212 18215 18218 18221 18224 18227 18230 18233 18235 18238 18241 18243 18246 18249 18252 18255 18258 18261 18264 18267 18270 18272 18274 18277 18279 18282 18285 18287 18290 18293 18296 18299 18302 18305 18308 18311 18314 18317 18319 18322 18325 18328 18330 18333 18336 18339 18342 18345 18348 18351 18354 18357 18360 18363 18366 18369 18372 18375 18378 18381 18384 18386 18389 18392 18395 18398 18401 18404 18407 18410 18412 18415 18418 18421 18424 18427 18430 18433 18436 18439 18441 18444 18447 18450 18453 18456 18459 18462 18465 18467 18470 18473 18476 18479 18482 18485 18488 18491 18494 18497 18500 18503 18506 18509 18512 18515 18518 18521 18524 18527 18530 18533 18536 18539 18542 18545 18548 18551 18554 18557 18560 18563 18566 18569 18572 18575 18578 18581 18584 18587 18590 18593 18596 18599 18602 18605 18608 18611 18614 18617 18620 18623 18626 18629 18632 18635 18638 18641 18644 18647 18650 18653 18655 18657 18660 18663 18666 18668 18671 18674 18677 18680 18682 18685 18688 18691 18694 18697 18700 18702 18705 18708 18711 18714 18717 18719 18722 18725 18728 18731 18734 18736 18739 18742 18745 18748 18751 18754 18757 18759 18762 18765 18768 18771 18774 18777 18780 18782 18785 18788 18791 18794 18797 18800 18802 18804 18807 18810 18813 18816 18818 18821 18823 18826 18829 18831 18834 18837 18840 18842 18845 18848 18851 18854 18857 18860 18863 18866 18869 18872 18875 18877 18879 18882 18885 18888 18891 18894 18897 18900 18903 18906 18909 18912 18915 18918 18921 18924 18927 18930 18933 18936 18939 18942 18945 18948 18951 18954 18957 18960 18963 18966 18968 18971 18974 18977 18980 18983 18986 18989 18992 18994 18997 18999 19002 19005 19008 19010 19013 19015 19018 19021 19023 19026 19028 19031 19033 19036 19039 19042 19044 19047 19050 19053 19056 19059 19062 19065 19068 19071 19074 19077 19080 19083 19086 19089 19092 19095 19098 19101 19103 19106 19109 19112 19115 19117 19120 19123 19126 19129 19132 19134 19137 19139 19142 19145 19148 19151 19154 19156 19159 19162 19165 19168 19171 19174 19177 19180 19183 19186 19189 19192 19195 19198 19200 19203 19206 19208 19211 19214 19217 19220 19223 19225 19228 19231 19234 19237 19239 19242 19245 19248 19251 19254 19257 19260 19263 19266 19268 19271 19274 19277 19280 19283 19286 19289 19292 19295 19298 19301 19304 19307 19310 19312 19315 19318 19321 19323 19326 19329 19331 19334 19337 19340 19343 19346 19349 19351 19354 19357 19360 19362 19364 19367 19370 19373 19376 19378 19381 19384 19387 19390 19393 19395 19398 19401 19404 19407 19409 19412 19415 19418 19421 19424 19427 19430 19433 19436 19438 19441 19444 19446 19449 19452 19455 19458 19461 19464 19466 19468 19471 19474 19477 19480 19483 19486 19489 19491 19494 19497 19499 19502 19505 19508 19511 19514 19516 19519 19522 19525 19528 19531 19534 19537 19540 19543 19546 19549 19552 19555 19558 19561 19564 19567 19570 19572 19575 19577 19580 19583 19586 19589 19592 19595 19598 19601 19604 19607 19610 19613 19616 19619 19622 19625 19628 19631 19633 19636 19639 19642 19645 19648 19651 19654 19657 19660 19663 19666 19669 19672 19675 19678 19681 19684 19687 19690 19693 19696 19699 19702 19705 19708 19711 19714 19717 19720 19723 19726 19729 19732 19735 19738 19741 19744 19747 19749 19752 19755 19758 19761 19764 19767 19770 19773 19776 19779 19782 19785 19788 19791 19794 19797 19800 19803 19806 19809 19812 19815 19818 19821 19824 19827 19830 19833 19836 19839 19842 19845 19848 19851 19853 19856 19859 19862 19865 19868 19871 19874 19877 19880 19883 19886 19889 19891 19894 19897 19900 19903 19906 19909 19911 19914 19917 19920 19923 19925 19928 19931 19934 19937 19940 19943 19946 19949 19952 19955 19958 19961 19964 19967 19970 19973 19976 19979 19982 19985 19988 19991 19993 19996 19998 20001 20004 20007 20010 20013 20016 20019 20022 20025 20027 20030 20033 20036 20039 20041 20044 20047 20049 20051 20053 20056 20058 20061 20064 20066 20068 20071 20073 20076 20078 20081 20084 20087 20090 20093 20096 20098 20101 20103 20106 20109 20111 20114 20117 20120 20123 20126 20129 20132 20135 20138 20141 20144 20147 20149 20152 20155 20158 20161 20164 20167 20170 20173 20175 20178 20181 20184 20187 20190 20192 20195 20198 20201 20204 20207 20210 20213 20216 20219 20222 20225 20228 20231 20234 20237 20240 20243 20246 20249 20252 20255 20258 20261 20264 20266 20269 20272 20274 20277 20280 20283 20286 20289 20292 20294 20297 20299 20302 20305 20308 20311 20314 20317 20320 20323 20326 20329 20332 20335 20338 20341 20344 20346 20349 20352 20355 20358 20361 20364 20367 20369 20372 20375 20378 20381 20384 20387 20389 20392 20394 20397 20400 20402 20405 20407 20410 20413 20416 20419 20422 20425 20428 20431 20434 20436 20439 20442 20445 20447 20450 20453 20455 20458 20460 20463 20465 20468 20471 20474 20476 20479 20482 20485 20488 20491 20493 20496 20499 20502 20505 20508 20511 20514 20517 20520 20523 20525 20528 20531 20533 20536 20539 20542 20545 20548 20551 20554 20556 20559 20561 20563 20566 20569 20571 20574 20577 20580 20583 20586 20588 20591 20594 20597 20600 20603 20606 20609 20612 20615 20618 20621 20624 20627 20630 20632 20635 20638 20641 20643 20646 20648 20651 20654 20657 20660 20663 20666 20669 20672 20675 20678 20681 20684 20687 20690 20693 20696 20699 20702 20705 20708 20711 20714 20716 20719 20722 20725 20728 20731 20734 20736 20739 20742 20745 20748 20751 20754 20757 20760 20763 20766 20769 20772 20775 20778 20781 20784 20787 20789 20792 20794 20797 20800 20803 20806 20809 20812 20815 20818 20821 20824 20827 20830 20833 20836 20839 20841 20843 20846 20849 20851 20854 20856 20859 20862 20865 20868 20871 20874 20876 20879 20882 20885 20888 20891 20894 20897 20900 20903 20906 20909 20912 20915 20918 20920 20923 20926 20929 20932 20934 20937 20940 20943 20946 20949 20952 20955 20957 20960 20963 20966 20969 20972 20975 20978 20981 20984 20986 20989 20992 20995 20998 21000 21003 21005 21008 21011 21013 21016 21018 21020 21023 21025 21028 21031 21034 21036 21039 21042 21045 21047 21050 21053 21056 21058 21061 21064 21066 21069 21072 21075 21078 21081 21084 21087 21090 21093 21096 21099 21102 21105 21108 21111 21114 21116 21119 21122 21125 21128 21131 21134 21137 21140 21142 21145 21147 21150 21153 21156 21159 21162 21165 21168 21171 21174 21177 21180 21183 21186 21189 21192 21194 21197 21200 21203 21206 21209 21212 21214 21217 21220 21223 21225 21228 21231 21234 21236 21239 21242 21245 21248 21251 21253 21256 21259 21262 21264 21267 21269 21271 21274 21277 21279 21282 21285 21287 21290 21293 21296 21299 21302 21305 21307 21310 21313 21316 21319 21322 21324 21326 21328 21331 21334 21337 21340 21343 21346 21349 21352 21354 21357 21359 21362 21364 21367 21370 21373 21376 21379 21382 21384 21387 21390 21393 21395 21398 21401 21403 21406 21409 21412 21415 21417 21420 21423 21426 21429 21431 21434 21437 21440 21443 21446 21449 21452 21455 21458 21461 21464 21467 21470 21472 21475 21477 21480 21483 21486 21489 21492 21494 21497 21499 21502 21505 21508 21511 21514 21516 21519 21522 21525 21528 21531 21533 21536 21539 21542 21545 21548 21551 21554 21557 21560 21563 21565 21568 21571 21574 21577 21580 21583 21586 21589 21591 21594 21597 21600 21603 21606 21609 21612 21615 21618 21620 21623 21626 21629 21632 21635 21638 21641 21644 21646 21649 21652 21655 21658 21661 21664 21666 21668 21671 21674 21677 21679 21682 21685 21687 21690 21692 21695 21698 21701 21704 21707 21710 21713 21716 21719 21722 21725 21727 21730 21732 21735 21738 21741 21744 21747 21750 21753 21756 21759 21762 21764 21767 21770 21773 21776 21779 21781 21784 21787 21790 21793 21796 21799 21802 21805 21808 21811 21814 21817 21820 21823 21826 21829 21832 21835 21838 21841 21843 21846 21848 21851 21854 21857 21860 21863 21866 21869 21872 21875 21878 21881 21884 21887 21890 21893 21896 21899 21902 21905 21908 21910 21913 21916 21919 21922 21925 21927 21930 21933 21936 21939 21942 21945 21948 21951 21954 21957 21960 21963 21966 21969 21972 21974 21977 21980 21983 21986 21989 21992 21995 21998 22001 22004 22007 22010 22013 22015 22018 22021 22023 22026 22028 22030 22033 22036 22039 22041 22044 22047 22050 22053 22056 22058 22061 22064 22067 22070 22073 22076 22079 22082 22085 22088 22090 22093 22096 22099 22101 22104 22107 22110 22113 22116 22118 22120 22123 22125 22128 22130 22133 22136 22139 22141 22144 22146 22148 22150 22153 22156 22159 22161 22163 22166 22169 22172 22174 22177 22180 22182 22184 22187 22190 22193 22195 22197 22199 22201 22203 22206 22209 22211 22213 22216 22219 22222 22225 22228 22230 22233 22236 22239 22242 22245 22248 22251 22254 22257 22260 22263 22266 22268 22271 22274 22277 22280 22283 22285 22288 22290 22293 22296 22299 22301 22304 22307 22310 22312 22314 22317 22319 22322 22325 22327 22330 22332 22335 22338 22341 22344 22347 22350 22353 22356 22359 22361 22364 22367 22369 22372 22375 22377 22380 22383 22386 22388 22391 22394 22397 22400 22403 22406 22409 22412 22415 22418 22421 22424 22427 22430 22433 22436 22439 22442 22444 22447 22450 22453 22456 22459 22462 22465 22468 22471 22474 22477 22480 22483 22486 22488 22491 22494 22497 22499 22502 22505 22508 22510 22513 22516 22519 22521 22524 22527 22529 22532 22535 22537 22540 22543 22546 22549 22552 22555 22558 22560 22563 22566 22568 22571 22574 22577 22580 22582 22585 22588 22591 22594 22597 22600 22603 22605 22608 22611 22614 22617 22620 22623 22626 22629 22632 22635 22638 22641 22643 22646 22649 22652 22655 22658 22661 22664 22667 22670 22673 22676 22679 22682 22685 22688 22691 22693 22696 22699 22702 22704 22707 22710 22713 22716 22718 22721 22724 22726 22728 22731 22734 22737 22740 22742 22745 22748 22751 22753 22756 22759 22762 22764 22767 22770 22773 22776 22779 22782 22785 22788 22791 22794 22797 22800 22803 22806 22809 22812 22815 22818 22821 22824 22827 22830 22833 22836 22839 22842 22845 22848 22851 22854 22857 22860 22863 22866 22869 22872 22875 22878 22881 22884 22887 22890 22893 22896 22898 22901 22904 22907 22910 22913 22916 22919 22922 22924 22927 22930 22933 22936 22939 22942 22945 22948 22951 22954 22957 22960 22963 22966 22969 22972 22974 22977 22979 22982 22985 22988 22991 22994 22997 23000 23002 23005 23008 23011 23013 23016 23019 23022 23025 23028 23031 23034 23037 23040 23043 23046 23049 23052 23055 23058 23061 23064 23067 23070 23073 23076 23079 23081 23083 23086 23089 23092 23095 23097 23100 23102 23105 23107 23110 23113 23116 23119 23122 23125 23127 23130 23132 23135 23137 23140 23143 23145 23148 23151 23153 23155 23158 23160 23163 23166 23169 23172 23175 23177 23180 23183 23185 23188 23191 23194 23197 23200 23203 23206 23209 23212 23214 23217 23220 23223 23225 23228 23231 23234 23237 23240 23243 23245 23247 23250 23253 23256 23259 23262 23264 23267 23270 23272 23275 23278 23281 23283 23286 23289 23292 23295 23298 23301 23304 23307 23310 23313 23316 23319 23322 23325 23328 23331 23334 23337 23340 23343 23346 23349 23352 23355 23358 23360 23363 23366 23369 23372 23375 23378 23381 23383 23386 23389 23392 23394 23397 23400 23403 23406 23409 23412 23415 23418 23421 23424 23427 23430 23433 23436 23439 23442 23444 23447 23450 23453 23456 23459 23462 23465 23468 23471 23474 23477 23480 23483 23486 23489 23492 23494 23497 23500 23503 23506 23509 23512 23514 23517 23520 23523 23526 23529 23532 23535 23538 23541 23544 23546 23549 23552 23555 23558 23561 23564 23567 23569 23572 23575 23578 23581 23584 23587 23590 23593 23596 23599 23602 23604 23607 23610 23613 23616 23619 23621 23624 23627 23630 23633 23636 23639 23642 23645 23648 23651 23654 23656 23659 23662 23665 23668 23671 23674 23677 23680 23683 23686 23689 23692 23695 23698 23701 23704 23706 23709 23712 23715 23718 23721 23723 23726 23729 23732 23735 23737 23740 23743 23746 23749 23752 23754 23757 23760 23763 23765 23768 23771 23773 23776 23779 23782 23785 23788 23790 23793 23796 23799 23802 23805 23808 23810 23813 23816 23819 23822 23825 23828 23831 23833 23836 23839 23842 23845 23848 23851 23854 23857 23860 23863 23866 23869 23872 23875 23878 23881 23884 23887 23890 23893 23896 23899 23902 23905 23908 23910 23913 23916 23919 23922 23925 23928 23931 23934 23937 23940 23942 23945 23948 23951 23954 23956 23959 23962 23965 23968 23971 23974 23977 23980 23983 23986 23989 23992 23995 23998 24001 24004 24007 24010 24012 24015 24018 24021 24024 24027 24030 24033 24036 24039 24042 24045 24048 24051 24054 24057 24060 24063 24065 24068 24071 24074 24077 24080 24083 24086 24089 24091 24094 24097 24100 24103 24106 24109 24112 24115 24118 24121 24124 24127 24130 24132 24135 24138 24141 24143 24146 24149 24152 24155 24158 24161 24164 24167 24170 24173 24176 24179 24182 24184 24187 24190 24193 24196 24199 24202 24204 24207 24210 24213 24216 24218 24221 24224 24227 24230 24233 24236 24238 24241 24244 24247 24250 24253 24256 24259 24261 24264 24267 24269 24272 24275 24278 24281 24284 24287 24289 24291 24294 24297 24299 24302 24305 24308 24311 24314 24317 24320 24323 24326 24329 24332 24335 24338 24341 24344 24347 24350 24353 24356 24358 24361 24364 24367 24369 24372 24375 24378 24380 24383 24385 24388 24391 24394 24397 24400 24403 24406 24409 24411 24414 24416 24419 24422 24425 24428 24431 24433 24436 24439 24442 24445 24448 24451 24454 24457 24460 24463 24466 24469 24471 24474 24477 24480 24482 24484 24487 24490 24493 24496 24499 24502 24505 24508 24511 24514 24516 24519 24522 24525 24528 24531 24533 24536 24539 24542 24544 24547 24550 24553 24556 24559 24562 24565 24568 24571 24574 24577 24580 24583 24586 24588 24591 24594 24597 24600 24603 24606 24609 24612 24614 24617 24620 24623 24625 24628 24631 24633 24636 24639 24642 24645 24648 24651 24654 24657 24659 24662 24665 24668 24670 24673 24676 24679 24681 24684 24687 24690 24693 24696 24699 24702 24705 24707 24710 24713 24715 24718 24721 24724 24726 24729 24732 24735 24738 24741 24744 24747 24750 24753 24756 24759 24762 24765 24768 24771 24774 24777 24780 24783 24786 24789 24792 24795 24798 24801 24804 24807 24810 24813 24816 24819 24822 24825 24828 24831 24834 24837 24840 24843 24846 24849 24852 24855 24858 24861 24863 24866 24869 24872 24875 24878 24881 24883 24885 24887 24890 24893 24895 24898 24901 24903 24906 24909 24911 24914 24917 24920 24923 24926 24929 24932 24935 24938 24941 24943 24946 24948 24951 24954 24957 24959 24962 24964 24967 24970 24973 24976 24979 24982 24985 24987 24990 24993 24995 24998 25001 25004 25006 25009 25012 25015 25018 25021 25024 25027 25030 25033 25036 25039 25042 25045 25048 25051 25054 25056 25059 25062 25065 25068 25071 25074 25077 25080 25083 25086 25089 25091 25093 25096 25099 25102 25105 25108 25111 25114 25117 25120 25123 25126 25129 25132 25135 25138 25141 25144 25147 25150 25152 25155 25158 25161 25164 25167 25170 25173 25176 25178 25181 25184 25187 25190 25193 25196 25199 25201 25204 25207 25209 25212 25215 25218 25221 25224 25227 25230 25233 25236 25239 25242 25245 25248 25250 25253 25255 25258 25261 25263 25265 25267 25270 25273 25276 25279 25282 25285 25288 25291 25294 25297 25300 25302 25305 25308 25311 25314 25317 25320 25323 25326 25329 25331 25333 25336 25339 25342 25345 25348 25351 25354 25357 25360 25363 25366 25369 25372 25375 25378 25381 25384 25387 25390 25393 25396 25399 25402 25405 25408 25411 25414 25417 25419 25421 25424 25427 25429 25432 25434 25437 25440 25442 25445 25447 25450 25453 25456 25459 25461 25464 25467 25470 25473 25476 25478 25481 25484 25486 25488 25491 25494 25496 25499 25501 25504 25507 25510 25513 25516 25518 25521 25524 25527 25529 25531 25534 25536 25539 25541 25544 25547 25549 25552 25555 25557 25559 25562 25564 25567 25570 25573 25576 25578 25581 25584 25586 25589 25591 25593 25596 25599 25602 25605 25608 25611 25614 25617 25620 25623 25626 25629 25632 25635 25638 25641 25644 25647 25649 25652 25655 25658 25661 25664 25667 25670 25673 25676 25679 25682 25685 25688 25691 25694 25697 25700 25703 25706 25708 25711 25713 25716 25719 25722 25725 25728 25731 25734 25737 25740 25743 25745 25748 25751 25754 25757 25760 25763 25766 25769 25771 25774 25777 25780 25783 25786 25789 25792 25795 25798 25801 25804 25807 25810 25813 25816 25818 25821 25824 25827 25829 25832 25835 25838 25840 25843 25846 25849 25852 25855 25858 25861 25864 25867 25870 25873 25876 25879 25882 25885 25888 25891 25894 25897 25900 25903 25906 25909 25912 25915 25918 25921 25924 25927 25930 25933 25935 25938 25941 25944 25947 25950 25952 25955 25958 25961 25964 25967 25970 25973 25976 25979 25982 25985 25988 25991 25994 25997 26000 26003 26006 26009 26012 26015 26018 26021 26024 26027 26030 26033 26035 26038 26041 26043 26046 26049 26051 26054 26056 26059 26062 26065 26068 26071 26074 26076 26079 26081 26084 26087 26090 26093 26095 26098 26101 26104 26107 26110 26112 26115 26118 26121 26124 26127 26129 26132 26135 26138 26141 26144 26147 26150 26153 26156 26159 26162 26165 26168 26171 26174 26177 26180 26183 26186 26189 26192 26195 26198 26201 26204 26207 26210 26213 26216 26219 26222 26225 26228 26231 26234 26237 26240 26243 26246 26249 26252 26255 26258 26261 26264 26266 26269 26272 26275 26278 26281 26284 26287 26289 26292 26295 26298 26301 26304 26307 26310 26313 26316 26318 26321 26324 26327 26330 26333 26336 26338 26341 26344 26347 26350 26352 26355 26358 26360 26363 26366 26368 26371 26374 26377 26380 26383 26385 26388 26391 26394 26397 26399 26401 26404 26407 26410 26412 26415 26418 26421 26424 26427 26430 26433 26436 26439 26442 26445 26447 26450 26453 26456 26459 26461 26464 26467 26469 26472 26474 26477 26480 26483 26486 26488 26490 26493 26496 26499 26501 26504 26507 26510 26512 26514 26517 26520 26522 26524 26527 26529 26532 26534 26537 26540 26543 26546 26549 26551 26553 26556 26559 26562 26565 26568 26571 26574 26577 26580 26583 26586 26589 26592 26595 26598 26601 26604 26606 26609 26612 26614 26617 26620 26623 26625 26628 26631 26634 26637 26640 26642 26644 26647 26650 26653 26655 26657 26660 26663 26666 26669 26671 26674 26677 26679 26681 26684 26687 26690 26693 26695 26698 26701 26704 26706 26709 26712 26714 26716 26719 26722 26725 26728 26730 26732 26735 26738 26741 26744 26747 26750 26753 26756 26759 26762 26765 26768 26770 26773 26776 26778 26781 26784 26787 26790 26793 26796 26799 26802 26805 26808 26811 26814 26817 26820 26823 26826 26829 26832 26835 26838 26841 26844 26847 26850 26853 26856 26859 26862 26865 26868 26871 26874 26876 26879 26882 26885 26888 26891 26893 26896 26899 26902 26905 26907 26910 26913 26916 26919 26921 26924 26927 26930 26933 26936 26939 26942 26945 26948 26951 26954 26957 26960 26963 26966 26969 26971 26974 26977 26980 26983 26986 26989 26992 26995 26998 27001 27004 27007 27010 27013 27016 27018 27021 27024 27027 27029 27032 27035 27038 27041 27044 27047 27050 27053 27056 27059 27062 27065 27068 27071 27074 27077 27080 27083 27086 27089 27091 27093 27095 27098 27101 27104 27107 27110 27113 27116 27119 27122 27125 27128 27131 27134 27137 27140 27143 27146 27149 27152 27155 27158 27160 27162 27165 27168 27170 27173 27176 27179 27182 27184 27187 27190 27193 27196 27199 27201 27204 27207 27210 27213 27216 27219 27221 27224 27227 27230 27233 27236 27239 27242 27245 27248 27251 27254 27257 27260 27262 27265 27268 27271 27274 27276 27279 27282 27285 27288 27290 27293 27296 27299 27302 27305 27308 27311 27314 27317 27320 27323 27326 27329 27332 27335 27338 27341 27344 27347 27350 27353 27356 27359 27362 27365 27368 27371 27374 27377 27380 27383 27386 27389 27392 27395 27398 27400 27402 27405 27408 27411 27414 27417 27419 27422 27424 27427 27430 27433 27436 27439 27442 27445 27448 27451 27453 27455 27458 27461 27463 27466 27469 27471 27473 27476 27479 27481 27484 27486 27489 27492 27495 27498 27501 27504 27507 27510 27513 27516 27519 27522 27525 27528 27531 27534 27537 27540 27543 27546 27549 27552 27555 27558 27561 27564 27567 27570 27573 27576 27579 27582 27584 27587 27590 27593 27596 27599 27602 27605 27608 27611 27614 27617 27620 27623 27626 27629 27632 27635 27638 27641 27644 27647 27650 27652 27655 27658 27661 27664 27667 27670 27673 27676 27679 27682 27685 27688 27691 27693 27696 27699 27701 27704 27707 27710 27713 27716 27719 27722 27725 27728 27731 27734 27737 27740 27743 27746 27749 27752 27754 27756 27759 27762 27765 27768 27771 27774 27777 27780 27783 27785 27788 27791 27794 27797 27799 27802 27805 27807 27810 27813 27816 27819 27822 27825 27828 27831 27834 27837 27840 27843 27846 27849 27852 27855 27858 27861 27864 27867 27870 27873 27876 27878 27881 27884 27886 27889 27892 27895 27898 27901 27904 27907 27909 27912 27915 27918 27920 27923 27926 27929 27931 27933 27936 27939 27942 27945 27948 27951 27954 27957 27960 27963 27966 27969 27972 27975 27978 27981 27983 27986 27989 27992 27995 27998 28001 28004 28006 28009 28012 28015 28018 28021 28024 28027 28030 28033 28036 28039 28042 28045 28048 28051 28054 28057 28060 28063 28066 28069 28072 28074 28077 28080 28083 28086 28089 28092 28095 28098 28101 28104 28107 28110 28113 28116 28119 28121 28124 28127 28129 28132 28135 28138 28141 28144 28147 28149 28152 28155 28158 28161 28164 28167 28170 28173 28176 28179 28181 28184 28187 28190 28193 28195 28198 28201 28204 28207 28209 28212 28215 28218 28221 28224 28227 28230 28233 28236 28239 28241 28243 28245 28248 28251 28254 28257 28260 28263 28266 28269 28272 28275 28278 28281 28284 28287 28290 28293 28296 28299 28302 28305 28308 28310 28313 28316 28318 28321 28323 28326 28329 28331 28334 28337 28340 28343 28346 28349 28352 28355 28358 28360 28363 28366 28368 28371 28374 28377 28380 28383 28386 28389 28391 28394 28397 28400 28403 28406 28409 28412 28415 28418 28421 28424 28427 28430 28433 28436 28439 28442 28445 28448 28451 28454 28456 28459 28462 28465 28468 28471 28474 28477 28480 28483 28486 28489 28492 28494 28496 28499 28502 28505 28508 28511 28514 28517 28520 28523 28526 28529 28532 28535 28538 28541 28544 28547 28550 28553 28556 28559 28562 28565 28568 28571 28573 28576 28579 28582 28585 28588 28591 28594 28597 28600 28603 28606 28609 28612 28615 28618 28621 28624 28627 28630 28633 28636 28639 28642 28645 28648 28651 28654 28657 28660 28663 28666 28669 28672 28675 28678 28681 28684 28687 28690 28693 28696 28699 28702 28705 28708 28711 28713 28716 28718 28721 28724 28727 28730 28733 28736 28738 28741 28744 28747 28750 28753 28756 28759 28761 28764 28767 28770 28773 28776 28778 28780 28782 28784 28787 28789 28792 28794 28796 28799 28802 28804 28807 28810 28813 28816 28819 28822 28825 28828 28831 28834 28837 28840 28843 28846 28849 28852 28855 28858 28861 28864 28867 28869 28872 28875 28878 28881 28884 28887 28890 28893 28895 28898 28901 28904 28907 28910 28913 28916 28918 28920 28923 28926 28929 28932 28935 28938 28940 28943 28946 28949 28952 28954 28957 28960 28963 28966 28968 28971 28974 28977 28980 28983 28986 28989 28992 28995 28997 29000 29002 29005 29008 29011 29014 29017 29020 29023 29026 29029 29032 29035 29038 29041 29044 29047 29050 29053 29056 29058 29061 29064 29067 29070 29073 29076 29079 29082 29085 29088 29091 29094 29097 29100 29103 29105 29107 29110 29113 29116 29119 29122 29125 29128 29130 29133 29136 29139 29142 29145 29147 29150 29153 29156 29159 29162 29164 29167 29170 29172 29174 29177 29180 29183 29186 29189 29192 29195 29198 29201 29203 29206 29209 29212 29214 29217 29220 29223 29226 29228 29231 29234 29237 29240 29243 29246 29249 29252 29255 29258 29261 29263 29266 29268 29271 29273 29276 29279 29282 29285 29288 29291 29294 29297 29300 29303 29306 29308 29311 29314 29317 29320 29323 29326 29329 29332 29335 29338 29340 29343 29346 29349 29352 29355 29358 29360 29363 29365 29368 29371 29374 29377 29379 29381 29384 29387 29390 29393 29396 29399 29402 29405 29408 29411 29414 29417 29419 29421 29424 29427 29430 29432 29435 29438 29441 29444 29447 29449 29452 29455 29458 29461 29464 29467 29470 29473 29476 29479 29481 29484 29487 29490 29493 29496 29499 29502 29505 29508 29511 29514 29517 29520 29522 29525 29528 29531 29534 29537 29540 29543 29546 29549 29552 29555 29558 29561 29564 29567 29570 29572 29575 29578 29581 29584 29587 29590 29593 29596 29599 29602 29605 29608 29611 29614 29617 29620 29623 29626 29629 29632 29635 29638 29641 29644 29647 29650 29653 29656 29659 29662 29665 29668 29671 29674 29677 29680 29683 29686 29689 29692 29695 29698 29701 29704 29707 29710 29713 29715 29718 29721 29723 29726 29729 29732 29735 29738 29741 29744 29747 29750 29753 29756 29759 29762 29765 29768 29771 29774 29777 29780 29783 29786 29789 29792 29795 29798 29800 29803 29806 29809 29812 29815 29818 29821 29824 29827 29830 29832 29835 29838 29841 29844 29847 29849 29852 29855 29858 29861 29863 29865 29868 29871 29874 29877 29880 29882 29885 29888 29891 29893 29896 29899 29902 29905 29908 29911 29914 29917 29920 29923 29926 29929 29932 29935 29937 29940 29943 29946 29949 29951 29954 29957 29959 29962 29965 29968 29971 29974 29977 29980 29983 29986 29989 29992 29995 29998 30001 30004 30007 30010 30013 30016 30019 30022 30025 30028 30031 30034 30037 30040 30043 30046 30049 30051 30053 30056 30059 30062 30064 30067 30070 30072 30074 30076 30079 30081 30084 30087 30090 30093 30096 30099 30102 30104 30107 30110 30113 30116 30119 30122 30124 30127 30129 30132 30135 30138 30140 30143 30146 30149 30152 30155 30158 30161 30164 30167 30170 30173 30176 30178 30181 30184 30187 30190 30193 30196 30199 30202 30205 30208 30211 30213 30216 30218 30221 30224 30227 30230 30233 30236 30239 30242 30245 30248 30251 30254 30257 30260 30263 30266 30269 30272 30275 30278 30281 30284 30287 30290 30293 30295 30298 30301 30303 30306 30309 30312 30315 30318 30321 30324 30327 30330 30333 30336 30339 30342 30344 30347 30349 30351 30353 30355 30358 30361 30364 30367 30370 30373 30376 30379 30382 30385 30387 30390 30393 30396 30399 30402 30405 30408 30411 30414 30417 30420 30423 30425 30428 30431 30434 30437 30440 30443 30446 30449 30452 30455 30458 30461 30464 30467 30470 30473 30476 30479 30482 30485 30488 30491 30494 30497 30500 30503 30506 30509 30512 30515 30518 30521 30524 30527 30530 30533 30536 30539 30542 30545 30548 30551 30554 30557 30560 30562 30564 30566 30569 30571 30573 30576 30579 30582 30585 30588 30590 30593 30596 30599 30602 30605 30608 30611 30614 30617 30620 30623 30625 30628 30631 30634 30636 30639 30642 30645 30648 30651 30654 30657 30660 30663 30665 30667 30670 30673 30675 30678 30681 30684 30687 30690 30693 30695 30698 30701 30704 30707 30710 30713 30715 30718 30721 30724 30727 30730 30733 30735 30738 30740 30743 30746 30749 30752 30755 30758 30761 30764 30767 30770 30772 30775 30778 30781 30784 30787 30790 30793 30795 30798 30801 30804 30807 30810 30813 30816 30819 30822 30824 30827 30830 30833 30836 30839 30841 30844 30847 30850 30852 30854 30856 30858 30861 30864 30867 30870 30873 30876 30879 30882 30884 30887 30890 30893 30896 30899 30902 30905 30908 30910 30913 30916 30919 30922 30925 30928 30930 30933 30936 30939 30941 30944 30947 30950 30953 30956 30958 30961 30964 30967 30970 30973 30976 30979 
</DataArray>
<DataArray type="UInt32" Name="types" format="ascii">
5 5 5 5 5 5 5 5 3 5 5 5 5 5 5 5 5 3 5 5 5 5 5 5 3 5 5 5 5 5 5 5 5 5 5 3 5 5 5 5 5 5 3 5 5 5 5 5 5 5 5 5 5 5 5 3 5 5 5 5 5 5 5 5 5 5 5 5 5 3 5 5 5 5 5 5 5 5 5 5 5 5 5 5 5 5 5 5 5 5 5 5 5 3 5 3 5 3 5 5 5 3 5 5 5 5 5 5 5 5 5 3 5 5 5 5 5 5 5 5 5 5 5 5 5 5 5 5 5 5 5 5 3 5 5 5 5 5 3 5 5 5 5 5 5 3 5 5 3 5 5 5 5 5 3 5 5 5 5 5 5 5 5 5 5 5 5 5 3 5 5 5 5 5 5 5 5 5 5 5 5 5 5 5 5 5 5 5 5 3 5 5 3 5 5 3 5 5 5 5 5 3 5 5 5 5 5 5 5 5 3 5 5 5 3 5 5 5 5 3 5 5 5 5 5 5 5 5 5 5 3 5 5 5 5 5 5 5 5 5 5 5 3 5 5 5 5 3 5 5 3 5 5 5 3 5 5 5 3 5 5 5 5 5 5 5 3 5 3 5 5 5 5 5 5 5 5 5 5 5 5 5 5 5 5 5 5 5 5 5 5 5 5 5 5 5 5 5 5 5 5 5 5 5 3 5 5 5 3 5 5 5 5 5 5 3 5 5 5 5 5 5 5 5 5 5 3 5 5 5 5 5 5 5 3 5 3 5 5 5 3 5 5 5 5 5 5 3 5 5 5 3 5 3 5 5 5 5 5 5 5 5 5 5 5 5 5 5 5 3 5 5 5 5 5 5 5 5 5 5 5 5 5 5 5 5 5 5 5 5 5 5 5 5 5 3 5 5 5 5 3 5 5 5 3 5 5 5 5 5 5 5 5 5 3 5 5 3 5 3 5 3 5 5 5 5 5 5 3 5 5 5 5 5 5 5 5 5 5 5 5 5 5 5 5 5 5 5 5 5 5 5 5 5 5 5 3 3 5 5 5 5 5 3 3 5 3 5 5 5 5 3 5 5 5 3 5 5 5 5 5 5 5 5 5 5 5 5 5 5 3 5 3 5 5 3 3 3 5 3 3 5 5 5 5 5 5 5 5 5 3 5 5 3 5 5 5 3 5 5 5 5 3 5 5 3 5 5 5 5 3 5 5 5 5 5 5 5 5 5 3 5 5 5 5 5 5 5 3 5 5 3 5 5 5 3 3 5 5 5 5 3 5 5 5 5 3 5 5 5 5 5 5 5 5 5 5 3 5 3 5 5 5 3 5 5 3 5 5 5 5 5 5 5 5 5 5 5 5 5 5 5 5 3 5 5 3 5 5 5 5 5 5 5 5 5 5 5 5 3 5 5 3 3 3 5 5 3 5 3 5 5 3 5 5 3 5 3 5 3 3 5 5 3 5 5 5 3 5 5 5 5 3 5 5 5 3 3 5 5 5 3 5 5 3 5 5 5 5 3 5 5 3 3 5 5 3 5 5 3 5 3 5 5 5 5 5 5 5 5 3 5 5 5 5 3 5 5 5 5 3 5 5 5 5 5 5 5 5 5 3 5 5 3 5 5 5 5 5 5 5 5 5 5 5 5 5 5 5 5 5 5 5 5 3 5 5 3 5 3 5 5 5 5 5 5 5 5 5 5 5 5 5 5 3 5 5 5 5 3 5 5 5 5 5 5 5 5 5 5 5 5 5 5 5 5 5 5 5 5 5 5 5 5 5 5 5 5 3 5 5 3 5 5 5 5 3 5 5 5 5 5 5 3 5 5 3 5 3 5 5 5 5 3 5 3 3 5 5 3 5 5 5 5 5 5 5 5 5 5 5 5 5 5 5 3 5 5 5 5 5 5 5 5 5 5 5 5 5 5 5 5 5 5 5 5 5 3 5 5 5 5 3 5 5 5 5 5 5 5 3 5 5 5 5 5 5 5 5 5 5 5 5 5 5 5 5 5 5 5 5 5 5 5 5 5 5 5 5 5 5 5 5 5 5 5 5 5 5 5 5 5 5 5 5 5 5 5 5 5 5 5 5 5 5 5 3 5 5 3 5 3 5 5 5 5 5 5 5 5 5 5 3 5 5 5 5 3 3 5 5 5 5 5 5 5 3 3 5 5 5 5 5 5 5 3 5 5 5 5 5 5 5 5 5 5 5 5 5 5 5 5 5 5 5 5 3 5 5 5 5 5 5 5 5 3 5 5 3 5 5 5 5 5 5 5 5 5 5 5 5 5 5 5 5 5 5 5 5 5 5 5 5 5 5 5 5 3 5 5 5 5 5 5 5 5 5 5 5 5 5 5 5 5 5 5 5 5 5 5 5 3 5 5 5 5 5 5 5 5 5 5 5 5 5 5 5 5 5 5 5 3 5 5 5 5 3 5 5 5 5 5 3 5 5 5 5 5 3 5 5 5 3 5 5 5 3 5 5 3 5 3 5 5 5 3 5 5 5 5 3 5 5 5 5 5 5 5 5 5 5 5 5 5 5 5 5 5 5 5 5 3 5 5 5 5 5 5 3 5 5 5 3 5 5 5 5 5 5 5 5 5 3 5 5 5 5 3 5 5 5 5 5 5 3 5 5 5 3 5 5 5 5 3 5 5 5 5 5 5 5 5 5 5 3 5 5 5 5 5 5 5 5 5 5 3 5 5 5 3 5 5 5 5 5 5 5 5 5 5 5 3 5 5 5 5 5 5 3 3 5 3 5 5 5 5 5 5 5 5 5 5 5 5 3 3 5 5 5 5 3 5 3 5 5 5 5 5 5 5 5 5 3 5 3 5 5 3 5 5 3 5 5 3 5 3 5 5 5 3 5 5 5 3 3 5 5 5 3 5 3 5 5 5 5 5 5 5 5 5 5 5 5 5 3 5 3 5 3 5 5 3 5 5 5 5 5 3 5 5 5 5 5 5 5 5 5 5 5 5 5 5 5 5 5 5 5 5 5 5 5 5 5 5 5 5 5 5 3 5 5 5 5 3 5 5 3 5 5 5 5 5 5 5 5 5 5 5 3 5 5 5 5 5 5 5 5 5 5 5 5 5 5 3 5 3 3 5 5 5 3 5 5 5 5 5 5 5 5 5 5 5 5 3 5 5 5 5 5 5 3 5 5 5 5 3 5 5 5 5 5 5 3 5 5 5 5 5 5 5 3 5 3 5 5 3 5 3 5 5 5 5 5 5 5 5 5 5 5 5 5 5 5 5 5 5 5 5 5 5 5 5 5 5 5 5 5 5 5 5 5 5 5 5 5 5 5 3 5 5 5 5 5 5 5 5 5 5 5 5 5 5 5 5 5 5 5 5 5 5 5 5 5 5 5 5 5 5 5 3 5 5 5 5 3 5 5 5 5 5 5 3 5 3 5 5 3 5 5 5 5 5 3 5 5 3 5 5 5 5 5 3 5 5 5 5 5 5 5 5 5 5 5 5 5 3 5 3 5 5 3 5 5 5 5 3 5 5 5 5 5 5 5 5 5 5 3 5 5 5 5 5 5 5 5 5 5 5 5 5 5 5 5 5 5 3 5 5 5 5 5 5 5 5 5 5 5 5 5 5 5 5 3 5 5 5 5 5 5 5 5 5 5 5 5 5 3 5 5 5 3 5 5 5 5 5 5 5 5 5 5 5 5 5 5 3 5 5 5 3 5 5 5 5 5 5 5 3 5 5 3 5 5 5 5 5 5 5 5 3 5 5 5 5 5 5 5 5 5 5 5 5 5 5 5 5 5 5 5 5 5 5 5 5 5 5 5 5 5 5 3 5 5 3 5 5 5 5 5 5 5 5 5 5 5 5 5 3 5 5 5 5 5 5 5 5 5 5 5 5 5 5 5 5 5 5 5 5 5 5 5 5 5 5 5 5 5 5 5 5 5 3 5 5 5 5 5 5 5 5 5 3 5 5 5 5 5 5 5 5 5 5 5 5 5 5 5 5 5 5 5 5 5 5 5 5 5 5 5 5 5 5 5 5 5 5 5 5 5 5 5 3 5 5 3 5 5 5 3 3 5 5 5 5 5 5 5 5 3 5 5 3 5 3 5 5 5 3 5 5 3 3 5 3 5 3 5 3 3 5 5 3 5 5 5 5 3 5 5 5 5 5 5 5 5 3 5 5 3 5 3 5 5 5 5 5 5 5 5 5 5 5 5 5 5 5 5 5 5 5 3 5 5 5 5 5 5 5 5 5 5 5 5 5 5 5 5 3 5 5 3 3 5 5 5 5 5 5 5 5 3 3 5 5 5 3 5 3 5 5 5 5 5 3 5 5 5 5 5 5 5 5 3 5 3 5 5 5 5 5 5 5 5 5 5 5 5 5 3 5 3 5 5 3 5 5 3 5 5 5 5 5 3 5 3 5 5 5 5 5 5 5 3 3 5 5 3 5 5 3 3 5 5 5 5 5 5 5 5 5 5 5 5 5 5 5 5 3 3 5 5 5 5 5 5 5 5 5 3 5 5 5 3 5 5 5 5 5 5 5 5 5 5 5 5 5 5 5 5 5 5 5 5 5 3 5 5 5 5 5 5 5 5 5 5 5 5 3 3 5 5 3 3 5 5 5 5 3 5 5 5 3 5 3 5 5 3 5 5 3 5 5 5 3 5 5 5 5 3 5 5 5 5 5 5 5 5 5 5 5 5 5 5 5 5 5 5 5 5 5 5 5 5 5 5 5 5 5 5 5 5 5 5 5 5 5 5 5 5 3 5 5 5 5 5 3 5 5 5 5 5 5 5 5 5 5 3 5 5 5 5 5 5 3 5 3 5 5 5 5 3 5 5 5 5 5 5 5 5 5 5 5 5 5 5 5 5 5 5 5 5 3 5 5 3 5 5 5 5 5 5 5 5 5 5 5 3 5 5 5 5 5 5 5 5 5 5 3 5 5 5 5 5 5 5 5 5 5 5 5 5 5 5 5 5 5 5 5 5 5 5 5 5 5 5 5 5 5 3 5 5 5 5 5 5 5 3 5 5 5 5 3 5 3 5 5 5 5 3 5 5 3 5 5 5 5 5 5 5 3 5 5 3 5 3 5 5 5 5 3 3 5 3 5 5 3 5 3 5 5 5 3 5 3 3 5 5 3 5 5 5 5 5 3 5 5 5 5 5 3 5 5 5 5 3 5 5 5 5 5 5 5 5 5 5 5 5 5 5 5 3 5 5 5 5 3 5 5 5 5 5 5 5 3 3 5 5 5 5 3 5 3 5 5 5 5 5 5 5 3 5 5 5 5 5 3 5 5 5 3 5 5 3 5 3 5 5 5 3 5 5 5 3 3 5 5 5 5 5 5 5 5 5 5 5 5 5 5 5 5 5 5 5 5 3 5 5 5 5 5 5 5 3 5 5 5 5 5 5 5 5 5 5 5 5 5 5 5 5 5 5 3 5 5 5 5 5 5 5 5 5 5 5 5 5 5 5 5 5 5 5 5 5 5 5 5 5 5 5 5 5 5 5 3 5 5 5 5 5 5 5 5 5 5 5 5 5 5 5 5 5 5 5 5 5 5 5 3 5 5 5 5 3 5 5 5 5 5 3 5 5 5 5 5 5 5 5 5 5 5 5 5 5 5 5 5 5 5 3 5 5 5 3 3 5 5 3 5 5 3 5 5 5 5 3 5 5 3 5 3 5 5 5 5 5 5 5 3 5 5 5 5 5 3 5 5 5 5 5 5 5 5 5 3 5 5 5 5 5 5 5 5 5 5 3 5 3 5 5 3 5 5 5 5 3 5 5 5 5 5 3 5 5 5 5 3 5 5 5 5 5 5 5 5 5 3 5 5 5 5 5 5 5 5 5 5 3 5 5 5 5 5 5 5 5 5 3 5 5 3 5 5 3 5 5 5 3 5 5 5 3 5 3 3 5 3 5 5 5 5 5 3 5 3 5 3 5 5 5 5 5 5 5 5 3 5 5 5 5 5 5 5 5 3 5 3 5 5 3 5 5 5 5 5 5 5 5 5 5 5 5 5 5 5 3 5 5 5 5 5 5 5 3 5 5 5 5 5 5 5 5 5 5 5 5 5 3 5 5 5 5 5 5 5 5 5 5 5 5 5 5 5 5 5 5 5 5 5 5 5 3 5 5 3 5 5 5 5 5 5 3 5 5 5 3 5 5 5 5 5 5 5 5 5 5 5 5 3 5 5 5 5 5 3 5 5 3 5 5 5 5 5 5 5 5 3 3 5 3 3 5 5 3 5 5 5 3 5 5 5 3 5 5 5 5 5 5 5 3 5 5 5 5 5 5 5 5 5 3 5 5 5 5 5 3 5 5 5 3 5 5 5 5 5 5 5 5 3 5 5 5 5 5 5 5 5 5 5 5 5 5 3 5 5 5 5 5 3 5 5 5 5 5 5 5 5 5 3 3 5 5 3 3 5 5 3 5 5 5 5 5 5 5 5 5 5 3 5 5 5 5 3 5 5 3 5 5 5 5 3 5 5 3 3 5 5 3 5 3 5 3 3 5 5 5 3 5 3 5 3 3 5 5 3 5 3 5 5 5 3 5 5 5 5 3 3 5 5 5 5 5 5 3 5 5 5 5 5 5 5 5 5 5 5 5 3 5 5 3 5 3 3 5 5 3 3 5 5 5 5 3 5 5 5 5 5 5 5 3 5 5 5 5 5 5 5 3 5 5 5 5 5 5 5 5 5 5 5 5 5 5 5 5 5 5 5 3 3 5 5 5 3 5 5 5 5 5 5 5 5 5 5 5 5 5 5 5 5 5 5 5 3 5 3 5 5 5 5 5 3 5 5 5 5 5 3 5 5 3 5 5 5 5 5 5 5 5 5 5 5 5 5 5 5 5 5 5 5 5 5 5 5 5 5 5 3 5 5 3 5 5 5 5 5 5 5 5 5 5 5 5 5 5 5 5 5 5 5 5 5 5 5 5 5 5 5 5 5 5 5 5 5 5 5 5 5 5 5 5 5 5 5 5 5 5 5 5 5 5 5 5 5 5 5 5 5 5 3 5 5 5 5 5 5 5 5 5 5 5 5 5 5 5 5 5 5 5 5 3 5 5 5 5 5 5 5 5 5 5 5 5 5 5 5 5 5 3 5 5 3 5 5 5 5 5 5 5 3 5 5 5 3 5 5 5 3 3 5 5 3 5 5 3 5 5 3 5 5 5 3 5 5 5 5 3 5 5 3 5 5 5 5 3 5 5 5 5 5 5 5 3 5 5 5 5 5 5 5 3 5 5 5 5 5 5 3 5 5 5 3 5 5 5 5 5 5 5 3 5 3 5 3 5 5 5 3 5 5 3 5 3 5 5 5 3 3 5 5 5 5 3 3 5 5 3 5 3 5 5 5 5 5 5 5 5 5 3 5 5 5 5 5 5 5 5 3 5 5 5 3 5 5 5 5 5 5 5 5 3 3 5 5 5 5 5 5 5 3 3 5 5 5 5 3 5 5 5 3 5 5 5 5 5 5 5 5 5 5 5 5 5 3 5 5 3 5 5 5 5 5 5 5 3 5 3 5 3 5 5 5 5 5 5 5 5 5 5 5 5 5 5 5 5 5 5 3 5 5 5 5 5 5 5 5 5 3 5 5 5 5 5 5 5 5 5 5 5 3 5 5 5 3 3 5 5 5 5 5 5 3 3 5 5 5 5 5 5 5 5 5 5 5 5 5 5 5 5 5 5 5 5 3 3 5 5 5 5 5 5 5 3 5 5 5 3 5 5 3 5 5 5 5 5 5 5 5 5 5 5 5 5 5 5 5 5 5 5 5 5 5 3 5 3 5 3 5 5 5 5 5 5 5 5 5 5 3 5 5 5 5 3 5 5 3 5 5 5 3 5 5 3 5 5 5 5 5 5 5 5 5 5 5 5 5 5 5 5 5 5 5 5 5 5 5 5 5 3 5 5 5 5 5 3 5 5 5 5 5 5 5 5 5 5 5 5 5 5 5 5 5 5 5 5 5 5 5 5 5 3 5 5 5 3 3 5 5 5 5 5 5 5 5 5 5 5 5 5 5 5 5 5 5 5 3 5 5 3 5 5 5 5 5 5 5 5 5 5 5 3 5 5 5 5 5 3 5 5 3 5 5 3 5 5 5 5 5 5 5 5 5 5 5 5 3 3 3 5 5 5 5 5 5 5 5 5 3 5 5 5 5 5 5 5 3 5 5 5 3 5 5 3 5 5 5 5 5 5 5 5 5 5 3 5 5 5 3 5 5 5 5 3 5 5 5 5 3 5 5 5 5 5 5 5 5 5 5 5 5 5 5 5 5 5 5 5 3 5 3 5 5 5 3 5 5 3 5 5 5 3 5 3 5 5 5 5 5 5 5 5 3 5 5 3 5 5 5 5 3 5 5 5 5 5 5 5 5 5 5 5 5 3 5 5 5 5 5 5 5 5 3 5 5 5 5 5 5 5 3 5 5 3 5 5 5 3 5 5 5 5 5 5 5 5 5 5 5 5 5 5 5 5 5 3 5 3 3 5 5 5 3 5 5 3 5 5 5 3 5 5 5 3 5 5 5 3 5 5 5 5 5 5 3 3 5 5 5 3 5 5 3 3 5 3 5 5 5 5 5 5 5 3 5 5 5 5 3 5 5 5 5 5 5 5 3 5 5 5 3 3 5 5 5 5 3 5 5 3 5 3 5 5 5 3 5 5 5 3 5 5 5 5 5 5 5 5 5 5 5 5 3 5 5 5 5 5 5 5 5 5 5 5 5 3 5 3 5 5 5 3 3 5 5 5 5 3 3 5 3 5 5 3 5 5 3 5 5 5 5 5 5 5 5 5 5 5 3 5 5 3 3 5 5 5 5 5 5 5 5 5 5 5 5 5 5 5 5 5 3 5 5 3 5 5 3 5 3 5 3 5 5 3 5 5 3 5 3 5 5 5 5 3 5 5 5 5 5 5 5 5 3 5 5 5 3 5 5 5 3 5 3 5 5 5 5 3 5 5 5 5 5 5 5 5 5 5 5 5 5 5 5 3 3 5 5 5 5 5 5 5 5 5 5 5 5 3 5 3 5 5 3 5 5 5 5 5 5 5 5 3 5 5 3 5 3 3 5 5 5 3 5 5 5 3 5 5 3 3 5 5 5 3 5 5 5 3 5 5 5 3 3 5 5 5 5 3 5 5 5 5 5 5 5 3 5 5 5 5 5 5 5 5 5 5 5 5 5 5 5 5 5 5 5 5 5 5 5 5 5 5 5 5 5 5 5 5 5 5 5 5 5 5 5 5 5 5 5 5 5 5 5 5 5 5 5 5 5 5 5 5 5 5 5 5 5 5 5 5 5 5 5 5 5 5 5 5 5 5 5 3 5 5 5 5 5 5 5 3 5 5 3 3 5 5 3 5 5 5 5 3 5 5 5 5 5 5 5 5 5 5 5 5 5 5 5 5 5 5 5 5 5 5 5 5 5 5 5 3 5 3 5 5 5 5 5 5 5 5 5 5 5 5 5 5 5 5 5 5 5 5 5 5 5 5 3 5 5 5 3 5 5 5 5 5 5 5 5 5 5 3 5 5 5 5 5 5 5 5 3 5 5 5 5 3 5 5 3 5 5 5 5 5 5 5 5 5 5 5 5 5 5 5 5 5 5 5 5 3 5 5 3 5 5 5 5 5 3 5 5 5 5 5 5 3 5 5 5 5 5 5 5 5 5 5 5 5 5 5 5 5 5 5 5 5 5 5 5 5 5 5 5 5 5 5 5 5 5 5 5 5 5 5 5 5 5 5 5 5 5 5 5 5 5 5 5 5 5 5 5 5 5 5 5 5 5 5 3 5 5 5 5 5 5 5 5 5 5 5 3 3 5 5 5 5 5 5 5 5 5 5 5 5 5 5 5 3 5 5 5 5 5 5 5 5 5 5 5 5 5 5 5 5 5 5 5 5 5 5 5 5 5 5 5 5 3 5 5 3 5 5 5 5 5 5 5 3 5 5 5 3 5 5 5 5 5 5 5 5 5 5 5 5 5 5 5 5 5 5 5 5 3 5 5 5 5 3 5 3 5 3 5 5 5 5 5 5 5 5 5 5 5 5 5 5 5 5 5 5 5 5 5 5 5 3 5 5 3 5 3 5 5 5 5 5 3 5 5 5 5 5 5 5 5 3 3 5 5 5 5 5 5 5 5 5 5 5 5 5 3 5 5 5 5 5 5 5 5 5 5 5 3 5 5 5 5 5 5 5 5 5 5 5 5 5 5 5 5 5 5 5 3 5 5 5 3 5 3 5 3 5 5 5 3 5 5 5 3 5 5 5 5 5 5 5 5 5 5 5 5 5 3 5 5 5 3 5 5 5 3 3 5 5 5 5 5 5 5 5 5 5 5 5 5 5 5 5 5 5 5 5 5 5 5 5 5 5 5 3 5 5 5 5 5 3 5 5 5 5 5 5 5 5 5 5 5 5 5 5 5 5 3 5 5 5 5 3 5 5 5 3 5 5 5 5 5 3 5 5 5 3 5 5 5 5 5 5 5 5 5 5 5 5 5 5 5 5 5 5 5 3 5 5 5 5 5 5 5 5 5 5 5 5 5 5 3 5 5 3 5 5 5 3 5 5 5 5 5 5 3 5 5 5 5 5 5 5 3 5 5 5 5 5 5 5 5 5 5 5 5 3 5 5 3 5 5 5 5 5 3 5 5 5 5 5 5 5 5 5 5 3 5 5 5 5 5 5 5 5 5 5 5 5 5 5 3 5 5 5 5 5 5 5 5 5 5 5 5 5 5 5 5 5 5 5 5 5 5 5 5 5 5 5 5 5 5 5 3 5 5 3 5 5 5 5 5 5 3 5 5 5 5 5 5 5 5 5 5 5 5 5 5 5 5 5 5 5 5 5 5 5 5 5 5 5 5 5 5 5 5 5 5 5 5 5 5 5 5 5 5 5 3 5 5 3 5 5 3 5 5 5 5 5 5 5 5 5 5 5 5 3 5 5 5 5 5 5 5 5 5 5 5 5 5 5 5 5 5 5 5 5 5 5 5 5 5 5 5 5 5 5 5 5 5 5 5 5 5 5 5 3 5 5 5 5 5 5 5 5 5 5 5 5 5 5 5 5 5 5 5 5 5 5 5 3 5 5 5 5 5 5 5 5 5 5 5 5 5 5 5 5 5 5 5 5 5 5 5 5 5 5 5 5 5 5 5 5 5 3 5 5 5 3 5 5 5 3 5 5 5 5 5 5 3 5 5 3 5 5 3 5 5 3 5 3 5 5 3 5 5 5 5 3 5 5 5 5 5 5 5 5 5 5 5 5 3 3 5 3 5 5 5 3 3 5 5 3 5 5 5 5 3 5 3 5 5 5 5 5 5 5 5 5 3 5 5 5 3 5 5 5 5 5 5 5 5 5 5 5 3 5 5 5 5 5 5 5 5 5 5 3 5 3 5 5 5 5 5 5 5 5 5 5 5 5 5 3 5 5 5 5 5 5 5 5 5 5 5 5 5 5 5 5 5 5 5 5 5 5 5 5 3 3 5 5 3 3 5 5 5 5 3 5 5 5 5 5 3 5 5 5 5 5 5 5 5 5 3 5 5 5 5 5 3 5 5 5 5 3 5 5 5 5 5 3 5 5 5 5 5 5 3 5 5 5 5 3 5 5 5 5 5 5 3 5 5 5 5 5 5 5 5 5 5 3 5 5 5 5 5 5 5 3 5 3 5 5 5 5 3 5 5 3 5 5 3 5 5 3 5 5 5 5 5 5 5 5 5 5 5 5 5 5 5 5 5 5 5 5 5 5 5 5 3 5 5 5 5 5 5 5 5 5 5 5 5 5 5 5 5 5 5 5 5 5 5 5 5 5 3 5 5 5 5 5 5 5 5 5 5 5 5 5 5 3 5 5 5 5 5 3 5 5 5 3 5 5 3 5 5 5 3 5 5 5 5 3 5 5 5 5 5 3 5 5 5 5 5 3 5 5 5 5 5 5 5 5 5 5 5 5 5 5 5 5 5 5 5 5 5 5 5 5 5 5 5 5 5 5 5 5 5 5 5 5 5 5 5 5 5 5 5 5 5 5 5 5 5 5 5 5 5 5 5 5 5 5 5 5 5 5 5 5 5 5 5 5 5 5 3 5 5 5 3 5 5 5 5 5 5 5 5 5 5 5 5 5 3 3 5 5 5 5 5 5 5 5 3 3 5 5 5 5 5 5 5 5 5 5 5 5 5 5 5 5 5 3 5 5 5 5 5 3 5 5 3 5 5 3 3 5 5 5 3 3 5 5 5 5 5 5 5 5 3 5 5 5 5 5 5 5 5 5 5 5 5 5 5 5 5 5 5 5 5 5 5 5 5 5 5 5 3 5 5 5 5 5 5 3 5 5 5 5 5 5 5 5 5 3 3 5 5 5 5 3 5 5 3 5 5 3 5 5 5 5 5 5 5 5 5 5 5 5 5 5 5 5 5 5 5 3 3 5 3 5 3 5 3 5 5 5 5 5 5 5 3 5 5 5 5 5 5 5 5 5 5 5 5 5 5 5 5 5 5 5 5 5 5 5 5 5 5 5 5 5 5 5 5 5 3 5 5 5 5 3 3 5 5 3 3 5 5 5 5 5 5 5 5 5 5 5 5 3 5 3 5 5 5 3 5 3 5 3 3 5 5 5 5 5 5 5 5 5 5 5 5 3 5 5 5 5 5 5 3 5 5 5 5 3 5 5 3 3 5 5 5 3 5 5 5 5 5 3 5 5 3 5 5 5 5 5 5 3 5 5 3 5 3 5 5 5 3 5 5 3 5 5 5 3 3 5 3 5 5 5 5 5 5 3 5 5 5 5 3 5 5 5 5 5 5 5 5 5 5 5 5 5 5 5 5 5 5 5 3 5 5 5 5 5 5 5 3 5 5 5 3 3 5 5 5 5 5 5 5 5 5 5 5 5 3 3 5 5 5 5 3 5 3 3 5 5 5 3 3 3 5 3 5 5 3 3 5 3 3 5 5 5 3 5 5 3 5 5 5 5 5 5 5 5 5 5 5 5 5 3 5 5 5 5 5 5 5 5 3 5 5 5 5 5 5 5 5 5 5 5 5 5 5 5 5 5 5 5 5 3 5 5 5 5 5 5 3 5 3 5 5 5 5 5 3 5 5 5 5 3 5 5 3 5 5 3 5 5 3 3 5 5 5 5 5 5 5 5 5 3 5 5 3 5 5 5 5 3 5 5 3 5 5 3 5 5 5 5 3 5 5 5 5 5 5 5 5 5 5 5 5 5 5 5 5 5 5 5 5 5 5 5 5 5 5 5 3 5 5 5 5 5 5 5 5 5 5 5 3 5 5 5 5 5 5 3 5 5 5 5 5 5 5 5 3 3 5 5 3 5 5 5 5 5 5 5 5 5 5 5 5 5 5 5 5 5 5 3 3 5 5 3 5 5 5 3 5 5 5 5 3 5 5 5 5 5 5 5 5 5 3 5 5 5 5 5 5 5 5 5 5 3 5 3 5 5 5 5 5 5 5 5 5 5 5 5 3 5 5 5 5 5 5 5 5 5 5 3 5 3 5 5 5 5 5 3 5 5 5 5 5 5 5 5 3 5 5 5 5 5 5 5 5 5 5 5 3 5 5 5 5 5 3 5 5 5 5 5 5 5 3 5 3 5 5 5 5 5 5 5 3 5 5 3 5 5 5 5 5 3 5 5 5 5 5 5 5 5 5 5 5 5 5 5 5 5 5 5 5 5 5 3 5 5 5 5 3 5 3 5 5 5 3 5 5 5 5 5 5 5 5 5 5 5 5 5 5 5 5 5 5 5 5 5 5 5 5 5 5 5 5 5 5 5 5 3 5 5 5 5 5 5 5 5 3 3 5 5 5 5 5 5 5 5 5 5 5 5 5 5 3 5 5 5 5 5 5 5 5 5 5 5 5 5 5 5 5 5 5 5 5 5 5 5 5 5 5 5 5 5 5 3 3 5 5 3 5 5 3 5 5 3 5 5 5 5 3 5 5 3 3 3 5 5 5 3 5 3 5 5 3 5 3 5 3 3 3 5 5 5 5 5 5 5 5 5 5 5 5 5 5 5 5 5 3 5 5 3 5 5 5 5 3 5 5 5 3 5 5 5 5 5 5 5 3 5 3 5 5 5 5 5 5 5 5 5 5 5 5 5 5 3 5 5 5 5 5 5 5 5 5 5 5 5 5 5 5 5 5 5 5 5 5 5 5 5 5 5 5 5 5 5 5 5 5 5 5 5 5 5 5 5 5 5 5 3 5 5 5 3 5 5 5 5 5 5 5 5 5 5 5 3 5 5 5 5 3 5 5 5 5 3 5 3 5 5 3 3 5 5 3 5 5 5 3 5 5 5 5 3 5 5 5 5 5 5 5 3 5 5 3 5 5 5 5 5 5 5 5 5 3 3 5 3 5 5 3 5 5 5 5 5 5 5 5 5 5 3 5 5 5 3 5 5 5 5 5 5 5 5 5 5 5 5 5 5 5 5 5 5 3 5 5 5 5 5 5 5 5 3 5 5 5 5 5 5 5 5 5 3 5 5 5 5 5 5 5 5 3 5 5 5 5 5 5 5 5 5 5 5 5 5 5 5 5 5 5 5 5 5 5 5 5 5 5 5 5 5 5 5 5 5 5 5 5 5 5 5 5 5 5 5 5 5 5 5 5 5 5 5 5 5 5 5 5 5 5 5 5 5 5 3 3 5 5 5 3 5 5 5 5 3 5 5 5 5 5 5 3 5 5 5 5 5 3 5 5 5 5 5 3 5 5 5 5 5 5 5 3 5 5 5 5 5 5 5 3 5 5 5 5 5 5 3 3 5 5 5 5 3 5 3 5 5 3 5 5 5 3 5 5 5 5 5 5 5 5 5 5 5 3 3 5 5 5 5 5 5 5 5 5 5 5 5 5 5 5 5 5 5 5 5 5 5 5 5 5 5 5 5 5 3 5 5 5 5 5 5 5 5 3 5 3 5 5 5 3 5 3 5 5 3 5 3 5 3 5 5 5 3 5 5 5 5 5 5 5 5 5 5 5 5 5 5 5 5 5 5 5 3 5 5 5 5 3 5 5 5 5 5 3 5 3 5 5 5 5 5 3 5 5 5 5 5 5 5 5 5 5 5 5 5 5 3 5 5 3 5 5 5 5 5 3 5 5 5 5 3 5 5 5 5 5 5 5 5 5 3 5 5 5 5 5 5 5 5 5 5 5 5 5 5 3 5 5 5 3 5 5 3 5 5 5 5 5 5 3 5 5 5 3 3 5 5 5 5 3 5 5 5 5 5 3 5 5 5 5 3 5 5 5 5 5 5 5 5 5 3 5 5 3 5 5 5 5 5 5 3 3 5 5 5 5 5 5 5 3 5 5 3 5 5 5 5 5 3 5 5 5 5 5 5 5 5 5 5 5 5 5 5 5 5 5 5 3 5 3 5 5 5 5 5 5 5 5 5 5 5 5 5 5 5 5 5 5 3 5 5 5 5 5 5 5 5 5 5 5 5 5 5 5 5 5 5 5 5 5 5 5 5 5 5 5 5 5 5 5 5 5 5 5 5 5 5 3 5 5 5 5 5 5 5 5 5 5 5 5 5 5 5 5 5 5 5 5 5 5 5 5 5 5 5 5 5 5 5 5 5 5 3 5 5 5 5 5 5 5 5 5 5 5 5 3 5 5 5 5 5 5 3 5 5 5 5 3 5 5 5 5 5 5 5 5 5 5 5 5 5 5 5 5 5 5 5 5 5 5 3 5 3 5 5 5 5 5 5 5 5 5 3 5 5 5 5 3 5 5 3 3 3 5 3 5 5 3 3 5 3 5 3 5 5 5 5 5 5 3 5 3 5 5 3 5 5 5 5 5 5 5 5 5 5 5 5 3 5 5 5 5 5 5 5 5 3 5 5 5 5 5 3 5 5 5 5 5 5 5 5 5 5 5 5 5 5 5 5 5 5 5 5 5 5 5 5 3 5 5 3 5 5 5 5 5 5 3 5 3 5 5 5 5 5 5 5 5 5 5 5 5 5 5 5 3 5 5 5 5 5 5 5 3 5 5 5 5 5 5 3 5 3 5 5 3 5 3 5 5 5 5 5 5 5 5 5 3 5 5 5 3 5 5 3 5 3 5 3 5 5 5 3 5 5 5 5 5 3 5 5 5 5 5 5 5 5 5 5 3 5 5 3 5 5 5 5 5 5 5 3 5 3 3 5 5 3 5 5 5 5 5 3 5 5 5 5 5 5 5 5 5 5 5 5 5 5 3 5 5 5 3 5 3 5 5 5 5 5 5 5 5 5 5 5 5 5 5 5 5 5 5 5 5 5 5 3 5 5 5 5 5 5 3 5 5 5 5 5 5 5 5 5 5 5 5 5 5 5 5 5 3 5 3 5 5 5 5 5 5 5 5 5 5 5 5 5 5 5 3 3 5 5 3 5 3 5 5 5 5 5 5 3 5 5 5 5 5 5 5 5 5 5 5 5 5 5 3 5 5 5 5 3 5 5 5 5 5 5 5 3 5 5 5 5 5 5 5 5 5 3 5 5 5 5 3 5 3 5 5 3 5 3 3 5 3 5 5 5 3 5 5 5 3 5 5 5 3 5 5 3 5 5 5 5 5 5 5 5 5 5 5 5 5 5 5 5 3 5 5 5 5 5 5 5 5 3 5 3 5 5 5 5 5 5 5 5 5 5 5 5 5 5 5 3 5 5 5 5 5 5 3 5 5 5 3 5 5 5 3 5 5 5 5 5 3 5 5 5 3 5 3 3 5 5 3 5 5 3 5 5 5 5 5 5 3 5 5 5 5 5 3 3 3 5 5 5 5 5 5 5 5 3 5 3 5 3 5 5 5 5 5 5 3 5 5 5 3 5 5 3 5 5 5 5 3 5 5 5 5 3 5 5 5 5 5 5 5 5 5 5 5 5 5 3 5 3 5 5 5 5 5 3 5 3 5 5 5 5 5 3 5 5 5 5 5 3 5 5 5 5 5 5 5 5 5 5 3 5 5 5 5 5 5 5 5 3 5 5 5 5 5 5 5 5 5 3 5 5 5 5 5 5 5 5 3 5 5 5 5 5 5 3 3 5 5 5 3 5 5 3 5 3 5 5 5 5 5 5 5 5 5 5 5 3 5 3 5 5 5 5 5 5 5 5 5 5 3 5 5 5 5 5 3 5 5 5 5 5 5 5 5 5 5 5 5 5 5 5 5 5 5 5 5 3 5 3 5 5 5 5 5 5 5 5 5 5 5 5 5 5 5 5 5 5 5 5 3 5 5 5 5 5 3 5 5 5 5 5 5 5 5 5 5 5 5 5 5 5 3 5 5 5 5 5 5 5 5 5 5 5 5 5 3 5 5 3 5 3 3 5 5 5 3 5 5 5 5 5 3 5 5 5 5 5 5 5 5 5 5 3 5 5 5 3 5 5 5 5 5 3 3 5 3 5 3 5 5 5 3 5 3 3 3 5 5 5 3 3 5 5 5 3 5 5 3 3 5 5 5 3 3 3 3 3 5 5 3 3 5 5 5 5 5 3 5 5 5 5 5 5 5 5 5 5 5 5 3 5 5 5 5 5 3 5 3 5 5 5 3 5 5 5 3 3 5 3 5 5 3 5 3 5 5 5 5 5 5 5 5 5 3 5 5 3 5 5 3 5 5 5 3 5 5 5 5 5 5 5 5 5 5 5 5 5 5 5 5 5 5 3 5 5 5 5 5 5 5 5 5 5 5 5 5 5 3 5 5 5 3 5 5 5 3 5 5 5 3 5 5 3 5 5 3 5 5 5 5 5 5 5 3 5 5 3 5 5 5 5 3 5 5 5 5 5 5 5 3 5 5 5 5 5 5 5 5 5 5 5 5 3 5 5 5 5 5 5 5 5 5 5 5 5 5 5 5 5 3 5 5 5 3 5 5 5 5 3 5 5 3 3 5 5 5 5 3 5 5 5 3 5 5 5 3 5 5 5 5 5 5 5 5 5 5 5 5 5 5 5 5 5 5 5 5 5 5 5 5 5 5 5 5 5 5 5 5 5 5 5 5 5 5 5 5 5 5 5 5 3 5 5 5 5 5 5 5 5 3 5 5 5 5 5 5 5 5 5 5 5 5 5 5 5 5 3 5 3 5 5 5 5 5 5 5 3 5 5 5 3 5 5 5 5 5 5 5 5 5 5 5 5 5 5 5 5 5 5 5 5 5 5 3 3 5 5 5 5 3 5 3 5 3 5 5 5 5 5 5 3 5 3 5 3 5 5 3 5 5 3 3 5 3 5 5 5 5 5 3 5 5 3 5 5 5 5 5 5 5 5 5 3 5 5 5 3 5 5 5 5 5 5 3 3 5 5 5 5 5 3 5 5 3 5 5 5 3 5 5 5 5 5 5 5 5 5 5 5 5 5 5 5 5 5 5 5 5 5 5 5 5 5 3 5 5 5 5 5 5 5 3 5 5 5 3 5 5 5 5 5 5 5 5 5 5 5 5 5 5 5 5 3 5 5 5 5 5 5 5 5 5 5 5 5 5 5 5 5 3 5 5 5 5 5 5 3 5 5 5 5 5 5 5 5 5 5 3 5 5 5 5 5 5 5 3 5 5 5 5 5 5 5 5 5 5 5 3 5 5 5 5 5 3 5 5 5 5 5 5 5 5 5 5 5 3 5 5 5 5 5 5 5 5 5 5 5 5 5 5 5 5 3 5 5 5 5 5 3 5 5 5 5 3 5 5 5 5 5 3 5 5 5 3 5 5 3 5 5 5 5 5 3 5 5 5 5 5 5 3 5 5 5 5 5 5 5 3 5 5 5 5 5 5 5 5 5 5 5 5 5 5 5 5 5 5 5 5 5 5 5 5 5 3 5 5 5 5 5 5 5 5 5 5 3 5 5 5 5 3 5 5 5 5 5 5 5 5 5 5 5 5 5 5 5 5 5 5 3 5 5 5 5 5 5 5 5 5 5 5 5 5 5 5 5 5 3 5 5 5 5 5 5 5 5 3 5 5 5 5 5 5 5 5 5 5 5 5 5 3 5 5 5 3 5 5 5 5 5 5 5 5 5 5 5 5 5 3 5 5 5 5 5 5 3 5 5 5 5 3 5 5 5 5 5 5 3 5 5 5 5 5 5 5 3 5 5 3 5 5 5 5 5 5 3 3 5 5 3 5 5 5 5 5 5 5 5 5 5 5 5 5 5 5 5 5 5 5 3 5 5 5 3 5 5 5 3 5 3 5 5 5 5 5 5 5 5 3 5 3 5 5 5 5 5 3 5 5 5 5 5 5 5 5 5 5 5 5 3 5 5 5 3 3 5 5 5 5 5 5 5 5 5 5 3 5 5 5 5 5 3 5 5 5 3 5 5 5 5 5 5 5 5 5 5 5 5 5 5 3 5 5 5 5 5 5 5 5 3 5 5 5 3 5 5 3 5 5 5 5 5 5 5 5 3 5 5 5 3 5 5 5 3 5 5 5 5 5 5 5 5 3 5 5 3 5 5 5 3 5 5 5 5 5 5 5 5 5 5 5 5 5 5 5 5 5 5 5 5 5 5 5 5 5 5 5 5 5 5 5 5 5 5 5 5 5 5 5 5 5 5 5 5 5 3 5 5 5 5 5 5 3 3 3 5 5 3 5 5 3 5 5 3 5 5 5 5 5 5 5 5 5 5 3 5 3 5 5 5 3 5 3 5 5 5 5 5 5 5 3 5 5 3 5 5 5 3 5 5 5 5 5 5 5 5 5 5 5 5 5 5 5 5 3 5 5 5 5 5 5 5 5 5 5 5 3 3 5 5 5 5 5 5 5 5 5 5 5 5 5 5 5 5 5 5 5 3 5 5 5 5 5 5 5 5 3 5 5 5 5 5 5 5 3 5 5 3 5 5 5 5 5 5 5 5 5 5 5 5 5 3 5 3 5 5 3 3 3 5 5 5 5 5 5 5 5 5 5 5 3 5 5 5 5 5 5 5 5 5 3 3 5 5 5 5 5 5 5 5 5 5 5 5 5 5 5 5 5 5 5 5 5 5 5 5 5 5 5 5 3 3 5 5 3 5 3 5 5 3 5 3 5 5 5 5 3 5 5 5 5 5 3 5 5 3 3 5 5 3 5 3 5 5 5 5 5 3 5 5 5 3 3 5 3 5 3 5 5 3 5 5 3 3 5 3 5 5 5 5 3 5 5 3 5 3 3 5 5 5 5 5 5 5 5 5 5 5 5 5 5 5 5 5 5 3 5 5 5 5 5 5 5 5 5 5 5 5 5 5 5 5 5 5 5 3 5 3 5 5 5 5 5 5 5 5 5 5 3 5 5 5 5 5 5 5 5 3 5 5 5 5 5 5 5 5 5 5 5 5 5 5 5 3 5 5 5 3 5 5 5 3 5 5 5 5 5 5 5 5 5 5 5 5 5 5 5 5 5 5 5 5 5 5 5 5 5 5 5 5 5 5 5 3 5 5 5 5 5 3 5 5 5 5 5 5 5 5 5 5 5 5 5 5 5 5 5 5 5 5 5 5 5 5 5 5 5 3 5 5 3 5 5 3 5 3 5 5 5 5 5 5 3 5 3 5 5 5 5 3 5 5 5 5 5 3 5 5 5 5 5 3 5 5 5 5 5 5 5 5 5 5 5 5 5 5 5 5 5 5 5 5 5 5 5 5 5 5 5 5 5 5 5 5 5 5 5 5 5 5 5 5 5 5 5 5 5 3 5 5 5 5 5 5 5 3 5 5 5 5 5 5 5 5 5 3 5 5 5 5 5 5 3 5 5 5 5 3 5 5 3 5 5 3 5 5 5 5 5 3 5 5 5 5 3 3 5 5 5 3 5 5 5 5 5 5 5 5 5 5 5 3 5 5 5 5 3 5 5 3 5 3 5 5 5 5 3 3 5 5 5 3 5 5 5 3 3 5 5 3 3 5 3 5 3 5 5 5 5 5 3 3 5 5 5 5 5 5 5 5 5 5 5 5 5 5 5 5 5 3 5 5 3 5 5 5 3 5 5 5 5 5 3 3 5 5 5 3 3 5 5 5 5 3 5 5 3 3 5 5 5 5 3 5 5 5 3 5 5 3 3 5 5 5 5 3 3 5 5 5 5 5 5 5 5 5 5 5 5 3 5 5 3 5 5 5 5 5 5 5 5 5 5 5 5 5 5 5 5 5 5 5 5 5 5 5 5 5 5 5 5 5 5 5 5 3 5 5 5 5 5 3 5 5 5 5 3 5 5 5 5 3 5 5 5 5 5 5 5 5 5 5 5 5 5 5 5 5 3 5 5 5 5 5 5 5 5 5 5 5 5 5 5 5 3 5 5 5 3 5 5 5 5 5 5 5 5 5 5 5 5 5 5 5 5 5 5 5 5 3 3 3 5 5 5 5 5 5 5 5 5 5 5 5 5 5 5 5 5 5 5 5 5 3 3 5 5 3 5 5 5 5 3 5 5 5 5 5 3 5 5 5 5 5 5 3 5 5 5 5 5 5 5 5 5 5 5 5 5 3 5 5 5 5 3 5 5 5 5 3 5 5 5 5 5 5 5 5 5 5 5 5 5 5 5 5 5 5 5 5 5 5 5 5 5 5 5 5 5 5 5 5 5 5 5 5 3 3 5 5 5 5 5 3 5 3 5 5 5 5 5 5 5 5 5 3 3 5 5 3 5 5 3 3 5 5 3 5 3 5 5 5 5 5 5 5 5 5 5 5 5 5 5 5 5 5 5 5 5 5 5 5 5 5 5 5 5 5 5 5 5 3 5 5 5 5 5 5 5 5 5 5 5 5 5 5 5 5 5 5 5 5 5 5 3 5 5 5 5 5 5 5 5 5 5 5 5 5 3 5 5 3 5 5 5 5 5 5 5 5 5 5 5 5 5 5 5 5 5 3 3 5 5 5 5 5 5 5 5 5 3 5 5 5 5 3 5 5 3 5 5 5 5 5 5 5 5 5 5 5 5 5 5 5 5 5 5 5 5 5 5 5 3 5 5 3 5 5 5 5 5 5 5 3 5 5 5 3 5 5 5 3 3 5 5 5 5 5 5 5 5 5 5 5 5 5 5 5 5 3 5 5 5 5 5 5 5 3 5 5 5 5 5 5 5 5 5 5 5 5 5 5 5 5 5 5 5 5 5 5 3 5 5 5 5 5 5 5 5 5 5 5 5 5 5 5 3 5 5 3 5 5 5 5 5 5 3 5 5 5 5 5 5 5 5 5 5 3 5 5 5 5 3 5 5 5 5 3 5 5 5 5 5 5 5 5 5 5 3 3 3 5 5 5 5 5 5 5 5 5 5 5 5 5 5 5 5 5 5 5 5 5 3 5 5 3 5 3 5 5 3 5 5 5 5 5 5 5 5 5 3 5 5 3 5 5 5 5 5 5 5 3 5 5 5 5 5 5 5 5 5 5 5 5 5 5 5 5 5 5 5 5 5 3 5 5 5 5 5 5 5 5 5 5 5 5 3 3 5 5 5 5 5 5 5 5 5 5 5 5 5 5 5 5 5 5 5 5 5 5 5 5 5 3 5 5 5 5 5 5 5 5 5 5 5 5 5 5 5 5 5 5 5 5 5 5 5 5 5 5 5 5 5 5 5 5 5 5 5 5 5 5 5 5 5 5 5 5 5 5 3 5 3 5 5 5 5 5 5 3 5 5 5 5 5 5 5 3 5 5 5 5 5 3 3 3 3 5 3 5 3 3 5 5 3 5 5 5 5 5 5 5 5 5 5 5 5 5 5 5 5 5 5 5 5 5 3 5 5 5 5 5 5 5 5 3 5 5 5 5 5 5 5 3 3 5 5 5 5 5 5 3 5 5 5 5 3 5 5 5 5 3 5 5 5 5 5 5 5 5 5 3 5 3 5 5 5 5 5 5 5 5 5 5 5 5 5 5 5 5 5 5 3 5 5 5 5 5 5 5 5 5 5 5 5 5 5 5 3 3 5 5 5 5 5 5 5 3 5 5 5 5 5 3 5 5 5 5 5 3 5 5 3 3 5 5 5 5 5 5 5 5 5 3 5 5 5 3 5 5 5 5 3 5 5 5 5 5 5 5 5 5 5 5 3 5 3 5 3 5 5 5 5 5 5 5 5 5 5 5 3 5 5 5 5 5 5 5 5 5 5 3 5 5 5 5 5 5 3 5 3 5 5 5 5 3 3 5 5 5 5 5 5 5 5 5 5 5 5 3 3 5 5 5 3 5 5 5 5 5 3 5 5 5 5 5 5 5 5 5 5 3 5 5 5 5 5 5 5 5 5 5 5 5 5 3 5 5 5 5 5 5 5 5 5 5 5 5 5 5 5 5 3 5 5 5 5 5 5 5 5 5 5 5 5 5 5 5 5 5 5 5 5 5 5 5 5 5 5 5 5 5 5 5 5 5 5 5 5 5 5 5 5 5 5 5 5 5 5 5 3 5 5 3 5 5 5 5 5 5 5 5 5 5 5 5 5 5 5 5 5 5 5 5 5 5 5 5 5 3 5 5 5 5 5 5 5 5 5 5 3 5 5 5 5 5 3 5 5 5 5 3 3 5 5 5 5 5 3 5 5 5 3 5 5 5 5 5 5 5 5 5 5 5 5 5 5 3 5 5 5 5 3 5 5 3 5 5 5 5 5 5 5 5 5 5 5 5 5 5 5 5 5 5 5 5 5 5 5 5 5 5 5 5 5 5 3 3 5 5 5 3 5 5 3 3 3 5 3 5 5 5 5 5 5 5 3 5 5 5 5 5 5 3 5 3 5 5 5 3 5 5 5 5 5 5 5 5 5 5 5 5 3 5 5 5 5 5 5 5 5 5 5 5 3 5 3 5 5 5 5 5 5 5 5 5 5 5 5 5 5 5 5 5 5 5 5 5 5 5 5 5 3 5 5 3 5 5 5 5 5 5 5 5 5 5 5 5 5 3 5 3 3 3 3 5 5 5 5 5 5 5 5 5 5 3 5 5 5 5 5 5 5 5 5 5 5 5 3 5 5 5 5 5 5 5 5 5 5 5 5 5 5 5 5 5 5 5 5 5 5 5 5 5 5 5 5 5 5 5 5 5 5 5 5 5 5 5 5 5 5 5 5 5 3 3 3 5 3 3 5 5 5 5 5 3 5 5 5 5 5 5 5 5 5 5 5 3 5 5 5 3 5 5 5 5 5 5 5 5 5 3 3 5 5 3 5 5 5 5 5 5 3 5 5 5 5 5 5 3 5 5 5 5 5 5 3 5 3 5 5 5 5 5 5 5 5 5 5 3 5 5 5 5 5 5 5 3 5 5 5 5 5 5 5 5 5 3 5 5 5 5 5 3 5 5 5 3 3 3 3 5 5 5 5 5 5 5 5 3 5 5 5 5 5 5 5 5 3 5 5 5 5 5 5 3 5 5 5 3 5 5 5 5 5 3 5 5 5 5 5 5 5 
</DataArray>
</Cells>
<PointData Scalars="" Vectors="displacement," Tensors="">
<DataArray type="Float64" Name="displacement" NumberOfComponents="3" format="ascii">
-0.034996785649901732 -2.1228709744777672e-07 0 -0.032800322109283672 -0.00025339493881539375 0 -0.034138215658960039 3.7514022702313872e-05 0 -0.034996785649901732 -2.1228709744777672e-07 0 -0.034138215658960039 3.7514022702313872e-05 0 -0.034997425451945584 3.0769825021454142e-07 0 -0.034996785649901732 -2.1228709744777672e-07 0 -0.031064281462023665 -1.1448981099736424e-06 0 -0.032800322109283672 -0.00025339493881539375 0 -0.031064281462023665 -1.1448981099736424e-06 0 -0.032800322109283672 -0.00025339493881539375 0 -0.031267887575206169 -0.00023995032929116276 0 -0.032500669655389322 -0.00035851727153388927 0 -0.032800322109283672 -0.00025339493881539375 0 -0.034138215658960039 3.7514022702313872e-05 0 -0.032500669655389322 -0.00035851727153388927 0 -0.032800322109283672 -0.00025339493881539375 0 -0.031826975168917637 -0.00035472326524510538 0 -0.034138215658960039 3.7514022702313872e-05 0 -0.034997425451945584 3.0769825021454142e-07 0 -0.034540717192983565 0.00038286385215866649 0 -0.034997425451945584 3.0769825021454142e-07 0 -0.034545677304768811 0.00039678882748904806 0 -0.034540717192983565 0.00038286385215866649 0 -0.034019897828232094 4.2764623420462422e-05 0 -0.033499567562185258 0.0001187542468190609 0 -0.034997425451945584 3.0769825021454142e-07 0 -0.034545677304768811 0.00039678882748904806 0 -0.034999574908851847 3.1094565342268932e-07 0 -0.034545677304768811 0.00039678882748904806 0 -0.034561195314855186 0.00028097025112408552 0 -0.033555707875860839 0.00092866475848119435 0 -0.034545677304768811 0.00039678882748904806 0 -0.034263510195358546 0.00030001946937202421 0 -0.034540717192983565 0.00038286385215866649 0 -0.034545677304768811 0.00039678882748904806 0 -0.034263510195358546 0.00030001946937202421 0 -0.033555707875860839 0.00092866475848119435 0 -0.034263510195358546 0.00030001946937202421 0 -0.032967386730912832 2.4321606015720532e-05 0 -0.033555707875860839 0.00092866475848119435 0 -0.031573892989833298 -0.00022880229900381542 0 -0.032456148416310004 -7.2435006769532085e-05 0 -0.03198988294335655 -0.00048068237478355837 0 -0.032500669655389322 -0.00035851727153388927 0 -0.034138215658960039 3.7514022702313872e-05 0 -0.032456148416310004 -7.2435006769532085e-05 0 -0.032500669655389322 -0.00035851727153388927 0 -0.032456148416310004 -7.2435006769532085e-05 0 -0.03198988294335655 -0.00048068237478355837 0 -0.032899887506652216 -3.966277112992718e-06 0 -0.033499567562185258 0.0001187542468190609 0 -0.032500669655389322 -0.00035851727153388927 0 -0.03198988294335655 -0.00048068237478355837 0 -0.031954215576817276 -0.00054913077553450629 0 -0.031573892989833298 -0.00022880229900381542 0 -0.03198988294335655 -0.00048068237478355837 0 -0.03158939537786197 -0.00083078057727904719 0 -0.031827381454772728 -0.00071806254986585337 0 -0.03158939537786197 -0.00083078057727904719 0 -0.031682485628511725 -0.000945633737428342 0 -0.03198988294335655 -0.00048068237478355837 0 -0.031827381454772728 -0.00071806254986585337 0 -0.03158939537786197 -0.00083078057727904719 0 -0.031827381454772728 -0.00071806254986585337 0 -0.031954215576817276 -0.00054913077553450629 0 -0.031784965879830332 -0.00061827332593449274 0 -0.03198988294335655 -0.00048068237478355837 0 -0.031827381454772728 -0.00071806254986585337 0 -0.031954215576817276 -0.00054913077553450629 0 -0.032899887506652216 -3.966277112992718e-06 0 -0.031733950828331872 -0.00098121230810234807 0 -0.034263510195358546 0.00030001946937202421 0 -0.032967386730912832 2.4321606015720532e-05 0 -0.03292267683969801 -0.0010831029186235085 0 -0.031573892989833298 -0.00022880229900381542 0 -0.03158939537786197 -0.00083078057727904719 0 -0.031104974055550679 -0.00099106059188047756 0 -0.031573892989833298 -0.00022880229900381542 0 -0.031104974055550679 -0.00099106059188047756 0 -0.030541058891366865 -0.00093248862730133456 0 -0.03158939537786197 -0.00083078057727904719 0 -0.031104974055550679 -0.00099106059188047756 0 -0.031332167205080599 -0.0012099915226679331 0 -0.031104974055550679 -0.00099106059188047756 0 -0.030541058891366865 -0.00093248862730133456 0 -0.030359500634544501 -0.0019790405466462158 0 -0.031332167205080599 -0.0012099915226679331 0 -0.031629112409240538 -0.001156493215150752 0 -0.031682485628511725 -0.000945633737428342 0 -0.031104974055550679 -0.00099106059188047756 0 -0.030359500634544501 -0.0019790405466462158 0 -0.031332167205080599 -0.0012099915226679331 0 -0.03158939537786197 -0.00083078057727904719 0 -0.031332167205080599 -0.0012099915226679331 0 -0.031682485628511725 -0.000945633737428342 0 -0.030359500634544501 -0.0019790405466462158 0 -0.031332167205080599 -0.0012099915226679331 0 -0.031629112409240538 -0.001156493215150752 0 -0.026134312902543054 -0.0011324445272261612 0 -0.02842340270195285 -0.0011002384766734788 0 -0.029591682435366633 0.0014813107564250118 0 -0.030066927786663675 -0.0019336826675537165 0 -0.028619975155166334 -0.0014697938696680848 0 -0.030359500634544501 -0.0019790405466462158 0 -0.02571140604390414 -0.001997478645834409 0 -0.02842340270195285 -0.0011002384766734788 0 -0.02571140604390414 -0.001997478645834409 0 -0.026134312902543054 -0.0011324445272261612 0 -0.02842340270195285 -0.0011002384766734788 0 -0.026134312902543054 -0.0011324445272261612 0 -0.024829981381290538 -0.00092945791060307511 0 -0.026498922573874314 4.4397509377376557e-05 0 -0.02571140604390414 -0.001997478645834409 0 -0.026134312902543054 -0.0011324445272261612 0 -0.024829981381290538 -0.00092945791060307511 0 -0.030359500634544501 -0.0019790405466462158 0 -0.02842340270195285 -0.0011002384766734788 0 -0.029515055724656798 -0.0013782740181874701 0 -0.02842340270195285 -0.0011002384766734788 0 -0.031084932742082964 -4.2677514866457491e-05 0 -0.029591682435366633 0.0014813107564250118 0 -0.029734219140910758 -0.00043253177451408237 0 -0.025545160283533541 -5.0921966445271375e-05 0 -0.02842340270195285 -0.0011002384766734788 0 -0.029515055724656798 -0.0013782740181874701 0 -0.030128101671566335 -0.0012774012334589762 0 -0.029515055724656798 -0.0013782740181874701 0 -0.029970699577491038 -0.0014073724534329594 0 -0.030128101671566335 -0.0012774012334589762 0 -0.029515055724656798 -0.0013782740181874701 0 -0.029970699577491038 -0.0014073724534329594 0 -0.030092153075197827 -0.0015868568022633599 0 -0.029970699577491038 -0.0014073724534329594 0 -0.030128101671566335 -0.0012774012334589762 0 -0.030181852380869519 -0.0015607875026360076 0 -0.029970699577491038 -0.0014073724534329594 0 -0.030092153075197827 -0.0015868568022633599 0 -0.030181852380869519 -0.0015607875026360076 0 -0.030359500634544501 -0.0019790405466462158 0 -0.030092153075197827 -0.0015868568022633599 0 -0.030306128043750137 -0.001795077211334644 0 -0.030359500634544501 -0.0019790405466462158 0 -0.029515055724656798 -0.0013782740181874701 0 -0.030092153075197827 -0.0015868568022633599 0 -0.031954215576817276 -0.00054913077553450629 0 -0.031784965879830332 -0.00061827332593449274 0 -0.031615459366197828 -0.0003431798796316647 0 -0.031784965879830332 -0.00061827332593449274 0 -0.031682485628511725 -0.000945633737428342 0 -0.031733624679649068 -0.00074987517402819441 0 -0.031827381454772728 -0.00071806254986585337 0 -0.031784965879830332 -0.00061827332593449274 0 -0.031682485628511725 -0.000945633737428342 0 -0.031629112409240538 -0.001156493215150752 0 -0.031682485628511725 -0.000945633737428342 0 -0.031733624679649068 -0.00074987517402819441 0 -0.031629112409240538 -0.001156493215150752 0 -0.031733624679649068 -0.00074987517402819441 0 -0.031754609563812909 -0.00020526136217253023 0 -0.028619975155166334 -0.0014697938696680848 0 -0.027328991764724614 -0.00057922811491450553 0 -0.02571140604390414 -0.001997478645834409 0 -0.024829981381290538 -0.00092945791060307511 0 -0.02292720360804102 -0.00094462587101826591 0 -0.031784965879830332 -0.00061827332593449274 0 -0.031733624679649068 -0.00074987517402819441 0 -0.031754609563812909 -0.00020526136217253023 0 -0.031784965879830332 -0.00061827332593449274 0 -0.03157156901693374 -0.0002448810511159084 0 -0.031754609563812909 -0.00020526136217253023 0 -0.03157156901693374 -0.0002448810511159084 0 -0.031261572714844872 0.00052350217542819369 0 -0.031754609563812909 -0.00020526136217253023 0 -0.03157156901693374 -0.0002448810511159084 0 -0.031123346924104817 1.4838190935644832e-05 0 -0.031261572714844872 0.00052350217542819369 0 -0.031784965879830332 -0.00061827332593449274 0 -0.03157156901693374 -0.0002448810511159084 0 -0.031615459366197828 -0.0003431798796316647 0 -0.03157156901693374 -0.0002448810511159084 0 -0.031615459366197828 -0.0003431798796316647 0 -0.031123346924104817 1.4838190935644832e-05 0 -0.031123346924104817 1.4838190935644832e-05 0 -0.030537804695251625 0.00015044507259782248 0 -0.031113252635534099 -0.00017834200879900111 0 -0.031615459366197828 -0.0003431798796316647 0 -0.031123346924104817 1.4838190935644832e-05 0 -0.031113252635534099 -0.00017834200879900111 0 -0.031123346924104817 1.4838190935644832e-05 0 -0.030615742318503798 0.00042486034475269828 0 -0.031261572714844872 0.00052350217542819369 0 -0.031123346924104817 1.4838190935644832e-05 0 -0.030615742318503798 0.00042486034475269828 0 -0.030537804695251625 0.00015044507259782248 0 -0.027322373217656855 8.4921936840260759e-05 0 -0.028022643775849558 5.3214359122239803e-07 0 -0.025652808038680669 2.9834715875913784e-05 0 -0.030615742318503798 0.00042486034475269828 0 -0.030202610807180136 0.00028105510404089932 0 -0.030537804695251625 0.00015044507259782248 0 -0.028797811599056214 6.0258866476195669e-05 0 -0.029549638807412421 -0.00026301939275848852 0 -0.030202610807180136 0.00028105510404089932 0 -0.030537804695251625 0.00015044507259782248 0 -0.029744783867069621 -8.2145253056062711e-05 0 -0.027322373217656855 8.4921936840260759e-05 0 -0.028022643775849558 5.3214359122239803e-07 0 -0.029744783867069621 -8.2145253056062711e-05 0 -0.030537804695251625 0.00015044507259782248 0 -0.029744783867069621 -8.2145253056062711e-05 0 -0.031113252635534099 -0.00017834200879900111 0 -0.031064281462023665 -1.1448981099736424e-06 0 -0.029744783867069621 -8.2145253056062711e-05 0 -0.031267887575206169 -0.00023995032929116276 0 -0.031064281462023665 -1.1448981099736424e-06 0 -0.028022643775849558 5.3214359122239803e-07 0 -0.029744783867069621 -8.2145253056062711e-05 0 -0.029744783867069621 -8.2145253056062711e-05 0 -0.031267887575206169 -0.00023995032929116276 0 -0.031113252635534099 -0.00017834200879900111 0 -0.032800322109283672 -0.00025339493881539375 0 -0.031267887575206169 -0.00023995032929116276 0 -0.031826975168917637 -0.00035472326524510538 0 -0.032500669655389322 -0.00035851727153388927 0 -0.031954215576817276 -0.00054913077553450629 0 -0.031826975168917637 -0.00035472326524510538 0 -0.031954215576817276 -0.00054913077553450629 0 -0.031615459366197828 -0.0003431798796316647 0 -0.031826975168917637 -0.00035472326524510538 0 -0.031615459366197828 -0.0003431798796316647 0 -0.031826975168917637 -0.00035472326524510538 0 -0.031113252635534099 -0.00017834200879900111 0 -0.031267887575206169 -0.00023995032929116276 0 -0.031826975168917637 -0.00035472326524510538 0 -0.031113252635534099 -0.00017834200879900111 0 -0.030523352576441877 0.0018079963400182554 0 -0.030615817526502859 0.0018941258150989859 0 -0.030516941249203473 0.0018831199867381174 0 -0.030523352576441877 0.0018079963400182554 0 -0.030516941249203473 0.0018831199867381174 0 -0.030423195233898102 0.0018322314683926772 0 -0.030523352576441877 0.0018079963400182554 0 -0.030436083334676782 0.0017530402868394029 0 -0.030423195233898102 0.0018322314683926772 0 -0.030523352576441877 0.0018079963400182554 0 -0.030616158835405343 0.0018303728121411471 0 -0.030615817526502859 0.0018941258150989859 0 -0.030616158835405343 0.0018303728121411471 0 -0.030615817526502859 0.0018941258150989859 0 -0.030698697886959132 0.0018781051468069975 0 -0.030615817526502859 0.0018941258150989859 0 -0.030651530378567701 0.0019633961300296525 0 -0.030714555567185154 0.0019262615570931397 0 -0.030615817526502859 0.0018941258150989859 0 -0.030560154967682562 0.0019460373941159789 0 -0.030651530378567701 0.0019633961300296525 0 -0.030560154967682562 0.0019460373941159789 0 -0.030516941249203473 0.0018831199867381174 0 -0.030444840987455302 0.0019146459334033734 0 -0.030560154967682562 0.0019460373941159789 0 -0.030488657899413615 0.0020233058572847514 0 -0.030444840987455302 0.0019146459334033734 0 -0.030615817526502859 0.0018941258150989859 0 -0.030560154967682562 0.0019460373941159789 0 -0.030516941249203473 0.0018831199867381174 0 -0.030560154967682562 0.0019460373941159789 0 -0.030603701419961736 0.0020040703614381422 0 -0.030488657899413615 0.0020233058572847514 0 -0.030638243282596778 0.002074506577705922 0 -0.030603701419961736 0.0020040703614381422 0 -0.030488657899413615 0.0020233058572847514 0 -0.033780420636112016 0.00043462672067167367 0 -0.032564169935422209 0.0010499649446057771 0 -0.034999979084571357 -1.4898931316065882e-09 0 -0.034998981629350952 -9.4791613917540131e-07 0 -0.03499083707972752 -2.9611332502895045e-06 0 -0.033780420636112016 0.00043462672067167367 0 -0.035459532053230089 -0.00011840396348497646 0 -0.034901546550882775 7.6730404557985225e-06 0 -0.03499083707972752 -2.9611332502895045e-06 0 -0.034971788650144532 2.5453028349062886e-05 0 -0.033780420636112016 0.00043462672067167367 0 -0.032707857949405499 0.0013429237544820589 0 -0.035276497875478374 0.00018463044931346894 0 -0.03512404707043483 0.00042100427107715269 0 -0.035002651340895696 9.9728752165045133e-07 0 -0.030638243282596778 0.002074506577705922 0 -0.030673926382217814 0.0020132476938178336 0 -0.030748617291148455 0.0020382811154185444 0 -0.034999979084571357 -1.4898931316065882e-09 0 -0.034998981629350952 -9.4791613917540131e-07 0 -0.035000005726480252 9.8794473578161961e-10 0 -0.033780420636112016 0.00043462672067167367 0 -0.035000616119408301 4.936754016481485e-07 0 -0.030638243282596778 0.002074506577705922 0 -0.030673926382217814 0.0020132476938178336 0 -0.030603701419961736 0.0020040703614381422 0 -0.030560154967682562 0.0019460373941159789 0 -0.030603701419961736 0.0020040703614381422 0 -0.030651530378567701 0.0019633961300296525 0 -0.030673926382217814 0.0020132476938178336 0 -0.030603701419961736 0.0020040703614381422 0 -0.030651530378567701 0.0019633961300296525 0 -0.030673926382217814 0.0020132476938178336 0 -0.030651530378567701 0.0019633961300296525 0 -0.030734022654524067 0.0019775817396132517 0 -0.030734022654524067 0.0019775817396132517 0 -0.030748617291148455 0.0020382811154185444 0 -0.030862697152841612 0.0019844569952616863 0 -0.030651530378567701 0.0019633961300296525 0 -0.030734022654524067 0.0019775817396132517 0 -0.030714555567185154 0.0019262615570931397 0 -0.030734022654524067 0.0019775817396132517 0 -0.030786925443593988 0.0019308234878512177 0 -0.030714555567185154 0.0019262615570931397 0 -0.030673926382217814 0.0020132476938178336 0 -0.030734022654524067 0.0019775817396132517 0 -0.030748617291148455 0.0020382811154185444 0 -0.03512404707043483 0.00042100427107715269 0 -0.035002651340895696 9.9728752165045133e-07 0 -0.034996577895145188 -7.4080863320019692e-07 0 -0.032707857949405499 0.0013429237544820589 0 -0.032259568946983674 0.0016519387003300777 0 -0.034996577895145188 -7.4080863320019692e-07 0 -0.033727627520208414 0.0014893874459806383 0 -0.031477764876353204 0.0014381038582672253 0 -0.03512404707043483 0.00042100427107715269 0 -0.034996577895145188 -7.4080863320019692e-07 0 -0.033727627520208414 0.0014893874459806383 0 -0.030734022654524067 0.0019775817396132517 0 -0.030862697152841612 0.0019844569952616863 0 -0.030786925443593988 0.0019308234878512177 0 -0.030862697152841612 0.0019844569952616863 0 -0.030852828405276395 0.0018943700660753007 0 -0.03095387465329693 0.0018317895280492037 0 -0.030862697152841612 0.0019844569952616863 0 -0.030786925443593988 0.0019308234878512177 0 -0.030852828405276395 0.0018943700660753007 0 -0.030852828405276395 0.0018943700660753007 0 -0.030787788202343971 0.0019129373803815409 0 -0.030851094078363391 0.0019141416063147218 0 -0.030787788202343971 0.0019129373803815409 0 -0.030802690590466999 0.0019288282288956041 0 -0.030851094078363391 0.0019141416063147218 0 -0.030786925443593988 0.0019308234878512177 0 -0.030852828405276395 0.0018943700660753007 0 -0.030787788202343971 0.0019129373803815409 0 -0.030786925443593988 0.0019308234878512177 0 -0.030787788202343971 0.0019129373803815409 0 -0.030714555567185154 0.0019262615570931397 0 -0.030615817526502859 0.0018941258150989859 0 -0.030714555567185154 0.0019262615570931397 0 -0.030698697886959132 0.0018781051468069975 0 -0.030787788202343971 0.0019129373803815409 0 -0.030714555567185154 0.0019262615570931397 0 -0.030698697886959132 0.0018781051468069975 0 -0.030698697886959132 0.0018781051468069975 0 -0.030736213534716422 0.0018655413278562195 0 -0.030656252920338679 0.001805053472106037 0 -0.030616158835405343 0.0018303728121411471 0 -0.030698697886959132 0.0018781051468069975 0 -0.030656252920338679 0.001805053472106037 0 -0.030787788202343971 0.0019129373803815409 0 -0.030698697886959132 0.0018781051468069975 0 -0.030736213534716422 0.0018655413278562195 0 -0.030787788202343971 0.0019129373803815409 0 -0.030736213534716422 0.0018655413278562195 0 -0.030802690590466999 0.0019288282288956041 0 -0.030736213534716422 0.0018655413278562195 0 -0.030802690590466999 0.0019288282288956041 0 -0.030778052285384543 0.0018762831196333313 0 -0.030834978306681703 0.0019557390280748972 0 -0.030326221692756047 0.0020714615566072613 0 -0.030764160856078873 0.0019693960304397072 0 -0.030802690590466999 0.0019288282288956041 0 -0.030834978306681703 0.0019557390280748972 0 -0.030764160856078873 0.0019693960304397072 0 -0.030802690590466999 0.0019288282288956041 0 -0.030834978306681703 0.0019557390280748972 0 -0.030778052285384543 0.0018762831196333313 0 -0.027201760948083763 0.00054081820803542427 0 -0.029936693690795955 0.00067396334143214945 0 -0.030326221692756047 0.0020714615566072613 0 -0.029237898434650963 0.0012796303198719795 0 -0.030069248632858592 0.0019415267141652192 0 -0.030326221692756047 0.0020714615566072613 0 -0.030796168745106971 0.0019244571124357455 0 -0.03049719002210019 0.0024304880105560246 0 -0.030326221692756047 0.0020714615566072613 0 -0.030796168745106971 0.0019244571124357455 0 -0.030764160856078873 0.0019693960304397072 0 -0.030796168745106971 0.0019244571124357455 0 -0.030851094078363391 0.0019141416063147218 0 -0.03095387465329693 0.0018317895280492037 0 -0.030796168745106971 0.0019244571124357455 0 -0.030764160856078873 0.0019693960304397072 0 -0.030851094078363391 0.0019141416063147218 0 -0.030802690590466999 0.0019288282288956041 0 -0.030764160856078873 0.0019693960304397072 0 -0.030851094078363391 0.0019141416063147218 0 -0.032259568946983674 0.0016519387003300777 0 -0.031322279142522676 0.001735240267129574 0 -0.030852828405276395 0.0018943700660753007 0 -0.030851094078363391 0.0019141416063147218 0 -0.03095387465329693 0.0018317895280492037 0 -0.03500037174444124 -3.0169967826192017e-08 0 -0.035028840335075001 8.1660477606057731e-05 0 -0.034998535004158698 9.4011217639405594e-05 0 -0.03500037174444124 -3.0169967826192017e-08 0 -0.034998535004158698 9.4011217639405594e-05 0 -0.034999574908851847 3.1094565342268932e-07 0 -0.030862697152841612 0.0019844569952616863 0 -0.03095387465329693 0.0018317895280492037 0 -0.031219617623744412 0.0016806434118087482 0 -0.033727627520208414 0.0014893874459806383 0 -0.031477764876353204 0.0014381038582672253 0 -0.031219617623744412 0.0016806434118087482 0 -0.030796168745106971 0.0019244571124357455 0 -0.03095387465329693 0.0018317895280492037 0 -0.031219617623744412 0.0016806434118087482 0 -0.034849547859070254 2.3449669611482479e-05 0 -0.033302187400472659 0.00079598478741345899 0 -0.035028840335075001 8.1660477606057731e-05 0 -0.03493194021024195 0.00046380827551640609 0 -0.034998535004158698 9.4011217639405594e-05 0 -0.031477764876353204 0.0014381038582672253 0 -0.031219617623744412 0.0016806434118087482 0 -0.03049719002210019 0.0024304880105560246 0 -0.033302187400472659 0.00079598478741345899 0 -0.032751888227439421 0.0013848219329306124 0 -0.030796168745106971 0.0019244571124357455 0 -0.031219617623744412 0.0016806434118087482 0 -0.03049719002210019 0.0024304880105560246 0 -0.034545677304768811 0.00039678882748904806 0 -0.034999574908851847 3.1094565342268932e-07 0 -0.034561195314855186 0.00028097025112408552 0 -0.03493194021024195 0.00046380827551640609 0 -0.034998535004158698 9.4011217639405594e-05 0 -0.034561195314855186 0.00028097025112408552 0 -0.034998535004158698 9.4011217639405594e-05 0 -0.034999574908851847 3.1094565342268932e-07 0 -0.034561195314855186 0.00028097025112408552 0 -0.03493194021024195 0.00046380827551640609 0 -0.034561195314855186 0.00028097025112408552 0 -0.033555707875860839 0.00092866475848119435 0 -0.032751888227439421 0.0013848219329306124 0 -0.03353221860519863 0.00095507430502423567 0 -0.03049719002210019 0.0024304880105560246 0 -0.033555707875860839 0.00092866475848119435 0 -0.031007756442066256 0.0013219534182829045 0 -0.030326221692756047 0.0020714615566072613 0 -0.03049719002210019 0.0024304880105560246 0 -0.031007756442066256 0.0013219534182829045 0 -0.029936693690795955 0.00067396334143214945 0 -0.031007756442066256 0.0013219534182829045 0 -0.031475873135936 0.0003457468903542985 0 -0.029936693690795955 0.00067396334143214945 0 -0.030326221692756047 0.0020714615566072613 0 -0.031007756442066256 0.0013219534182829045 0 -0.029936693690795955 0.00067396334143214945 0 -0.031475873135936 0.0003457468903542985 0 -0.0303683318420402 -0.00030813721262715963 0 -0.032967386730912832 2.4321606015720532e-05 0 -0.033555707875860839 0.00092866475848119435 0 -0.031475873135936 0.0003457468903542985 0 -0.033555707875860839 0.00092866475848119435 0 -0.031007756442066256 0.0013219534182829045 0 -0.031475873135936 0.0003457468903542985 0 -0.032967386730912832 2.4321606015720532e-05 0 -0.031475873135936 0.0003457468903542985 0 -0.031371481456674885 -0.00080556491918209756 0 -0.032967386730912832 2.4321606015720532e-05 0 -0.03292267683969801 -0.0010831029186235085 0 -0.031371481456674885 -0.00080556491918209756 0 -0.031475873135936 0.0003457468903542985 0 -0.031371481456674885 -0.00080556491918209756 0 -0.0303683318420402 -0.00030813721262715963 0 -0.031371481456674885 -0.00080556491918209756 0 -0.0303683318420402 -0.00030813721262715963 0 -0.030123071222486617 -0.0013082212390669267 0 -0.031371481456674885 -0.00080556491918209756 0 -0.030123071222486617 -0.0013082212390669267 0 -0.030458561491015727 -0.0019691709598298754 0 -0.03292267683969801 -0.0010831029186235085 0 -0.031371481456674885 -0.00080556491918209756 0 -0.030458561491015727 -0.0019691709598298754 0 -0.031733950828331872 -0.00098121230810234807 0 -0.030608072052955248 -0.0018755184139229522 0 -0.030541058891366865 -0.00093248862730133456 0 -0.030359500634544501 -0.0019790405466462158 0 -0.030458561491015727 -0.0019691709598298754 0 -0.030359500634544501 -0.0019790405466462158 0 -0.030458561491015727 -0.0019691709598298754 0 -0.030306128043750137 -0.001795077211334644 0 -0.030458561491015727 -0.0019691709598298754 0 -0.030306128043750137 -0.001795077211334644 0 -0.030266140823113054 -0.0017179172095306762 0 -0.030458561491015727 -0.0019691709598298754 0 -0.030266140823113054 -0.0017179172095306762 0 -0.030170928708321401 -0.0019384139578140244 0 -0.030092153075197827 -0.0015868568022633599 0 -0.030306128043750137 -0.001795077211334644 0 -0.030181852380869519 -0.0015607875026360076 0 -0.030266140823113054 -0.0017179172095306762 0 -0.030170928708321401 -0.0019384139578140244 0 -0.030225313756541146 -0.0020510011513779247 0 -0.030306128043750137 -0.001795077211334644 0 -0.030266140823113054 -0.0017179172095306762 0 -0.030181852380869519 -0.0015607875026360076 0 -0.030128101671566335 -0.0012774012334589762 0 -0.030266140823113054 -0.0017179172095306762 0 -0.030181852380869519 -0.0015607875026360076 0 -0.030458561491015727 -0.0019691709598298754 0 -0.030170928708321401 -0.0019384139578140244 0 -0.029866805266446202 -0.0019499629239129832 0 -0.030170928708321401 -0.0019384139578140244 0 -0.029866805266446202 -0.0019499629239129832 0 -0.029906057266387454 -0.0020860817773580061 0 -0.030170928708321401 -0.0019384139578140244 0 -0.029906057266387454 -0.0020860817773580061 0 -0.030225313756541146 -0.0020510011513779247 0 -0.030458561491015727 -0.0019691709598298754 0 -0.029950528523647935 -0.0017462189006711578 0 -0.029866805266446202 -0.0019499629239129832 0 -0.030123071222486617 -0.0013082212390669267 0 -0.030458561491015727 -0.0019691709598298754 0 -0.029950528523647935 -0.0017462189006711578 0 -0.029269120683500592 -0.0017016319832271756 0 -0.029866805266446202 -0.0019499629239129832 0 -0.02945584282031595 -0.0020881404792349751 0 -0.029950528523647935 -0.0017462189006711578 0 -0.029269120683500592 -0.0017016319832271756 0 -0.029866805266446202 -0.0019499629239129832 0 -0.029866805266446202 -0.0019499629239129832 0 -0.029906057266387454 -0.0020860817773580061 0 -0.02945584282031595 -0.0020881404792349751 0 -0.023758573881107883 -0.0018255658636717425 0 -0.024433744167365431 -0.0018863205806845674 0 -0.023795566551576091 -0.0017456623823142419 0 -0.023758573881107883 -0.0018255658636717425 0 -0.023795566551576091 -0.0017456623823142419 0 -0.023251627676783806 -0.0014094321601761549 0 -0.025720300149822555 -0.00177337205742259 0 -0.023758573881107883 -0.0018255658636717425 0 -0.024433744167365431 -0.0018863205806845674 0 -0.025720300149822555 -0.00177337205742259 0 -0.025218375653324136 -0.0015885905074094298 0 -0.024433744167365431 -0.0018863205806845674 0 -0.027514409228574874 -0.0015492147911689755 0 -0.026825078526909272 -0.0018818825773230469 0 -0.026077394261570189 -0.0011742990864519187 0 -0.026545048524592291 -0.00058095854373291949 0 -0.024940571111789354 -0.0012985492400038171 0 -0.025218375653324136 -0.0015885905074094298 0 -0.026077394261570189 -0.0011742990864519187 0 -0.024436885358447201 -0.0011721787273892379 0 -0.025285628044969991 -0.0011596936241457401 0 -0.02658728669221903 5.2841933322919056e-05 0 -0.025720300149822555 -0.00177337205742259 0 -0.026077394261570189 -0.0011742990864519187 0 -0.028530156303717968 -0.00033559498415639433 0 -0.025720300149822555 -0.00177337205742259 0 -0.025218375653324136 -0.0015885905074094298 0 -0.026077394261570189 -0.0011742990864519187 0 -0.027514409228574874 -0.0015492147911689755 0 -0.028396270213557503 -0.0002345595099373 0 -0.030123071222486617 -0.0013082212390669267 0 -0.029269120683500592 -0.0017016319832271756 0 -0.028530156303717968 -0.00033559498415639433 0 -0.030123071222486617 -0.0013082212390669267 0 -0.029950528523647935 -0.0017462189006711578 0 -0.029269120683500592 -0.0017016319832271756 0 -0.027201760948083763 0.00054081820803542427 0 -0.029936693690795955 0.00067396334143214945 0 -0.028530156303717968 -0.00033559498415639433 0 -0.0303683318420402 -0.00030813721262715963 0 -0.030123071222486617 -0.0013082212390669267 0 -0.028530156303717968 -0.00033559498415639433 0 -0.029936693690795955 0.00067396334143214945 0 -0.0303683318420402 -0.00030813721262715963 0 -0.028530156303717968 -0.00033559498415639433 0 -0.029237898434650963 0.0012796303198719795 0 -0.02658728669221903 5.2841933322919056e-05 0 -0.027201760948083763 0.00054081820803542427 0 -0.028530156303717968 -0.00033559498415639433 0 -0.026545048524592291 -0.00058095854373291949 0 -0.027201760948083763 0.00054081820803542427 0 -0.026545048524592291 -0.00058095854373291949 0 -0.024940571111789354 -0.0012985492400038171 0 -0.026077394261570189 -0.0011742990864519187 0 -0.028530156303717968 -0.00033559498415639433 0 -0.026545048524592291 -0.00058095854373291949 0 -0.030834978306681703 0.0019557390280748972 0 -0.030778052285384543 0.0018762831196333313 0 -0.030735811491191686 0.0017070045666855295 0 -0.030736213534716422 0.0018655413278562195 0 -0.030684260643815787 0.0017616200165013046 0 -0.030735811491191686 0.0017070045666855295 0 -0.030736213534716422 0.0018655413278562195 0 -0.030778052285384543 0.0018762831196333313 0 -0.030735811491191686 0.0017070045666855295 0 -0.030736213534716422 0.0018655413278562195 0 -0.030656252920338679 0.001805053472106037 0 -0.030684260643815787 0.0017616200165013046 0 -0.030656252920338679 0.001805053472106037 0 -0.030684260643815787 0.0017616200165013046 0 -0.030607838137107411 0.0016892906393858474 0 -0.02658728669221903 5.2841933322919056e-05 0 -0.028016907285160882 0.0010324786995154934 0 -0.030684260643815787 0.0017616200165013046 0 -0.030735811491191686 0.0017070045666855295 0 -0.030607838137107411 0.0016892906393858474 0 -0.024547568990977191 0.00021192599038815234 0 -0.02476858100546437 0.00054939027948228256 0 -0.024987647571388601 0.0002054103599732832 0 -0.025218375653324136 -0.0015885905074094298 0 -0.024436885358447201 -0.0011721787273892379 0 -0.024433744167365431 -0.0018863205806845674 0 -0.02658728669221903 5.2841933322919056e-05 0 -0.02410726679756825 -0.00083236408729699617 0 -0.024436885358447201 -0.0011721787273892379 0 -0.024433744167365431 -0.0018863205806845674 0 -0.023989322159985997 -0.0018312864171649149 0 -0.024433744167365431 -0.0018863205806845674 0 -0.023920837564014634 -0.0017877899191797158 0 -0.023989322159985997 -0.0018312864171649149 0 -0.024433744167365431 -0.0018863205806845674 0 -0.023795566551576091 -0.0017456623823142419 0 -0.023920837564014634 -0.0017877899191797158 0 -0.023795566551576091 -0.0017456623823142419 0 -0.023920837564014634 -0.0017877899191797158 0 -0.023593464858804449 -0.0014453339084956861 0 -0.02410726679756825 -0.00083236408729699617 0 -0.024981276346156951 -0.00044717368135055923 0 -0.023920837564014634 -0.0017877899191797158 0 -0.024449571785944674 -0.0017489038722740948 0 -0.024115692958507778 -0.0013645040923596081 0 -0.023920837564014634 -0.0017877899191797158 0 -0.023989322159985997 -0.0018312864171649149 0 -0.024449571785944674 -0.0017489038722740948 0 -0.023920837564014634 -0.0017877899191797158 0 -0.024115692958507778 -0.0013645040923596081 0 -0.023593464858804449 -0.0014453339084956861 0 -0.02476858100546437 0.00054939027948228256 0 -0.025245483718806146 0.00061562206497281437 0 -0.025014330494810954 0.00094395609159646243 0 -0.02476858100546437 0.00054939027948228256 0 -0.025245483718806146 0.00061562206497281437 0 -0.024987647571388601 0.0002054103599732832 0 -0.025245483718806146 0.00061562206497281437 0 -0.025014330494810954 0.00094395609159646243 0 -0.025267500707709677 0.0010062200110293931 0 -0.025245483718806146 0.00061562206497281437 0 -0.025521825782882358 0.00095725666820739943 0 -0.025267500707709677 0.0010062200110293931 0 -0.025245483718806146 0.00061562206497281437 0 -0.025499054507987583 0.00016408228684484458 0 -0.02578538805321064 0.00042677933369989358 0 -0.025245483718806146 0.00061562206497281437 0 -0.025521825782882358 0.00095725666820739943 0 -0.02578538805321064 0.00042677933369989358 0 -0.025245483718806146 0.00061562206497281437 0 -0.025499054507987583 0.00016408228684484458 0 -0.024987647571388601 0.0002054103599732832 0 -0.027980298029002447 0.00090638658197621995 0 -0.028016907285160882 0.0010324786995154934 0 -0.030474429452062128 0.0016604660574692839 0 -0.030607838137107411 0.0016892906393858474 0 -0.03058116218058481 0.0017664392287824527 0 -0.030656252920338679 0.001805053472106037 0 -0.030607838137107411 0.0016892906393858474 0 -0.03058116218058481 0.0017664392287824527 0 -0.030616158835405343 0.0018303728121411471 0 -0.030656252920338679 0.001805053472106037 0 -0.03058116218058481 0.0017664392287824527 0 -0.030523352576441877 0.0018079963400182554 0 -0.030616158835405343 0.0018303728121411471 0 -0.03058116218058481 0.0017664392287824527 0 -0.030523352576441877 0.0018079963400182554 0 -0.030474429452062128 0.0016604660574692839 0 -0.030436083334676782 0.0017530402868394029 0 -0.030523352576441877 0.0018079963400182554 0 -0.030474429452062128 0.0016604660574692839 0 -0.03058116218058481 0.0017664392287824527 0 -0.015325999921430239 0.0059157371777736742 0 -0.017068242043769336 0.0068788988326809863 0 -0.015146579274079672 0.0081601006511880583 0 -0.015325999921430239 0.0059157371777736742 0 -0.017068242043769336 0.0068788988326809863 0 -0.016791419024854641 0.0050349786012099879 0 -0.017068242043769336 0.0068788988326809863 0 -0.018976037615241453 0.0053997803301471308 0 -0.016791419024854641 0.0050349786012099879 0 -0.017068242043769336 0.0068788988326809863 0 -0.019154638597714293 0.0079481170970060553 0 -0.018976037615241453 0.0053997803301471308 0 -0.017091521595102285 0.0086916416964916629 0 -0.017142859445786678 0.01110696180214279 0 -0.019154638597714293 0.0079481170970060553 0 -0.020479009496224106 0.0053676966302340021 0 -0.021758302006522203 0.0048454901073309844 0 -0.017068242043769336 0.0068788988326809863 0 -0.017091521595102285 0.0086916416964916629 0 -0.019154638597714293 0.0079481170970060553 0 -0.016395062433298295 0.0063329023588428032 0 -0.017313478464817036 0.0075213011724052743 0 -0.016139640955066897 0.0068832639682679378 0 -0.017091521595102285 0.0086916416964916629 0 -0.015146579274079672 0.0081601006511880583 0 -0.017142859445786678 0.01110696180214279 0 -0.017068242043769336 0.0068788988326809863 0 -0.017091521595102285 0.0086916416964916629 0 -0.015146579274079672 0.0081601006511880583 0 -0.022875810262411148 0.002003894798753078 0 -0.020743979947308679 0.0049163487520759303 0 -0.025109015084109898 0.0015847666803215498 0 -0.025590937372979999 0.0017867175547981405 0 -0.025616718093059765 0.0021680191986955524 0 -0.017094116875337548 0.0078999331299477397 0 -0.017313478464817036 0.0075213011724052743 0 -0.016139640955066897 0.0068832639682679378 0 -0.015437817259877263 0.007878998689125111 0 -0.020479009496224106 0.0053676966302340021 0 -0.025521825782882358 0.00095725666820739943 0 -0.025478637757950697 0.0015179096672003141 0 -0.025109015084109898 0.0015847666803215498 0 -0.025478637757950697 0.0015179096672003141 0 -0.025109015084109898 0.0015847666803215498 0 -0.025590937372979999 0.0017867175547981405 0 -0.025521825782882358 0.00095725666820739943 0 -0.025267500707709677 0.0010062200110293931 0 -0.025272585898353361 0.0013154603587228941 0 -0.026056644764851967 0.00055888857934059081 0 -0.022875810262411148 0.002003894798753078 0 -0.024449571785944674 -0.0017489038722740948 0 -0.025388671026779965 -0.00089211464657941268 0 -0.024706652446914983 -0.00085273700839429731 0 -0.025014330494810954 0.00094395609159646243 0 -0.025267500707709677 0.0010062200110293931 0 -0.025272585898353361 0.0013154603587228941 0 -0.024449571785944674 -0.0017489038722740948 0 -0.024706652446914983 -0.00085273700839429731 0 -0.024115692958507778 -0.0013645040923596081 0 -0.024981276346156951 -0.00044717368135055923 0 -0.022875810262411148 0.002003894798753078 0 -0.025388671026779965 -0.00089211464657941268 0 -0.024706652446914983 -0.00085273700839429731 0 -0.025088708629165783 -0.00063486575653889335 0 -0.025315733407357738 -0.00046047136203377362 0 -0.024279768447182975 0.00017268545177290563 0 -0.024199324359266857 0.0019354657834742941 0 -0.02465280882182478 -0.00035872237736973026 0 -0.025315733407357738 -0.00046047136203377362 0 -0.024279768447182975 0.00017268545177290563 0 -0.024706652446914983 -0.00085273700839429731 0 -0.02465280882182478 -0.00035872237736973026 0 -0.024212786703622195 -0.00072761661287459195 0 -0.024706652446914983 -0.00085273700839429731 0 -0.02465280882182478 -0.00035872237736973026 0 -0.02491946580465728 -0.00056621381886593576 0 -0.02465280882182478 -0.00035872237736973026 0 -0.024279768447182975 0.00017268545177290563 0 -0.024242895161320239 -0.00032980719327847026 0 -0.02465280882182478 -0.00035872237736973026 0 -0.025315733407357738 -0.00046047136203377362 0 -0.02491946580465728 -0.00056621381886593576 0 -0.022875810262411148 0.002003894798753078 0 -0.020479009496224106 0.0053676966302340021 0 -0.025388671026779965 -0.00089211464657941268 0 -0.02517611728951755 -0.00048043775940526437 0 -0.025088708629165783 -0.00063486575653889335 0 -0.020479009496224106 0.0053676966302340021 0 -0.020655140086191747 0.004251324662260198 0 -0.025315733407357738 -0.00046047136203377362 0 -0.02491946580465728 -0.00056621381886593576 0 -0.025088708629165783 -0.00063486575653889335 0 -0.024706652446914983 -0.00085273700839429731 0 -0.02491946580465728 -0.00056621381886593576 0 -0.025088708629165783 -0.00063486575653889335 0 -0.024279768447182975 0.00017268545177290563 0 -0.023159679831866536 0.00044935035256908038 0 -0.023829307376339242 -0.00037582271861058265 0 -0.023829307376339242 -0.00037582271861058265 0 -0.023687149162327996 -0.00096214881067266736 0 -0.0233623388735716 -0.00060295250595411565 0 -0.023829307376339242 -0.00037582271861058265 0 -0.024212786703622195 -0.00072761661287459195 0 -0.023687149162327996 -0.00096214881067266736 0 -0.023159679831866536 0.00044935035256908038 0 -0.023829307376339242 -0.00037582271861058265 0 -0.0233623388735716 -0.00060295250595411565 0 -0.024279768447182975 0.00017268545177290563 0 -0.023829307376339242 -0.00037582271861058265 0 -0.024242895161320239 -0.00032980719327847026 0 -0.023829307376339242 -0.00037582271861058265 0 -0.024242895161320239 -0.00032980719327847026 0 -0.024212786703622195 -0.00072761661287459195 0 -0.02465280882182478 -0.00035872237736973026 0 -0.024242895161320239 -0.00032980719327847026 0 -0.024212786703622195 -0.00072761661287459195 0 -0.024706652446914983 -0.00085273700839429731 0 -0.024212786703622195 -0.00072761661287459195 0 -0.024115692958507778 -0.0013645040923596081 0 -0.024212786703622195 -0.00072761661287459195 0 -0.023687149162327996 -0.00096214881067266736 0 -0.024115692958507778 -0.0013645040923596081 0 -0.023687149162327996 -0.00096214881067266736 0 -0.024115692958507778 -0.0013645040923596081 0 -0.023593464858804449 -0.0014453339084956861 0 -0.023795566551576091 -0.0017456623823142419 0 -0.023251627676783806 -0.0014094321601761549 0 -0.023593464858804449 -0.0014453339084956861 0 -0.023687149162327996 -0.00096214881067266736 0 -0.023593464858804449 -0.0014453339084956861 0 -0.023035427235151309 -0.00089691886410683624 0 -0.023251627676783806 -0.0014094321601761549 0 -0.023035427235151309 -0.00089691886410683624 0 -0.022701341117521225 -0.0010447475313490951 0 -0.023251627676783806 -0.0014094321601761549 0 -0.023593464858804449 -0.0014453339084956861 0 -0.023035427235151309 -0.00089691886410683624 0 -0.023035427235151309 -0.00089691886410683624 0 -0.022469864121401149 -0.00051950048533175286 0 -0.022701341117521225 -0.0010447475313490951 0 -0.022469864121401149 -0.00051950048533175286 0 -0.021927776445176718 -0.00059316092982488399 0 -0.022701341117521225 -0.0010447475313490951 0 -0.023035427235151309 -0.00089691886410683624 0 -0.022469864121401149 -0.00051950048533175286 0 -0.022868894743398344 -0.00031512316368069443 0 -0.023687149162327996 -0.00096214881067266736 0 -0.023035427235151309 -0.00089691886410683624 0 -0.0233623388735716 -0.00060295250595411565 0 -0.023035427235151309 -0.00089691886410683624 0 -0.0233623388735716 -0.00060295250595411565 0 -0.022868894743398344 -0.00031512316368069443 0 -0.023159679831866536 0.00044935035256908038 0 -0.0233623388735716 -0.00060295250595411565 0 -0.022868894743398344 -0.00031512316368069443 0 -0.023159679831866536 0.00044935035256908038 0 -0.022868894743398344 -0.00031512316368069443 0 -0.022340475560000572 0.00021651675109665231 0 -0.022469864121401149 -0.00051950048533175286 0 -0.022340475560000572 0.00021651675109665231 0 -0.021678050454367249 1.8495110639370036e-05 0 -0.022469864121401149 -0.00051950048533175286 0 -0.021678050454367249 1.8495110639370036e-05 0 -0.021927776445176718 -0.00059316092982488399 0 -0.022469864121401149 -0.00051950048533175286 0 -0.022868894743398344 -0.00031512316368069443 0 -0.022340475560000572 0.00021651675109665231 0 -0.022340475560000572 0.00021651675109665231 0 -0.021744497929863014 0.0005612003766298319 0 -0.021678050454367249 1.8495110639370036e-05 0 -0.022340475560000572 0.00021651675109665231 0 -0.021744497929863014 0.0005612003766298319 0 -0.021985854981313075 0.0014184301583419485 0 -0.023159679831866536 0.00044935035256908038 0 -0.021985854981313075 0.0014184301583419485 0 -0.022426872298165923 0.0024787213814879776 0 -0.021985854981313075 0.0014184301583419485 0 -0.02141025259431854 0.0039496449381486729 0 -0.020971025978559918 0.00066947946293839384 0 -0.021744497929863014 0.0005612003766298319 0 -0.021985854981313075 0.0014184301583419485 0 -0.020971025978559918 0.00066947946293839384 0 -0.023159679831866536 0.00044935035256908038 0 -0.022340475560000572 0.00021651675109665231 0 -0.021985854981313075 0.0014184301583419485 0 -0.023159679831866536 0.00044935035256908038 0 -0.024199324359266857 0.0019354657834742941 0 -0.022426872298165923 0.0024787213814879776 0 -0.024279768447182975 0.00017268545177290563 0 -0.023159679831866536 0.00044935035256908038 0 -0.024199324359266857 0.0019354657834742941 0 -0.024199324359266857 0.0019354657834742941 0 -0.022426872298165923 0.0024787213814879776 0 -0.021455375780035254 0.0042041400041359185 0 -0.021758302006522203 0.0048454901073309844 0 -0.021521843085138673 0.0042451417650217482 0 -0.019154638597714293 0.0079481170970060553 0 -0.021455375780035254 0.0042041400041359185 0 -0.018976037615241453 0.0053997803301471308 0 -0.021985854981313075 0.0014184301583419485 0 -0.022426872298165923 0.0024787213814879776 0 -0.02141025259431854 0.0039496449381486729 0 -0.022426872298165923 0.0024787213814879776 0 -0.02141025259431854 0.0039496449381486729 0 -0.021455375780035254 0.0042041400041359185 0 -0.021378686935564446 0.003399440623024086 0 -0.020724100254168504 0.00073877849886548629 0 -0.02007695449691867 0.0029842905204351014 0 -0.019321250065391878 0.0016833918162249555 0 -0.020064411362366509 0.0013961026475240047 0 -0.02007695449691867 0.0029842905204351014 0 -0.019321250065391878 0.0016833918162249555 0 -0.018753112032885624 0.0029316420915450913 0 -0.018753112032885624 0.0029316420915450913 0 -0.017429154492830824 0.0023409753801958886 0 -0.017584707606921931 0.0036163662368018084 0 -0.017429154492830824 0.0023409753801958886 0 -0.016322997757242143 0.0032002054696322027 0 -0.017584707606921931 0.0036163662368018084 0 -0.019321250065391878 0.0016833918162249555 0 -0.018753112032885624 0.0029316420915450913 0 -0.017429154492830824 0.0023409753801958886 0 -0.019321250065391878 0.0016833918162249555 0 -0.019559258212363873 0.00094003979505607441 0 -0.019135511902045987 0.00061703006629286819 0 -0.019218506411145267 0.0015798157226977157 0 -0.018258128085794401 0.00078238851218533165 0 -0.019321250065391878 0.0016833918162249555 0 -0.017429154492830824 0.0023409753801958886 0 -0.016835787816716768 0.00059852916972179249 0 -0.019559258212363873 0.00094003979505607441 0 -0.019488747170769632 0.00052616376846285082 0 -0.019135511902045987 0.00061703006629286819 0 -0.019559258212363873 0.00094003979505607441 0 -0.019889172073584139 0.00062663817287969764 0 -0.019488747170769632 0.00052616376846285082 0 -0.02007695449691867 0.0029842905204351014 0 -0.020064411362366509 0.0013961026475240047 0 -0.020971025978559918 0.00066947946293839384 0 -0.019559258212363873 0.00094003979505607441 0 -0.020515497198089525 0.00079147253833148745 0 -0.019889172073584139 0.00062663817287969764 0 -0.019559258212363873 0.00094003979505607441 0 -0.020064411362366509 0.0013961026475240047 0 -0.020515497198089525 0.00079147253833148745 0 -0.019321250065391878 0.0016833918162249555 0 -0.019559258212363873 0.00094003979505607441 0 -0.020064411362366509 0.0013961026475240047 0 -0.020064411362366509 0.0013961026475240047 0 -0.020515497198089525 0.00079147253833148745 0 -0.020971025978559918 0.00066947946293839384 0 -0.020515497198089525 0.00079147253833148745 0 -0.020971025978559918 0.00066947946293839384 0 -0.021678050454367249 1.8495110639370036e-05 0 -0.021744497929863014 0.0005612003766298319 0 -0.020971025978559918 0.00066947946293839384 0 -0.021678050454367249 1.8495110639370036e-05 0 -0.021194324049481818 0.00078376661068818945 0 -0.023906091992992273 -0.001382545609546538 0 -0.020515497198089525 0.00079147253833148745 0 -0.021678050454367249 1.8495110639370036e-05 0 -0.021195644029507351 -0.00085074563062160656 0 -0.021678050454367249 1.8495110639370036e-05 0 -0.021195644029507351 -0.00085074563062160656 0 -0.021927776445176718 -0.00059316092982488399 0 -0.020515497198089525 0.00079147253833148745 0 -0.02001175308989301 0.00046278772516118732 0 -0.020036828724465553 0.00016241975666976094 0 -0.019889172073584139 0.00062663817287969764 0 -0.02001175308989301 0.00046278772516118732 0 -0.019735612741293537 0.0003458794410872705 0 -0.020515497198089525 0.00079147253833148745 0 -0.019889172073584139 0.00062663817287969764 0 -0.02001175308989301 0.00046278772516118732 0 -0.02001175308989301 0.00046278772516118732 0 -0.019735612741293537 0.0003458794410872705 0 -0.020036828724465553 0.00016241975666976094 0 -0.02218682465725088 -0.00075877666683050538 0 -0.021927776445176718 -0.00059316092982488399 0 -0.022701341117521225 -0.0010447475313490951 0 -0.023906091992992273 -0.001382545609546538 0 -0.022680899621565227 -0.0014246830805623065 0 -0.023758573881107883 -0.0018255658636717425 0 -0.02218682465725088 -0.00075877666683050538 0 -0.022701341117521225 -0.0010447475313490951 0 -0.026825078526909272 -0.0018818825773230469 0 -0.023906091992992273 -0.001382545609546538 0 -0.02945584282031595 -0.0020881404792349751 0 -0.029319939853686944 -0.0025725457946224051 0 -0.029770386598593372 -0.0024099071108765837 0 -0.023758573881107883 -0.0018255658636717425 0 -0.023251627676783806 -0.0014094321601761549 0 -0.022701341117521225 -0.0010447475313490951 0 -0.029906057266387454 -0.0020860817773580061 0 -0.02945584282031595 -0.0020881404792349751 0 -0.029770386598593372 -0.0024099071108765837 0 -0.023906091992992273 -0.001382545609546538 0 -0.024753871745614279 -0.0010415941835650083 0 -0.019735612741293537 0.0003458794410872705 0 -0.020036828724465553 0.00016241975666976094 0 -0.019328576473344072 0.00017703692637655101 0 -0.019328576473344072 0.00017703692637655101 0 -0.019488747170769632 0.00052616376846285082 0 -0.019135511902045987 0.00061703006629286819 0 -0.019735612741293537 0.0003458794410872705 0 -0.019328576473344072 0.00017703692637655101 0 -0.019488747170769632 0.00052616376846285082 0 -0.019889172073584139 0.00062663817287969764 0 -0.019735612741293537 0.0003458794410872705 0 -0.019488747170769632 0.00052616376846285082 0 -0.0191619948839463 0.00030712328385661174 0 -0.019120658633572506 0.00026833541944213117 0 -0.019135511902045987 0.00061703006629286819 0 -0.015268864954715494 -0.00012938237089992684 0 -0.015524641617113945 0.0009800953496673277 0 -0.016835787816716768 0.00059852916972179249 0 -0.016222275729806463 -0.0002806803359936628 0 -0.018258128085794401 0.00078238851218533165 0 -0.019328576473344072 0.00017703692637655101 0 -0.0191619948839463 0.00030712328385661174 0 -0.019135511902045987 0.00061703006629286819 0 -0.029906057266387454 -0.0020860817773580061 0 -0.029770386598593372 -0.0024099071108765837 0 -0.030225313756541146 -0.0020510011513779247 0 -0.019328576473344072 0.00017703692637655101 0 -0.0191619948839463 0.00030712328385661174 0 -0.019145313720600618 0.00028040034047479526 0 -0.024753871745614279 -0.0010415941835650083 0 -0.0244457387992979 -0.00094723199615277831 0 -0.0191619948839463 0.00030712328385661174 0 -0.019145313720600618 0.00028040034047479526 0 -0.019120658633572506 0.00026833541944213117 0 -0.025545160283533541 -5.0921966445271375e-05 0 -0.0244457387992979 -0.00094723199615277831 0 -0.019226150361447054 0.00030848090770693081 0 -0.019120658633572506 0.00026833541944213117 0 -0.019371952290044327 0.00030233575758714079 0 -0.030128101671566335 -0.0012774012334589762 0 -0.030266140823113054 -0.0017179172095306762 0 -0.030225313756541146 -0.0020510011513779247 0 -0.019300448021872692 0.00038450624917871413 0 -0.019145313720600618 0.00028040034047479526 0 -0.019226150361447054 0.00030848090770693081 0 -0.019145313720600618 0.00028040034047479526 0 -0.019226150361447054 0.00030848090770693081 0 -0.019120658633572506 0.00026833541944213117 0 -0.014754490809502261 0.00058802026180180449 0 -0.015268864954715494 -0.00012938237089992684 0 -0.015524641617113945 0.0009800953496673277 0 -0.014754490809502261 0.00058802026180180449 0 -0.015268864954715494 -0.00012938237089992684 0 -0.014221462542908387 0.00010090510618815386 0 -0.015524641617113945 0.0009800953496673277 0 -0.015760787987152147 0.0021709664891630051 0 -0.013995102694005106 0.0014333264750791943 0 -0.014754490809502261 0.00058802026180180449 0 -0.015524641617113945 0.0009800953496673277 0 -0.013995102694005106 0.0014333264750791943 0 -0.017429154492830824 0.0023409753801958886 0 -0.016835787816716768 0.00059852916972179249 0 -0.015760787987152147 0.0021709664891630051 0 -0.015524641617113945 0.0009800953496673277 0 -0.016835787816716768 0.00059852916972179249 0 -0.015760787987152147 0.0021709664891630051 0 -0.017429154492830824 0.0023409753801958886 0 -0.015760787987152147 0.0021709664891630051 0 -0.016322997757242143 0.0032002054696322027 0 -0.015760787987152147 0.0021709664891630051 0 -0.015606590684857785 0.0031489038084186825 0 -0.016322997757242143 0.0032002054696322027 0 -0.015760787987152147 0.0021709664891630051 0 -0.015049862508409995 0.0033807077117966396 0 -0.013995102694005106 0.0014333264750791943 0 -0.015760787987152147 0.0021709664891630051 0 -0.015049862508409995 0.0033807077117966396 0 -0.015606590684857785 0.0031489038084186825 0 -0.015049862508409995 0.0033807077117966396 0 -0.015453202282810137 0.0038047724935158086 0 -0.015054200817120217 0.0033759241912700438 0 -0.015683240103710909 0.0036571614738563126 0 -0.014287907244173231 0.0043708112347601077 0 -0.015049862508409995 0.0033807077117966396 0 -0.015606590684857785 0.0031489038084186825 0 -0.015453202282810137 0.0038047724935158086 0 -0.015606590684857785 0.0031489038084186825 0 -0.016322997757242143 0.0032002054696322027 0 -0.015453202282810137 0.0038047724935158086 0 -0.016322793400495115 0.0042532840793604232 0 -0.015453202282810137 0.0038047724935158086 0 -0.015473314551243685 0.0048695382349040446 0 -0.016322997757242143 0.0032002054696322027 0 -0.016322793400495115 0.0042532840793604232 0 -0.015453202282810137 0.0038047724935158086 0 -0.015453202282810137 0.0038047724935158086 0 -0.015473314551243685 0.0048695382349040446 0 -0.015048590126080659 0.0048516838017659243 0 -0.016322793400495115 0.0042532840793604232 0 -0.015473314551243685 0.0048695382349040446 0 -0.015597744264126997 0.0053407664397417849 0 -0.015473314551243685 0.0048695382349040446 0 -0.015597744264126997 0.0053407664397417849 0 -0.015096408527669615 0.0051068999424052951 0 -0.015473314551243685 0.0048695382349040446 0 -0.015048590126080659 0.0048516838017659243 0 -0.015096408527669615 0.0051068999424052951 0 -0.015453202282810137 0.0038047724935158086 0 -0.015048590126080659 0.0048516838017659243 0 -0.014489078742058381 0.0047484765643175794 0 -0.015048590126080659 0.0048516838017659243 0 -0.014723481356629748 0.0049349937946832536 0 -0.014489078742058381 0.0047484765643175794 0 -0.015048590126080659 0.0048516838017659243 0 -0.014723481356629748 0.0049349937946832536 0 -0.014798735751549018 0.0050552411882650843 0 -0.014723481356629748 0.0049349937946832536 0 -0.014798735751549018 0.0050552411882650843 0 -0.014645950148941909 0.0049710185688940983 0 -0.014798735751549018 0.0050552411882650843 0 -0.014601210813152559 0.0049426727075260919 0 -0.014645950148941909 0.0049710185688940983 0 -0.014798735751549018 0.0050552411882650843 0 -0.014601210813152559 0.0049426727075260919 0 -0.014580955346483505 0.0049370938279269944 0 -0.014601210813152559 0.0049426727075260919 0 -0.014580955346483505 0.0049370938279269944 0 -0.014390265044519714 0.0047945464047796198 0 -0.014580955346483505 0.0049370938279269944 0 -0.014532678347521942 0.0049511189258129723 0 -0.014390265044519714 0.0047945464047796198 0 -0.014798735751549018 0.0050552411882650843 0 -0.014580955346483505 0.0049370938279269944 0 -0.014532678347521942 0.0049511189258129723 0 -0.015048590126080659 0.0048516838017659243 0 -0.014798735751549018 0.0050552411882650843 0 -0.015096408527669615 0.0051068999424052951 0 -0.014532678347521942 0.0049511189258129723 0 -0.015096408527669615 0.0051068999424052951 0 -0.014861457682341558 0.005005178572329994 0 -0.014798735751549018 0.0050552411882650843 0 -0.014532678347521942 0.0049511189258129723 0 -0.015096408527669615 0.0051068999424052951 0 -0.015597744264126997 0.0053407664397417849 0 -0.015096408527669615 0.0051068999424052951 0 -0.014861457682341558 0.005005178572329994 0 -0.014861457682341558 0.005005178572329994 0 -0.013643743968832875 0.0035821968500941866 0 -0.01364082561837851 0.0047735161968715332 0 -0.014861457682341558 0.005005178572329994 0 -0.01364082561837851 0.0047735161968715332 0 -0.014046374475867708 0.0055721326758433895 0 -0.014532678347521942 0.0049511189258129723 0 -0.014861457682341558 0.005005178572329994 0 -0.01374961147076225 0.0049059656995166226 0 -0.014532678347521942 0.0049511189258129723 0 -0.01374961147076225 0.0049059656995166226 0 -0.014018968139011394 0.004676133744510042 0 -0.014720494162014867 0.0049686112955638238 0 -0.013720039473001803 0.0042505005710655784 0 -0.013643743968832875 0.0035821968500941866 0 -0.012816732712125314 0.0043130211566889979 0 -0.012795812206803831 0.0033799817911075222 0 -0.013643743968832875 0.0035821968500941866 0 -0.01364082561837851 0.0047735161968715332 0 -0.012816732712125314 0.0043130211566889979 0 -0.01364082561837851 0.0047735161968715332 0 -0.014046374475867708 0.0055721326758433895 0 -0.012927644967817254 0.0054917114084749611 0 -0.01364082561837851 0.0047735161968715332 0 -0.012927644967817254 0.0054917114084749611 0 -0.012816732712125314 0.0043130211566889979 0 -0.016083164807295578 0.0056516396586420931 0 -0.017152463342787857 0.0041205489850488072 0 -0.018343033595934199 0.0058311503341926677 0 -0.01875803289902183 0.0042845934783192511 0 -0.020255747736806808 0.0058373138732494331 0 -0.015597744264126997 0.0053407664397417849 0 -0.018343033595934199 0.0058311503341926677 0 -0.017305939562132708 0.0045995274870335766 0 -0.015597744264126997 0.0053407664397417849 0 -0.014861457682341558 0.005005178572329994 0 -0.014046374475867708 0.0055721326758433895 0 -0.01570674058924823 0.0054539213905282586 0 -0.016083164807295578 0.0056516396586420931 0 -0.016322793400495115 0.0042532840793604232 0 -0.015597744264126997 0.0053407664397417849 0 -0.017305939562132708 0.0045995274870335766 0 -0.018343033595934199 0.0058311503341926677 0 -0.017305939562132708 0.0045995274870335766 0 -0.01875803289902183 0.0042845934783192511 0 -0.017305939562132708 0.0045995274870335766 0 -0.017584707606921931 0.0036163662368018084 0 -0.01875803289902183 0.0042845934783192511 0 -0.016322793400495115 0.0042532840793604232 0 -0.017305939562132708 0.0045995274870335766 0 -0.017584707606921931 0.0036163662368018084 0 -0.016322997757242143 0.0032002054696322027 0 -0.016322793400495115 0.0042532840793604232 0 -0.017584707606921931 0.0036163662368018084 0 -0.018753112032885624 0.0029316420915450913 0 -0.017584707606921931 0.0036163662368018084 0 -0.01875803289902183 0.0042845934783192511 0 -0.02007695449691867 0.0029842905204351014 0 -0.018753112032885624 0.0029316420915450913 0 -0.01875803289902183 0.0042845934783192511 0 -0.02007695449691867 0.0029842905204351014 0 -0.01875803289902183 0.0042845934783192511 0 -0.020255747736806808 0.0058373138732494331 0 -0.02141025259431854 0.0039496449381486729 0 -0.021455375780035254 0.0042041400041359185 0 -0.022073651447089931 0.0026401536821651049 0 -0.021378686935564446 0.003399440623024086 0 -0.017152463342787857 0.0041205489850488072 0 -0.021455375780035254 0.0042041400041359185 0 -0.018976037615241453 0.0053997803301471308 0 -0.018661157215004061 0.0019782538684515708 0 -0.021455375780035254 0.0042041400041359185 0 -0.022073651447089931 0.0026401536821651049 0 -0.018661157215004061 0.0019782538684515708 0 -0.017152463342787857 0.0041205489850488072 0 -0.016050754422104834 0.0020241303417425156 0 -0.012770430945473334 0.0024225310523967396 0 -0.012774713886433926 0.0028276873803424886 0 -0.013399197761291011 0.0024157520851562915 0 -0.017152463342787857 0.0041205489850488072 0 -0.012632699010285044 0.0034786492362905443 0 -0.012774713886433926 0.0028276873803424886 0 -0.013279796175440698 0.0029240447161815327 0 -0.012795812206803831 0.0033799817911075222 0 -0.012632699010285044 0.0034786492362905443 0 -0.012808311294221868 0.0034458284166081644 0 -0.012774713886433926 0.0028276873803424886 0 -0.013279796175440698 0.0029240447161815327 0 -0.013399197761291011 0.0024157520851562915 0 -0.013279796175440698 0.0029240447161815327 0 -0.0136689103373227 0.002695558815761368 0 -0.013399197761291011 0.0024157520851562915 0 -0.013279796175440698 0.0029240447161815327 0 -0.0136689103373227 0.002695558815761368 0 -0.013798004793894583 0.0028200032917372214 0 -0.0136689103373227 0.002695558815761368 0 -0.013399197761291011 0.0024157520851562915 0 -0.014038014199422298 0.0025755349237716373 0 -0.0136689103373227 0.002695558815761368 0 -0.013798004793894583 0.0028200032917372214 0 -0.014038014199422298 0.0025755349237716373 0 -0.018661157215004061 0.0019782538684515708 0 -0.01506013195317819 0.0040840837964891538 0 -0.014038014199422298 0.0025755349237716373 0 -0.016050754422104834 0.0020241303417425156 0 -0.01414848941116799 0.002564874085992873 0 -0.018661157215004061 0.0019782538684515708 0 -0.016791419024854641 0.0050349786012099879 0 -0.01506013195317819 0.0040840837964891538 0 -0.018976037615241453 0.0053997803301471308 0 -0.018661157215004061 0.0019782538684515708 0 -0.016791419024854641 0.0050349786012099879 0 -0.015325999921430239 0.0059157371777736742 0 -0.016791419024854641 0.0050349786012099879 0 -0.01506013195317819 0.0040840837964891538 0 -0.021658037421848651 0.00040287910223273663 0 -0.021601706244640303 0.00033055086328122996 0 -0.021531476130676495 0.00026221656453678143 0 -0.021658037421848651 0.00040287910223273663 0 -0.021601706244640303 0.00033055086328122996 0 -0.021732083590065211 0.00032126229634175691 0 -0.02191158676098209 0.0005198714922567488 0 -0.021732083590065211 0.00032126229634175691 0 -0.022076703802158617 0.00026693253124251038 0 -0.02191158676098209 0.0005198714922567488 0 -0.022076703802158617 0.00026693253124251038 0 -0.022307048291059357 0.00044805997204324272 0 -0.02191158676098209 0.0005198714922567488 0 -0.022146225519282393 0.00074279904740499729 0 -0.021872401981263476 0.00056941648579249824 0 -0.02191158676098209 0.0005198714922567488 0 -0.021780474035110936 0.00049358652531204339 0 -0.021872401981263476 0.00056941648579249824 0 -0.021658037421848651 0.00040287910223273663 0 -0.02191158676098209 0.0005198714922567488 0 -0.021780474035110936 0.00049358652531204339 0 -0.021658037421848651 0.00040287910223273663 0 -0.02191158676098209 0.0005198714922567488 0 -0.021732083590065211 0.00032126229634175691 0 -0.021658037421848651 0.00040287910223273663 0 -0.021780474035110936 0.00049358652531204339 0 -0.02161877041791568 0.00035849937474179898 0 -0.021780474035110936 0.00049358652531204339 0 -0.021872401981263476 0.00056941648579249824 0 -0.021615610124978389 0.00040565416882167043 0 -0.021780474035110936 0.00049358652531204339 0 -0.02161877041791568 0.00035849937474179898 0 -0.021615610124978389 0.00040565416882167043 0 -0.02161877041791568 0.00035849937474179898 0 -0.021615610124978389 0.00040565416882167043 0 -0.021476568752887653 0.00021856535350183576 0 -0.02161877041791568 0.00035849937474179898 0 -0.021481617231622556 0.00021646170354368432 0 -0.021476568752887653 0.00021856535350183576 0 -0.021658037421848651 0.00040287910223273663 0 -0.02161877041791568 0.00035849937474179898 0 -0.021481617231622556 0.00021646170354368432 0 -0.021658037421848651 0.00040287910223273663 0 -0.021481617231622556 0.00021646170354368432 0 -0.021531476130676495 0.00026221656453678143 0 -0.021481617231622556 0.00021646170354368432 0 -0.021531476130676495 0.00026221656453678143 0 -0.021368614478967977 5.9712260795124456e-05 0 -0.021531476130676495 0.00026221656453678143 0 -0.021666125468409993 0.00028600245898712293 0 -0.021368614478967977 5.9712260795124456e-05 0 -0.021624088145945415 -2.8193315830419651e-05 0 -0.021666125468409993 0.00028600245898712293 0 -0.021368614478967977 5.9712260795124456e-05 0 -0.021624088145945415 -2.8193315830419651e-05 0 -0.02269096558908304 6.3127662077874821e-07 0 -0.021190708342982211 -2.6796839982643591e-07 0 -0.021624088145945415 -2.8193315830419651e-05 0 -0.02201991771109434 0.00025254770644064334 0 -0.021666125468409993 0.00028600245898712293 0 -0.021624088145945415 -2.8193315830419651e-05 0 -0.02269096558908304 6.3127662077874821e-07 0 -0.02201991771109434 0.00025254770644064334 0 -0.02269467599054532 -3.3521554993576026e-10 0 -0.023955790312189008 5.3454432110125408e-07 0 -0.023859095428954136 5.3478865109171408e-09 0 -0.02201991771109434 0.00025254770644064334 0 -0.022118370196692744 0.00056928330697894949 0 -0.021666125468409993 0.00028600245898712293 0 -0.02269096558908304 6.3127662077874821e-07 0 -0.02201991771109434 0.00025254770644064334 0 -0.022118370196692744 0.00056928330697894949 0 -0.022694187411639744 -2.480078805239885e-07 0 -0.025225271320195676 0.00052599252066151973 0 -0.025225271320195676 0.00052599252066151973 0 -0.023862311762696695 2.2793142650013543e-06 0 -0.021601706244640303 0.00033055086328122996 0 -0.021666125468409993 0.00028600245898712293 0 -0.021591180674088925 0.00035217737625137897 0 -0.022118370196692744 0.00056928330697894949 0 -0.021666125468409993 0.00028600245898712293 0 -0.021591180674088925 0.00035217737625137897 0 -0.021601706244640303 0.00033055086328122996 0 -0.021531476130676495 0.00026221656453678143 0 -0.021666125468409993 0.00028600245898712293 0 -0.028022643775849558 5.3214359122239803e-07 0 -0.023860649174658393 1.8907535475716474e-07 0 -0.025652808038680669 2.9834715875913784e-05 0 -0.024062258797220806 1.5369256940780245e-05 0 -0.023860649174658393 1.8907535475716474e-07 0 -0.025652808038680669 2.9834715875913784e-05 0 -0.025225271320195676 0.00052599252066151973 0 -0.02801902722835448 0.00026249439455920486 0 -0.025225271320195676 0.00052599252066151973 0 -0.026261237564180192 0.00066206160568448187 0 -0.02992998376506225 0.0012807554164700607 0 -0.030585099028925439 0.00097640466196022052 0 -0.030084728091654887 0.00070350141718329977 0 -0.028797811599056214 6.0258866476195669e-05 0 -0.02801902722835448 0.00026249439455920486 0 -0.030615742318503798 0.00042486034475269828 0 -0.030202610807180136 0.00028105510404089932 0 -0.030084728091654887 0.00070350141718329977 0 -0.030615742318503798 0.00042486034475269828 0 -0.030585099028925439 0.00097640466196022052 0 -0.030084728091654887 0.00070350141718329977 0 -0.030615742318503798 0.00042486034475269828 0 -0.030585099028925439 0.00097640466196022052 0 -0.031261572714844872 0.00052350217542819369 0 -0.021601706244640303 0.00033055086328122996 0 -0.021591180674088925 0.00035217737625137897 0 -0.021732083590065211 0.00032126229634175691 0 -0.026261237564180192 0.00066206160568448187 0 -0.02653325219424571 0.00014612540898269413 0 -0.021591180674088925 0.00035217737625137897 0 -0.021732083590065211 0.00032126229634175691 0 -0.021850333505633864 -0.00022639052024209426 0 -0.022076703802158617 0.00026693253124251038 0 -0.021850333505633864 -0.00022639052024209426 0 -0.022614721789713091 6.7324687345813615e-05 0 -0.021732083590065211 0.00032126229634175691 0 -0.022076703802158617 0.00026693253124251038 0 -0.021850333505633864 -0.00022639052024209426 0 -0.02653325219424571 0.00014612540898269413 0 -0.027328991764724614 -0.00057922811491450553 0 -0.021850333505633864 -0.00022639052024209426 0 -0.02292720360804102 -0.00094462587101826591 0 -0.022614721789713091 6.7324687345813615e-05 0 -0.023332881403182945 -0.00023992259959874988 0 -0.02292720360804102 -0.00094462587101826591 0 -0.022614721789713091 6.7324687345813615e-05 0 -0.023332881403182945 -0.00023992259959874988 0 -0.02292720360804102 -0.00094462587101826591 0 -0.023774364431354372 -0.00056009050975741647 0 -0.024829981381290538 -0.00092945791060307511 0 -0.02292720360804102 -0.00094462587101826591 0 -0.023774364431354372 -0.00056009050975741647 0 -0.024829981381290538 -0.00092945791060307511 0 -0.023774364431354372 -0.00056009050975741647 0 -0.02392105949720964 -0.00010456586198580547 0 -0.024829981381290538 -0.00092945791060307511 0 -0.02392105949720964 -0.00010456586198580547 0 -0.024666146284270361 4.5745553577956631e-05 0 -0.023332881403182945 -0.00023992259959874988 0 -0.023774364431354372 -0.00056009050975741647 0 -0.02392105949720964 -0.00010456586198580547 0 -0.023332881403182945 -0.00023992259959874988 0 -0.02392105949720964 -0.00010456586198580547 0 -0.023262863609732554 0.00020074677899756458 0 -0.02392105949720964 -0.00010456586198580547 0 -0.023262863609732554 0.00020074677899756458 0 -0.023662202016617256 0.00066056509608554339 0 -0.02392105949720964 -0.00010456586198580547 0 -0.024666146284270361 4.5745553577956631e-05 0 -0.023662202016617256 0.00066056509608554339 0 -0.023262863609732554 0.00020074677899756458 0 -0.022614721789713091 6.7324687345813615e-05 0 -0.022846383260036504 0.00057356660607823541 0 -0.022076703802158617 0.00026693253124251038 0 -0.022614721789713091 6.7324687345813615e-05 0 -0.022307048291059357 0.00044805997204324272 0 -0.022614721789713091 6.7324687345813615e-05 0 -0.022307048291059357 0.00044805997204324272 0 -0.022846383260036504 0.00057356660607823541 0 -0.023332881403182945 -0.00023992259959874988 0 -0.023262863609732554 0.00020074677899756458 0 -0.022614721789713091 6.7324687345813615e-05 0 -0.016222275729806463 -0.0002806803359936628 0 -0.022099167637534885 0.00014734888422151691 0 -0.019300448021872692 0.00038450624917871413 0 -0.019226150361447054 0.00030848090770693081 0 -0.019371952290044327 0.00030233575758714079 0 -0.025545160283533541 -5.0921966445271375e-05 0 -0.022099167637534885 0.00014734888422151691 0 -0.024829981381290538 -0.00092945791060307511 0 -0.026498922573874314 4.4397509377376557e-05 0 -0.026579842946596523 0.0018813217439496513 0 -0.026134312902543054 -0.0011324445272261612 0 -0.028076341335122799 0.00018699954068748266 0 -0.026498922573874314 4.4397509377376557e-05 0 -0.026170113831289397 -0.00026238302486196859 0 -0.020041466400359344 0.00096772619671078549 0 -0.028402433456154008 4.3998281603415243e-05 0 -0.022099167637534885 0.00014734888422151691 0 -0.022099167637534885 0.00014734888422151691 0 -0.020041466400359344 0.00096772619671078549 0 -0.028076341335122799 0.00018699954068748266 0 -0.026498922573874314 4.4397509377376557e-05 0 -0.026579842946596523 0.0018813217439496513 0 -0.020041466400359344 0.00096772619671078549 0 -0.01928061773026923 0.0023682493175972382 0 -0.020041466400359344 0.00096772619671078549 0 -0.013732901314471177 0.0023759327359939731 0 -0.013212720323291779 -0.00015314780769410861 0 -0.014221462542908387 0.00010090510618815386 0 -0.013995102694005106 0.0014333264750791943 0 -0.014018235769639224 -0.00093287965364816181 0 -0.013212720323291779 -0.00015314780769410861 0 -0.014221462542908387 0.00010090510618815386 0 -0.015268864954715494 -0.00012938237089992684 0 -0.014018235769639224 -0.00093287965364816181 0 -0.014221462542908387 0.00010090510618815386 0 -0.014754490809502261 0.00058802026180180449 0 -0.014221462542908387 0.00010090510618815386 0 -0.013995102694005106 0.0014333264750791943 0 -0.015344900153297857 0.0036325389528759178 0 -0.015312982912398998 0.0035197887325303448 0 -0.015424291662932263 0.0035582951113191106 0 -0.015344900153297857 0.0036325389528759178 0 -0.015190537644888001 0.0035219581995189473 0 -0.015312982912398998 0.0035197887325303448 0 -0.015190537644888001 0.0035219581995189473 0 -0.015312982912398998 0.0035197887325303448 0 -0.01522666875619863 0.0034148804461874489 0 -0.015312982912398998 0.0035197887325303448 0 -0.015378810878248845 0.0034573696128572481 0 -0.01522666875619863 0.0034148804461874489 0 -0.015049862508409995 0.0033807077117966396 0 -0.015190537644888001 0.0035219581995189473 0 -0.01522666875619863 0.0034148804461874489 0 -0.015304987412676488 0.0034446010478248073 0 -0.013732901314471177 0.0023759327359939731 0 -0.022846383260036504 0.00057356660607823541 0 -0.023662202016617256 0.00066056509608554339 0 -0.022458736929829592 0.0012690497666503953 0 -0.022146225519282393 0.00074279904740499729 0 -0.022846383260036504 0.00057356660607823541 0 -0.022458736929829592 0.0012690497666503953 0 -0.021185674927444116 0.0012870670225526065 0 -0.020331254697320163 0.0017695284001460706 0 -0.02191158676098209 0.0005198714922567488 0 -0.022146225519282393 0.00074279904740499729 0 -0.022307048291059357 0.00044805997204324272 0 -0.022146225519282393 0.00074279904740499729 0 -0.022307048291059357 0.00044805997204324272 0 -0.022846383260036504 0.00057356660607823541 0 -0.015312982912398998 0.0035197887325303448 0 -0.015424291662932263 0.0035582951113191106 0 -0.015378810878248845 0.0034573696128572481 0 -0.01928061773026923 0.0023682493175972382 0 -0.020331254697320163 0.0017695284001460706 0 -0.023262863609732554 0.00020074677899756458 0 -0.022846383260036504 0.00057356660607823541 0 -0.023662202016617256 0.00066056509608554339 0 -0.015424291662932263 0.0035582951113191106 0 -0.015378810878248845 0.0034573696128572481 0 -0.015538532909292186 0.0034647904546720436 0 -0.015378810878248845 0.0034573696128572481 0 -0.015538532909292186 0.0034647904546720436 0 -0.015422472494321634 0.0033489413871864299 0 -0.021447535535765866 0.00051985288217791699 0 -0.021615610124978389 0.00040565416882167043 0 -0.021425610787715304 0.00024488023719366759 0 -0.020331254697320163 0.0017695284001460706 0 -0.018225254962332939 0.0016436230340323033 0 -0.021826816473859988 0.00057332769436406982 0 -0.021872401981263476 0.00056941648579249824 0 -0.021615610124978389 0.00040565416882167043 0 -0.022146225519282393 0.00074279904740499729 0 -0.021826816473859988 0.00057332769436406982 0 -0.021872401981263476 0.00056941648579249824 0 -0.020331254697320163 0.0017695284001460706 0 -0.021839644653089185 0.0002450881598633924 0 -0.021425610787715304 0.00024488023719366759 0 -0.021282366956061591 0.00022968897562437098 0 -0.021326357164912352 0.00017540464676211618 0 -0.021615610124978389 0.00040565416882167043 0 -0.021425610787715304 0.00024488023719366759 0 -0.021476568752887653 0.00021856535350183576 0 -0.021447535535765866 0.00051985288217791699 0 -0.021425610787715304 0.00024488023719366759 0 -0.021282366956061591 0.00022968897562437098 0 -0.015378810878248845 0.0034573696128572481 0 -0.015422472494321634 0.0033489413871864299 0 -0.01522666875619863 0.0034148804461874489 0 -0.018225254962332939 0.0016436230340323033 0 -0.017230494821082368 0.0025203081725490551 0 -0.015422472494321634 0.0033489413871864299 0 -0.015256160154978167 0.003336588245885546 0 -0.015321300678268451 0.0031709996724770557 0 -0.021282366956061591 0.00022968897562437098 0 -0.021326357164912352 0.00017540464676211618 0 -0.02124979461247083 0.0001837543166770309 0 -0.021425610787715304 0.00024488023719366759 0 -0.021326357164912352 0.00017540464676211618 0 -0.021357839613276395 0.00015846797979090731 0 -0.021326357164912352 0.00017540464676211618 0 -0.021303806446487751 0.00019267916380326188 0 -0.021357839613276395 0.00015846797979090731 0 -0.015049862508409995 0.0033807077117966396 0 -0.01522666875619863 0.0034148804461874489 0 -0.015054200817120217 0.0033759241912700438 0 -0.015422472494321634 0.0033489413871864299 0 -0.01522666875619863 0.0034148804461874489 0 -0.015256160154978167 0.003336588245885546 0 -0.01522666875619863 0.0034148804461874489 0 -0.015256160154978167 0.003336588245885546 0 -0.015054200817120217 0.0033759241912700438 0 -0.014577456723207342 0.0048614180607224784 0 -0.014489078742058381 0.0047484765643175794 0 -0.014621148202716407 0.0049010668439795234 0 -0.015256160154978167 0.003336588245885546 0 -0.015054200817120217 0.0033759241912700438 0 -0.015321300678268451 0.0031709996724770557 0 -0.014287907244173231 0.0043708112347601077 0 -0.017230494821082368 0.0025203081725490551 0 -0.014577456723207342 0.0048614180607224784 0 -0.014489078742058381 0.0047484765643175794 0 -0.014590417362940838 0.0048996513931286291 0 -0.014723481356629748 0.0049349937946832536 0 -0.014489078742058381 0.0047484765643175794 0 -0.014590417362940838 0.0048996513931286291 0 -0.014723481356629748 0.0049349937946832536 0 -0.014645950148941909 0.0049710185688940983 0 -0.014590417362940838 0.0048996513931286291 0 -0.014577456723207342 0.0048614180607224784 0 -0.014590417362940838 0.0048996513931286291 0 -0.014618813639568629 0.0049297822142795661 0 -0.014645950148941909 0.0049710185688940983 0 -0.014590417362940838 0.0048996513931286291 0 -0.014618813639568629 0.0049297822142795661 0 -0.014645950148941909 0.0049710185688940983 0 -0.014618813639568629 0.0049297822142795661 0 -0.014624699809499262 0.0049295513239064389 0 -0.014618813639568629 0.0049297822142795661 0 -0.014595170752258841 0.0049129683058026646 0 -0.014690481861837671 0.0049145025929305435 0 -0.014595695686555039 0.0051063548765125037 0 -0.015697109896453801 0.0036563226277186909 0 -0.014577456723207342 0.0048614180607224784 0 -0.014618813639568629 0.0049297822142795661 0 -0.014595170752258841 0.0049129683058026646 0 -0.014577456723207342 0.0048614180607224784 0 -0.014621148202716407 0.0049010668439795234 0 -0.014610050789143226 0.0048594855715924446 0 -0.017230494821082368 0.0025203081725490551 0 -0.015697109896453801 0.0036563226277186909 0 -0.019241392548220253 0.0015093676843928416 0 -0.019006262263024268 0.001076656018106787 0 -0.019658219908706379 0.00079005171908587066 0 -0.014821049687269902 0.0051105926963894311 0 -0.014690481861837671 0.0049145025929305435 0 -0.014963954402980035 0.0048822420129212589 0 -0.014690481861837671 0.0049145025929305435 0 -0.014963954402980035 0.0048822420129212589 0 -0.01481176152998857 0.0047320875123906831 0 -0.015697109896453801 0.0036563226277186909 0 -0.017466466758513037 0.002195719086823649 0 -0.015697109896453801 0.0036563226277186909 0 -0.014866703460922386 0.0050696490860055845 0 -0.014690481861837671 0.0049145025929305435 0 -0.014624699809499262 0.0049295513239064389 0 -0.014543890350963803 0.0047325444582303885 0 -0.014601210813152559 0.0049426727075260919 0 -0.014624699809499262 0.0049295513239064389 0 -0.014543890350963803 0.0047325444582303885 0 -0.014618813639568629 0.0049297822142795661 0 -0.014690481861837671 0.0049145025929305435 0 -0.014624699809499262 0.0049295513239064389 0 -0.014601210813152559 0.0049426727075260919 0 -0.014645950148941909 0.0049710185688940983 0 -0.014624699809499262 0.0049295513239064389 0 -0.021413658821035551 0.00022690033802265003 0 -0.020982864219490235 0.00039151981178180703 0 -0.021316487022854116 0.00018244232735732994 0 -0.021303806446487751 0.00019267916380326188 0 -0.021245632051747516 0.00022560459543240289 0 -0.021326357164912352 0.00017540464676211618 0 -0.021316487022854116 0.00018244232735732994 0 -0.021303806446487751 0.00019267916380326188 0 -0.021326357164912352 0.00017540464676211618 0 -0.02124979461247083 0.0001837543166770309 0 -0.021316487022854116 0.00018244232735732994 0 -0.019241392548220253 0.0015093676843928416 0 -0.020334830376029976 0.00091272102346010616 0 -0.019658219908706379 0.00079005171908587066 0 -0.017230494821082368 0.0025203081725490551 0 -0.021413658821035551 0.00022690033802265003 0 -0.019006262263024268 0.001076656018106787 0 -0.019658219908706379 0.00079005171908587066 0 -0.019591277767244342 0.00012888427672650234 0 -0.019658219908706379 0.00079005171908587066 0 -0.019591277767244342 0.00012888427672650234 0 -0.020286063899735977 0.0001045802762695794 0 -0.020334830376029976 0.00091272102346010616 0 -0.019658219908706379 0.00079005171908587066 0 -0.020286063899735977 0.0001045802762695794 0 -0.019591277767244342 0.00012888427672650234 0 -0.020286063899735977 0.0001045802762695794 0 -0.020124549656008163 -0.00073622943829090165 0 -0.020334830376029976 0.00091272102346010616 0 -0.020739876055641732 0.00025066708376696639 0 -0.021245632051747516 0.00022560459543240289 0 -0.020286063899735977 0.0001045802762695794 0 -0.020739876055641732 0.00025066708376696639 0 -0.021046714564832824 -0.000170568940486437 0 -0.020334830376029976 0.00091272102346010616 0 -0.020286063899735977 0.0001045802762695794 0 -0.020739876055641732 0.00025066708376696639 0 -0.020739876055641732 0.00025066708376696639 0 -0.021046714564832824 -0.000170568940486437 0 -0.021245632051747516 0.00022560459543240289 0 -0.018090305860753272 0.002024458889214242 0 -0.018094364322980144 0.0020106036733750724 0 -0.018078406466570038 0.0020256381927788478 0 -0.021046714564832824 -0.000170568940486437 0 -0.021357129741385643 0.00023453648413202704 0 -0.021245632051747516 0.00022560459543240289 0 -0.0195870114070739 0.00090425758201802785 0 -0.02033738376656169 0.00081593721614254308 0 -0.021303806446487751 0.00019267916380326188 0 -0.021357129741385643 0.00023453648413202704 0 -0.021245632051747516 0.00022560459543240289 0 -0.02033738376656169 0.00081593721614254308 0 -0.019541152718878557 0.0018471320382935298 0 -0.021310030473576415 0.0005948612208829645 0 -0.020574227851502726 0.00014490297238445191 0 -0.020568350632155591 0.00083822981125663838 0 -0.021310030473576415 0.0005948612208829645 0 -0.020568350632155591 0.00083822981125663838 0 -0.021090877642332629 0.0013616861527606934 0 -0.021209079050682866 0.00055198868239011555 0 -0.021113588936939931 0.00019667202452058587 0 -0.020574227851502726 0.00014490297238445191 0 -0.02033738376656169 0.00081593721614254308 0 -0.020931771741887515 0.00017948108162265327 0 -0.021303806446487751 0.00019267916380326188 0 -0.021357129741385643 0.00023453648413202704 0 -0.021357839613276395 0.00015846797979090731 0 -0.021209079050682866 0.00055198868239011555 0 -0.021113588936939931 0.00019667202452058587 0 -0.021357839613276395 0.00015846797979090731 0 -0.02033738376656169 0.00081593721614254308 0 -0.021669571839421312 -5.9385046146802025e-05 0 -0.021113588936939931 0.00019667202452058587 0 -0.021357839613276395 0.00015846797979090731 0 -0.021223756452218166 7.2127786852217479e-05 0 -0.021357839613276395 0.00015846797979090731 0 -0.021223756452218166 7.2127786852217479e-05 0 -0.021476568752887653 0.00021856535350183576 0 -0.021113588936939931 0.00019667202452058587 0 -0.021223756452218166 7.2127786852217479e-05 0 -0.020574227851502726 0.00014490297238445191 0 -0.021481617231622556 0.00021646170354368432 0 -0.021223756452218166 7.2127786852217479e-05 0 -0.021368614478967977 5.9712260795124456e-05 0 -0.021481617231622556 0.00021646170354368432 0 -0.021223756452218166 7.2127786852217479e-05 0 -0.021476568752887653 0.00021856535350183576 0 -0.021425610787715304 0.00024488023719366759 0 -0.021357839613276395 0.00015846797979090731 0 -0.021476568752887653 0.00021856535350183576 0 -0.021624088145945415 -2.8193315830419651e-05 0 -0.021190708342982211 -2.6796839982643591e-07 0 -0.020948412685914013 -8.4091817511818351e-05 0 -0.021223756452218166 7.2127786852217479e-05 0 -0.021368614478967977 5.9712260795124456e-05 0 -0.020948412685914013 -8.4091817511818351e-05 0 -0.021624088145945415 -2.8193315830419651e-05 0 -0.021368614478967977 5.9712260795124456e-05 0 -0.020948412685914013 -8.4091817511818351e-05 0 -0.021223756452218166 7.2127786852217479e-05 0 -0.020948412685914013 -8.4091817511818351e-05 0 -0.020574227851502726 0.00014490297238445191 0 -0.021190708342982211 -2.6796839982643591e-07 0 -0.020948412685914013 -8.4091817511818351e-05 0 -0.019685337116698204 -1.0947071871337404e-06 0 -0.020948412685914013 -8.4091817511818351e-05 0 -0.019685337116698204 -1.0947071871337404e-06 0 -0.020574227851502726 0.00014490297238445191 0 -0.019685337116698204 -1.0947071871337404e-06 0 -0.020574227851502726 0.00014490297238445191 0 -0.01973123474730773 0.00032068709322762332 0 -0.019685337116698204 -1.0947071871337404e-06 0 -0.01973123474730773 0.00032068709322762332 0 -0.018185684405768628 2.8231057741474029e-06 0 -0.01973123474730773 0.00032068709322762332 0 -0.020568350632155591 0.00083822981125663838 0 -0.019784320050581311 0.0014406449202871816 0 -0.020574227851502726 0.00014490297238445191 0 -0.01973123474730773 0.00032068709322762332 0 -0.020568350632155591 0.00083822981125663838 0 -0.018181619641849809 1.2689885708755675e-07 0 -0.018129504549367358 0.0005612496257311584 0 -0.01973123474730773 0.00032068709322762332 0 -0.018185684405768628 2.8231057741474029e-06 0 -0.019784320050581311 0.0014406449202871816 0 -0.018179421014646511 7.1574086984112606e-07 0 -0.016458151218240808 -8.3819473148621077e-05 0 -0.016221412578138854 -7.0115419201592625e-07 0 -0.018129504549367358 0.0005612496257311584 0 -0.018509571048603093 0.0014139020511036013 0 -0.019784320050581311 0.0014406449202871816 0 -0.020539518066600058 0.0015869584274374826 0 -0.020689188250683794 0.0021237079899061599 0 -0.020568350632155591 0.00083822981125663838 0 -0.019784320050581311 0.0014406449202871816 0 -0.020539518066600058 0.0015869584274374826 0 -0.016458151218240808 -8.3819473148621077e-05 0 -0.016281287585834334 6.5557297880969697e-05 0 -0.016532578532309685 1.3452958286677925e-05 0 -0.016458151218240808 -8.3819473148621077e-05 0 -0.016281287585834334 6.5557297880969697e-05 0 -0.016076073812738321 -4.4597972601293069e-05 0 -0.016474624700387266 0.00014819390659373007 0 -0.016281287585834334 6.5557297880969697e-05 0 -0.016532578532309685 1.3452958286677925e-05 0 -0.016281287585834334 6.5557297880969697e-05 0 -0.016076073812738321 -4.4597972601293069e-05 0 -0.016028829238681413 0.00021634716076319305 0 -0.016076073812738321 -4.4597972601293069e-05 0 -0.015254250570119532 1.5258275044205915e-05 0 -0.016028829238681413 0.00021634716076319305 0 -0.016458151218240808 -8.3819473148621077e-05 0 -0.016076073812738321 -4.4597972601293069e-05 0 -0.016221412578138854 -7.0115419201592625e-07 0 -0.016076073812738321 -4.4597972601293069e-05 0 -0.016221412578138854 -7.0115419201592625e-07 0 -0.015254250570119532 1.5258275044205915e-05 0 -0.018090305860753272 0.002024458889214242 0 -0.018078406466570038 0.0020256381927788478 0 -0.018077957698540818 0.0020361720552225498 0 -0.020568350632155591 0.00083822981125663838 0 -0.021090877642332629 0.0013616861527606934 0 -0.020539518066600058 0.0015869584274374826 0 -0.021090877642332629 0.0013616861527606934 0 -0.020539518066600058 0.0015869584274374826 0 -0.020661878329292501 0.0021368831498847734 0 -0.019541152718878557 0.0018471320382935298 0 -0.018173599415787587 0.001462423442618955 0 -0.018078406466570038 0.0020256381927788478 0 -0.018065598294543066 0.0020360030381595946 0 -0.018077957698540818 0.0020361720552225498 0 -0.021090877642332629 0.0013616861527606934 0 -0.020661878329292501 0.0021368831498847734 0 -0.020759778656105062 0.0022301857891735897 0 -0.020116380358104081 0.0020548131881914381 0 -0.018509571048603093 0.0014139020511036013 0 -0.018509571048603093 0.0014139020511036013 0 -0.018173599415787587 0.001462423442618955 0 -0.018509571048603093 0.0014139020511036013 0 -0.017498154498667283 0.0011498698896213835 0 -0.016474624700387266 0.00014819390659373007 0 -0.016532578532309685 1.3452958286677925e-05 0 -0.016571907277870803 7.9363904672699714e-05 0 -0.017988552870933362 0.0014308813786049076 0 -0.017950187245566639 0.0012852668862639186 0 -0.017919672728235633 0.0013669874233807984 0 -0.017498154498667283 0.0011498698896213835 0 -0.018173599415787587 0.001462423442618955 0 -0.016795122006279809 0.0016192421283959747 0 -0.016789070685634844 0.0016380370665225502 0 -0.016687007570027165 0.0015498966428028737 0 -0.018173599415787587 0.001462423442618955 0 -0.01680653848146612 0.0021088488386734323 0 -0.018065598294543066 0.0020360030381595946 0 -0.018077957698540818 0.0020361720552225498 0 -0.018063706943038226 0.0020463389680398969 0 -0.018077957698540818 0.0020361720552225498 0 -0.018063706943038226 0.0020463389680398969 0 -0.018071368377963179 0.002050116824802343 0 -0.01680653848146612 0.0021088488386734323 0 -0.016508160831959762 0.0031873998212422149 0 -0.016323830909827551 0.0026704387252972652 0 -0.016430298111974696 0.0027648517826959788 0 -0.0162469845404246 0.0028078610048163167 0 -0.015390333085138461 0.0026291281103353508 0 -0.015354410749087586 0.002591894993178176 0 -0.015349280813805079 0.0026367780047068597 0 -0.015692901486753504 0.0029743535739902944 0 -0.01680653848146612 0.0021088488386734323 0 -0.015354410749087586 0.002591894993178176 0 -0.015315191790314285 0.002600506034493905 0 -0.015349280813805079 0.0026367780047068597 0 -0.01680653848146612 0.0021088488386734323 0 -0.015045695602956308 0.0017335305395130116 0 -0.016795122006279809 0.0016192421283959747 0 -0.016687007570027165 0.0015498966428028737 0 -0.016766275672191196 0.0015313427810868122 0 -0.017498154498667283 0.0011498698896213835 0 -0.015045695602956308 0.0017335305395130116 0 -0.017498154498667283 0.0011498698896213835 0 -0.014925099556516179 0.0012677234001236288 0 -0.016474624700387266 0.00014819390659373007 0 -0.016571907277870803 7.9363904672699714e-05 0 -0.016557178882479009 0.00038178448808764086 0 -0.015964134538660545 0.0011370997130070947 0 -0.016059170457538092 0.0015392566364092234 0 -0.015778407890081423 0.0015991524943695064 0 -0.015045695602956308 0.0017335305395130116 0 -0.014925099556516179 0.0012677234001236288 0 -0.012552076550496484 0.0016996435279657085 0 -0.012575347007216636 0.0015462523191227572 0 -0.012632460949067057 0.0016894373162994005 0 -0.012552076550496484 0.0016996435279657085 0 -0.012575347007216636 0.0015462523191227572 0 -0.012501741686090936 0.0014508846032168167 0 -0.015315191790314285 0.002600506034493905 0 -0.015349280813805079 0.0026367780047068597 0 -0.015343763523903427 0.0026762518125966815 0 -0.015045695602956308 0.0017335305395130116 0 -0.013853264516985814 0.0021342667927376751 0 -0.012575347007216636 0.0015462523191227572 0 -0.012593846014746153 0.001421558000813974 0 -0.012501741686090936 0.0014508846032168167 0 -0.015390333085138461 0.0026291281103353508 0 -0.015349280813805079 0.0026367780047068597 0 -0.01535163813404083 0.0026743822579254981 0 -0.015349280813805079 0.0026367780047068597 0 -0.01535163813404083 0.0026743822579254981 0 -0.015343763523903427 0.0026762518125966815 0 -0.01535163813404083 0.0026743822579254981 0 -0.015326862470336301 0.0026884953478731322 0 -0.015323443261831649 0.0026766543838670836 0 -0.015692901486753504 0.0029743535739902944 0 -0.015404915287325209 0.0026715510976392399 0 -0.015334828386772741 0.0027167796612292796 0 -0.01535163813404083 0.0026743822579254981 0 -0.015326862470336301 0.0026884953478731322 0 -0.016221412578138854 -7.0115419201592625e-07 0 -0.014260724639832923 7.3704349555288923e-07 0 -0.015254250570119532 1.5258275044205915e-05 0 -0.014479406402555448 7.8256830169954777e-06 0 -0.014260724639832923 7.3704349555288923e-07 0 -0.015254250570119532 1.5258275044205915e-05 0 -0.014759158143505275 0.00023194942810948369 0 -0.014259739145701399 3.0324431162233901e-07 0 -0.014759158143505275 0.00023194942810948369 0 -0.015105493386398893 0.00010691792897532693 0 -0.015758703910412446 0.00067646061987785752 0 -0.015254250570119532 1.5258275044205915e-05 0 -0.016028829238681413 0.00021634716076319305 0 -0.015758703910412446 0.00067646061987785752 0 -0.016028829238681413 0.00021634716076319305 0 -0.016557178882479009 0.00038178448808764086 0 -0.016281287585834334 6.5557297880969697e-05 0 -0.016028829238681413 0.00021634716076319305 0 -0.016557178882479009 0.00038178448808764086 0 -0.014759158143505275 0.00023194942810948369 0 -0.014925099556516179 0.0012677234001236288 0 -0.016474624700387266 0.00014819390659373007 0 -0.016281287585834334 6.5557297880969697e-05 0 -0.016557178882479009 0.00038178448808764086 0 -0.014273093521282606 0.00076408260284334373 0 -0.014284086400481835 0.0007659853321301752 0 -0.014269593530404856 0.00077501294352532899 0 -0.014925099556516179 0.0012677234001236288 0 -0.013140168327841975 0.00082480871499865968 0 -0.012575347007216636 0.0015462523191227572 0 -0.012632460949067057 0.0016894373162994005 0 -0.012758388107970019 0.0013802728670181798 0 -0.012575347007216636 0.0015462523191227572 0 -0.012758388107970019 0.0013802728670181798 0 -0.012593846014746153 0.001421558000813974 0 -0.013841287214728378 -8.3567431368832264e-05 0 -0.014255673596937482 3.943831155924522e-08 0 -0.012793011306994827 -2.8569035575452152e-08 0 -0.013841287214728378 -8.3567431368832264e-05 0 -0.012793011306994827 -2.8569035575452152e-08 0 -0.013351490329302535 4.0929105055327326e-05 0 -0.014759158143505275 0.00023194942810948369 0 -0.013140168327841975 0.00082480871499865968 0 -0.012793011306994827 -2.8569035575452152e-08 0 -0.013054275738449576 0.00074406847323534042 0 -0.013351490329302535 4.0929105055327326e-05 0 -0.012788192318618247 1.3250400140008726e-07 0 -0.010656615215576386 1.7401589845864119e-05 0 -0.011362317867354475 1.5402690196888551e-07 0 -0.012788712364655499 -8.8820332789654416e-08 0 -0.011732309788246643 0.00025281940637223767 0 -0.011732309788246643 0.00025281940637223767 0 -0.013140168327841975 0.00082480871499865968 0 -0.012619165335224444 0.00064092317933024375 0 -0.012284896651226337 0.00075509443503385322 0 -0.012458134153450639 0.0010624500786645251 0 -0.012484158521134592 0.00091884037812853183 0 -0.012758388107970019 0.0013802728670181798 0 -0.012593846014746153 0.001421558000813974 0 -0.012345152396738508 0.00087541770674459489 0 -0.013140168327841975 0.00082480871499865968 0 -0.012501741686090936 0.0014508846032168167 0 -0.012529981565187229 0.0013647959211943415 0 -0.012476066010582793 0.0012968974326860215 0 -0.012593846014746153 0.001421558000813974 0 -0.012529981565187229 0.0013647959211943415 0 -0.012555618756885423 0.0012842296281742837 0 -0.012567750726492712 0.0013965198503929084 0 -0.01237551885468151 0.0010619062600729558 0 -0.012593846014746153 0.001421558000813974 0 -0.012501741686090936 0.0014508846032168167 0 -0.012529981565187229 0.0013647959211943415 0 -0.013853264516985814 0.0021342667927376751 0 -0.013499510119869574 0.0019436977047799378 0 -0.015343763523903427 0.0026762518125966815 0 -0.015337117262489862 0.0026609171831817541 0 -0.015370218524810606 0.0026244107000358151 0 -0.01535163813404083 0.0026743822579254981 0 -0.015337117262489862 0.0026609171831817541 0 -0.015323443261831649 0.0026766543838670836 0 -0.01535163813404083 0.0026743822579254981 0 -0.015343763523903427 0.0026762518125966815 0 -0.015337117262489862 0.0026609171831817541 0 -0.015370218524810606 0.0026244107000358151 0 -0.015281452247510367 0.0025464514693354923 0 -0.015322652281084755 0.0026281299462345914 0 -0.015337117262489862 0.0026609171831817541 0 -0.015370218524810606 0.0026244107000358151 0 -0.015322652281084755 0.0026281299462345914 0 -0.012484158521134592 0.00091884037812853183 0 -0.012593846014746153 0.001421558000813974 0 -0.012178463408283003 0.00084398399487528879 0 -0.012529981565187229 0.0013647959211943415 0 -0.012476066010582793 0.0012968974326860215 0 -0.012555618756885423 0.0012842296281742837 0 -0.012476066010582793 0.0012968974326860215 0 -0.012512453866806984 0.0012435917057289946 0 -0.012555618756885423 0.0012842296281742837 0 -0.012345152396738508 0.00087541770674459489 0 -0.012144457912216772 0.0004756743984236633 0 -0.012178463408283003 0.00084398399487528879 0 -0.012107901537801025 0.00045428913268017693 0 -0.011848546565941252 0.00027063316025995255 0 -0.012284896651226337 0.00075509443503385322 0 -0.012107901537801025 0.00045428913268017693 0 -0.01237816327237499 0.00049900734867862817 0 -0.012484158521134592 0.00091884037812853183 0 -0.012178463408283003 0.00084398399487528879 0 -0.012107901537801025 0.00045428913268017693 0 -0.012512453866806984 0.0012435917057289946 0 -0.012555618756885423 0.0012842296281742837 0 -0.012498776047780418 0.0010171233173230233 0 -0.01237551885468151 0.0010619062600729558 0 -0.012146678823218734 0.00062623764255054335 0 -0.012107901537801025 0.00045428913268017693 0 -0.012140857906349729 0.00018271781942528586 0 -0.01237816327237499 0.00049900734867862817 0 -0.012512453866806984 0.0012435917057289946 0 -0.012387934753011214 0.0010286889211934768 0 -0.012498776047780418 0.0010171233173230233 0 -0.012476066010582793 0.0012968974326860215 0 -0.012512453866806984 0.0012435917057289946 0 -0.012387934753011214 0.0010286889211934768 0 -0.012577790053693983 0.0016828417556175048 0 -0.012387934753011214 0.0010286889211934768 0 -0.012003222676496934 0.0012543436520658694 0 -0.013499510119869574 0.0019436977047799378 0 -0.012134462772588693 0.00082042453288163329 0 -0.012387934753011214 0.0010286889211934768 0 -0.012498776047780418 0.0010171233173230233 0 -0.012291969199606569 0.00044782723526098282 0 -0.011848546565941252 0.00027063316025995255 0 -0.012140857906349729 0.00018271781942528586 0 -0.011949541961410664 -9.832325471820268e-05 0 -0.012107901537801025 0.00045428913268017693 0 -0.011848546565941252 0.00027063316025995255 0 -0.012140857906349729 0.00018271781942528586 0 -0.012140857906349729 0.00018271781942528586 0 -0.012469843500193185 0.00020806190527536454 0 -0.01237816327237499 0.00049900734867862817 0 -0.0096971435315462168 -0.00017234028551770995 0 -0.0097552729312060348 -0.00012474449670191664 0 -0.0085114350663719005 7.5711460518869137e-07 0 -0.0097552729312060348 -0.00012474449670191664 0 -0.0099347968873765499 -5.9852921845342751e-07 0 -0.0085114350663719005 7.5711460518869137e-07 0 -0.010139727833127093 5.5967423163773521e-05 0 -0.0097552729312060348 -0.00012474449670191664 0 -0.010187398925189699 -2.5533482339976626e-05 0 -0.010139727833127093 5.5967423163773521e-05 0 -0.0096971435315462168 -0.00017234028551770995 0 -0.0097552729312060348 -0.00012474449670191664 0 -0.011362317867354475 1.5402690196888551e-07 0 -0.0099347968873765499 -5.9852921845342751e-07 0 -0.010187398925189699 -2.5533482339976626e-05 0 -0.011732309788246643 0.00025281940637223767 0 -0.011329845642593173 0.00013088413815650382 0 -0.0097552729312060348 -0.00012474449670191664 0 -0.0099347968873765499 -5.9852921845342751e-07 0 -0.010187398925189699 -2.5533482339976626e-05 0 -0.010656615215576386 1.7401589845864119e-05 0 -0.011362317867354475 1.5402690196888551e-07 0 -0.010187398925189699 -2.5533482339976626e-05 0 -0.011732309788246643 0.00025281940637223767 0 -0.010993049127512384 0.00019874872203837327 0 -0.012619165335224444 0.00064092317933024375 0 -0.012469843500193185 0.00020806190527536454 0 -0.01237816327237499 0.00049900734867862817 0 -0.012619165335224444 0.00064092317933024375 0 -0.012284896651226337 0.00075509443503385322 0 -0.01237816327237499 0.00049900734867862817 0 -0.014338992135543033 0.0024585686771130175 0 -0.014536486282888951 0.0022945799316025951 0 -0.014395674996752881 0.0021886728117120899 0 -0.014338992135543033 0.0024585686771130175 0 -0.014536486282888951 0.0022945799316025951 0 -0.014655782539337843 0.0025333062675069943 0 -0.014536486282888951 0.0022945799316025951 0 -0.014655782539337843 0.0025333062675069943 0 -0.014762558852973878 0.002312274478157027 0 -0.014338992135543033 0.0024585686771130175 0 -0.014575977265356362 0.0027636450267559363 0 -0.014655782539337843 0.0025333062675069943 0 -0.014338992135543033 0.0024585686771130175 0 -0.014575977265356362 0.0027636450267559363 0 -0.014206806785406095 0.0028432619641009589 0 -0.01385792761011052 0.0024735095217225107 0 -0.014206806785406095 0.0028432619641009589 0 -0.01381362702754187 0.0029285739373592873 0 -0.014338992135543033 0.0024585686771130175 0 -0.01385792761011052 0.0024735095217225107 0 -0.014206806785406095 0.0028432619641009589 0 -0.01385792761011052 0.0024735095217225107 0 -0.01381362702754187 0.0029285739373592873 0 -0.013278650467089492 0.0025042315579967287 0 -0.014338992135543033 0.0024585686771130175 0 -0.01385792761011052 0.0024735095217225107 0 -0.014158352847162615 0.0020183031580064121 0 -0.01385792761011052 0.0024735095217225107 0 -0.014158352847162615 0.0020183031580064121 0 -0.013463674339229377 0.0019328940419135506 0 -0.014158352847162615 0.0020183031580064121 0 -0.013463674339229377 0.0019328940419135506 0 -0.013923713440291408 0.0011653751716983721 0 -0.014158352847162615 0.0020183031580064121 0 -0.01463324300367874 0.0017997675516947228 0 -0.013923713440291408 0.0011653751716983721 0 -0.014158352847162615 0.0020183031580064121 0 -0.014547684997265838 0.0019747678511009619 0 -0.01463324300367874 0.0017997675516947228 0 -0.014158352847162615 0.0020183031580064121 0 -0.014395674996752881 0.0021886728117120899 0 -0.014547684997265838 0.0019747678511009619 0 -0.014338992135543033 0.0024585686771130175 0 -0.014158352847162615 0.0020183031580064121 0 -0.014395674996752881 0.0021886728117120899 0 -0.014536486282888951 0.0022945799316025951 0 -0.014395674996752881 0.0021886728117120899 0 -0.014547684997265838 0.0019747678511009619 0 -0.014536486282888951 0.0022945799316025951 0 -0.014547684997265838 0.0019747678511009619 0 -0.014762558852973878 0.002312274478157027 0 -0.014547684997265838 0.0019747678511009619 0 -0.014604768823786083 0.0018497813812683229 0 -0.014762558852973878 0.002312274478157027 0 -0.012722286159128625 0.0010249198946642971 0 -0.012319284669036305 0.00083519949680922203 0 -0.014604768823786083 0.0018497813812683229 0 -0.01524684728306033 0.0025013341479453188 0 -0.014762558852973878 0.002312274478157027 0 -0.011462055236950064 0.00085097473802974181 0 -0.011969049817624358 0.00078277914055687316 0 -0.012003222676496934 0.0012543436520658694 0 -0.012319284669036305 0.00083519949680922203 0 -0.013868926348095488 0.0020319878737394084 0 -0.012387934753011214 0.0010286889211934768 0 -0.011969049817624358 0.00078277914055687316 0 -0.012003222676496934 0.0012543436520658694 0 -0.013499510119869574 0.0019436977047799378 0 -0.013868926348095488 0.0020319878737394084 0 -0.015370218524810606 0.0026244107000358151 0 -0.01524684728306033 0.0025013341479453188 0 -0.015281452247510367 0.0025464514693354923 0 -0.01524684728306033 0.0025013341479453188 0 -0.015131201713567383 0.0026565489465030967 0 -0.015281452247510367 0.0025464514693354923 0 -0.015131201713567383 0.0026565489465030967 0 -0.015281452247510367 0.0025464514693354923 0 -0.015060290134189018 0.0029322332546439251 0 -0.01524684728306033 0.0025013341479453188 0 -0.014762558852973878 0.002312274478157027 0 -0.014901502676558579 0.0026713985592765901 0 -0.014655782539337843 0.0025333062675069943 0 -0.014762558852973878 0.002312274478157027 0 -0.014901502676558579 0.0026713985592765901 0 -0.015131201713567383 0.0026565489465030967 0 -0.014901502676558579 0.0026713985592765901 0 -0.015060290134189018 0.0029322332546439251 0 -0.01524684728306033 0.0025013341479453188 0 -0.015131201713567383 0.0026565489465030967 0 -0.014901502676558579 0.0026713985592765901 0 -0.014575977265356362 0.0027636450267559363 0 -0.014655782539337843 0.0025333062675069943 0 -0.014901502676558579 0.0026713985592765901 0 -0.014575977265356362 0.0027636450267559363 0 -0.014901502676558579 0.0026713985592765901 0 -0.01476838975919624 0.003008927805724117 0 -0.014901502676558579 0.0026713985592765901 0 -0.015060290134189018 0.0029322332546439251 0 -0.01476838975919624 0.003008927805724117 0 -0.015060290134189018 0.0029322332546439251 0 -0.01476838975919624 0.003008927805724117 0 -0.014907304200629846 0.0033036245870060651 0 -0.015060290134189018 0.0029322332546439251 0 -0.015242024091644749 0.0033456699722879697 0 -0.014907304200629846 0.0033036245870060651 0 -0.01476838975919624 0.003008927805724117 0 -0.014907304200629846 0.0033036245870060651 0 -0.014675289058040449 0.0032869800384000294 0 -0.015281452247510367 0.0025464514693354923 0 -0.015322652281084755 0.0026281299462345914 0 -0.015294353166624043 0.0026646701860208641 0 -0.015290268290107949 0.0025795064932396874 0 -0.015256013582678514 0.0029919984500796316 0 -0.015281452247510367 0.0025464514693354923 0 -0.015060290134189018 0.0029322332546439251 0 -0.015242024091644749 0.0033456699722879697 0 -0.015337117262489862 0.0026609171831817541 0 -0.015322652281084755 0.0026281299462345914 0 -0.015294353166624043 0.0026646701860208641 0 -0.015242024091644749 0.0033456699722879697 0 -0.015151795286248776 0.0036883797865024629 0 -0.014955319279504777 0.0036573604697863805 0 -0.015294353166624043 0.0026646701860208641 0 -0.015323443261831649 0.0026766543838670836 0 -0.015296258469468412 0.0026866262540139125 0 -0.015256013582678514 0.0029919984500796316 0 -0.01517938437803072 0.0031914439837300453 0 -0.015337117262489862 0.0026609171831817541 0 -0.015294353166624043 0.0026646701860208641 0 -0.015323443261831649 0.0026766543838670836 0 -0.014907304200629846 0.0033036245870060651 0 -0.01472754582066625 0.0035840172737570202 0 -0.014675289058040449 0.0032869800384000294 0 -0.015242024091644749 0.0033456699722879697 0 -0.014907304200629846 0.0033036245870060651 0 -0.014955319279504777 0.0036573604697863805 0 -0.014907304200629846 0.0033036245870060651 0 -0.01472754582066625 0.0035840172737570202 0 -0.014955319279504777 0.0036573604697863805 0 -0.014446212868922937 0.0034409609066726877 0 -0.014179505469042335 0.0035750760460064989 0 -0.014463044355390501 0.0038199459201769381 0 -0.01472754582066625 0.0035840172737570202 0 -0.014446212868922937 0.0034409609066726877 0 -0.014463044355390501 0.0038199459201769381 0 -0.014446212868922937 0.0034409609066726877 0 -0.014675289058040449 0.0032869800384000294 0 -0.014473602110549216 0.0030850991508619761 0 -0.01472754582066625 0.0035840172737570202 0 -0.014446212868922937 0.0034409609066726877 0 -0.014675289058040449 0.0032869800384000294 0 -0.01476838975919624 0.003008927805724117 0 -0.014675289058040449 0.0032869800384000294 0 -0.014473602110549216 0.0030850991508619761 0 -0.014473602110549216 0.0030850991508619761 0 -0.014206806785406095 0.0028432619641009589 0 -0.014139427890079942 0.0032239307635938516 0 -0.014446212868922937 0.0034409609066726877 0 -0.014473602110549216 0.0030850991508619761 0 -0.014139427890079942 0.0032239307635938516 0 -0.014575977265356362 0.0027636450267559363 0 -0.014473602110549216 0.0030850991508619761 0 -0.014206806785406095 0.0028432619641009589 0 -0.014575977265356362 0.0027636450267559363 0 -0.01476838975919624 0.003008927805724117 0 -0.014473602110549216 0.0030850991508619761 0 -0.01381362702754187 0.0029285739373592873 0 -0.014139427890079942 0.0032239307635938516 0 -0.013766257833780141 0.0034396351763501826 0 -0.014206806785406095 0.0028432619641009589 0 -0.01381362702754187 0.0029285739373592873 0 -0.014139427890079942 0.0032239307635938516 0 -0.014179505469042335 0.0035750760460064989 0 -0.014078467500097201 0.0038826911973279012 0 -0.013766257833780141 0.0034396351763501826 0 -0.014139427890079942 0.0032239307635938516 0 -0.014179505469042335 0.0035750760460064989 0 -0.013766257833780141 0.0034396351763501826 0 -0.014446212868922937 0.0034409609066726877 0 -0.014139427890079942 0.0032239307635938516 0 -0.014179505469042335 0.0035750760460064989 0 -0.014179505469042335 0.0035750760460064989 0 -0.014078467500097201 0.0038826911973279012 0 -0.014463044355390501 0.0038199459201769381 0 -0.014078467500097201 0.0038826911973279012 0 -0.014463044355390501 0.0038199459201769381 0 -0.014414215024123777 0.0041310490175343164 0 -0.014463044355390501 0.0038199459201769381 0 -0.014652947748712815 0.0041566908409727404 0 -0.014797757438498683 0.0039066439578234321 0 -0.01472754582066625 0.0035840172737570202 0 -0.014463044355390501 0.0038199459201769381 0 -0.014797757438498683 0.0039066439578234321 0 -0.014463044355390501 0.0038199459201769381 0 -0.014652947748712815 0.0041566908409727404 0 -0.014414215024123777 0.0041310490175343164 0 -0.014652947748712815 0.0041566908409727404 0 -0.014414215024123777 0.0041310490175343164 0 -0.014561102541593603 0.0044581191709102026 0 -0.014078467500097201 0.0038826911973279012 0 -0.014270363172154554 0.004249012854413369 0 -0.014414215024123777 0.0041310490175343164 0 -0.014270363172154554 0.004249012854413369 0 -0.014414215024123777 0.0041310490175343164 0 -0.014561102541593603 0.0044581191709102026 0 -0.015224019190518627 0.0032069927491675553 0 -0.015153034740683531 0.0036378583014903304 0 -0.015433838707103915 0.0037918316623863999 0 -0.015724473235306589 0.0036505618458137581 0 -0.015224019190518627 0.0032069927491675553 0 -0.015433838707103915 0.0037918316623863999 0 -0.015692901486753504 0.0029743535739902944 0 -0.01517938437803072 0.0031914439837300453 0 -0.015334828386772741 0.0027167796612292796 0 -0.015326862470336301 0.0026884953478731322 0 -0.015296258469468412 0.0026866262540139125 0 -0.015326862470336301 0.0026884953478731322 0 -0.015323443261831649 0.0026766543838670836 0 -0.015296258469468412 0.0026866262540139125 0 -0.01517938437803072 0.0031914439837300453 0 -0.015107043012223632 0.0038424135765677374 0 -0.014955319279504777 0.0036573604697863805 0 -0.014797757438498683 0.0039066439578234321 0 -0.015069402707922709 0.0039830201407581606 0 -0.015151795286248776 0.0036883797865024629 0 -0.014955319279504777 0.0036573604697863805 0 -0.015069402707922709 0.0039830201407581606 0 -0.01472754582066625 0.0035840172737570202 0 -0.014955319279504777 0.0036573604697863805 0 -0.014797757438498683 0.0039066439578234321 0 -0.014866530971939006 0.0041795632811492548 0 -0.015069402707922709 0.0039830201407581606 0 -0.015015394179088978 0.0044778229543924776 0 -0.015107043012223632 0.0038424135765677374 0 -0.015020054067056102 0.0044326153537707523 0 -0.014652947748712815 0.0041566908409727404 0 -0.014797757438498683 0.0039066439578234321 0 -0.014866530971939006 0.0041795632811492548 0 -0.014652947748712815 0.0041566908409727404 0 -0.014866530971939006 0.0041795632811492548 0 -0.014797799023606801 0.004384363829419753 0 -0.014797757438498683 0.0039066439578234321 0 -0.014866530971939006 0.0041795632811492548 0 -0.015069402707922709 0.0039830201407581606 0 -0.015153034740683531 0.0036378583014903304 0 -0.015314540952039737 0.0041434262451576116 0 -0.015015394179088978 0.0044778229543924776 0 -0.015153034740683531 0.0036378583014903304 0 -0.015433838707103915 0.0037918316623863999 0 -0.015314540952039737 0.0041434262451576116 0 -0.015459382498725785 0.0041115014388319292 0 -0.015433838707103915 0.0037918316623863999 0 -0.015314540952039737 0.0041434262451576116 0 -0.015692901486753504 0.0029743535739902944 0 -0.016508160831959762 0.0031873998212422149 0 -0.015724473235306589 0.0036505618458137581 0 -0.015459382498725785 0.0041115014388319292 0 -0.015433838707103915 0.0037918316623863999 0 -0.018077957698540818 0.0020361720552225498 0 -0.018071368377963179 0.002050116824802343 0 -0.018085517975970217 0.0020379406997802834 0 -0.016508160831959762 0.0031873998212422149 0 -0.017143818835958821 0.0028815473267424655 0 -0.015451396483763242 0.0041194715333749184 0 -0.015015394179088978 0.0044778229543924776 0 -0.015025574189585193 0.0047768306787147217 0 -0.016508160831959762 0.0031873998212422149 0 -0.015858673315143453 0.003451137994693211 0 -0.015451396483763242 0.0041194715333749184 0 -0.015314540952039737 0.0041434262451576116 0 -0.015015394179088978 0.0044778229543924776 0 -0.014797799023606801 0.004384363829419753 0 -0.015025574189585193 0.0047768306787147217 0 -0.014561102541593603 0.0044581191709102026 0 -0.015015394179088978 0.0044778229543924776 0 -0.014797799023606801 0.004384363829419753 0 -0.015025574189585193 0.0047768306787147217 0 -0.014866530971939006 0.0041795632811492548 0 -0.015015394179088978 0.0044778229543924776 0 -0.014797799023606801 0.004384363829419753 0 -0.017143818835958821 0.0028815473267424655 0 -0.01437684213358249 0.0045968623431381275 0 -0.014963954402980035 0.0048822420129212589 0 -0.015111757656537906 0.0046491727872136641 0 -0.01481176152998857 0.0047320875123906831 0 -0.017466466758513037 0.002195719086823649 0 -0.017143818835958821 0.0028815473267424655 0 -0.0195870114070739 0.00090425758201802785 0 -0.017143818835958821 0.0028815473267424655 0 -0.018090305860753272 0.002024458889214242 0 -0.018077957698540818 0.0020361720552225498 0 -0.018085517975970217 0.0020379406997802834 0 -0.020286063899735977 0.0001045802762695794 0 -0.021046714564832824 -0.000170568940486437 0 -0.020124549656008163 -0.00073622943829090165 0 -0.014394156833842401 0.0042607118768057187 0 -0.01437684213358249 0.0045968623431381275 0 -0.014270363172154554 0.004249012854413369 0 -0.014785312024871274 0.0044825826332788136 0 -0.014543890350963803 0.0047325444582303885 0 -0.014652947748712815 0.0041566908409727404 0 -0.014797799023606801 0.004384363829419753 0 -0.014561102541593603 0.0044581191709102026 0 -0.015111757656537906 0.0046491727872136641 0 -0.014785312024871274 0.0044825826332788136 0 -0.01481176152998857 0.0047320875123906831 0 -0.014690481861837671 0.0049145025929305435 0 -0.01481176152998857 0.0047320875123906831 0 -0.014543890350963803 0.0047325444582303885 0 -0.014785312024871274 0.0044825826332788136 0 -0.01481176152998857 0.0047320875123906831 0 -0.014543890350963803 0.0047325444582303885 0 -0.014601210813152559 0.0049426727075260919 0 -0.014543890350963803 0.0047325444582303885 0 -0.014390265044519714 0.0047945464047796198 0 -0.014543890350963803 0.0047325444582303885 0 -0.014390265044519714 0.0047945464047796198 0 -0.014131776766410125 0.0044714549090429517 0 -0.014270363172154554 0.004249012854413369 0 -0.014543890350963803 0.0047325444582303885 0 -0.014131776766410125 0.0044714549090429517 0 -0.014131776766410125 0.0044714549090429517 0 -0.013705398803720584 0.0043072639055053404 0 -0.013881955825133687 0.0041053631985566615 0 -0.014131776766410125 0.0044714549090429517 0 -0.014018968139011394 0.004676133744510042 0 -0.013705398803720584 0.0043072639055053404 0 -0.014532678347521942 0.0049511189258129723 0 -0.014390265044519714 0.0047945464047796198 0 -0.014018968139011394 0.004676133744510042 0 -0.014390265044519714 0.0047945464047796198 0 -0.014131776766410125 0.0044714549090429517 0 -0.014018968139011394 0.004676133744510042 0 -0.01374961147076225 0.0049059656995166226 0 -0.014018968139011394 0.004676133744510042 0 -0.013504513145324913 0.004454418746921633 0 -0.01374961147076225 0.0049059656995166226 0 -0.013504513145324913 0.004454418746921633 0 -0.01297573452407934 0.0044630717696904692 0 -0.013643743968832875 0.0035821968500941866 0 -0.012795812206803831 0.0033799817911075222 0 -0.012737852276213437 0.0033671469115845475 0 -0.013720039473001803 0.0042505005710655784 0 -0.012872668849277279 0.0039347384153587744 0 -0.013151007118828058 0.0042560112492833297 0 -0.013504513145324913 0.004454418746921633 0 -0.013324046323636173 0.0041211775537678243 0 -0.013151007118828058 0.0042560112492833297 0 -0.01297573452407934 0.0044630717696904692 0 -0.012860033896252721 0.0041350156869694966 0 -0.013151007118828058 0.0042560112492833297 0 -0.013504513145324913 0.004454418746921633 0 -0.01297573452407934 0.0044630717696904692 0 -0.014018968139011394 0.004676133744510042 0 -0.013504513145324913 0.004454418746921633 0 -0.013705398803720584 0.0043072639055053404 0 -0.013504513145324913 0.004454418746921633 0 -0.013705398803720584 0.0043072639055053404 0 -0.013324046323636173 0.0041211775537678243 0 -0.013705398803720584 0.0043072639055053404 0 -0.013324046323636173 0.0041211775537678243 0 -0.013488696986299823 0.0039460465753434508 0 -0.013324046323636173 0.0041211775537678243 0 -0.01298297606160872 0.003999397480346549 0 -0.013068759834886928 0.0037505139767718605 0 -0.013151007118828058 0.0042560112492833297 0 -0.01298297606160872 0.003999397480346549 0 -0.012860033896252721 0.0041350156869694966 0 -0.013151007118828058 0.0042560112492833297 0 -0.013324046323636173 0.0041211775537678243 0 -0.01298297606160872 0.003999397480346549 0 -0.01298297606160872 0.003999397480346549 0 -0.013068759834886928 0.0037505139767718605 0 -0.012791697638690019 0.0038248417411591031 0 -0.013068759834886928 0.0037505139767718605 0 -0.012791697638690019 0.0038248417411591031 0 -0.012793608648695075 0.0036267551257048464 0 -0.013068759834886928 0.0037505139767718605 0 -0.013321847373078141 0.0036828613665605262 0 -0.013488696986299823 0.0039460465753434508 0 -0.013324046323636173 0.0041211775537678243 0 -0.013068759834886928 0.0037505139767718605 0 -0.013488696986299823 0.0039460465753434508 0 -0.013488696986299823 0.0039460465753434508 0 -0.013632160081046016 0.00373980189805389 0 -0.013881955825133687 0.0041053631985566615 0 -0.013321847373078141 0.0036828613665605262 0 -0.013488696986299823 0.0039460465753434508 0 -0.013632160081046016 0.00373980189805389 0 -0.014078467500097201 0.0038826911973279012 0 -0.013632160081046016 0.00373980189805389 0 -0.013766257833780141 0.0034396351763501826 0 -0.014078467500097201 0.0038826911973279012 0 -0.013632160081046016 0.00373980189805389 0 -0.013881955825133687 0.0041053631985566615 0 -0.014270363172154554 0.004249012854413369 0 -0.014131776766410125 0.0044714549090429517 0 -0.013881955825133687 0.0041053631985566615 0 -0.014078467500097201 0.0038826911973279012 0 -0.014270363172154554 0.004249012854413369 0 -0.013881955825133687 0.0041053631985566615 0 -0.013705398803720584 0.0043072639055053404 0 -0.013488696986299823 0.0039460465753434508 0 -0.013881955825133687 0.0041053631985566615 0 -0.011741151988683252 0.0039837435549143745 0 -0.011749912844023984 0.0040088699833236985 0 -0.011917062683741663 0.0037822045451744546 0 -0.012824257167958637 0.0030867187411068157 0 -0.012564017047884814 0.0036877739268695062 0 -0.011875355757657092 0.0033182642382872398 0 -0.011741151988683252 0.0039837435549143745 0 -0.011917062683741663 0.0037822045451744546 0 -0.013279796175440698 0.0029240447161815327 0 -0.013798004793894583 0.0028200032917372214 0 -0.013344292783561166 0.0034566567889106133 0 -0.011741151988683252 0.0039837435549143745 0 -0.011952203052554278 0.0039632811246352187 0 -0.011749912844023984 0.0040088699833236985 0 -0.013344292783561166 0.0034566567889106133 0 -0.012837507893837077 0.0034482877620460161 0 -0.012528591096306413 0.0039077497324243021 0 -0.012564017047884814 0.0036877739268695062 0 -0.012542034848438847 0.0038724259738890268 0 -0.013344292783561166 0.0034566567889106133 0 -0.012837507893837077 0.0034482877620460161 0 -0.013034519171147374 0.0032963461078823579 0 -0.013279796175440698 0.0029240447161815327 0 -0.013344292783561166 0.0034566567889106133 0 -0.013034519171147374 0.0032963461078823579 0 -0.012837507893837077 0.0034482877620460161 0 -0.013034519171147374 0.0032963461078823579 0 -0.012795812206803831 0.0033799817911075222 0 -0.013279796175440698 0.0029240447161815327 0 -0.013034519171147374 0.0032963461078823579 0 -0.012795812206803831 0.0033799817911075222 0 -0.012837507893837077 0.0034482877620460161 0 -0.012795812206803831 0.0033799817911075222 0 -0.012737852276213437 0.0033671469115845475 0 -0.012837507893837077 0.0034482877620460161 0 -0.012737852276213437 0.0033671469115845475 0 -0.012528591096306413 0.0039077497324243021 0 -0.01297573452407934 0.0044630717696904692 0 -0.012860033896252721 0.0041350156869694966 0 -0.012460921605111508 0.0039990972948299348 0 -0.012872668849277279 0.0039347384153587744 0 -0.012523410720767934 0.0039835678296332219 0 -0.012737852276213437 0.0033671469115845475 0 -0.012528591096306413 0.0039077497324243021 0 -0.012460921605111508 0.0039990972948299348 0 -0.012860033896252721 0.0041350156869694966 0 -0.01268211314234176 0.0039345361108409169 0 -0.012460921605111508 0.0039990972948299348 0 -0.01298297606160872 0.003999397480346549 0 -0.012860033896252721 0.0041350156869694966 0 -0.01268211314234176 0.0039345361108409169 0 -0.01298297606160872 0.003999397480346549 0 -0.01268211314234176 0.0039345361108409169 0 -0.012791697638690019 0.0038248417411591031 0 -0.01268211314234176 0.0039345361108409169 0 -0.012791697638690019 0.0038248417411591031 0 -0.012555819171378999 0.0038099137911595934 0 -0.012791697638690019 0.0038248417411591031 0 -0.012664925538243443 0.0037124917624204164 0 -0.012793608648695075 0.0036267551257048464 0 -0.012791697638690019 0.0038248417411591031 0 -0.012664925538243443 0.0037124917624204164 0 -0.012555819171378999 0.0038099137911595934 0 -0.012555819171378999 0.0038099137911595934 0 -0.012336634816206917 0.0037899419149119763 0 -0.012511147000368263 0.0037074314448361238 0 -0.012664925538243443 0.0037124917624204164 0 -0.012555819171378999 0.0038099137911595934 0 -0.012511147000368263 0.0037074314448361238 0 -0.01268211314234176 0.0039345361108409169 0 -0.01244337223342493 0.0038840309818084194 0 -0.012460921605111508 0.0039990972948299348 0 -0.01268211314234176 0.0039345361108409169 0 -0.012555819171378999 0.0038099137911595934 0 -0.01244337223342493 0.0038840309818084194 0 -0.01244337223342493 0.0038840309818084194 0 -0.012242988045693081 0.0039014587390796048 0 -0.012460921605111508 0.0039990972948299348 0 -0.01244337223342493 0.0038840309818084194 0 -0.012336634816206917 0.0037899419149119763 0 -0.012242988045693081 0.0039014587390796048 0 -0.012555819171378999 0.0038099137911595934 0 -0.01244337223342493 0.0038840309818084194 0 -0.012336634816206917 0.0037899419149119763 0 -0.012336634816206917 0.0037899419149119763 0 -0.012046810983399317 0.0038828006711128429 0 -0.012158561581195708 0.003698189977968534 0 -0.012336634816206917 0.0037899419149119763 0 -0.012242988045693081 0.0039014587390796048 0 -0.012046810983399317 0.0038828006711128429 0 -0.012242988045693081 0.0039014587390796048 0 -0.011947565958443755 0.0039727843689304938 0 -0.012046810983399317 0.0038828006711128429 0 -0.012242988045693081 0.0039014587390796048 0 -0.012212935341151422 0.0039407956439141837 0 -0.011947565958443755 0.0039727843689304938 0 -0.012212935341151422 0.0039407956439141837 0 -0.012528591096306413 0.0039077497324243021 0 -0.011952203052554278 0.0039632811246352187 0 -0.011741151988683252 0.0039837435549143745 0 -0.012528591096306413 0.0039077497324243021 0 -0.011952203052554278 0.0039632811246352187 0 -0.012212935341151422 0.0039407956439141837 0 -0.012528591096306413 0.0039077497324243021 0 -0.012460921605111508 0.0039990972948299348 0 -0.012242988045693081 0.0039014587390796048 0 -0.012212935341151422 0.0039407956439141837 0 -0.012460921605111508 0.0039990972948299348 0 -0.011952203052554278 0.0039632811246352187 0 -0.011947565958443755 0.0039727843689304938 0 -0.011749912844023984 0.0040088699833236985 0 -0.011947565958443755 0.0039727843689304938 0 -0.011776057842814576 0.0040047192068524999 0 -0.011749912844023984 0.0040088699833236985 0 -0.012212935341151422 0.0039407956439141837 0 -0.011952203052554278 0.0039632811246352187 0 -0.011947565958443755 0.0039727843689304938 0 -0.011947565958443755 0.0039727843689304938 0 -0.012046810983399317 0.0038828006711128429 0 -0.011776057842814576 0.0040047192068524999 0 -0.012046810983399317 0.0038828006711128429 0 -0.011776057842814576 0.0040047192068524999 0 -0.011811787409669388 0.0038531702186464373 0 -0.011776057842814576 0.0040047192068524999 0 -0.011451884894852229 0.004135575230377493 0 -0.011749912844023984 0.0040088699833236985 0 -0.011776057842814576 0.0040047192068524999 0 -0.011451884894852229 0.004135575230377493 0 -0.011811787409669388 0.0038531702186464373 0 -0.011749912844023984 0.0040088699833236985 0 -0.011679838300020288 0.0040207610702774881 0 -0.011917062683741663 0.0037822045451744546 0 -0.011451884894852229 0.004135575230377493 0 -0.011749912844023984 0.0040088699833236985 0 -0.011679838300020288 0.0040207610702774881 0 -0.011453465012542571 0.0037673950117689281 0 -0.011900734572702062 0.002947577120407675 0 -0.010524087872254112 0.00254150611300915 0 -0.011451884894852229 0.004135575230377493 0 -0.011453465012542571 0.0037673950117689281 0 -0.010605319520628292 0.0043834170215182981 0 -0.011451884894852229 0.004135575230377493 0 -0.011453465012542571 0.0037673950117689281 0 -0.011811787409669388 0.0038531702186464373 0 -0.011453465012542571 0.0037673950117689281 0 -0.011811787409669388 0.0038531702186464373 0 -0.01198694318689906 0.0035119619477740512 0 -0.012046810983399317 0.0038828006711128429 0 -0.011811787409669388 0.0038531702186464373 0 -0.012158561581195708 0.003698189977968534 0 -0.011811787409669388 0.0038531702186464373 0 -0.01198694318689906 0.0035119619477740512 0 -0.012158561581195708 0.003698189977968534 0 -0.011453465012542571 0.0037673950117689281 0 -0.01198694318689906 0.0035119619477740512 0 -0.011900734572702062 0.002947577120407675 0 -0.01198694318689906 0.0035119619477740512 0 -0.012183565515936655 0.0032825663872966355 0 -0.011900734572702062 0.002947577120407675 0 -0.012183565515936655 0.0032825663872966355 0 -0.01246941195540038 0.0031861979026250537 0 -0.011900734572702062 0.002947577120407675 0 -0.01246941195540038 0.0031861979026250537 0 -0.01231673004786956 0.0034609969265600843 0 -0.012527714281422176 0.0034815523837479889 0 -0.012183565515936655 0.0032825663872966355 0 -0.01246941195540038 0.0031861979026250537 0 -0.01231673004786956 0.0034609969265600843 0 -0.01198694318689906 0.0035119619477740512 0 -0.012183565515936655 0.0032825663872966355 0 -0.01231673004786956 0.0034609969265600843 0 -0.01198694318689906 0.0035119619477740512 0 -0.01231673004786956 0.0034609969265600843 0 -0.012158561581195708 0.003698189977968534 0 -0.012336634816206917 0.0037899419149119763 0 -0.012158561581195708 0.003698189977968534 0 -0.012422735469266581 0.0036273760437364054 0 -0.012336634816206917 0.0037899419149119763 0 -0.012422735469266581 0.0036273760437364054 0 -0.012511147000368263 0.0037074314448361238 0 -0.01231673004786956 0.0034609969265600843 0 -0.012158561581195708 0.003698189977968534 0 -0.012422735469266581 0.0036273760437364054 0 -0.01231673004786956 0.0034609969265600843 0 -0.012422735469266581 0.0036273760437364054 0 -0.012527714281422176 0.0034815523837479889 0 -0.012422735469266581 0.0036273760437364054 0 -0.012527714281422176 0.0034815523837479889 0 -0.01261774428484444 0.0035929330014541011 0 -0.012422735469266581 0.0036273760437364054 0 -0.012511147000368263 0.0037074314448361238 0 -0.01261774428484444 0.0035929330014541011 0 -0.012664925538243443 0.0037124917624204164 0 -0.012511147000368263 0.0037074314448361238 0 -0.01261774428484444 0.0035929330014541011 0 -0.01261774428484444 0.0035929330014541011 0 -0.012744874314006989 0.0034760671682976599 0 -0.012793608648695075 0.0036267551257048464 0 -0.012664925538243443 0.0037124917624204164 0 -0.01261774428484444 0.0035929330014541011 0 -0.012793608648695075 0.0036267551257048464 0 -0.012527714281422176 0.0034815523837479889 0 -0.01261774428484444 0.0035929330014541011 0 -0.012744874314006989 0.0034760671682976599 0 -0.012527714281422176 0.0034815523837479889 0 -0.012744874314006989 0.0034760671682976599 0 -0.012654581979751186 0.0033694977014937918 0 -0.01195621880537551 0.0028843581780309113 0 -0.012214951148440937 0.0031189978341231847 0 -0.01246941195540038 0.0031861979026250537 0 -0.012527714281422176 0.0034815523837479889 0 -0.012654581979751186 0.0033694977014937918 0 -0.01246941195540038 0.0031861979026250537 0 -0.012654581979751186 0.0033694977014937918 0 -0.01285910086110853 0.0033199600974836169 0 -0.011342499070073416 0.0026920410348937923 0 -0.010069560304019348 0.0025049480781301628 0 -0.011420810927954876 0.0025593773527359176 0 -0.011425150739502957 0.0026518299929785627 0 -0.01145364182052582 0.0024415559095260632 0 -0.010510232987510595 0.0026804761432512566 0 -0.010069560304019348 0.0025049480781301628 0 -0.010961594540909588 0.002707763200927154 0 -0.010927301399729659 0.0026038294759540529 0 -0.0101164068303779 0.0024338451556038436 0 -0.010330738420585588 0.002823410470755764 0 -0.0098911571304517252 0.0022198004622359206 0 -0.0087745223551679817 0.0027112826156057194 0 -0.011420810927954876 0.0025593773527359176 0 -0.011425150739502957 0.0026518299929785627 0 -0.011506958290684681 0.0029516982320055467 0 -0.010330738420585588 0.002823410470755764 0 -0.010468889650971381 0.0024348701385951206 0 -0.0098911571304517252 0.0022198004622359206 0 -0.010158723060266692 0.0015630318304017958 0 -0.0098911571304517252 0.0022198004622359206 0 -0.010508268732495021 0.0021236639909534786 0 -0.010468889650971381 0.0024348701385951206 0 -0.0098911571304517252 0.0022198004622359206 0 -0.010508268732495021 0.0021236639909534786 0 -0.010158723060266692 0.0015630318304017958 0 -0.0098911571304517252 0.0022198004622359206 0 -0.0089073668859858315 0.0015956828334324101 0 -0.0098911571304517252 0.0022198004622359206 0 -0.0089073668859858315 0.0015956828334324101 0 -0.0087745223551679817 0.0027112826156057194 0 -0.0089073668859858315 0.0015956828334324101 0 -0.0079428230985178431 0.0018883301999976976 0 -0.0078768906860530539 0.0010606585406130332 0 -0.0089073668859858315 0.0015956828334324101 0 -0.0079428230985178431 0.0018883301999976976 0 -0.0087745223551679817 0.0027112826156057194 0 -0.01195621880537551 0.0028843581780309113 0 -0.01158330157234546 0.0026988133811384814 0 -0.011420810927954876 0.0025593773527359176 0 -0.01145364182052582 0.0024415559095260632 0 -0.011377504898220184 0.0024395330873178901 0 -0.01145364182052582 0.0024415559095260632 0 -0.011377504898220184 0.0024395330873178901 0 -0.011309091388735381 0.0020343247999603984 0 -0.0079428230985178431 0.0018883301999976976 0 -0.0087745223551679817 0.0027112826156057194 0 -0.0067476200439236271 0.0021234595697295347 0 -0.010049730521711835 0.0025240978288566724 0 -0.0076347089750317754 0.0019910445169119924 0 -0.0077352623477036746 0.0017532707591730197 0 -0.010069560304019348 0.0025049480781301628 0 -0.009579521378120277 0.0020005472215251585 0 -0.010069560304019348 0.0025049480781301628 0 -0.0071222609729902873 0.0019197375364173673 0 -0.0079428230985178431 0.0018883301999976976 0 -0.0073988936499417733 0.0015443970842071355 0 -0.0078768906860530539 0.0010606585406130332 0 -0.0079428230985178431 0.0018883301999976976 0 -0.0073988936499417733 0.0015443970842071355 0 -0.0067476200439236271 0.0021234595697295347 0 -0.0068930238381328902 0.0015783909816202543 0 -0.0065283583700897077 0.0013177154288417803 0 -0.0070720427502020044 0.0011300830554605329 0 -0.0068930238381328902 0.0015783909816202543 0 -0.0065177208473912642 0.0016297921229442335 0 -0.0065283583700897077 0.0013177154288417803 0 -0.0073988936499417733 0.0015443970842071355 0 -0.0068930238381328902 0.0015783909816202543 0 -0.0070720427502020044 0.0011300830554605329 0 -0.0073988936499417733 0.0015443970842071355 0 -0.0068930238381328902 0.0015783909816202543 0 -0.0067476200439236271 0.0021234595697295347 0 -0.0068930238381328902 0.0015783909816202543 0 -0.0067476200439236271 0.0021234595697295347 0 -0.0065177208473912642 0.0016297921229442335 0 -0.009579521378120277 0.0020005472215251585 0 -0.0076814658899983903 0.0012780159829728977 0 -0.0071222609729902873 0.0019197375364173673 0 -0.00532801712180058 0.0012175462478584364 0 -0.011309091388735381 0.0020343247999603984 0 -0.010796310270071503 0.002040512151369433 0 -0.010138359834238145 0.0010972836023453712 0 -0.0076347089750317754 0.0019910445169119924 0 -0.0077352623477036746 0.0017532707591730197 0 -0.005547365106958589 0.0010635331479171746 0 -0.0076347089750317754 0.0019910445169119924 0 -0.0053727785016565279 0.0014658061178702032 0 -0.005547365106958589 0.0010635331479171746 0 -0.0067476200439236271 0.0021234595697295347 0 -0.0059212670479047531 0.0014999293007674672 0 -0.005024395861699422 0.0013564344013486708 0 -0.0067476200439236271 0.0021234595697295347 0 -0.0065177208473912642 0.0016297921229442335 0 -0.0059212670479047531 0.0014999293007674672 0 -0.0065177208473912642 0.0016297921229442335 0 -0.0065283583700897077 0.0013177154288417803 0 -0.0059212670479047531 0.0014999293007674672 0 -0.0059212670479047531 0.0014999293007674672 0 -0.0055188146090974126 0.001073578500064078 0 -0.005024395861699422 0.0013564344013486708 0 -0.01158330157234546 0.0026988133811384814 0 -0.010580807296094577 0.0025464583388347456 0 -0.011377504898220184 0.0024395330873178901 0 -0.010796310270071503 0.002040512151369433 0 -0.010524087872254112 0.00254150611300915 0 -0.011377504898220184 0.0024395330873178901 0 -0.011309091388735381 0.0020343247999603984 0 -0.010796310270071503 0.002040512151369433 0 -0.012732506249100781 0.0032365370738025368 0 -0.013260553924033323 0.0034000356578657697 0 -0.012970792083675971 0.0028899155413734715 0 -0.013408067217273853 0.0030616747365461395 0 -0.013260553924033323 0.0034000356578657697 0 -0.012970792083675971 0.0028899155413734715 0 -0.012732506249100781 0.0032365370738025368 0 -0.013260553924033323 0.0034000356578657697 0 -0.013001142105908107 0.0034567076419871564 0 -0.012732506249100781 0.0032365370738025368 0 -0.012970792083675971 0.0028899155413734715 0 -0.012460129486911629 0.0026714711607840422 0 -0.013408067217273853 0.0030616747365461395 0 -0.013766257833780141 0.0034396351763501826 0 -0.013260553924033323 0.0034000356578657697 0 -0.01381362702754187 0.0029285739373592873 0 -0.013408067217273853 0.0030616747365461395 0 -0.013766257833780141 0.0034396351763501826 0 -0.013632160081046016 0.00373980189805389 0 -0.013766257833780141 0.0034396351763501826 0 -0.013260553924033323 0.0034000356578657697 0 -0.013321847373078141 0.0036828613665605262 0 -0.013632160081046016 0.00373980189805389 0 -0.013260553924033323 0.0034000356578657697 0 -0.013321847373078141 0.0036828613665605262 0 -0.013260553924033323 0.0034000356578657697 0 -0.013001142105908107 0.0034567076419871564 0 -0.013068759834886928 0.0037505139767718605 0 -0.013001142105908107 0.0034567076419871564 0 -0.012879607523451207 0.0034665829216031351 0 -0.013068759834886928 0.0037505139767718605 0 -0.013321847373078141 0.0036828613665605262 0 -0.013001142105908107 0.0034567076419871564 0 -0.013001142105908107 0.0034567076419871564 0 -0.012879607523451207 0.0034665829216031351 0 -0.012865277268971969 0.0033465218261578646 0 -0.013068759834886928 0.0037505139767718605 0 -0.012793608648695075 0.0036267551257048464 0 -0.012879607523451207 0.0034665829216031351 0 -0.012744874314006989 0.0034760671682976599 0 -0.012793608648695075 0.0036267551257048464 0 -0.012879607523451207 0.0034665829216031351 0 -0.012744874314006989 0.0034760671682976599 0 -0.012879607523451207 0.0034665829216031351 0 -0.01285910086110853 0.0033199600974836169 0 -0.012879607523451207 0.0034665829216031351 0 -0.01285910086110853 0.0033199600974836169 0 -0.012865277268971969 0.0033465218261578646 0 -0.012744874314006989 0.0034760671682976599 0 -0.012654581979751186 0.0033694977014937918 0 -0.01285910086110853 0.0033199600974836169 0 -0.012732506249100781 0.0032365370738025368 0 -0.01285910086110853 0.0033199600974836169 0 -0.012865277268971969 0.0033465218261578646 0 -0.012701365279007218 0.0032315898539674853 0 -0.012214951148440937 0.0031189978341231847 0 -0.012732506249100781 0.0032365370738025368 0 -0.011506958290684681 0.0029516982320055467 0 -0.011898539743882624 0.0028852155649302298 0 -0.012732506249100781 0.0032365370738025368 0 -0.013001142105908107 0.0034567076419871564 0 -0.012865277268971969 0.0033465218261578646 0 -0.012732506249100781 0.0032365370738025368 0 -0.012099925831283602 0.0027146564516236562 0 -0.011898539743882624 0.0028852155649302298 0 -0.012732506249100781 0.0032365370738025368 0 -0.012099925831283602 0.0027146564516236562 0 -0.012460129486911629 0.0026714711607840422 0 -0.012099925831283602 0.0027146564516236562 0 -0.011898539743882624 0.0028852155649302298 0 -0.011748198147575346 0.0027376130008840635 0 -0.011748198147575346 0.0027376130008840635 0 -0.011400952185023801 0.0023157473812931342 0 -0.01186549848939833 0.0021848375106258066 0 -0.012099925831283602 0.0027146564516236562 0 -0.011748198147575346 0.0027376130008840635 0 -0.01186549848939833 0.0021848375106258066 0 -0.012099925831283602 0.0027146564516236562 0 -0.01186549848939833 0.0021848375106258066 0 -0.012460129486911629 0.0026714711607840422 0 -0.011342499070073416 0.0026920410348937923 0 -0.011773492169006286 0.0028550955777781706 0 -0.010961594540909588 0.002707763200927154 0 -0.011898539743882624 0.0028852155649302298 0 -0.011748198147575346 0.0027376130008840635 0 -0.010961594540909588 0.002707763200927154 0 -0.010927301399729659 0.0026038294759540529 0 -0.011748198147575346 0.0027376130008840635 0 -0.010510232987510595 0.0026804761432512566 0 -0.011658874577487351 0.0027776769085959899 0 -0.010330738420585588 0.002823410470755764 0 -0.011748198147575346 0.0027376130008840635 0 -0.010932473546243457 0.0024074442605821022 0 -0.011425150739502957 0.0026518299929785627 0 -0.011506958290684681 0.0029516982320055467 0 -0.011898539743882624 0.0028852155649302298 0 -0.011748198147575346 0.0027376130008840635 0 -0.011400952185023801 0.0023157473812931342 0 -0.010932473546243457 0.0024074442605821022 0 -0.010330738420585588 0.002823410470755764 0 -0.010468889650971381 0.0024348701385951206 0 -0.010932473546243457 0.0024074442605821022 0 -0.010932473546243457 0.0024074442605821022 0 -0.010508268732495021 0.0021236639909534786 0 -0.011012353022608197 0.0019264906166382202 0 -0.010158723060266692 0.0015630318304017958 0 -0.010508268732495021 0.0021236639909534786 0 -0.011012353022608197 0.0019264906166382202 0 -0.010468889650971381 0.0024348701385951206 0 -0.010932473546243457 0.0024074442605821022 0 -0.010508268732495021 0.0021236639909534786 0 -0.011400952185023801 0.0023157473812931342 0 -0.010932473546243457 0.0024074442605821022 0 -0.011012353022608197 0.0019264906166382202 0 -0.011012353022608197 0.0019264906166382202 0 -0.011343425067878695 0.0015140402568943302 0 -0.010772984282094935 0.0012900799767473321 0 -0.010158723060266692 0.0015630318304017958 0 -0.011012353022608197 0.0019264906166382202 0 -0.010772984282094935 0.0012900799767473321 0 -0.01186549848939833 0.0021848375106258066 0 -0.011343425067878695 0.0015140402568943302 0 -0.011826258086886409 0.0013180557902401861 0 -0.011400952185023801 0.0023157473812931342 0 -0.011012353022608197 0.0019264906166382202 0 -0.01186549848939833 0.0021848375106258066 0 -0.011012353022608197 0.0019264906166382202 0 -0.01186549848939833 0.0021848375106258066 0 -0.011343425067878695 0.0015140402568943302 0 -0.01186549848939833 0.0021848375106258066 0 -0.012667464761668799 0.0019560486702559234 0 -0.011826258086886409 0.0013180557902401861 0 -0.01186549848939833 0.0021848375106258066 0 -0.012667464761668799 0.0019560486702559234 0 -0.012738497025781123 0.0024343686525560909 0 -0.01186549848939833 0.0021848375106258066 0 -0.012738497025781123 0.0024343686525560909 0 -0.012460129486911629 0.0026714711607840422 0 -0.012667464761668799 0.0019560486702559234 0 -0.012738497025781123 0.0024343686525560909 0 -0.013278650467089492 0.0025042315579967287 0 -0.012738497025781123 0.0024343686525560909 0 -0.012970792083675971 0.0028899155413734715 0 -0.013278650467089492 0.0025042315579967287 0 -0.012738497025781123 0.0024343686525560909 0 -0.012970792083675971 0.0028899155413734715 0 -0.012460129486911629 0.0026714711607840422 0 -0.01381362702754187 0.0029285739373592873 0 -0.013408067217273853 0.0030616747365461395 0 -0.013278650467089492 0.0025042315579967287 0 -0.013408067217273853 0.0030616747365461395 0 -0.012970792083675971 0.0028899155413734715 0 -0.013278650467089492 0.0025042315579967287 0 -0.01385792761011052 0.0024735095217225107 0 -0.013278650467089492 0.0025042315579967287 0 -0.013463674339229377 0.0019328940419135506 0 -0.012667464761668799 0.0019560486702559234 0 -0.013463674339229377 0.0019328940419135506 0 -0.012867695066443183 0.0012873558726515483 0 -0.012667464761668799 0.0019560486702559234 0 -0.013278650467089492 0.0025042315579967287 0 -0.013463674339229377 0.0019328940419135506 0 -0.013463674339229377 0.0019328940419135506 0 -0.012867695066443183 0.0012873558726515483 0 -0.013923713440291408 0.0011653751716983721 0 -0.012867695066443183 0.0012873558726515483 0 -0.012929181396974354 0.00044069892627766319 0 -0.013923713440291408 0.0011653751716983721 0 -0.012867695066443183 0.0012873558726515483 0 -0.012929181396974354 0.00044069892627766319 0 -0.011803454597921001 0.00062593988913758945 0 -0.012929181396974354 0.00044069892627766319 0 -0.011803454597921001 0.00062593988913758945 0 -0.011384885539027029 -0.0001120741714861605 0 -0.011820494063709212 -9.2375115610547566e-05 0 -0.011461857483303287 -0.00014456367683378512 0 -0.012667464761668799 0.0019560486702559234 0 -0.012867695066443183 0.0012873558726515483 0 -0.011826258086886409 0.0013180557902401861 0 -0.012867695066443183 0.0012873558726515483 0 -0.011803454597921001 0.00062593988913758945 0 -0.011826258086886409 0.0013180557902401861 0 -0.011803454597921001 0.00062593988913758945 0 -0.011826258086886409 0.0013180557902401861 0 -0.011005062374969404 0.00078638575610008739 0 -0.011343425067878695 0.0015140402568943302 0 -0.011826258086886409 0.0013180557902401861 0 -0.011005062374969404 0.00078638575610008739 0 -0.011343425067878695 0.0015140402568943302 0 -0.010772984282094935 0.0012900799767473321 0 -0.011005062374969404 0.00078638575610008739 0 -0.010772984282094935 0.0012900799767473321 0 -0.011005062374969404 0.00078638575610008739 0 -0.010263620795662003 0.00085012493341810253 0 -0.011005062374969404 0.00078638575610008739 0 -0.010263620795662003 0.00085012493341810253 0 -0.010392297536068669 0.00017443202979767108 0 -0.011005062374969404 0.00078638575610008739 0 -0.010943038933420265 0.0001459084724781138 0 -0.010392297536068669 0.00017443202979767108 0 -0.011803454597921001 0.00062593988913758945 0 -0.010943038933420265 0.0001459084724781138 0 -0.011384885539027029 -0.0001120741714861605 0 -0.011803454597921001 0.00062593988913758945 0 -0.011005062374969404 0.00078638575610008739 0 -0.010943038933420265 0.0001459084724781138 0 -0.010943038933420265 0.0001459084724781138 0 -0.010746585602955876 -0.00011311601509994916 0 -0.011384885539027029 -0.0001120741714861605 0 -0.010943038933420265 0.0001459084724781138 0 -0.010746585602955876 -0.00011311601509994916 0 -0.010392297536068669 0.00017443202979767108 0 -0.010746585602955876 -0.00011311601509994916 0 -0.01038665794986479 -0.00029146820972441104 0 -0.010551172389607247 -0.0002004816541738312 0 -0.010746585602955876 -0.00011311601509994916 0 -0.010392297536068669 0.00017443202979767108 0 -0.01038665794986479 -0.00029146820972441104 0 -0.010746585602955876 -0.00011311601509994916 0 -0.010901567633593101 -2.2153360804542716e-06 0 -0.011384885539027029 -0.0001120741714861605 0 -0.010746585602955876 -0.00011311601509994916 0 -0.010901567633593101 -2.2153360804542716e-06 0 -0.010679139456992741 -0.00010373790838563539 0 -0.010746585602955876 -0.00011311601509994916 0 -0.010679139456992741 -0.00010373790838563539 0 -0.010551172389607247 -0.0002004816541738312 0 -0.010901567633593101 -2.2153360804542716e-06 0 -0.010726129366165873 0.00010989590592651839 0 -0.010887384571545151 -6.648819162481689e-05 0 -0.010726129366165873 0.00010989590592651839 0 -0.010887384571545151 -6.648819162481689e-05 0 -0.010406581005596249 -3.6706560401149121e-05 0 -0.01071580358251507 -0.00072190436560773223 0 -0.010887384571545151 -6.648819162481689e-05 0 -0.010406581005596249 -3.6706560401149121e-05 0 -0.01071580358251507 -0.00072190436560773223 0 -0.010887384571545151 -6.648819162481689e-05 0 -0.011384885539027029 -0.0001120741714861605 0 -0.010901567633593101 -2.2153360804542716e-06 0 -0.010887384571545151 -6.648819162481689e-05 0 -0.011384885539027029 -0.0001120741714861605 0 -0.0058362746820404309 -8.4869104832784018e-05 0 -0.0057569570725291459 -0.00067611203459642401 0 -0.0051604265649145466 -0.00026262599455017464 0 -0.0063488087438966587 -0.00052319161926067507 0 -0.0051852915449529966 -4.4904198550364276e-05 0 -0.0058362746820404309 -8.4869104832784018e-05 0 -0.0063762207873210523 -0.00053998639891563599 0 -0.0057569570725291459 -0.00067611203459642401 0 -0.0058362746820404309 -8.4869104832784018e-05 0 -0.005331349015643228 0.00045407946678782847 0 -0.0051604265649145466 -0.00026262599455017464 0 -0.0058362746820404309 -8.4869104832784018e-05 0 -0.0060516774322324869 0.00047972617825750151 0 -0.005331349015643228 0.00045407946678782847 0 -0.0057078253658671236 0.00073150719952405315 0 -0.0060516774322324869 0.00047972617825750151 0 -0.005331349015643228 0.00045407946678782847 0 -0.0057078253658671236 0.00073150719952405315 0 -0.0055188146090974126 0.001073578500064078 0 -0.005331349015643228 0.00045407946678782847 0 -0.0057078253658671236 0.00073150719952405315 0 -0.0055188146090974126 0.001073578500064078 0 -0.0060776051816198821 0.0010115586343105902 0 -0.0057078253658671236 0.00073150719952405315 0 -0.0060776051816198821 0.0010115586343105902 0 -0.0060516774322324869 0.00047972617825750151 0 -0.0059212670479047531 0.0014999293007674672 0 -0.0055188146090974126 0.001073578500064078 0 -0.0060776051816198821 0.0010115586343105902 0 -0.0065283583700897077 0.0013177154288417803 0 -0.0059212670479047531 0.0014999293007674672 0 -0.0060776051816198821 0.0010115586343105902 0 -0.0065283583700897077 0.0013177154288417803 0 -0.0060776051816198821 0.0010115586343105902 0 -0.0065315537210303741 0.00084396804381724536 0 -0.0060776051816198821 0.0010115586343105902 0 -0.0065315537210303741 0.00084396804381724536 0 -0.0060516774322324869 0.00047972617825750151 0 -0.0058362746820404309 -8.4869104832784018e-05 0 -0.0060516774322324869 0.00047972617825750151 0 -0.0069521495076445179 0.00031600055561314174 0 -0.0065315537210303741 0.00084396804381724536 0 -0.0060516774322324869 0.00047972617825750151 0 -0.0069521495076445179 0.00031600055561314174 0 -0.0069521495076445179 0.00031600055561314174 0 -0.0078768906860530539 0.0010606585406130332 0 -0.008602337107715503 0.00015625561390654867 0 -0.0065315537210303741 0.00084396804381724536 0 -0.0069521495076445179 0.00031600055561314174 0 -0.0070720427502020044 0.0011300830554605329 0 -0.0065283583700897077 0.0013177154288417803 0 -0.0065315537210303741 0.00084396804381724536 0 -0.0070720427502020044 0.0011300830554605329 0 -0.0073988936499417733 0.0015443970842071355 0 -0.0070720427502020044 0.0011300830554605329 0 -0.0078768906860530539 0.0010606585406130332 0 -0.0069521495076445179 0.00031600055561314174 0 -0.0070720427502020044 0.0011300830554605329 0 -0.0078768906860530539 0.0010606585406130332 0 -0.0069715711201308716 -0.0010699584021250212 0 -0.008602337107715503 0.00015625561390654867 0 -0.0069893114224521078 -0.0012692059369459469 0 -0.0097489711507373084 0.00043350025818765389 0 -0.0039495198091009298 0.0016361634825118473 0 -0.0069521495076445179 0.00031600055561314174 0 -0.0069500591775651576 -0.00084694135952177079 0 -0.008602337107715503 0.00015625561390654867 0 -0.0069500591775651576 -0.00084694135952177079 0 -0.0069715711201308716 -0.0010699584021250212 0 -0.008602337107715503 0.00015625561390654867 0 -0.0058362746820404309 -8.4869104832784018e-05 0 -0.0069521495076445179 0.00031600055561314174 0 -0.0069500591775651576 -0.00084694135952177079 0 -0.0058362746820404309 -8.4869104832784018e-05 0 -0.0069500591775651576 -0.00084694135952177079 0 -0.0069736246517396452 -0.0011020358785758511 0 -0.0053413054047191004 -0.00031014175620442628 0 -0.0051852915449529966 -4.4904198550364276e-05 0 -0.0096433544094090828 0.00041199594255583082 0 -0.0096539705436577902 0.00093402503319351998 0 -0.010263620795662003 0.00085012493341810253 0 -0.0096433544094090828 0.00041199594255583082 0 -0.0096539705436577902 0.00093402503319351998 0 -0.0090301549953829656 0.00036011261376822363 0 -0.010158723060266692 0.0015630318304017958 0 -0.0089073668859858315 0.0015956828334324101 0 -0.008602337107715503 0.00015625561390654867 0 -0.0089073668859858315 0.0015956828334324101 0 -0.0078768906860530539 0.0010606585406130332 0 -0.008602337107715503 0.00015625561390654867 0 -0.010158723060266692 0.0015630318304017958 0 -0.0096539705436577902 0.00093402503319351998 0 -0.010263620795662003 0.00085012493341810253 0 -0.009929153661396432 0.0014809740505485572 0 -0.0097489711507373084 0.00043350025818765389 0 -0.010158723060266692 0.0015630318304017958 0 -0.010772984282094935 0.0012900799767473321 0 -0.010263620795662003 0.00085012493341810253 0 -0.0096433544094090828 0.00041199594255583082 0 -0.010263620795662003 0.00085012493341810253 0 -0.010392297536068669 0.00017443202979767108 0 -0.0096433544094090828 0.00041199594255583082 0 -0.010392297536068669 0.00017443202979767108 0 -0.0097719081002312115 -5.0565247485865244e-05 0 0.00061417672518447304 0.0057570179793736999 0 0.00084170036496945789 0.0043877594413730559 0 -0.0011502784584692877 0.0046471325826663943 0 -0.010392297536068669 0.00017443202979767108 0 -0.0097719081002312115 -5.0565247485865244e-05 0 -0.01038665794986479 -0.00029146820972441104 0 -0.0043577260582359735 0.0031931837947766126 0 -0.0058356883735264497 0.0021217285212046665 0 0.00061417672518447304 0.0057570179793736999 0 0.0012708682918206964 0.0053219288178351452 0 0.00084170036496945789 0.0043877594413730559 0 0.0012708682918206964 0.0053219288178351452 0 0.0020180065531942627 0.005068752526748317 0 0.00084170036496945789 0.0043877594413730559 0 0.00061417672518447304 0.0057570179793736999 0 0.0012708682918206964 0.0053219288178351452 0 0.0016652510959662649 0.0057738803161890857 0 -0.0043577260582359735 0.0031931837947766126 0 -0.0039495198091009298 0.0016361634825118473 0 -0.0096433544094090828 0.00041199594255583082 0 -0.0097719081002312115 -5.0565247485865244e-05 0 -0.0090301549953829656 0.00036011261376822363 0 -0.0010464476405867421 0.0019169610422437283 0 -0.0011838063132965624 0.00047176632541010959 0 0.00014098615375078571 0.00074477895562432086 0 0.0020881143634239197 0.0066625006215964531 0 0.0016652510959662649 0.0057738803161890857 0 0.0020180065531942627 0.005068752526748317 0 -0.0039495198091009298 0.0016361634825118473 0 0.002598239222290453 0.0026741179107752006 0 0.00061417672518447304 0.0057570179793736999 0 0.0020881143634239197 0.0066625006215964531 0 0.0016652510959662649 0.0057738803161890857 0 -0.0063762207873210523 -0.00053998639891563599 0 -0.0063928750906897458 -0.00065580490668991093 0 -0.0057569570725291459 -0.00067611203459642401 0 -0.0051852915449529966 -4.4904198550364276e-05 0 -0.0039495198091009298 0.0016361634825118473 0 0.0012708682918206964 0.0053219288178351452 0 0.0016652510959662649 0.0057738803161890857 0 0.0020180065531942627 0.005068752526748317 0 0.002598239222290453 0.0026741179107752006 0 0.002791263864252535 -0.00063676280634057789 0 -0.0011838063132965624 0.00047176632541010959 0 0.00014098615375078571 0.00074477895562432086 0 6.6341574525331613e-05 1.6441214019498698e-05 0 -0.0054567721657372758 -0.0015786437443866279 0 -0.0057569570725291459 -0.00067611203459642401 0 -0.0048628371600516317 -0.0008919237568567114 0 -0.0063928750906897458 -0.00065580490668991093 0 -0.0054567721657372758 -0.0015786437443866279 0 -0.0057569570725291459 -0.00067611203459642401 0 -0.0039495198091009298 0.0016361634825118473 0 -0.0029684816191143967 -0.00059197033012501623 0 0.0051826183691959706 8.1730997535290486e-05 0 0.0047704179928622116 -0.00035194918217792645 0 0.0051675850539100289 -0.00044230598611493422 0 0.0051826183691959706 8.1730997535290486e-05 0 0.0047704179928622116 -0.00035194918217792645 0 0.0046678660715780028 3.1276426014456219e-05 0 0.0054357074641103332 -0.00093000424923083986 0 0.004873839602589804 -0.00077844435306712934 0 0.0051675850539100289 -0.00044230598611493422 0 0.0047704179928622116 -0.00035194918217792645 0 0.004873839602589804 -0.00077844435306712934 0 0.0051675850539100289 -0.00044230598611493422 0 0.002598239222290453 0.0026741179107752006 0 0.0039147833925580622 0.0012190364144699574 0 0.0054357074641103332 -0.00093000424923083986 0 0.0051675850539100289 -0.00044230598611493422 0 0.0055569013231193719 -0.00021122823981787031 0 0.0020180065531942627 0.005068752526748317 0 0.0020350289782116011 0.0029242441099259714 0 0.00084170036496945789 0.0043877594413730559 0 0.0051826183691959706 8.1730997535290486e-05 0 0.0051675850539100289 -0.00044230598611493422 0 0.0055569013231193719 -0.00021122823981787031 0 0.0051826183691959706 8.1730997535290486e-05 0 0.0055569013231193719 -0.00021122823981787031 0 0.0056243086163982759 0.000516988616355172 0 0.0020350289782116011 0.0029242441099259714 0 0.00097851064526496183 0.0018260008723702292 0 0.00051119084120418456 0.0028728476226653381 0 0.00097851064526496183 0.0018260008723702292 0 0.00051119084120418456 0.0028728476226653381 0 -0.00012343294553799955 0.0018023258153089603 0 0.0020350289782116011 0.0029242441099259714 0 0.00051119084120418456 0.0028728476226653381 0 0.00084170036496945789 0.0043877594413730559 0 0.00084170036496945789 0.0043877594413730559 0 -0.0011502784584692877 0.0046471325826663943 0 -0.00095785455150918192 0.0031241104144079587 0 0.00051119084120418456 0.0028728476226653381 0 0.00084170036496945789 0.0043877594413730559 0 -0.00095785455150918192 0.0031241104144079587 0 0.00051119084120418456 0.0028728476226653381 0 -0.00095785455150918192 0.0031241104144079587 0 -0.00012343294553799955 0.0018023258153089603 0 -0.00095785455150918192 0.0031241104144079587 0 -0.00012343294553799955 0.0018023258153089603 0 -0.0012625030702425612 0.0016604456158319991 0 -0.00012343294553799955 0.0018023258153089603 0 -0.00057069138160512122 0.00061302832233799348 0 -0.0012625030702425612 0.0016604456158319991 0 -0.00012343294553799955 0.0018023258153089603 0 -0.00057069138160512122 0.00061302832233799348 0 0.00065626169654755173 0.00074340266528525722 0 -0.00057069138160512122 0.00061302832233799348 0 0.00036191651883405644 -0.00023748377118700551 0 0.00065626169654755173 0.00074340266528525722 0 -0.00057069138160512122 0.00061302832233799348 0 -0.00073178182936208002 -0.000478854384324609 0 0.00036191651883405644 -0.00023748377118700551 0 0.00036191651883405644 -0.00023748377118700551 0 0.001075964219417232 -0.0011003739067455371 0 4.611522371157955e-05 -0.0013710094694011946 0 -0.00073178182936208002 -0.000478854384324609 0 0.00036191651883405644 -0.00023748377118700551 0 4.611522371157955e-05 -0.0013710094694011946 0 0.00036191651883405644 -0.00023748377118700551 0 0.0012063007898265013 -0.00040359127359017083 0 0.00065626169654755173 0.00074340266528525722 0 0.0012063007898265013 -0.00040359127359017083 0 0.001075964219417232 -0.0011003739067455371 0 0.0017677082465872723 -0.0018018927543953631 0 0.0012063007898265013 -0.00040359127359017083 0 0.0020166411557199335 0.00051629972198024697 0 0.0017677082465872723 -0.0018018927543953631 0 0.0037921645964254071 0.00053499622177624834 0 0.0036638752304517359 -0.00059374201921888307 0 0.00036191651883405644 -0.00023748377118700551 0 0.0012063007898265013 -0.00040359127359017083 0 0.001075964219417232 -0.0011003739067455371 0 0.0012063007898265013 -0.00040359127359017083 0 0.00065626169654755173 0.00074340266528525722 0 0.0020166411557199335 0.00051629972198024697 0 0.0020350289782116011 0.0029242441099259714 0 0.00097851064526496183 0.0018260008723702292 0 0.0020166411557199335 0.00051629972198024697 0 0.00097851064526496183 0.0018260008723702292 0 0.00065626169654755173 0.00074340266528525722 0 0.0020166411557199335 0.00051629972198024697 0 0.00097851064526496183 0.0018260008723702292 0 -0.00012343294553799955 0.0018023258153089603 0 0.00065626169654755173 0.00074340266528525722 0 0.0051826183691959706 8.1730997535290486e-05 0 0.0056243086163982759 0.000516988616355172 0 0.0053502987042004443 0.00063136212809232744 0 0.0039147833925580622 0.0012190364144699574 0 0.0037921645964254071 0.00053499622177624834 0 0.0056243086163982759 0.000516988616355172 0 0.0054974783175511478 0.00066536019299812598 0 0.0053502987042004443 0.00063136212809232744 0 0.0054974783175511478 0.00066536019299812598 0 0.0053502987042004443 0.00063136212809232744 0 0.0054923950668102932 0.00068224174060259573 0 0.0056243086163982759 0.000516988616355172 0 0.0054974783175511478 0.00066536019299812598 0 0.0055547768522575987 0.00070388508487567898 0 0.0053492458515822109 0.00065339324622998307 0 0.0049435636739676731 0.00074774629597991883 0 0.0053502987042004443 0.00063136212809232744 0 0.0054923950668102932 0.00068224174060259573 0 0.0054904635619850931 0.00067100048602475944 0 0.0053502987042004443 0.00063136212809232744 0 0.0048123178736660032 0.00040672329563115167 0 0.0044847348737874423 0.0008524914344617587 0 0.0053502987042004443 0.00063136212809232744 0 0.0054966008743342603 0.00069160985275712071 0 0.0054904635619850931 0.00067100048602475944 0 0.0051826183691959706 8.1730997535290486e-05 0 0.0053502987042004443 0.00063136212809232744 0 0.0048123178736660032 0.00040672329563115167 0 0.0051826183691959706 8.1730997535290486e-05 0 0.0048123178736660032 0.00040672329563115167 0 0.0046678660715780028 3.1276426014456219e-05 0 -0.0078158460490833723 -1.3554052537672137e-05 0 -0.010412387984559186 -0.00024341978237829329 0 -0.0084495465976414542 0.00086320947616460187 0 -0.0078158460490833723 -1.3554052537672137e-05 0 -0.0084495465976414542 0.00086320947616460187 0 -0.0074023673086544631 0.00051217855324663466 0 -0.010901567633593101 -2.2153360804542716e-06 0 -0.010726129366165873 0.00010989590592651839 0 -0.010800320084244528 0.00025326962436443253 0 -0.010726129366165873 0.00010989590592651839 0 -0.010800320084244528 0.00025326962436443253 0 -0.010034237858683515 0.00064910354380257366 0 -0.0093335302893341483 0.00013676887317367031 0 -0.010323451339373431 -0.00019759983348645121 0 -0.010800320084244528 0.00025326962436443253 0 -0.010679139456992741 -0.00010373790838563539 0 -0.010412387984559186 -0.00024341978237829329 0 -0.010901567633593101 -2.2153360804542716e-06 0 -0.010800320084244528 0.00025326962436443253 0 -0.010679139456992741 -0.00010373790838563539 0 -0.010679139456992741 -0.00010373790838563539 0 -0.010551172389607247 -0.0002004816541738312 0 -0.010412387984559186 -0.00024341978237829329 0 -0.010551172389607247 -0.0002004816541738312 0 -0.010412387984559186 -0.00024341978237829329 0 -0.010544371014181745 -5.7093151157401805e-05 0 -0.0058356883735264497 0.0021217285212046665 0 -0.0068528864168467939 0.0016240740879672078 0 -0.0011502784584692877 0.0046471325826663943 0 -0.0020213713319787163 0.0034106358055867661 0 -0.0032819559284337266 0.0033200854259981569 0 -0.0011502784584692877 0.0046471325826663943 0 -0.00095785455150918192 0.0031241104144079587 0 -0.0020213713319787163 0.0034106358055867661 0 -0.01038665794986479 -0.00029146820972441104 0 -0.010551172389607247 -0.0002004816541738312 0 -0.010544371014181745 -5.7093151157401805e-05 0 -0.00095785455150918192 0.0031241104144079587 0 -0.0027006583132137053 0.0025159403816723612 0 -0.0012625030702425612 0.0016604456158319991 0 -0.00095785455150918192 0.0031241104144079587 0 -0.0020213713319787163 0.0034106358055867661 0 -0.0027006583132137053 0.0025159403816723612 0 -0.0020213713319787163 0.0034106358055867661 0 -0.0027006583132137053 0.0025159403816723612 0 -0.0032819559284337266 0.0033200854259981569 0 -0.0068528864168467939 0.0016240740879672078 0 -0.006900246497636253 0.001327325349386772 0 -0.010412387984559186 -0.00024341978237829329 0 -0.010544371014181745 -5.7093151157401805e-05 0 -0.0084495465976414542 0.00086320947616460187 0 -0.0032819559284337266 0.0033200854259981569 0 -0.0038589696628790414 0.0014452430279330206 0 -0.0052532820944946731 0.0019736454000021894 0 -0.0027006583132137053 0.0025159403816723612 0 -0.0032819559284337266 0.0033200854259981569 0 -0.0038589696628790414 0.0014452430279330206 0 -0.0027020081120832924 0.0024034003993640748 0 -0.0024782034346265162 0.00062354013742836275 0 -0.0027006583132137053 0.0025159403816723612 0 -0.0038589696628790414 0.0014452430279330206 0 -0.0029823429279587318 0.00068171991602928195 0 -0.0027006583132137053 0.0025159403816723612 0 -0.0012625030702425612 0.0016604456158319991 0 -0.0019923569391648872 0.00032078706229220352 0 -0.00057069138160512122 0.00061302832233799348 0 -0.0012625030702425612 0.0016604456158319991 0 -0.0019923569391648872 0.00032078706229220352 0 -0.00073178182936208002 -0.000478854384324609 0 -0.0019923569391648872 0.00032078706229220352 0 -0.0015409957878144088 -0.0017648208193590366 0 -0.0024782034346265162 0.00062354013742836275 0 -0.002522036164116814 -0.0015475590173633267 0 -0.0029823429279587318 0.00068171991602928195 0 -0.0038223273727419583 -0.00021845318525124784 0 -0.0030298101016027466 -0.00086989054645667939 0 -0.00057069138160512122 0.00061302832233799348 0 -0.00073178182936208002 -0.000478854384324609 0 -0.0019923569391648872 0.00032078706229220352 0 -0.0038589696628790414 0.0014452430279330206 0 -0.0029823429279587318 0.00068171991602928195 0 -0.0038223273727419583 -0.00021845318525124784 0 -0.0038589696628790414 0.0014452430279330206 0 -0.0038223273727419583 -0.00021845318525124784 0 -0.0049955683279097832 0.00024898329515702126 0 -0.0038223273727419583 -0.00021845318525124784 0 -0.0049955683279097832 0.00024898329515702126 0 -0.0045835896652979252 -0.0010160607516246727 0 -0.0049955683279097832 0.00024898329515702126 0 -0.0070851554054406265 0.00053024994528691309 0 -0.0057698103391012586 -0.00048766422974804406 0 -0.0049955683279097832 0.00024898329515702126 0 -0.0057698103391012586 -0.00048766422974804406 0 -0.0045835896652979252 -0.0010160607516246727 0 -0.0038589696628790414 0.0014452430279330206 0 -0.0049955683279097832 0.00024898329515702126 0 -0.0052532820944946731 0.0019736454000021894 0 -0.0049955683279097832 0.00024898329515702126 0 -0.0052532820944946731 0.0019736454000021894 0 -0.0070851554054406265 0.00053024994528691309 0 -0.0084495465976414542 0.00086320947616460187 0 -0.0070851554054406265 0.00053024994528691309 0 -0.0074023673086544631 0.00051217855324663466 0 -0.006900246497636253 0.001327325349386772 0 -0.0071558995092787861 0.00062006368040149146 0 -0.0070851554054406265 0.00053024994528691309 0 -0.0057698103391012586 -0.00048766422974804406 0 -0.0066251070465128204 -0.00067752739621631272 0 -0.0070851554054406265 0.00053024994528691309 0 -0.0074628332079022105 -0.00062317436275785652 0 -0.0066251070465128204 -0.00067752739621631272 0 -0.0070851554054406265 0.00053024994528691309 0 -0.0075940848492220634 0.00019173905396798597 0 -0.0074628332079022105 -0.00062317436275785652 0 -0.0080694353217877334 -0.00025864867294196338 0 -0.0075940848492220634 0.00019173905396798597 0 -0.0074628332079022105 -0.00062317436275785652 0 -0.0080694353217877334 -0.00025864867294196338 0 -0.008057363396181183 0.00032116042617591625 0 -0.0075940848492220634 0.00019173905396798597 0 -0.0070851554054406265 0.00053024994528691309 0 -0.0075940848492220634 0.00019173905396798597 0 -0.0074023673086544631 0.00051217855324663466 0 -0.008057363396181183 0.00032116042617591625 0 -0.0075940848492220634 0.00019173905396798597 0 -0.0074023673086544631 0.00051217855324663466 0 -0.008057363396181183 0.00032116042617591625 0 -0.0074023673086544631 0.00051217855324663466 0 -0.0076282181154442019 0.00068534542325941457 0 -0.0078158460490833723 -1.3554052537672137e-05 0 -0.0074023673086544631 0.00051217855324663466 0 -0.0076282181154442019 0.00068534542325941457 0 -0.008057363396181183 0.00032116042617591625 0 -0.0076282181154442019 0.00068534542325941457 0 -0.0088468793327360438 0.00067697734537812643 0 -0.0088504283274873034 0.00062256655154071161 0 -0.0088465208517345163 0.00068665108594626934 0 -0.010034237858683515 0.00064910354380257366 0 -0.0094707046272616974 0.00033281144787172123 0 -0.0098671352351135961 4.8688116865631469e-05 0 -0.010034237858683515 0.00064910354380257366 0 -0.0094707046272616974 0.00033281144787172123 0 -0.0088468793327360438 0.00067697734537812643 0 -0.010726129366165873 0.00010989590592651839 0 -0.010034237858683515 0.00064910354380257366 0 -0.010406581005596249 -3.6706560401149121e-05 0 -0.0093335302893341483 0.00013676887317367031 0 -0.0088504283274873034 0.00062256655154071161 0 -0.0088468793327360438 0.00067697734537812643 0 -0.0091036051461957628 0.00021900229808166359 0 -0.0087969306235401896 0.00037027819947756054 0 -0.0088468793327360438 0.00067697734537812643 0 -0.0089769414589171669 0.00051732946223625098 0 -0.0087969306235401896 0.00037027819947756054 0 -0.0094707046272616974 0.00033281144787172123 0 -0.0088468793327360438 0.00067697734537812643 0 -0.0091036051461957628 0.00021900229808166359 0 -0.008057363396181183 0.00032116042617591625 0 -0.0088468793327360438 0.00067697734537812643 0 -0.0088510098812264824 0.00036176227491312656 0 -0.0088468793327360438 0.00067697734537812643 0 -0.0088510098812264824 0.00036176227491312656 0 -0.0089769414589171669 0.00051732946223625098 0 -0.0088510098812264824 0.00036176227491312656 0 -0.0086317764467532757 -9.339597245782707e-05 0 -0.0091043875691740675 0.00012714842139157444 0 -0.0088510098812264824 0.00036176227491312656 0 -0.0091043875691740675 0.00012714842139157444 0 -0.0089769414589171669 0.00051732946223625098 0 -0.008057363396181183 0.00032116042617591625 0 -0.0088510098812264824 0.00036176227491312656 0 -0.0086317764467532757 -9.339597245782707e-05 0 -0.0080694353217877334 -0.00025864867294196338 0 -0.008057363396181183 0.00032116042617591625 0 -0.0086317764467532757 -9.339597245782707e-05 0 -0.0080694353217877334 -0.00025864867294196338 0 -0.0086317764467532757 -9.339597245782707e-05 0 -0.0085550019047852723 -0.00064954096922694522 0 -0.0086317764467532757 -9.339597245782707e-05 0 -0.0085550019047852723 -0.00064954096922694522 0 -0.0090418757972056812 -0.00067478662102693791 0 -0.0042467738304969157 0.00091037575444659542 0 -0.0037412315475989378 -0.00060496677819570847 0 -0.0086317764467532757 -9.339597245782707e-05 0 -0.0091043875691740675 0.00012714842139157444 0 -0.0090418757972056812 -0.00067478662102693791 0 -6.4663209684013331e-05 -3.2035534681458025e-05 0 -0.0018577590509025195 0.00054774556187324821 0 0.00060266951646188315 0.0013200685689004686 0 -6.4663209684013331e-05 -3.2035534681458025e-05 0 0.00060266951646188315 0.0013200685689004686 0 0.0015216974809300872 -0.00046279654778795347 0 -6.4663209684013331e-05 -3.2035534681458025e-05 0 -0.0018577590509025195 0.00054774556187324821 0 -0.0011638039048592298 -0.0007093683646857145 0 -0.0018577590509025195 0.00054774556187324821 0 -0.0011638039048592298 -0.0007093683646857145 0 -0.0020884873511439654 0.00021727730051168494 0 -0.0018577590509025195 0.00054774556187324821 0 -0.0029328782168805815 -5.472964821489399e-05 0 -0.0031672690023658908 1.1785513477097768e-06 0 -0.0042467738304969157 0.00091037575444659542 0 -0.0049797848880774346 0.0010254149918080425 0 -0.00085311336611717809 0.0011270367535899423 0 -0.0049797848880774346 0.0010254149918080425 0 -0.0018577590509025195 0.00054774556187324821 0 0.00060266951646188315 0.0013200685689004686 0 -0.00039334783357426902 0.0037774269008318145 0 -0.00057043921103661023 2.3205601312274295e-08 0 -0.00010396352168174303 2.093406748873802e-05 0 -0.00057463577632839891 1.3962442370939297e-06 0 -0.0021136486610864691 5.633907044652536e-05 0 -0.0020884873511439654 0.00021727730051168494 0 -0.0018577590509025195 0.00054774556187324821 0 -0.0021136486610864691 5.633907044652536e-05 0 -0.0020884873511439654 0.00021727730051168494 0 -0.0018577590509025195 0.00054774556187324821 0 -0.0021136486610864691 5.633907044652536e-05 0 -0.0029328782168805815 -5.472964821489399e-05 0 -0.00057463577632839891 1.3962442370939297e-06 0 -0.0021136486610864691 5.633907044652536e-05 0 -0.0025546356458059994 -7.3831410476375056e-07 0 -0.0021136486610864691 5.633907044652536e-05 0 -0.0025546356458059994 -7.3831410476375056e-07 0 -0.0029328782168805815 -5.472964821489399e-05 0 -0.0025546356458059994 -7.3831410476375056e-07 0 -0.0029328782168805815 -5.472964821489399e-05 0 -0.0034731592706244729 -0.00011152886684453979 0 -0.0029328782168805815 -5.472964821489399e-05 0 -0.0034731592706244729 -0.00011152886684453979 0 -0.0040345490892060749 -0.00015312182211783891 0 -0.0034731592706244729 -0.00011152886684453979 0 -0.0045396634070171884 -1.7836508904001651e-07 0 -0.0040345490892060749 -0.00015312182211783891 0 -0.0025546356458059994 -7.3831410476375056e-07 0 -0.0034731592706244729 -0.00011152886684453979 0 -0.0045396634070171884 -1.7836508904001651e-07 0 -0.0029328782168805815 -5.472964821489399e-05 0 -0.0031672690023658908 1.1785513477097768e-06 0 -0.0036031471446459689 -0.00017352312172283854 0 -0.0029328782168805815 -5.472964821489399e-05 0 -0.0036031471446459689 -0.00017352312172283854 0 -0.0040345490892060749 -0.00015312182211783891 0 -0.0081652652125048537 0.00071000534218166136 0 -0.008030983153453344 0.00026410680740715785 0 -0.0084122686307377802 0.00027366069433006285 0 -0.0049797848880774346 0.0010254149918080425 0 -0.0059021605354445533 -5.7216461852680221e-05 0 -0.0049797848880774346 0.0010254149918080425 0 -0.008952410713424612 0.0001345361576389895 0 -0.0081801398378904405 -2.0138503447584564e-05 0 -0.008030983153453344 0.00026410680740715785 0 -0.0084122686307377802 0.00027366069433006285 0 -0.0081801398378904405 -2.0138503447584564e-05 0 -0.0084122686307377802 0.00027366069433006285 0 -0.0084087891043947028 -9.3771437802013887e-05 0 -0.0081801398378904405 -2.0138503447584564e-05 0 -0.008030983153453344 0.00026410680740715785 0 -0.0079072178631540615 -0.00015710209394040298 0 -0.0036031471446459689 -0.00017352312172283854 0 -0.0044039784496912419 -4.1675561792739217e-05 0 -0.0040345490892060749 -0.00015312182211783891 0 -0.0059021605354445533 -5.7216461852680221e-05 0 -0.0058743885262632989 -0.00023635649502160635 0 -0.0081801398378904405 -2.0138503447584564e-05 0 -0.0079072178631540615 -0.00015710209394040298 0 -0.0081518589828191712 -0.00036668159221650619 0 -0.01009042957574089 -0.00048203250294966512 0 -0.010382691729011875 -0.00028442153247645202 0 -0.0081801398378904405 -2.0138503447584564e-05 0 -0.0081518589828191712 -0.00036668159221650619 0 -0.0084087891043947028 -9.3771437802013887e-05 0 -0.0081518589828191712 -0.00036668159221650619 0 -0.0084087891043947028 -9.3771437802013887e-05 0 -0.0085669501433735338 -0.00018361770100838194 0 -0.0045396634070171884 -1.7836508904001651e-07 0 -0.0040345490892060749 -0.00015312182211783891 0 -0.0053320385283067333 -5.1032866654611962e-05 0 -0.0044039784496912419 -4.1675561792739217e-05 0 -0.0040345490892060749 -0.00015312182211783891 0 -0.0053320385283067333 -5.1032866654611962e-05 0 -0.0045396634070171884 -1.7836508904001651e-07 0 -0.0053320385283067333 -5.1032866654611962e-05 0 -0.0065239237823130711 -6.7947852419786132e-07 0 -0.0053320385283067333 -5.1032866654611962e-05 0 -0.0065239237823130711 -6.7947852419786132e-07 0 -0.0065605924900016613 0.00039832192501196642 0 -0.0053320385283067333 -5.1032866654611962e-05 0 -0.0053809071457530961 0.00041382128854049866 0 -0.0065605924900016613 0.00039832192501196642 0 -0.0044039784496912419 -4.1675561792739217e-05 0 -0.0053320385283067333 -5.1032866654611962e-05 0 -0.0053809071457530961 0.00041382128854049866 0 -0.012140857906349729 0.00018271781942528586 0 -0.012469843500193185 0.00020806190527536454 0 -0.012276824849238997 -0.0002835401664042917 0 -0.011329845642593173 0.00013088413815650382 0 -0.0089496882362558941 7.0055328963588838e-05 0 -0.0096971435315462168 -0.00017234028551770995 0 -0.0099425470406318706 0.00080786814732257981 0 -0.0093781433216007497 0.00053118079108779219 0 -0.0089496882362558941 7.0055328963588838e-05 0 -0.0078188399292730693 0.00027211840691064815 0 -0.0065239237823130711 -6.7947852419786132e-07 0 -0.0065605924900016613 0.00039832192501196642 0 -0.0085059337871959927 2.3353702885771703e-06 0 -0.0096971435315462168 -0.00017234028551770995 0 -0.0093781433216007497 0.00053118079108779219 0 -0.0085114350663719005 7.5711460518869137e-07 0 -0.0078188399292730693 0.00027211840691064815 0 -0.008508500344545011 2.7259780892656731e-07 0 -0.011836020138853747 -0.00050472490009270687 0 -0.011612537755319821 -0.0002135686970061908 0 -0.011374966160841073 -0.00072251085090377658 0 -0.011836020138853747 -0.00050472490009270687 0 -0.011949541961410664 -9.832325471820268e-05 0 -0.011612537755319821 -0.0002135686970061908 0 -0.0058743885262632989 -0.00023635649502160635 0 -0.0089496882362558941 7.0055328963588838e-05 0 -0.012276824849238997 -0.0002835401664042917 0 -0.011836020138853747 -0.00050472490009270687 0 -0.011949541961410664 -9.832325471820268e-05 0 -0.0079072178631540615 -0.00015710209394040298 0 -0.0077847758865981975 -0.00053534218051299687 0 -0.0081518589828191712 -0.00036668159221650619 0 -0.0089496882362558941 7.0055328963588838e-05 0 -0.01009042957574089 -0.00048203250294966512 0 -0.012140857906349729 0.00018271781942528586 0 -0.012276824849238997 -0.0002835401664042917 0 -0.011949541961410664 -9.832325471820268e-05 0 -0.012146678823218734 0.00062623764255054335 0 -0.012124937369038274 0.00013283311516766857 0 -0.011848546565941252 0.00027063316025995255 0 -0.011949541961410664 -9.832325471820268e-05 0 -0.011612537755319821 -0.0002135686970061908 0 -0.011969049817624358 0.00078277914055687316 0 -0.012291969199606569 0.00044782723526098282 0 -0.011697218805853959 0.00033254069999132948 0 -0.012387934753011214 0.0010286889211934768 0 -0.011969049817624358 0.00078277914055687316 0 -0.012291969199606569 0.00044782723526098282 0 -0.012124937369038274 0.00013283311516766857 0 -0.010382691729011875 -0.00028442153247645202 0 -0.012291969199606569 0.00044782723526098282 0 -0.011697218805853959 0.00033254069999132948 0 -0.012025519538247176 -0.00014854517738746752 0 -0.0094023328856279714 -0.00088177870174695053 0 -0.009101957057131899 -0.00032005046407349627 0 -0.0094359575396170906 -0.00050375331191790775 0 -0.0094023328856279714 -0.00088177870174695053 0 -0.0097838026396075833 -0.0010637202359474116 0 -0.0094359575396170906 -0.00050375331191790775 0 -0.010478530004053313 -0.00043274357735189223 0 -0.009777508729360047 -0.00030341383408360887 0 -0.012319284669036305 0.00083519949680922203 0 -0.010478530004053313 -0.00043274357735189223 0 -0.011462055236950064 0.00085097473802974181 0 -0.011969049817624358 0.00078277914055687316 0 -0.011697218805853959 0.00033254069999132948 0 -0.0097268077991023594 -0.0014471279598944557 0 -0.0097838026396075833 -0.0010637202359474116 0 -0.010197812612091467 -0.0011085570545789024 0 -0.0097268077991023594 -0.0014471279598944557 0 -0.0094023328856279714 -0.00088177870174695053 0 -0.0097838026396075833 -0.0010637202359474116 0 -0.012319284669036305 0.00083519949680922203 0 -0.011989241686292425 -6.2318767979814774e-05 0 -0.01071580358251507 -0.00072190436560773223 0 -0.010197812612091467 -0.0011085570545789024 0 -0.010005884401947327 -0.00052368517711377175 0 -0.011820494063709212 -9.2375115610547566e-05 0 -0.011989241686292425 -6.2318767979814774e-05 0 -0.0097838026396075833 -0.0010637202359474116 0 -0.010005884401947327 -0.00052368517711377175 0 -0.0094359575396170906 -0.00050375331191790775 0 -0.0097838026396075833 -0.0010637202359474116 0 -0.010197812612091467 -0.0011085570545789024 0 -0.010005884401947327 -0.00052368517711377175 0 -0.010005884401947327 -0.00052368517711377175 0 -0.0094460036073837073 -0.00012958579500802657 0 -0.0094359575396170906 -0.00050375331191790775 0 -0.010005884401947327 -0.00052368517711377175 0 -0.0098671352351135961 4.8688116865631469e-05 0 -0.0094460036073837073 -0.00012958579500802657 0 -0.010005884401947327 -0.00052368517711377175 0 -0.010406581005596249 -3.6706560401149121e-05 0 -0.0098671352351135961 4.8688116865631469e-05 0 -0.01071580358251507 -0.00072190436560773223 0 -0.010005884401947327 -0.00052368517711377175 0 -0.010406581005596249 -3.6706560401149121e-05 0 -0.010034237858683515 0.00064910354380257366 0 -0.010406581005596249 -3.6706560401149121e-05 0 -0.0098671352351135961 4.8688116865631469e-05 0 -0.0094707046272616974 0.00033281144787172123 0 -0.0098671352351135961 4.8688116865631469e-05 0 -0.0094460036073837073 -0.00012958579500802657 0 -0.0094707046272616974 0.00033281144787172123 0 -0.0091036051461957628 0.00021900229808166359 0 -0.0094460036073837073 -0.00012958579500802657 0 -0.0091036051461957628 0.00021900229808166359 0 -0.0094460036073837073 -0.00012958579500802657 0 -0.0089823836107694004 -0.00028190320204178978 0 -0.0084122686307377802 0.00027366069433006285 0 -0.0085863049357156659 -0.00013996716743031731 0 -0.0084087891043947028 -9.3771437802013887e-05 0 -0.0084122686307377802 0.00027366069433006285 0 -0.0085863049357156659 -0.00013996716743031731 0 -0.0086434930728376946 -0.00014790097356290793 0 -0.0091036051461957628 0.00021900229808166359 0 -0.0087969306235401896 0.00037027819947756054 0 -0.0089823836107694004 -0.00028190320204178978 0 -0.008952410713424612 0.0001345361576389895 0 -0.009777508729360047 -0.00030341383408360887 0 -0.011697218805853959 0.00033254069999132948 0 -0.011932828613534008 -0.00019296047526736642 0 -0.012025519538247176 -0.00014854517738746752 0 -0.010244224303638463 -0.00035667065118516814 0 -0.010382691729011875 -0.00028442153247645202 0 -0.0085863049357156659 -0.00013996716743031731 0 -0.0086434930728376946 -0.00014790097356290793 0 -0.0085700970467479844 -0.00018510199976675204 0 -0.009777508729360047 -0.00030341383408360887 0 -0.010382691729011875 -0.00028442153247645202 0 -0.0085863049357156659 -0.00013996716743031731 0 -0.0084087891043947028 -9.3771437802013887e-05 0 -0.0085669501433735338 -0.00018361770100838194 0 -0.0094460036073837073 -0.00012958579500802657 0 -0.009101957057131899 -0.00032005046407349627 0 -0.0094359575396170906 -0.00050375331191790775 0 -0.0092124216565297613 -0.00023931486994242256 0 -0.009777508729360047 -0.00030341383408360887 0 0.0025146091970118544 -0.00029862016614714881 0 0.0029566152262960371 -0.00064866368273907638 0 0.0023506438830784375 -0.00065421798655986301 0 0.0025146091970118544 -0.00029862016614714881 0 0.0028201457099518994 -0.0002216094391660794 0 0.002546000083949933 -3.6923502555194317e-05 0 0.0025146091970118544 -0.00029862016614714881 0 0.0028201457099518994 -0.0002216094391660794 0 0.0029566152262960371 -0.00064866368273907638 0 0.0028201457099518994 -0.0002216094391660794 0 0.0029566152262960371 -0.00064866368273907638 0 0.0033372168014476717 2.3419614340704858e-05 0 0.0029566152262960371 -0.00064866368273907638 0 0.0033386685503280448 -0.00081616730108657735 0 0.0033372168014476717 2.3419614340704858e-05 0 0.0044166465178996682 -0.00040182337422189706 0 -0.0017815563177774483 -0.00092029934745316224 0 0.0029566152262960371 -0.00064866368273907638 0 0.0033386685503280448 -0.00081616730108657735 0 0.0028465807117318983 -0.0010201794711464797 0 0.0033386685503280448 -0.00081616730108657735 0 0.0028465807117318983 -0.0010201794711464797 0 0.0033869144578078229 -0.0011948691656913832 0 0.0029566152262960371 -0.00064866368273907638 0 0.0028465807117318983 -0.0010201794711464797 0 0.0023506438830784375 -0.00065421798655986301 0 0.0028465807117318983 -0.0010201794711464797 0 0.0023506438830784375 -0.00065421798655986301 0 0.0023972106504031141 -0.0012333226763520779 0 0.0018378705958446667 -0.0010044603447034632 0 0.0023506438830784375 -0.00065421798655986301 0 0.0023972106504031141 -0.0012333226763520779 0 0.0018378705958446667 -0.0010044603447034632 0 0.0018247780553988663 -0.00041819104544071119 0 0.0023506438830784375 -0.00065421798655986301 0 0.0018378705958446667 -0.0010044603447034632 0 0.0018247780553988663 -0.00041819104544071119 0 0.0012251783370947999 -0.00065437552459184643 0 0.0018247780553988663 -0.00041819104544071119 0 0.0014895089931624937 -4.7551537012120718e-05 0 0.0012251783370947999 -0.00065437552459184643 0 0.0018247780553988663 -0.00041819104544071119 0 0.0023506438830784375 -0.00065421798655986301 0 0.002211588229788689 -0.00015603678446659677 0 0.0018247780553988663 -0.00041819104544071119 0 0.002211588229788689 -0.00015603678446659677 0 0.001836271374003464 4.6692883764441599e-05 0 0.0025146091970118544 -0.00029862016614714881 0 0.0023506438830784375 -0.00065421798655986301 0 0.002211588229788689 -0.00015603678446659677 0 0.002211588229788689 -0.00015603678446659677 0 0.0023148744789606253 0.00013759975633197225 0 0.0020951637155163512 0.00014091089843054779 0 0.002211588229788689 -0.00015603678446659677 0 0.0020951637155163512 0.00014091089843054779 0 0.001836271374003464 4.6692883764441599e-05 0 0.0019281116324066936 0.00023895725848162752 0 0.0020951637155163512 0.00014091089843054779 0 0.001836271374003464 4.6692883764441599e-05 0 0.0019281116324066936 0.00023895725848162752 0 0.0020951637155163512 0.00014091089843054779 0 0.0020194318233026538 0.00040397678534533608 0 0.0019281116324066936 0.00023895725848162752 0 0.001836271374003464 4.6692883764441599e-05 0 0.0017812418938799842 0.00026988226108792747 0 0.0019281116324066936 0.00023895725848162752 0 0.0017812418938799842 0.00026988226108792747 0 0.0018386752089600284 0.00038142458293364141 0 0.0019281116324066936 0.00023895725848162752 0 0.0020194318233026538 0.00040397678534533608 0 0.0018386752089600284 0.00038142458293364141 0 0.0020951637155163512 0.00014091089843054779 0 0.0022881933223249007 0.00037324215774733654 0 0.0020194318233026538 0.00040397678534533608 0 0.0023148744789606253 0.00013759975633197225 0 0.0020951637155163512 0.00014091089843054779 0 0.0022881933223249007 0.00037324215774733654 0 0.0014895089931624937 -4.7551537012120718e-05 0 0.001836271374003464 4.6692883764441599e-05 0 0.0016470547856513311 0.00023300158559271257 0 0.0018247780553988663 -0.00041819104544071119 0 0.0014895089931624937 -4.7551537012120718e-05 0 0.001836271374003464 4.6692883764441599e-05 0 0.001836271374003464 4.6692883764441599e-05 0 0.0017812418938799842 0.00026988226108792747 0 0.0016470547856513311 0.00023300158559271257 0 0.0017812418938799842 0.00026988226108792747 0 0.001752187125749421 0.00034795791789728723 0 0.0018386752089600284 0.00038142458293364141 0 0.0017812418938799842 0.00026988226108792747 0 0.001752187125749421 0.00034795791789728723 0 0.0017038819606200505 0.0003436167236089503 0 0.0017812418938799842 0.00026988226108792747 0 0.0017038819606200505 0.0003436167236089503 0 0.0016470547856513311 0.00023300158559271257 0 0.0017038819606200505 0.0003436167236089503 0 0.0016470547856513311 0.00023300158559271257 0 0.0016576038746626712 0.00040361290522724144 0 0.0014895089931624937 -4.7551537012120718e-05 0 0.0016470547856513311 0.00023300158559271257 0 0.0013946488976810667 0.00033238157020695357 0 0.0014895089931624937 -4.7551537012120718e-05 0 0.0013946488976810667 0.00033238157020695357 0 0.0011417465556058679 0.00021945255583333417 0 0.0016470547856513311 0.00023300158559271257 0 0.0013946488976810667 0.00033238157020695357 0 0.0016576038746626712 0.00040361290522724144 0 0.0014747846718623026 0.00030273135523835348 0 0.0012336056612301046 0.0008609759695730174 0 0.0015426470750532191 -7.592191762605356e-05 0 0.00050912375244594409 0.00052437833414947766 0 0.0010072926083531763 0.0011576590445099885 0 0.0015281868865121035 0.00042390552908175478 0 0.0015532411977648079 0.00080815691014141555 0 0.0011929195447399911 0.0010247880170114623 0 0.0013946488976810667 0.00033238157020695357 0 0.0016496264463624663 0.00046503854722365536 0 0.0016576038746626712 0.00040361290522724144 0 0.0015281868865121035 0.00042390552908175478 0 0.001672910773772003 0.00042735347611100397 0 0.0015532411977648079 0.00080815691014141555 0 0.0014747846718623026 0.00030273135523835348 0 0.0014788250450963852 0.00031030245671001463 0 0.0017038819606200505 0.0003436167236089503 0 0.0016576038746626712 0.00040361290522724144 0 0.001672910773772003 0.00042735347611100397 0 0.0016510149439509869 0.00041797228333053993 0 0.0016576038746626712 0.00040361290522724144 0 0.001672910773772003 0.00042735347611100397 0 0.0014747846718623026 0.00030273135523835348 0 0.0015343861638824742 0.00031534432573918498 0 0.001752187125749421 0.00034795791789728723 0 0.001672910773772003 0.00042735347611100397 0 0.0018386752089600284 0.00038142458293364141 0 0.001752187125749421 0.00034795791789728723 0 0.0017038819606200505 0.0003436167236089503 0 0.001672910773772003 0.00042735347611100397 0 0.001672910773772003 0.00042735347611100397 0 0.0018386752089600284 0.00038142458293364141 0 0.0018601379227621109 0.00059810858781127532 0 0.001672910773772003 0.00042735347611100397 0 0.0015532411977648079 0.00080815691014141555 0 0.0018601379227621109 0.00059810858781127532 0 0.0022881933223249007 0.00037324215774733654 0 0.0020194318233026538 0.00040397678534533608 0 0.0021831579888984339 0.0006803028049697234 0 0.0020194318233026538 0.00040397678534533608 0 0.0018601379227621109 0.00059810858781127532 0 0.0021831579888984339 0.0006803028049697234 0 0.0020194318233026538 0.00040397678534533608 0 0.0018386752089600284 0.00038142458293364141 0 0.0018601379227621109 0.00059810858781127532 0 0.0015532411977648079 0.00080815691014141555 0 0.0018601379227621109 0.00059810858781127532 0 0.0019212219438364355 0.00095173333341927696 0 0.0018601379227621109 0.00059810858781127532 0 0.0021831579888984339 0.0006803028049697234 0 0.0019212219438364355 0.00095173333341927696 0 0.0025645468810585863 0.00056530441902940284 0 0.0029725622565164108 0.00050734353503067997 0 0.0024623810201801484 0.0011890711500351727 0 0.0021831579888984339 0.0006803028049697234 0 0.0025645468810585863 0.00056530441902940284 0 0.0024623810201801484 0.0011890711500351727 0 -0.002439607123571606 -0.00037288388999087946 0 -0.0020543897947964402 0.00024031290224968066 0 0.0025645468810585863 0.00056530441902940284 0 0.0029246326690950068 0.00036906218603133001 0 0.0029725622565164108 0.00050734353503067997 0 0.0025645468810585863 0.00056530441902940284 0 0.002581893383650584 0.00026211753362208399 0 0.0029246326690950068 0.00036906218603133001 0 0.0022881933223249007 0.00037324215774733654 0 0.0021831579888984339 0.0006803028049697234 0 0.0025645468810585863 0.00056530441902940284 0 0.0022881933223249007 0.00037324215774733654 0 0.0025645468810585863 0.00056530441902940284 0 0.002581893383650584 0.00026211753362208399 0 0.0023148744789606253 0.00013759975633197225 0 0.002581893383650584 0.00026211753362208399 0 0.002546000083949933 -3.6923502555194317e-05 0 0.0023148744789606253 0.00013759975633197225 0 0.0022881933223249007 0.00037324215774733654 0 0.002581893383650584 0.00026211753362208399 0 0.002581893383650584 0.00026211753362208399 0 0.0028484034490133428 9.0854101800062867e-05 0 0.0029246326690950068 0.00036906218603133001 0 0.002581893383650584 0.00026211753362208399 0 0.002546000083949933 -3.6923502555194317e-05 0 0.0028484034490133428 9.0854101800062867e-05 0 0.0028201457099518994 -0.0002216094391660794 0 0.002546000083949933 -3.6923502555194317e-05 0 0.0028484034490133428 9.0854101800062867e-05 0 0.0025146091970118544 -0.00029862016614714881 0 0.002211588229788689 -0.00015603678446659677 0 0.002546000083949933 -3.6923502555194317e-05 0 0.002211588229788689 -0.00015603678446659677 0 0.0023148744789606253 0.00013759975633197225 0 0.002546000083949933 -3.6923502555194317e-05 0 0.0028201457099518994 -0.0002216094391660794 0 0.0033372168014476717 2.3419614340704858e-05 0 0.0028484034490133428 9.0854101800062867e-05 0 0.0033372168014476717 2.3419614340704858e-05 0 0.0028484034490133428 9.0854101800062867e-05 0 0.0029246326690950068 0.00036906218603133001 0 0.0033372168014476717 2.3419614340704858e-05 0 0.0029246326690950068 0.00036906218603133001 0 0.0029646526236528615 0.00049992345750570454 0 -0.0017815563177774483 -0.00092029934745316224 0 -0.002439607123571606 -0.00037288388999087946 0 -0.0053916539081035981 -0.00081978437543855464 0 -0.0051307794014693424 -0.00119197582296263 0 -0.0054610865741068588 -0.0013979014284448445 0 -0.0012273702494928068 0.00058459988161905889 0 -0.002439607123571606 -0.00037288388999087946 0 -0.002439607123571606 -0.00037288388999087946 0 -0.0062999997526557187 -0.0010965237170298997 0 -0.0051307794014693424 -0.00119197582296263 0 -0.0054610865741068588 -0.0013979014284448445 0 -0.0053180108695622215 -0.0015990613329815045 0 -0.0092666583460481802 -0.0021657416773032982 0 -0.0089477135239472479 -0.0023867877846512468 0 -0.0090616475474819061 -0.0020570115405567427 0 -0.0092421448008115879 -0.0025062666755367321 0 -0.0092666583460481802 -0.0021657416773032982 0 -0.0089477135239472479 -0.0023867877846512468 0 -0.0017815563177774483 -0.00092029934745316224 0 -0.0076687646120546541 -0.0020384119200588047 0 -0.0089477135239472479 -0.0023867877846512468 0 -0.0088148392545030711 -0.0020818485522644732 0 -0.0090616475474819061 -0.0020570115405567427 0 -0.0092421448008115879 -0.0025062666755367321 0 -0.0089477135239472479 -0.0023867877846512468 0 -0.0089579619735532193 -0.0028828268526187115 0 -0.0084516030219931888 -0.0023769154903670675 0 -0.0086656747223196572 -0.0022860374660383744 0 -0.0085524363223227241 -0.002113910669271303 0 -0.0084516030219931888 -0.0023769154903670675 0 -0.0085524363223227241 -0.002113910669271303 0 -0.0082781962579238939 -0.0021402302849883215 0 -0.0089477135239472479 -0.0023867877846512468 0 -0.0086656747223196572 -0.0022860374660383744 0 -0.0088148392545030711 -0.0020818485522644732 0 -0.0086656747223196572 -0.0022860374660383744 0 -0.0085524363223227241 -0.002113910669271303 0 -0.0088148392545030711 -0.0020818485522644732 0 -0.0089477135239472479 -0.0023867877846512468 0 -0.0085941854634181275 -0.0025101112644162035 0 -0.0087346211378409398 -0.0026585548305270296 0 -0.0085941854634181275 -0.0025101112644162035 0 -0.0084217012334635837 -0.0026821216057083134 0 -0.0087346211378409398 -0.0026585548305270296 0 -0.0089477135239472479 -0.0023867877846512468 0 -0.0086656747223196572 -0.0022860374660383744 0 -0.0085941854634181275 -0.0025101112644162035 0 -0.0084516030219931888 -0.0023769154903670675 0 -0.0086656747223196572 -0.0022860374660383744 0 -0.0085941854634181275 -0.0025101112644162035 0 -0.0084516030219931888 -0.0023769154903670675 0 -0.0085941854634181275 -0.0025101112644162035 0 -0.0084217012334635837 -0.0026821216057083134 0 -0.0084516030219931888 -0.0023769154903670675 0 -0.0084217012334635837 -0.0026821216057083134 0 -0.0082197055239995893 -0.0025099988494621008 0 -0.0083765110994997796 -0.0027500508511993428 0 -0.0083128855116910826 -0.002889100517254363 0 -0.0084217012334635837 -0.0026821216057083134 0 -0.0083047841681214828 -0.002965317137587803 0 -0.0081814464930405305 -0.0028701900839973298 0 -0.0084217012334635837 -0.0026821216057083134 0 -0.0087346211378409398 -0.0026585548305270296 0 -0.0086248625818842566 -0.0029134612072822461 0 -0.0086248625818842566 -0.0029134612072822461 0 -0.0083939935805985872 -0.0030845605938918433 0 -0.0086268686619347182 -0.0033040505839271824 0 -0.0084217012334635837 -0.0026821216057083134 0 -0.0086248625818842566 -0.0029134612072822461 0 -0.0083939935805985872 -0.0030845605938918433 0 -0.0084217012334635837 -0.0026821216057083134 0 -0.0083939935805985872 -0.0030845605938918433 0 -0.0081810443571298953 -0.0029951414261966533 0 -0.0083939935805985872 -0.0030845605938918433 0 -0.0081810443571298953 -0.0029951414261966533 0 -0.0082039851306396124 -0.0032222232541649228 0 -0.0017815563177774483 -0.00092029934745316224 0 -0.0030758573028768538 -0.0018717121245765557 0 0.0033386685503280448 -0.00081616730108657735 0 0.0032743810628794398 -0.00021854060947473086 0 0.0037584509980167365 -0.0007863998021087798 0 -0.0087346211378409398 -0.0026585548305270296 0 -0.0086248625818842566 -0.0029134612072822461 0 -0.0089579619735532193 -0.0028828268526187115 0 -0.0089477135239472479 -0.0023867877846512468 0 -0.0087346211378409398 -0.0026585548305270296 0 -0.0089579619735532193 -0.0028828268526187115 0 0.0037584509980167365 -0.0007863998021087798 0 0.00373622200328715 -0.0011753460301935029 0 0.0040667751081944507 -0.0013160465801517736 0 -0.0030758573028768538 -0.0018717121245765557 0 -0.00037021422752875409 -0.0018683430675841856 0 -0.0086248625818842566 -0.0029134612072822461 0 -0.0089579619735532193 -0.0028828268526187115 0 -0.0086268686619347182 -0.0033040505839271824 0 0.0033386685503280448 -0.00081616730108657735 0 0.0037584509980167365 -0.0007863998021087798 0 0.00373622200328715 -0.0011753460301935029 0 0.0033386685503280448 -0.00081616730108657735 0 0.0033869144578078229 -0.0011948691656913832 0 0.00373622200328715 -0.0011753460301935029 0 0.0033869144578078229 -0.0011948691656913832 0 0.0035965848493817762 -0.0015644955471583119 0 0.00373622200328715 -0.0011753460301935029 0 0.0035965848493817762 -0.0015644955471583119 0 0.00373622200328715 -0.0011753460301935029 0 0.0039674403830630579 -0.0016239956934214162 0 0.00373622200328715 -0.0011753460301935029 0 0.0039674403830630579 -0.0016239956934214162 0 0.0042859295544528855 -0.0014333364821755815 0 0.0053432932459214176 -0.0014845192115094596 0 -0.00037021422752875409 -0.0018683430675841856 0 0.0039674403830630579 -0.0016239956934214162 0 0.0038999773967922512 -0.0019612725008650959 0 0.0042602024892742637 -0.0020230720767894237 0 0.0039674403830630579 -0.0016239956934214162 0 0.0042859295544528855 -0.0014333364821755815 0 0.0042602024892742637 -0.0020230720767894237 0 0.0035965848493817762 -0.0015644955471583119 0 0.0038999773967922512 -0.0019612725008650959 0 0.0034715333127092267 -0.0019231526301916897 0 0.0035965848493817762 -0.0015644955471583119 0 0.0039674403830630579 -0.0016239956934214162 0 0.0038999773967922512 -0.0019612725008650959 0 -0.0083125711194819377 -0.0034238899211772988 0 -0.0082039851306396124 -0.0032222232541649228 0 -0.0079696937649560602 -0.0033359202195595906 0 -0.0083939935805985872 -0.0030845605938918433 0 -0.0083125711194819377 -0.0034238899211772988 0 -0.0082039851306396124 -0.0032222232541649228 0 -0.0083939935805985872 -0.0030845605938918433 0 -0.0083125711194819377 -0.0034238899211772988 0 -0.0086268686619347182 -0.0033040505839271824 0 -0.0054443988867326548 -0.0027019818193305097 0 -0.00037021422752875409 -0.0018683430675841856 0 -0.0010974469032673866 -0.0023941777945476277 0 -0.0013662361387268617 -0.0022961689004828037 0 -0.001075728754560122 -0.002677154441139056 0 -0.00037021422752875409 -0.0018683430675841856 0 0.0021029632914761729 -0.0024489952652321013 0 0.0042859295544528855 -0.0014333364821755815 0 0.0042602024892742637 -0.0020230720767894237 0 0.0046026834995696589 -0.0020754482259281908 0 -0.0010974469032673866 -0.0023941777945476277 0 -0.001075728754560122 -0.002677154441139056 0 -0.00081753385610422035 -0.002488902752452326 0 -0.0054443988867326548 -0.0027019818193305097 0 -0.0041511100877575568 -0.0033287827104792117 0 0.0046026834995696589 -0.0020754482259281908 0 0.0045016829052724012 -0.0024201067388507995 0 0.0046828817164089875 -0.0025298654265601098 0 0.0021029632914761729 -0.0024489952652321013 0 0.0016904993502848086 -0.0027928139213531365 0 0.0042602024892742637 -0.0020230720767894237 0 0.0045016829052724012 -0.0024201067388507995 0 0.0042291496909047264 -0.0024267584935320835 0 0.0042602024892742637 -0.0020230720767894237 0 0.0046026834995696589 -0.0020754482259281908 0 0.0045016829052724012 -0.0024201067388507995 0 0.0045016829052724012 -0.0024201067388507995 0 0.0042291496909047264 -0.0024267584935320835 0 0.0044874713547546257 -0.002668811591140035 0 0.0045016829052724012 -0.0024201067388507995 0 0.004537846598406222 -0.0026612198404359915 0 0.0044874713547546257 -0.002668811591140035 0 0.0045016829052724012 -0.0024201067388507995 0 0.0046828817164089875 -0.0025298654265601098 0 0.004537846598406222 -0.0026612198404359915 0 0.0034715333127092267 -0.0019231526301916897 0 0.0038360346423171507 -0.0022961512908593984 0 0.0033491011428968026 -0.0023499205346129985 0 0.0038999773967922512 -0.0019612725008650959 0 0.0034715333127092267 -0.0019231526301916897 0 0.0038360346423171507 -0.0022961512908593984 0 0.0038999773967922512 -0.0019612725008650959 0 0.0038360346423171507 -0.0022961512908593984 0 0.0042291496909047264 -0.0024267584935320835 0 0.0038999773967922512 -0.0019612725008650959 0 0.0042602024892742637 -0.0020230720767894237 0 0.0042291496909047264 -0.0024267584935320835 0 0.0038360346423171507 -0.0022961512908593984 0 0.0042291496909047264 -0.0024267584935320835 0 0.0039845488313684065 -0.0027236119239163075 0 0.0038360346423171507 -0.0022961512908593984 0 0.0033491011428968026 -0.0023499205346129985 0 0.0039845488313684065 -0.0027236119239163075 0 0.0033491011428968026 -0.0023499205346129985 0 0.0031778466306098198 -0.0029671835081220631 0 0.0039845488313684065 -0.0027236119239163075 0 0.0033491011428968026 -0.0023499205346129985 0 0.0026064903878777763 -0.0026930340101115279 0 0.0031778466306098198 -0.0029671835081220631 0 0.0027574415413879547 -0.0022147051732811494 0 0.0033491011428968026 -0.0023499205346129985 0 0.0026064903878777763 -0.0026930340101115279 0 0.0027574415413879547 -0.0022147051732811494 0 0.0033491011428968026 -0.0023499205346129985 0 0.0030095585938436399 -0.0018607036892252962 0 0.0034715333127092267 -0.0019231526301916897 0 0.0033491011428968026 -0.0023499205346129985 0 0.0030095585938436399 -0.0018607036892252962 0 0.0034715333127092267 -0.0019231526301916897 0 0.0030095585938436399 -0.0018607036892252962 0 0.0031693890621327606 -0.0014851896220004828 0 0.0035965848493817762 -0.0015644955471583119 0 0.0034715333127092267 -0.0019231526301916897 0 0.0031693890621327606 -0.0014851896220004828 0 0.0030095585938436399 -0.0018607036892252962 0 0.002784248182430552 -0.0014716722831897534 0 0.0031693890621327606 -0.0014851896220004828 0 0.0027574415413879547 -0.0022147051732811494 0 0.0030095585938436399 -0.0018607036892252962 0 0.0024761464755780073 -0.00174389876248946 0 0.0030095585938436399 -0.0018607036892252962 0 0.002784248182430552 -0.0014716722831897534 0 0.0024761464755780073 -0.00174389876248946 0 0.002784248182430552 -0.0014716722831897534 0 0.0023972106504031141 -0.0012333226763520779 0 0.0024761464755780073 -0.00174389876248946 0 0.0028465807117318983 -0.0010201794711464797 0 0.002784248182430552 -0.0014716722831897534 0 0.0031693890621327606 -0.0014851896220004828 0 0.0028465807117318983 -0.0010201794711464797 0 0.002784248182430552 -0.0014716722831897534 0 0.0023972106504031141 -0.0012333226763520779 0 0.0033869144578078229 -0.0011948691656913832 0 0.0035965848493817762 -0.0015644955471583119 0 0.0031693890621327606 -0.0014851896220004828 0 0.0028465807117318983 -0.0010201794711464797 0 0.0033869144578078229 -0.0011948691656913832 0 0.0031693890621327606 -0.0014851896220004828 0 0.0018378705958446667 -0.0010044603447034632 0 0.0019976147366317343 -0.001528562891157837 0 0.0012598648914963443 -0.0014889809549005863 0 0.0018378705958446667 -0.0010044603447034632 0 0.0019976147366317343 -0.001528562891157837 0 0.0023972106504031141 -0.0012333226763520779 0 0.0019976147366317343 -0.001528562891157837 0 0.0023972106504031141 -0.0012333226763520779 0 0.0024761464755780073 -0.00174389876248946 0 0.0019976147366317343 -0.001528562891157837 0 0.0024761464755780073 -0.00174389876248946 0 0.0018931590557481174 -0.00207452558443834 0 0.0024761464755780073 -0.00174389876248946 0 0.0018931590557481174 -0.00207452558443834 0 0.002291101848506452 -0.0023237693093677634 0 0.0019976147366317343 -0.001528562891157837 0 0.0018931590557481174 -0.00207452558443834 0 0.0012598648914963443 -0.0014889809549005863 0 0.0018931590557481174 -0.00207452558443834 0 0.002291101848506452 -0.0023237693093677634 0 0.0018828103934882539 -0.0026952849922853507 0 0.0018931590557481174 -0.00207452558443834 0 0.0018828103934882539 -0.0026952849922853507 0 0.0012805531285789414 -0.0025223315732086212 0 0.0027574415413879547 -0.0022147051732811494 0 0.002291101848506452 -0.0023237693093677634 0 0.0026064903878777763 -0.0026930340101115279 0 0.0027574415413879547 -0.0022147051732811494 0 0.0024761464755780073 -0.00174389876248946 0 0.002291101848506452 -0.0023237693093677634 0 0.002291101848506452 -0.0023237693093677634 0 0.0026064903878777763 -0.0026930340101115279 0 0.0018828103934882539 -0.0026952849922853507 0 0.0026064903878777763 -0.0026930340101115279 0 0.0018828103934882539 -0.0026952849922853507 0 0.0020897525764831081 -0.0030708630000584524 0 0.0018828103934882539 -0.0026952849922853507 0 0.0014926273729442428 -0.0030998637107281244 0 0.0017237848085211642 -0.0032278186288813436 0 0.0019090625868221406 -0.0026678918783067372 0 0.0017104715371778852 -0.0032354477015974752 0 0.0018828103934882539 -0.0026952849922853507 0 0.0014926273729442428 -0.0030998637107281244 0 0.0012266753538501458 -0.0028947917453069206 0 0.0014926273729442428 -0.0030998637107281244 0 0.0012266753538501458 -0.0028947917453069206 0 0.0012802344039607812 -0.0031960117022544771 0 0.0018828103934882539 -0.0026952849922853507 0 0.0012266753538501458 -0.0028947917453069206 0 0.0012805531285789414 -0.0025223315732086212 0 0.0012266753538501458 -0.0028947917453069206 0 0.0012805531285789414 -0.0025223315732086212 0 0.00081213243722615797 -0.0024888376484663577 0 0.00081473841205495566 -0.0029481290560536464 0 0.00027592505287348716 -0.0025214440990441699 0 0.00081213243722615797 -0.0024888376484663577 0 0.0012266753538501458 -0.0028947917453069206 0 0.00081473841205495566 -0.0029481290560536464 0 0.00081213243722615797 -0.0024888376484663577 0 0.0012266753538501458 -0.0028947917453069206 0 0.00081473841205495566 -0.0029481290560536464 0 0.0011232046387429978 -0.0032161531480743859 0 0.0012266753538501458 -0.0028947917453069206 0 0.0011232046387429978 -0.0032161531480743859 0 0.0012802344039607812 -0.0031960117022544771 0 0.00081473841205495566 -0.0029481290560536464 0 0.0011232046387429978 -0.0032161531480743859 0 0.0012412113756769194 -0.0036368418134050881 0 0.00081473841205495566 -0.0029481290560536464 0 0.00034945202370147827 -0.0028758066309989712 0 0.0012412113756769194 -0.0036368418134050881 0 -0.00020835283021729378 -0.0029476923973498891 0 0.00034945202370147827 -0.0028758066309989712 0 0.0012412113756769194 -0.0036368418134050881 0 -0.00020835283021729378 -0.0029476923973498891 0 -0.0007078772910041022 -0.0036996986795059506 0 0.0012412113756769194 -0.0036368418134050881 0 -0.00020835283021729378 -0.0029476923973498891 0 -0.00024379217402073456 -0.0025503400838025516 0 0.00034945202370147827 -0.0028758066309989712 0 -0.00020835283021729378 -0.0029476923973498891 0 -0.00024379217402073456 -0.0025503400838025516 0 -0.00081286701905909664 -0.0025458585904830381 0 0.00081473841205495566 -0.0029481290560536464 0 0.00034945202370147827 -0.0028758066309989712 0 0.00027592505287348716 -0.0025214440990441699 0 -0.00024379217402073456 -0.0025503400838025516 0 0.00034945202370147827 -0.0028758066309989712 0 0.00027592505287348716 -0.0025214440990441699 0 -0.00021264725330614703 -0.0023125375378646187 0 -0.00057821495706898447 -0.0020257912110084129 0 0.00018632393138504156 -0.0020345024885547029 0 0.00027592505287348716 -0.0025214440990441699 0 0.00018632393138504156 -0.0020345024885547029 0 0.00081213243722615797 -0.0024888376484663577 0 0.00027592505287348716 -0.0025214440990441699 0 -0.00021264725330614703 -0.0023125375378646187 0 0.00018632393138504156 -0.0020345024885547029 0 -0.00024379217402073456 -0.0025503400838025516 0 0.00027592505287348716 -0.0025214440990441699 0 -0.00021264725330614703 -0.0023125375378646187 0 -0.00024379217402073456 -0.0025503400838025516 0 -0.00074201240688089097 -0.0022833948566453664 0 -0.00081286701905909664 -0.0025458585904830381 0 -0.00024379217402073456 -0.0025503400838025516 0 -0.00021264725330614703 -0.0023125375378646187 0 -0.00074201240688089097 -0.0022833948566453664 0 -0.00021264725330614703 -0.0023125375378646187 0 -0.00074201240688089097 -0.0022833948566453664 0 -0.00057821495706898447 -0.0020257912110084129 0 -0.00074201240688089097 -0.0022833948566453664 0 -0.00057821495706898447 -0.0020257912110084129 0 -0.0014137156434631286 -0.0019251805611126117 0 -0.00057821495706898447 -0.0020257912110084129 0 -0.0014137156434631286 -0.0019251805611126117 0 -0.001020352548440356 -0.0016358407011082027 0 -0.00057821495706898447 -0.0020257912110084129 0 -0.00035780673603534201 -0.0015382973506326183 0 -0.001020352548440356 -0.0016358407011082027 0 -0.00057821495706898447 -0.0020257912110084129 0 0.00018632393138504156 -0.0020345024885547029 0 -0.00035780673603534201 -0.0015382973506326183 0 0.00018632393138504156 -0.0020345024885547029 0 0.00046377853057522794 -0.0014877509287305149 0 -0.00035780673603534201 -0.0015382973506326183 0 0.00018632393138504156 -0.0020345024885547029 0 0.0010974825683575315 -0.0019752278819568465 0 0.00046377853057522794 -0.0014877509287305149 0 0.0018931590557481174 -0.00207452558443834 0 0.0012805531285789414 -0.0025223315732086212 0 0.0012598648914963443 -0.0014889809549005863 0 0.0012805531285789414 -0.0025223315732086212 0 0.0010974825683575315 -0.0019752278819568465 0 0.00081213243722615797 -0.0024888376484663577 0 0.0012564701686575783 -0.0024860048474900196 0 0.0011892762329687447 -0.0017457076197662737 0 0.00018632393138504156 -0.0020345024885547029 0 0.0010974825683575315 -0.0019752278819568465 0 0.00081213243722615797 -0.0024888376484663577 0 0.0048123178736660032 0.00040672329563115167 0 0.0044847348737874423 0.0008524914344617587 0 0.0041546803265269166 0.0001937719288949648 0 0.0048123178736660032 0.00040672329563115167 0 0.0041546803265269166 0.0001937719288949648 0 0.0046678660715780028 3.1276426014456219e-05 0 0.0044847348737874423 0.0008524914344617587 0 0.0036906711042360763 0.00047904305150978045 0 0.0036826424293959887 0.00098180840986694553 0 0.0049435636739676731 0.00074774629597991883 0 0.0048592620111808614 0.0010261029964695962 0 0.0054966008743342603 0.00069160985275712071 0 0.0055240342765935898 0.00068383420020032943 0 0.005518655600127354 0.00067617139464759058 0 0.0041546803265269166 0.0001937719288949648 0 0.0036906711042360763 0.00047904305150978045 0 0.0035781147161944422 5.0047198753850587e-05 0 0.0044847348737874423 0.0008524914344617587 0 0.0041546803265269166 0.0001937719288949648 0 0.0036906711042360763 0.00047904305150978045 0 0.0036906711042360763 0.00047904305150978045 0 0.0030046553620410627 0.0003959610208036855 0 0.0035781147161944422 5.0047198753850587e-05 0 0.0030046553620410627 0.0003959610208036855 0 0.0032843750047240584 -2.1551954583235395e-05 0 0.0035781147161944422 5.0047198753850587e-05 0 0.0036906711042360763 0.00047904305150978045 0 0.0036826424293959887 0.00098180840986694553 0 0.0030046553620410627 0.0003959610208036855 0 0.0048592620111808614 0.0010261029964695962 0 0.0027461426422708559 -0.0014568495202914907 0 -0.00020835283021729378 -0.0029476923973498891 0 -0.0007078772910041022 -0.0036996986795059506 0 -0.00094094680726142992 -0.0027665701120395047 0 0.0027461426422708559 -0.0014568495202914907 0 0.00099399812907536677 -0.00096690943723116529 0 0.0036826424293959887 0.00098180840986694553 0 0.0029022342642160267 0.0010961963721020085 0 0.0030046553620410627 0.0003959610208036855 0 -0.00020835283021729378 -0.0029476923973498891 0 -0.00094094680726142992 -0.0027665701120395047 0 -0.00081286701905909664 -0.0025458585904830381 0 0.00099399812907536677 -0.00096690943723116529 0 -0.00066104102807585296 -0.0022409824642908426 0 -0.00094094680726142992 -0.0027665701120395047 0 -0.00081286701905909664 -0.0025458585904830381 0 -0.0012759484698399535 -0.0022535776354655015 0 0.0030046553620410627 0.0003959610208036855 0 0.0030987136610042413 -0.00031749259633100194 0 0.0032843750047240584 -2.1551954583235395e-05 0 -0.00081286701905909664 -0.0025458585904830381 0 -0.0012759484698399535 -0.0022535776354655015 0 -0.001125614614764763 -0.0023297814323592334 0 -0.00074201240688089097 -0.0022833948566453664 0 -0.00081286701905909664 -0.0025458585904830381 0 -0.001125614614764763 -0.0023297814323592334 0 -0.0015193517081309588 -0.002290394389053891 0 -0.001125614614764763 -0.0023297814323592334 0 -0.0014137156434631286 -0.0019251805611126117 0 -0.00066104102807585296 -0.0022409824642908426 0 -0.0011038065911647789 -0.0021813477674840383 0 -0.00074201240688089097 -0.0022833948566453664 0 -0.001125614614764763 -0.0023297814323592334 0 -0.0014137156434631286 -0.0019251805611126117 0 -0.0015193517081309588 -0.002290394389053891 0 -0.0014137156434631286 -0.0019251805611126117 0 -0.0020960445701903594 -0.0016727460644731075 0 -0.00066104102807585296 -0.0022409824642908426 0 -0.0024514605752224234 -0.0019368066136765943 0 -0.0024770622268506675 -0.003292674379764219 0 -0.0029190376806601955 -0.0027743384254233687 0 -0.0034496227781795836 -0.0029575003457344849 0 -0.0024770622268506675 -0.003292674379764219 0 -0.0029190376806601955 -0.0027743384254233687 0 -0.0026683038696973626 -0.0021694709020708223 0 -0.0029190376806601955 -0.0027743384254233687 0 -0.0032764190385532513 -0.0024112585244863722 0 -0.0026683038696973626 -0.0021694709020708223 0 -0.0032764190385532513 -0.0024112585244863722 0 -0.0034496227781795836 -0.0029575003457344849 0 -0.0038002374371834111 -0.0022857103353839544 0 -0.0029190376806601955 -0.0027743384254233687 0 -0.0032764190385532513 -0.0024112585244863722 0 -0.0034496227781795836 -0.0029575003457344849 0 -0.00066104102807585296 -0.0022409824642908426 0 8.9490793844711224e-05 -0.0017160397411358438 0 0.0030987136610042413 -0.00031749259633100194 0 0.0036634223330915499 -0.00048538183236258343 0 0.0034548772312001444 -0.00021515082311104032 0 0.0036634223330915499 -0.00048538183236258343 0 0.0034548772312001444 -0.00021515082311104032 0 0.0037003579069804166 -0.0002172014032929112 0 0.0030987136610042413 -0.00031749259633100194 0 0.0034548772312001444 -0.00021515082311104032 0 0.0032843750047240584 -2.1551954583235395e-05 0 0.0034548772312001444 -0.00021515082311104032 0 0.0032843750047240584 -2.1551954583235395e-05 0 0.0035781147161944422 5.0047198753850587e-05 0 0.0034548772312001444 -0.00021515082311104032 0 0.0037003579069804166 -0.0002172014032929112 0 0.0035781147161944422 5.0047198753850587e-05 0 0.0041546803265269166 0.0001937719288949648 0 0.0035781147161944422 5.0047198753850587e-05 0 0.0039193061884940346 -9.6091947570733276e-05 0 0.0037003579069804166 -0.0002172014032929112 0 0.0035781147161944422 5.0047198753850587e-05 0 0.0039193061884940346 -9.6091947570733276e-05 0 0.0041546803265269166 0.0001937719288949648 0 0.0039193061884940346 -9.6091947570733276e-05 0 0.0042825066509380129 -0.00020246770162513311 0 0.0039193061884940346 -9.6091947570733276e-05 0 0.0038851403025221966 -0.00035626794446942737 0 0.0042825066509380129 -0.00020246770162513311 0 0.0036634223330915499 -0.00048538183236258343 0 0.0037003579069804166 -0.0002172014032929112 0 0.0038851403025221966 -0.00035626794446942737 0 0.0037003579069804166 -0.0002172014032929112 0 0.0039193061884940346 -9.6091947570733276e-05 0 0.0038851403025221966 -0.00035626794446942737 0 0.0036634223330915499 -0.00048538183236258343 0 0.0038851403025221966 -0.00035626794446942737 0 0.0041423679539960515 -0.00063626270644078853 0 -0.0034496227781795836 -0.0029575003457344849 0 -0.0038002374371834111 -0.0022857103353839544 0 -0.0044018628762831314 -0.0026086614944033451 0 8.9490793844711224e-05 -0.0017160397411358438 0 0.0010746610091535906 -0.00078635010453616597 0 0.0038851403025221966 -0.00035626794446942737 0 0.004232521763454157 -0.00063208587593103745 0 0.0042825066509380129 -0.00020246770162513311 0 0.0040300964383589788 -0.001038372694391326 0 0.0010746610091535906 -0.00078635010453616597 0 0.0047704179928622116 -0.00035194918217792645 0 0.004873839602589804 -0.00077844435306712934 0 0.004232521763454157 -0.00063208587593103745 0 0.0047704179928622116 -0.00035194918217792645 0 0.004232521763454157 -0.00063208587593103745 0 0.0042825066509380129 -0.00020246770162513311 0 0.002791263864252535 -0.00063676280634057789 0 0.0010746610091535906 -0.00078635010453616597 0 0.0047704179928622116 -0.00035194918217792645 0 0.0042825066509380129 -0.00020246770162513311 0 0.0046678660715780028 3.1276426014456219e-05 0 0.0041546803265269166 0.0001937719288949648 0 0.0042825066509380129 -0.00020246770162513311 0 0.0046678660715780028 3.1276426014456219e-05 0 -0.0057569570725291459 -0.00067611203459642401 0 -0.0048628371600516317 -0.0008919237568567114 0 -0.0051604265649145466 -0.00026262599455017464 0 0.00014098615375078571 0.00074477895562432086 0 6.6341574525331613e-05 1.6441214019498698e-05 0 0.0013186699824163804 -0.00043951295975045573 0 -0.0029684816191143967 -0.00059197033012501623 0 0.0010746610091535906 -0.00078635010453616597 0 -0.0054567721657372758 -0.0015786437443866279 0 -0.0044018628762831314 -0.0026086614944033451 0 -0.0043217017175903108 -0.0016891376864528809 0 -0.0054567721657372758 -0.0015786437443866279 0 -0.0048628371600516317 -0.0008919237568567114 0 -0.0043217017175903108 -0.0016891376864528809 0 -0.0038002374371834111 -0.0022857103353839544 0 -0.0044018628762831314 -0.0026086614944033451 0 -0.0043217017175903108 -0.0016891376864528809 0 -0.0043217017175903108 -0.0016891376864528809 0 -0.0038548580656440731 -0.00078969430425913196 0 -0.0035175832065029678 -0.0017677587191304522 0 -0.0038002374371834111 -0.0022857103353839544 0 -0.0043217017175903108 -0.0016891376864528809 0 -0.0035175832065029678 -0.0017677587191304522 0 -0.0048628371600516317 -0.0008919237568567114 0 -0.0038548580656440731 -0.00078969430425913196 0 -0.0044018227195931911 -0.00027727923995070342 0 -0.0048628371600516317 -0.0008919237568567114 0 -0.0043217017175903108 -0.0016891376864528809 0 -0.0038548580656440731 -0.00078969430425913196 0 -0.0038548580656440731 -0.00078969430425913196 0 -0.0028607428184478072 -0.00098552624070443969 0 -0.0035175832065029678 -0.0017677587191304522 0 -0.0028607428184478072 -0.00098552624070443969 0 -0.0027243713874816619 -0.00032447527371477368 0 -0.0033146181208758823 -0.00011610948167218702 0 -0.0038548580656440731 -0.00078969430425913196 0 -0.0028607428184478072 -0.00098552624070443969 0 -0.0033146181208758823 -0.00011610948167218702 0 -0.0027591361392568276 -0.0010011507761117579 0 -0.0024514605752224234 -0.0019368066136765943 0 -0.0028607428184478072 -0.00098552624070443969 0 -0.0035175832065029678 -0.0017677587191304522 0 -0.0026683038696973626 -0.0021694709020708223 0 -0.0032764190385532513 -0.0024112585244863722 0 -0.0035175832065029678 -0.0017677587191304522 0 -0.0026683038696973626 -0.0021694709020708223 0 -0.0032764190385532513 -0.0024112585244863722 0 -0.0038002374371834111 -0.0022857103353839544 0 -0.0035175832065029678 -0.0017677587191304522 0 -0.0014137156434631286 -0.0019251805611126117 0 -0.0016915920958687186 -0.0013140318813271738 0 -0.001020352548440356 -0.0016358407011082027 0 -0.0014137156434631286 -0.0019251805611126117 0 -0.0020960445701903594 -0.0016727460644731075 0 -0.0016915920958687186 -0.0013140318813271738 0 -0.0028607428184478072 -0.00098552624070443969 0 -0.0020960445701903594 -0.0016727460644731075 0 -0.0016915920958687186 -0.0013140318813271738 0 -0.0016915920958687186 -0.0013140318813271738 0 -0.0021981791418504214 -0.0007249671933021966 0 -0.0015319751833609474 -0.00065418575341575573 0 -0.0028607428184478072 -0.00098552624070443969 0 -0.0016915920958687186 -0.0013140318813271738 0 -0.0021981791418504214 -0.0007249671933021966 0 -0.0028607428184478072 -0.00098552624070443969 0 -0.0021981791418504214 -0.0007249671933021966 0 -0.0027243713874816619 -0.00032447527371477368 0 -0.0021981791418504214 -0.0007249671933021966 0 -0.0027243713874816619 -0.00032447527371477368 0 -0.0021751536657979688 -0.00013502306076280718 0 -0.0027243713874816619 -0.00032447527371477368 0 -0.0030118245663329295 0.00016119745761327447 0 -0.0021751536657979688 -0.00013502306076280718 0 -0.0027243713874816619 -0.00032447527371477368 0 -0.0030118245663329295 0.00016119745761327447 0 -0.0033146181208758823 -0.00011610948167218702 0 -0.0030118245663329295 0.00016119745761327447 0 -0.0029810665514113221 0.00043723181844578315 0 -0.0021751536657979688 -0.00013502306076280718 0 -0.0029810665514113221 0.00043723181844578315 0 -0.0035681380083057218 0.00039346088700319072 0 -0.0032841840122481529 0.00044554353955948602 0 -0.0029810665514113221 0.00043723181844578315 0 -0.0035681380083057218 0.00039346088700319072 0 -0.0029030028142996867 0.0005537853093059656 0 -0.0035681380083057218 0.00039346088700319072 0 -0.0032841840122481529 0.00044554353955948602 0 -0.0034884336828243617 0.0005707028598374228 0 -0.0030118245663329295 0.00016119745761327447 0 -0.0029810665514113221 0.00043723181844578315 0 -0.0032841840122481529 0.00044554353955948602 0 -0.0030118245663329295 0.00016119745761327447 0 -0.0032841840122481529 0.00044554353955948602 0 -0.0033940614746094341 0.00039989202868389825 0 -0.0037846673296716375 0.00038396735614747081 0 -0.0055170884652351359 0.00062724324714949627 0 -0.0032841840122481529 0.00044554353955948602 0 -0.0033940614746094341 0.00039989202868389825 0 -0.0034884336828243617 0.0005707028598374228 0 -0.0035681380083057218 0.00039346088700319072 0 -0.0034884336828243617 0.0005707028598374228 0 -0.0036460126002366283 0.00097308669621628033 0 -0.0033940614746094341 0.00039989202868389825 0 -0.0034884336828243617 0.0005707028598374228 0 -0.0035963285932407688 0.00058873504695260202 0 -0.0034884336828243617 0.0005707028598374228 0 -0.0035963285932407688 0.00058873504695260202 0 -0.0036460126002366283 0.00097308669621628033 0 -0.0035963285932407688 0.00058873504695260202 0 -0.0038465066792245251 0.00063104696750401735 0 -0.0036460126002366283 0.00097308669621628033 0 -0.0033940614746094341 0.00039989202868389825 0 -0.0035963285932407688 0.00058873504695260202 0 -0.0036867452764652794 0.00036264927539979763 0 -0.0035963285932407688 0.00058873504695260202 0 -0.0036867452764652794 0.00036264927539979763 0 -0.0038465066792245251 0.00063104696750401735 0 -0.0036867452764652794 0.00036264927539979763 0 -0.0033146181208758823 -0.00011610948167218702 0 -0.0038809447367715985 -3.6877854099031401e-05 0 -0.0033940614746094341 0.00039989202868389825 0 -0.0036867452764652794 0.00036264927539979763 0 -0.0033146181208758823 -0.00011610948167218702 0 -0.0030118245663329295 0.00016119745761327447 0 -0.0033940614746094341 0.00039989202868389825 0 -0.0033146181208758823 -0.00011610948167218702 0 -0.0038548580656440731 -0.00078969430425913196 0 -0.0033146181208758823 -0.00011610948167218702 0 -0.0038809447367715985 -3.6877854099031401e-05 0 -0.0038548580656440731 -0.00078969430425913196 0 -0.0044018227195931911 -0.00027727923995070342 0 -0.0038809447367715985 -3.6877854099031401e-05 0 -0.0044018227195931911 -0.00027727923995070342 0 -0.0038809447367715985 -3.6877854099031401e-05 0 -0.0041993198423057026 0.00033366965387126066 0 -0.0044018227195931911 -0.00027727923995070342 0 -0.0041993198423057026 0.00033366965387126066 0 -0.0047510834562207258 0.00023640078860670186 0 -0.0036867452764652794 0.00036264927539979763 0 -0.0038809447367715985 -3.6877854099031401e-05 0 -0.0041993198423057026 0.00033366965387126066 0 -0.0036867452764652794 0.00036264927539979763 0 -0.0038465066792245251 0.00063104696750401735 0 -0.0041993198423057026 0.00033366965387126066 0 -0.0039421089701045858 0.00068593539757847539 0 -0.00532801712180058 0.0012175462478584364 0 -0.0038465066792245251 0.00063104696750401735 0 -0.0041993198423057026 0.00033366965387126066 0 -0.0046912773723230983 0.00069745236246342699 0 -0.0041993198423057026 0.00033366965387126066 0 -0.0047510834562207258 0.00023640078860670186 0 -0.0046912773723230983 0.00069745236246342699 0 -0.0038465066792245251 0.00063104696750401735 0 -0.0046912773723230983 0.00069745236246342699 0 -0.005024395861699422 0.0013564344013486708 0 -0.0046912773723230983 0.00069745236246342699 0 -0.0051357797752212171 0.00089136545821069213 0 -0.005024395861699422 0.0013564344013486708 0 -0.0046912773723230983 0.00069745236246342699 0 -0.0051357797752212171 0.00089136545821069213 0 -0.005331349015643228 0.00045407946678782847 0 -0.0055188146090974126 0.001073578500064078 0 -0.0051357797752212171 0.00089136545821069213 0 -0.005331349015643228 0.00045407946678782847 0 -0.0055188146090974126 0.001073578500064078 0 -0.0051357797752212171 0.00089136545821069213 0 -0.005024395861699422 0.0013564344013486708 0 -0.0047510834562207258 0.00023640078860670186 0 -0.0046912773723230983 0.00069745236246342699 0 -0.005331349015643228 0.00045407946678782847 0 -0.0047510834562207258 0.00023640078860670186 0 -0.005331349015643228 0.00045407946678782847 0 -0.0051604265649145466 -0.00026262599455017464 0 -0.0044018227195931911 -0.00027727923995070342 0 -0.0047510834562207258 0.00023640078860670186 0 -0.0051604265649145466 -0.00026262599455017464 0 -0.0048628371600516317 -0.0008919237568567114 0 -0.0044018227195931911 -0.00027727923995070342 0 -0.0051604265649145466 -0.00026262599455017464 0 0.0011087079980698395 -0.001016230474707814 0 -0.00010605624980166071 -0.00060241440702879414 0 0.0005538688229872967 -0.00012402001527897071 0 0.0011087079980698395 -0.001016230474707814 0 0.0005538688229872967 -0.00012402001527897071 0 0.0011417465556058679 0.00021945255583333417 0 0.0011633668946185009 -0.0008116593907718018 0 0.0011517770553712548 0.00016304501503379128 0 0.0014895089931624937 -4.7551537012120718e-05 0 0.0012251783370947999 -0.00065437552459184643 0 0.0011417465556058679 0.00021945255583333417 0 0.0010974825683575315 -0.0019752278819568465 0 0.0011087079980698395 -0.001016230474707814 0 0.00046377853057522794 -0.0014877509287305149 0 0.0018378705958446667 -0.0010044603447034632 0 0.0012598648914963443 -0.0014889809549005863 0 0.0012251783370947999 -0.00065437552459184643 0 0.0011892762329687447 -0.0017457076197662737 0 0.0011633668946185009 -0.0008116593907718018 0 0.0011087079980698395 -0.001016230474707814 0 0.00046377853057522794 -0.0014877509287305149 0 -0.00010605624980166071 -0.00060241440702879414 0 0.00046377853057522794 -0.0014877509287305149 0 -0.00035780673603534201 -0.0015382973506326183 0 -0.00010605624980166071 -0.00060241440702879414 0 -0.00035780673603534201 -0.0015382973506326183 0 -0.0009841312673387944 -0.0011584097732539806 0 -0.00010605624980166071 -0.00060241440702879414 0 -0.00035780673603534201 -0.0015382973506326183 0 -0.001020352548440356 -0.0016358407011082027 0 -0.0009841312673387944 -0.0011584097732539806 0 -0.0016915920958687186 -0.0013140318813271738 0 -0.001020352548440356 -0.0016358407011082027 0 -0.0009841312673387944 -0.0011584097732539806 0 -0.0016915920958687186 -0.0013140318813271738 0 -0.0009841312673387944 -0.0011584097732539806 0 -0.0015319751833609474 -0.00065418575341575573 0 -0.0021981791418504214 -0.0007249671933021966 0 -0.0015319751833609474 -0.00065418575341575573 0 -0.0021751536657979688 -0.00013502306076280718 0 -0.0009841312673387944 -0.0011584097732539806 0 -0.0015319751833609474 -0.00065418575341575573 0 -0.00010605624980166071 -0.00060241440702879414 0 -0.0015319751833609474 -0.00065418575341575573 0 -0.00010605624980166071 -0.00060241440702879414 0 -0.0011179131238076439 -0.00011123353295683129 0 -0.00010605624980166071 -0.00060241440702879414 0 -0.0011179131238076439 -0.00011123353295683129 0 -0.00073218838519187454 0.00070320937493816515 0 -0.0029810665514113221 0.00043723181844578315 0 -0.0021751536657979688 -0.00013502306076280718 0 -0.00073218838519187454 0.00070320937493816515 0 -0.0021751536657979688 -0.00013502306076280718 0 -0.0011179131238076439 -0.00011123353295683129 0 -0.00073218838519187454 0.00070320937493816515 0 -0.0015319751833609474 -0.00065418575341575573 0 -0.0021751536657979688 -0.00013502306076280718 0 -0.0011179131238076439 -0.00011123353295683129 0 -0.0029810665514113221 0.00043723181844578315 0 -0.0029030028142996867 0.0005537853093059656 0 -0.0022411609500079515 6.7965145995431379e-05 0 -0.0028496120345444628 0.00042895963983733581 0 -0.0014890767193762096 0.00038155658338974614 0 -0.0029030028142996867 0.0005537853093059656 0 -0.0022411609500079515 6.7965145995431379e-05 0 -0.0024999641325448908 0.0012305957674468738 0 -0.0035681380083057218 0.00039346088700319072 0 -0.0029030028142996867 0.0005537853093059656 0 -0.0033014450060636718 0.0010168788234994897 0 -0.0022411609500079515 6.7965145995431379e-05 0 -0.0010076105141016167 0.00060000094925436679 0 -0.0012541375038367978 0.0013258696158950881 0 -0.0014890767193762096 0.00038155658338974614 0 0.0001713584952348054 0.00026674650393919582 0 -0.0022411609500079515 6.7965145995431379e-05 0 -0.0010076105141016167 0.00060000094925436679 0 -0.00033126401890878345 -6.2815397944478369e-05 0 -0.0010076105141016167 0.00060000094925436679 0 -0.00033126401890878345 -6.2815397944478369e-05 0 -0.00017930246978925345 0.001075400660076431 0 -0.00073218838519187454 0.00070320937493816515 0 0.00064113241924624274 0.00061238690854992532 0 0.0005538688229872967 -0.00012402001527897071 0 -0.00010605624980166071 -0.00060241440702879414 0 -0.00073218838519187454 0.00070320937493816515 0 0.0005538688229872967 -0.00012402001527897071 0 0.0013946488976810667 0.00033238157020695357 0 0.00064113241924624274 0.00061238690854992532 0 0.0011417465556058679 0.00021945255583333417 0 0.00064113241924624274 0.00061238690854992532 0 0.0005538688229872967 -0.00012402001527897071 0 0.0011417465556058679 0.00021945255583333417 0 0.0015426470750532191 -7.592191762605356e-05 0 -0.00033126401890878345 -6.2815397944478369e-05 0 0.00050912375244594409 0.00052437833414947766 0 0.0014747846718623026 0.00030273135523835348 0 0.0001713584952348054 0.00026674650393919582 0 0.0013946488976810667 0.00033238157020695357 0 0.0016496264463624663 0.00046503854722365536 0 0.00064113241924624274 0.00061238690854992532 0 -0.00033126401890878345 -6.2815397944478369e-05 0 0.00050912375244594409 0.00052437833414947766 0 -0.00017930246978925345 0.001075400660076431 0 -0.0017017246571645443 0.0025153947831115897 0 0.0012336056612301046 0.0008609759695730174 0 0.00050912375244594409 0.00052437833414947766 0 -0.00017930246978925345 0.001075400660076431 0 0.0010072926083531763 0.0011576590445099885 0 0.00010448985068530965 0.0018523725829975631 0 0.00049718557543970286 0.0023828826772806047 0 0.0010072926083531763 0.0011576590445099885 0 -0.00017930246978925345 0.001075400660076431 0 0.00010448985068530965 0.0018523725829975631 0 0.0010072926083531763 0.0011576590445099885 0 0.00053655381157890971 0.0023830743502222663 0 -0.00039085334084734707 0.0026548740721827222 0 -0.00065178199482162128 0.0034427143874572819 0 0.00053655381157890971 0.0023830743502222663 0 0.00021793567770074754 0.0023010081687562236 0 -0.00039085334084734707 0.0026548740721827222 0 0.00010448985068530965 0.0018523725829975631 0 0.00049718557543970286 0.0023828826772806047 0 0.00021793567770074754 0.0023010081687562236 0 0.00021793567770074754 0.0023010081687562236 0 -0.00039085334084734707 0.0026548740721827222 0 -0.00022878709381200145 0.0022209290967907459 0 0.00010448985068530965 0.0018523725829975631 0 0.00021793567770074754 0.0023010081687562236 0 -0.00022878709381200145 0.0022209290967907459 0 -0.0017017246571645443 0.0025153947831115897 0 -0.00081003158195435201 0.0026464372080452505 0 -0.0011388999345423284 0.0027291002582845031 0 -0.00039085334084734707 0.0026548740721827222 0 -0.00065178199482162128 0.0034427143874572819 0 -0.0011388999345423284 0.0027291002582845031 0 -0.00039085334084734707 0.0026548740721827222 0 -0.00071049472893342847 0.0019660634391730366 0 -0.00039085334084734707 0.0026548740721827222 0 -0.00022878709381200145 0.0022209290967907459 0 -0.00071049472893342847 0.0019660634391730366 0 -0.0011388999345423284 0.0027291002582845031 0 -0.00071049472893342847 0.0019660634391730366 0 -0.0017101905803936245 0.0020239788861354294 0 -0.00071049472893342847 0.0019660634391730366 0 -0.0012541375038367978 0.0013258696158950881 0 -0.0017101905803936245 0.0020239788861354294 0 -0.00017930246978925345 0.001075400660076431 0 0.00010448985068530965 0.0018523725829975631 0 -0.00071049472893342847 0.0019660634391730366 0 0.00010448985068530965 0.0018523725829975631 0 -0.00022878709381200145 0.0022209290967907459 0 -0.00071049472893342847 0.0019660634391730366 0 -0.00017930246978925345 0.001075400660076431 0 -0.00071049472893342847 0.0019660634391730366 0 -0.0012541375038367978 0.0013258696158950881 0 -0.0010076105141016167 0.00060000094925436679 0 -0.00017930246978925345 0.001075400660076431 0 -0.0012541375038367978 0.0013258696158950881 0 -0.0024999641325448908 0.0012305957674468738 0 -0.0017101905803936245 0.0020239788861354294 0 -0.0024328200136731269 0.0025404025088482008 0 -0.0012541375038367978 0.0013258696158950881 0 -0.0024999641325448908 0.0012305957674468738 0 -0.0017101905803936245 0.0020239788861354294 0 -0.0022411609500079515 6.7965145995431379e-05 0 -0.0012541375038367978 0.0013258696158950881 0 -0.0024999641325448908 0.0012305957674468738 0 -0.0024999641325448908 0.0012305957674468738 0 -0.003465887255363816 0.0017696869149767436 0 -0.0024328200136731269 0.0025404025088482008 0 -0.0029030028142996867 0.0005537853093059656 0 -0.0033014450060636718 0.0010168788234994897 0 -0.0024999641325448908 0.0012305957674468738 0 -0.0033014450060636718 0.0010168788234994897 0 -0.0024999641325448908 0.0012305957674468738 0 -0.003465887255363816 0.0017696869149767436 0 -0.003465887255363816 0.0017696869149767436 0 -0.0037262322784948707 0.003213630747725767 0 -0.0024328200136731269 0.0025404025088482008 0 -0.0037262322784948707 0.003213630747725767 0 -0.0024328200136731269 0.0025404025088482008 0 -0.0026023602966593934 0.0038734304064637817 0 -0.0011388999345423284 0.0027291002582845031 0 -0.0024328200136731269 0.0025404025088482008 0 -0.0014271029949297534 0.0037757588671096633 0 -0.0011388999345423284 0.0027291002582845031 0 -0.0017101905803936245 0.0020239788861354294 0 -0.0024328200136731269 0.0025404025088482008 0 -0.0026023602966593934 0.0038734304064637817 0 -0.003547296669803334 0.004890767430908524 0 -0.0020056831806069941 0.0048426510085617727 0 -0.0024328200136731269 0.0025404025088482008 0 -0.0014271029949297534 0.0037757588671096633 0 -0.0026023602966593934 0.0038734304064637817 0 -0.0014271029949297534 0.0037757588671096633 0 -0.0026023602966593934 0.0038734304064637817 0 -0.0020056831806069941 0.0048426510085617727 0 -0.0037262322784948707 0.003213630747725767 0 -0.0026023602966593934 0.0038734304064637817 0 -0.003547296669803334 0.004890767430908524 0 -0.0037262322784948707 0.003213630747725767 0 -0.003547296669803334 0.004890767430908524 0 -0.0045186601080453286 0.0042563098019719565 0 -0.003547296669803334 0.004890767430908524 0 -0.0046415525262820589 0.005746139974208312 0 -0.003785609316612825 0.0064235442607198621 0 -0.003547296669803334 0.004890767430908524 0 -0.0027122754657429239 0.0059491259702854401 0 -0.003785609316612825 0.0064235442607198621 0 -0.003547296669803334 0.004890767430908524 0 -0.0020056831806069941 0.0048426510085617727 0 -0.0027122754657429239 0.0059491259702854401 0 -0.0020056831806069941 0.0048426510085617727 0 -0.0027122754657429239 0.0059491259702854401 0 -0.001632097511503101 0.0057468876562863872 0 -0.001632097511503101 0.0057468876562863872 0 -0.00019827139039253939 0.0044177789876632904 0 -0.0011177977733015552 0.0066468568556938348 0 -0.0076087080387741667 0.0041174732572913332 0 -0.0083300913187137806 0.0031330570382689126 0 -0.0090191095075592143 0.0045811201315438359 0 -0.0045616276603366078 0.0037009031065237774 0 -0.0045451677274591417 0.0059849294605456545 0 -0.0020056831806069941 0.0048426510085617727 0 -0.001632097511503101 0.0057468876562863872 0 -0.00019827139039253939 0.0044177789876632904 0 -0.0076087080387741667 0.0041174732572913332 0 -0.0083300913187137806 0.0031330570382689126 0 -0.0068240591834725986 0.0031289833872316201 0 -0.0017017246571645443 0.0025153947831115897 0 -0.0045616276603366078 0.0037009031065237774 0 0.00053655381157890971 0.0023830743502222663 0 -0.00065178199482162128 0.0034427143874572819 0 -0.00019827139039253939 0.0044177789876632904 0 -0.0076582902191184915 0.0017051325876930085 0 -0.0083300913187137806 0.0031330570382689126 0 -0.0068240591834725986 0.0031289833872316201 0 -0.0014271029949297534 0.0037757588671096633 0 -0.0020056831806069941 0.0048426510085617727 0 -0.00019827139039253939 0.0044177789876632904 0 -0.0014271029949297534 0.0037757588671096633 0 -0.00065178199482162128 0.0034427143874572819 0 -0.00019827139039253939 0.0044177789876632904 0 -0.0011388999345423284 0.0027291002582845031 0 -0.0014271029949297534 0.0037757588671096633 0 -0.00065178199482162128 0.0034427143874572819 0 -0.010524087872254112 0.00254150611300915 0 -0.0086807205904912491 0.0021909052732157867 0 -0.0092959089696619656 0.0032162257341841636 0 -0.010524087872254112 0.00254150611300915 0 -0.0095899051405716872 0.0017807371405855683 0 -0.0086807205904912491 0.0021909052732157867 0 -0.010524087872254112 0.00254150611300915 0 -0.0095899051405716872 0.0017807371405855683 0 -0.010244819193785009 0.0018289237681253013 0 -0.010796310270071503 0.002040512151369433 0 -0.010524087872254112 0.00254150611300915 0 -0.010244819193785009 0.0018289237681253013 0 -0.010796310270071503 0.002040512151369433 0 -0.010244819193785009 0.0018289237681253013 0 -0.010138359834238145 0.0010972836023453712 0 -0.0038465066792245251 0.00063104696750401735 0 -0.0053727785016565279 0.0014658061178702032 0 -0.005547365106958589 0.0010635331479171746 0 -0.0095899051405716872 0.0017807371405855683 0 -0.010138359834238145 0.0010972836023453712 0 -0.0086020854273069127 0.0013761978476481882 0 -0.0095899051405716872 0.0017807371405855683 0 -0.010244819193785009 0.0018289237681253013 0 -0.010138359834238145 0.0010972836023453712 0 -0.0076814658899983903 0.0012780159829728977 0 -0.0055170884652351359 0.00062724324714949627 0 -0.010138359834238145 0.0010972836023453712 0 -0.0086020854273069127 0.0013761978476481882 0 -0.0073443772914627801 0.00017197111414445681 0 -0.0038465066792245251 0.00063104696750401735 0 -0.0053727785016565279 0.0014658061178702032 0 -0.0036460126002366283 0.00097308669621628033 0 -0.0086020854273069127 0.0013761978476481882 0 -0.0070273906869173994 0.0016470398289430311 0 -0.0073443772914627801 0.00017197111414445681 0 -0.0086020854273069127 0.0013761978476481882 0 -0.0086807205904912491 0.0021909052732157867 0 -0.0070273906869173994 0.0016470398289430311 0 -0.0086807205904912491 0.0021909052732157867 0 -0.0070526483640845333 0.0027405843717694905 0 -0.0070273906869173994 0.0016470398289430311 0 -0.0086807205904912491 0.0021909052732157867 0 -0.0070526483640845333 0.0027405843717694905 0 -0.0092959089696619656 0.0032162257341841636 0 -0.0095899051405716872 0.0017807371405855683 0 -0.0086020854273069127 0.0013761978476481882 0 -0.0086807205904912491 0.0021909052732157867 0 -0.0070526483640845333 0.0027405843717694905 0 -0.0054233303566568495 0.0015642904411099898 0 -0.0053321577336363042 0.0029999326408490486 0 -0.0070526483640845333 0.0027405843717694905 0 -0.0070273906869173994 0.0016470398289430311 0 -0.0054233303566568495 0.0015642904411099898 0 -0.0070273906869173994 0.0016470398289430311 0 -0.0073443772914627801 0.00017197111414445681 0 -0.0058496492214484917 0.00093835556655151478 0 -0.0035681380083057218 0.00039346088700319072 0 -0.0073443772914627801 0.00017197111414445681 0 -0.0058496492214484917 0.00093835556655151478 0 -0.0070273906869173994 0.0016470398289430311 0 -0.0058496492214484917 0.00093835556655151478 0 -0.0054233303566568495 0.0015642904411099898 0 -0.0054233303566568495 0.0015642904411099898 0 -0.004052653892646068 0.001295249695866733 0 -0.004529254775255764 0.0021067249030578801 0 -0.0035681380083057218 0.00039346088700319072 0 -0.0054233303566568495 0.0015642904411099898 0 -0.004052653892646068 0.001295249695866733 0 -0.0035681380083057218 0.00039346088700319072 0 -0.0058496492214484917 0.00093835556655151478 0 -0.0054233303566568495 0.0015642904411099898 0 -0.0035681380083057218 0.00039346088700319072 0 -0.0033014450060636718 0.0010168788234994897 0 -0.004052653892646068 0.001295249695866733 0 -0.0033014450060636718 0.0010168788234994897 0 -0.003465887255363816 0.0017696869149767436 0 -0.004052653892646068 0.001295249695866733 0 -0.003465887255363816 0.0017696869149767436 0 -0.004052653892646068 0.001295249695866733 0 -0.004529254775255764 0.0021067249030578801 0 -0.003465887255363816 0.0017696869149767436 0 -0.0037262322784948707 0.003213630747725767 0 -0.004529254775255764 0.0021067249030578801 0 -0.0037262322784948707 0.003213630747725767 0 -0.004529254775255764 0.0021067249030578801 0 -0.0053321577336363042 0.0029999326408490486 0 -0.0054233303566568495 0.0015642904411099898 0 -0.004529254775255764 0.0021067249030578801 0 -0.0053321577336363042 0.0029999326408490486 0 -0.0053321577336363042 0.0029999326408490486 0 -0.0045186601080453286 0.0042563098019719565 0 -0.0058532468232376138 0.004649496926536054 0 -0.0037262322784948707 0.003213630747725767 0 -0.0053321577336363042 0.0029999326408490486 0 -0.0045186601080453286 0.0042563098019719565 0 -0.0045186601080453286 0.0042563098019719565 0 -0.0046415525262820589 0.005746139974208312 0 -0.0058532468232376138 0.004649496926536054 0 -0.003547296669803334 0.004890767430908524 0 -0.0045186601080453286 0.0042563098019719565 0 -0.0046415525262820589 0.005746139974208312 0 -0.0074923155614079829 0.004055327587154438 0 -0.0058532468232376138 0.004649496926536054 0 -0.0075243976261551932 0.0063436073300890197 0 -0.0046415525262820589 0.005746139974208312 0 -0.0058532468232376138 0.004649496926536054 0 -0.0075243976261551932 0.0063436073300890197 0 -0.0053321577336363042 0.0029999326408490486 0 -0.0074923155614079829 0.004055327587154438 0 -0.0058532468232376138 0.004649496926536054 0 -0.0070526483640845333 0.0027405843717694905 0 -0.0053321577336363042 0.0029999326408490486 0 -0.0074923155614079829 0.004055327587154438 0 -0.0074923155614079829 0.004055327587154438 0 -0.0092959089696619656 0.0032162257341841636 0 -0.010605319520628292 0.0043834170215182981 0 -0.0070526483640845333 0.0027405843717694905 0 -0.0074923155614079829 0.004055327587154438 0 -0.0092959089696619656 0.0032162257341841636 0 -0.01199673774694093 0.0043667379551232798 0 -0.010605319520628292 0.0043834170215182981 0 -0.011423084930504921 0.0041659071264821147 0 -0.0074923155614079829 0.004055327587154438 0 -0.0075243976261551932 0.0063436073300890197 0 -0.010605319520628292 0.0043834170215182981 0 -0.0097825605064546881 0.0052751696742643073 0 -0.010614422195606184 0.0044728670038247983 0 -0.011451884894852229 0.004135575230377493 0 -0.010605319520628292 0.0043834170215182981 0 -0.011423084930504921 0.0041659071264821147 0 -0.011453465012542571 0.0037673950117689281 0 -0.010524087872254112 0.00254150611300915 0 -0.010605319520628292 0.0043834170215182981 0 -0.010524087872254112 0.00254150611300915 0 -0.0092959089696619656 0.0032162257341841636 0 -0.010605319520628292 0.0043834170215182981 0 -0.011679838300020288 0.0040207610702774881 0 -0.011423084930504921 0.0041659071264821147 0 -0.012083516747371752 0.0038566042205981912 0 -0.011679838300020288 0.0040207610702774881 0 -0.012083516747371752 0.0038566042205981912 0 -0.011917062683741663 0.0037822045451744546 0 -0.011451884894852229 0.004135575230377493 0 -0.011679838300020288 0.0040207610702774881 0 -0.011423084930504921 0.0041659071264821147 0 -0.01199673774694093 0.0043667379551232798 0 -0.011423084930504921 0.0041659071264821147 0 -0.012083516747371752 0.0038566042205981912 0 -0.01199673774694093 0.0043667379551232798 0 -0.012083516747371752 0.0038566042205981912 0 -0.012404488370861302 0.0039468707189583138 0 -0.012083516747371752 0.0038566042205981912 0 -0.012404488370861302 0.0039468707189583138 0 -0.012576004695328978 0.0036707482806948334 0 -0.0097825605064546881 0.0052751696742643073 0 -0.0089811538864777527 0.0058438478616678275 0 -0.01199673774694093 0.0043667379551232798 0 -0.012404488370861302 0.0039468707189583138 0 -0.012657133513253383 0.0041348478845480829 0 -0.0046415525262820589 0.005746139974208312 0 -0.0052544827873997266 0.0074510678703440976 0 -0.003785609316612825 0.0064235442607198621 0 -0.0046415525262820589 0.005746139974208312 0 -0.0075243976261551932 0.0063436073300890197 0 -0.0052544827873997266 0.0074510678703440976 0 -0.012657133513253383 0.0041348478845480829 0 -0.012839722198400029 0.003712487261931594 0 -0.013049929161169016 0.0038587666848028898 0 -0.012404488370861302 0.0039468707189583138 0 -0.012657133513253383 0.0041348478845480829 0 -0.012839722198400029 0.003712487261931594 0 -0.012404488370861302 0.0039468707189583138 0 -0.012839722198400029 0.003712487261931594 0 -0.012576004695328978 0.0036707482806948334 0 -0.012839722198400029 0.003712487261931594 0 -0.012759255130647925 0.0035427285207556614 0 -0.012576004695328978 0.0036707482806948334 0 -0.012839722198400029 0.003712487261931594 0 -0.012759255130647925 0.0035427285207556614 0 -0.01285246825656868 0.0034359033726040094 0 -0.012773044753576407 0.0028281462136928955 0 -0.012812924610844389 0.002866259842241088 0 -0.012961862419577122 0.0029213848174291213 0 -0.012684184996394954 0.0028180182227766568 0 -0.012773044753576407 0.0028281462136928955 0 -0.012726794686704779 0.0028486804175161412 0 -0.012773044753576407 0.0028281462136928955 0 -0.012726794686704779 0.0028486804175161412 0 -0.012812924610844389 0.002866259842241088 0 -0.012726794686704779 0.0028486804175161412 0 -0.012718178088041118 0.0028776593919996912 0 -0.012812924610844389 0.002866259842241088 0 -0.01285246825656868 0.0034359033726040094 0 -0.012839254037826141 0.0033139752112355285 0 -0.012872949187597234 0.0031617026788543241 0 -0.012839254037826141 0.0033139752112355285 0 -0.012783667124161716 0.003435415284776686 0 -0.012736148840035879 0.003385566707036216 0 -0.01285246825656868 0.0034359033726040094 0 -0.012839254037826141 0.0033139752112355285 0 -0.012783667124161716 0.003435415284776686 0 -0.012759255130647925 0.0035427285207556614 0 -0.01285246825656868 0.0034359033726040094 0 -0.012783667124161716 0.003435415284776686 0 -0.012759255130647925 0.0035427285207556614 0 -0.012783667124161716 0.003435415284776686 0 -0.012697055979846227 0.0035078562911859991 0 -0.012783667124161716 0.003435415284776686 0 -0.012736148840035879 0.003385566707036216 0 -0.012697055979846227 0.0035078562911859991 0 -0.012736148840035879 0.003385566707036216 0 -0.012548066316528876 0.00350393421833791 0 -0.012697055979846227 0.0035078562911859991 0 -0.012839254037826141 0.0033139752112355285 0 -0.012736148840035879 0.003385566707036216 0 -0.012798459387146651 0.0032725615670732601 0 -0.012736148840035879 0.003385566707036216 0 -0.012798459387146651 0.0032725615670732601 0 -0.01272270779774106 0.0032923214285462588 0 -0.012801621913005183 0.003213521760843168 0 -0.012798459387146651 0.0032725615670732601 0 -0.012872949187597234 0.0031617026788543241 0 -0.012801621913005183 0.003213521760843168 0 -0.012798459387146651 0.0032725615670732601 0 -0.01272270779774106 0.0032923214285462588 0 -0.012839254037826141 0.0033139752112355285 0 -0.012798459387146651 0.0032725615670732601 0 -0.012872949187597234 0.0031617026788543241 0 -0.01272270779774106 0.0032923214285462588 0 -0.012560236044255916 0.0033316311715559949 0 -0.012780019677384249 0.0031102370539486759 0 -0.012801621913005183 0.003213521760843168 0 -0.01272270779774106 0.0032923214285462588 0 -0.012780019677384249 0.0031102370539486759 0 -0.012736148840035879 0.003385566707036216 0 -0.01272270779774106 0.0032923214285462588 0 -0.012548066316528876 0.00350393421833791 0 -0.01272270779774106 0.0032923214285462588 0 -0.012548066316528876 0.00350393421833791 0 -0.012560236044255916 0.0033316311715559949 0 -0.012083516747371752 0.0038566042205981912 0 -0.012548066316528876 0.00350393421833791 0 -0.012576004695328978 0.0036707482806948334 0 -0.012548066316528876 0.00350393421833791 0 -0.012697055979846227 0.0035078562911859991 0 -0.012576004695328978 0.0036707482806948334 0 -0.012759255130647925 0.0035427285207556614 0 -0.012697055979846227 0.0035078562911859991 0 -0.012576004695328978 0.0036707482806948334 0 -0.012083516747371752 0.0038566042205981912 0 -0.012548066316528876 0.00350393421833791 0 -0.012282368702847834 0.0035865408691411159 0 -0.012083516747371752 0.0038566042205981912 0 -0.012282368702847834 0.0035865408691411159 0 -0.011917062683741663 0.0037822045451744546 0 -0.012548066316528876 0.00350393421833791 0 -0.012282368702847834 0.0035865408691411159 0 -0.012560236044255916 0.0033316311715559949 0 -0.012282368702847834 0.0035865408691411159 0 -0.012560236044255916 0.0033316311715559949 0 -0.012238972639188718 0.0034326157759517698 0 -0.012560236044255916 0.0033316311715559949 0 -0.012238972639188718 0.0034326157759517698 0 -0.012667138228306887 0.003097735744215777 0 -0.011875355757657092 0.0033182642382872398 0 -0.012238972639188718 0.0034326157759517698 0 -0.011917062683741663 0.0037822045451744546 0 -0.012282368702847834 0.0035865408691411159 0 -0.012238972639188718 0.0034326157759517698 0 -0.011917062683741663 0.0037822045451744546 0 -0.0084135483408983355 0.0051074636467928697 0 -0.0090191095075592143 0.0045811201315438359 0 -0.0094647401564153261 0.0056715437008948528 0 -0.016175471707697744 0.0032481040035460215 0 -0.012307716868156892 0.0046168551499169127 0 -0.0084135483408983355 0.0051074636467928697 0 -0.0094647401564153261 0.0056715437008948528 0 -0.0095309876295217553 0.0058917915253475029 0 -0.017019689265072479 0.0032509716138498391 0 -0.016818048981885533 0.0029962838382938703 0 -0.017134540869283777 0.0032286173084320785 0 -0.020786771882808586 0.0027627755933037519 0 -0.016175471707697744 0.0032481040035460215 0 -0.023803449415734309 0.001701512621886196 0 -0.023646956656511838 0.0016819177169078311 0 -0.023652100371507483 0.0015048272898724308 0 -0.023646956656511838 0.0016819177169078311 0 -0.023652100371507483 0.0015048272898724308 0 -0.0234442678061881 0.0016168924929654944 0 -0.014983476221326295 0.0025999070748309282 0 -0.015620450264527975 0.003430460803029875 0 -0.014631520627695535 0.002697107023309245 0 -0.010827734565095516 0.0031500714247016987 0 -0.016175471707697744 0.0032481040035460215 0 -0.016175471707697744 0.0032481040035460215 0 -0.019491485608267887 0.0020051914214712476 0 -0.023652100371507483 0.0015048272898724308 0 -0.0234442678061881 0.0016168924929654944 0 -0.023394897237226413 0.001284910360128148 0 -0.0076087080387741667 0.0041174732572913332 0 -0.0084135483408983355 0.0051074636467928697 0 -0.0090191095075592143 0.0045811201315438359 0 -0.001632097511503101 0.0057468876562863872 0 -0.0011177977733015552 0.0066468568556938348 0 -0.0021609624812789583 0.0068833440018779063 0 -0.0011177977733015552 0.0066468568556938348 0 -0.0021609624812789583 0.0068833440018779063 0 -0.0021449704591431861 0.0086792920752680972 0 -0.0027122754657429239 0.0059491259702854401 0 -0.001632097511503101 0.0057468876562863872 0 -0.0021609624812789583 0.0068833440018779063 0 -0.0027122754657429239 0.0059491259702854401 0 -0.0021609624812789583 0.0068833440018779063 0 -0.0032359042178431723 0.0073093941977909454 0 -0.0052544827873997266 0.0074510678703440976 0 -0.003785609316612825 0.0064235442607198621 0 -0.0032359042178431723 0.0073093941977909454 0 -0.0027122754657429239 0.0059491259702854401 0 -0.003785609316612825 0.0064235442607198621 0 -0.0032359042178431723 0.0073093941977909454 0 -0.0089811538864777527 0.0058438478616678275 0 -0.0079668963383451759 0.005778262744367991 0 -0.0052544827873997266 0.0074510678703440976 0 -0.0032359042178431723 0.0073093941977909454 0 -0.0032861102732355835 0.0085705199727812969 0 -0.0021609624812789583 0.0068833440018779063 0 -0.0032359042178431723 0.0073093941977909454 0 -0.0032861102732355835 0.0085705199727812969 0 -0.0045451677274591417 0.0059849294605456545 0 -0.010299700340264905 0.0047030394651667567 0 -0.0021609624812789583 0.0068833440018779063 0 -0.002644814191165237 0.0082930883584522979 0 -0.0021449704591431861 0.0086792920752680972 0 -0.001547893314568129 0.0072784578527723808 0 -0.0079668963383451759 0.005778262744367991 0 -0.0090191095075592143 0.0045811201315438359 0 -0.0096943992381931035 0.0060051005900554335 0 -0.0094647401564153261 0.0056715437008948528 0 -0.0021609624812789583 0.0068833440018779063 0 -0.0033104511213654917 0.0083400558755311726 0 -0.002644814191165237 0.0082930883584522979 0 -0.0033104511213654917 0.0083400558755311726 0 -0.002644814191165237 0.0082930883584522979 0 -0.0024481074935276226 0.0088933757455135088 0 -0.0079668963383451759 0.005778262744367991 0 -0.0092496474378333787 0.0039458546841029778 0 -0.002644814191165237 0.0082930883584522979 0 -0.0021449704591431861 0.0086792920752680972 0 -0.0024481074935276226 0.0088933757455135088 0 -0.0096943992381931035 0.0060051005900554335 0 -0.0094647401564153261 0.0056715437008948528 0 -0.0095309562465005892 0.0058913415904028607 0 -0.010299700340264905 0.0047030394651667567 0 -0.012307716868156892 0.0046168551499169127 0 -0.011948157691044283 0.0048748205018669067 0 -0.012307716868156892 0.0046168551499169127 0 -0.014934581191879109 0.0032413073335329137 0 -0.014906762524212011 0.0032273306324188478 0 -0.014984870293871917 0.0033482317378567719 0 -0.012307716868156892 0.0046168551499169127 0 -0.019175887049799663 0.0026277309052689115 0 -0.017019689265072479 0.0032509716138498391 0 -0.017134540869283777 0.0032286173084320785 0 -0.017228285544074524 0.0034949877489431794 0 -0.020786771882808586 0.0027627755933037519 0 -0.019175887049799663 0.0026277309052689115 0 -0.012596000563798589 0.0028137031171382916 0 -0.012608512355592705 0.0028142508808313214 0 -0.012628703998840262 0.0028255448432934656 0 -0.010299700340264905 0.0047030394651667567 0 -0.013728864811265767 0.0030174093975986966 0 -0.010299700340264905 0.0047030394651667567 0 -0.0092496474378333787 0.0039458546841029778 0 -0.012608512355592705 0.0028142508808313214 0 -0.012628703998840262 0.0028255448432934656 0 -0.012647327438638518 0.0028287037310054559 0 -0.014934581191879109 0.0032413073335329137 0 -0.014984870293871917 0.0033482317378567719 0 -0.015020806271621499 0.0033440637542010861 0 -0.01371381071760518 0.0026303899927588603 0 -0.0092496474378333787 0.0039458546841029778 0 -0.012684184996394954 0.0028180182227766568 0 -0.012608512355592705 0.0028142508808313214 0 -0.012654288571842228 0.0028232474764726856 0 -0.012839722198400029 0.003712487261931594 0 -0.01285246825656868 0.0034359033726040094 0 -0.013049929161169016 0.0038587666848028898 0 -0.012684184996394954 0.0028180182227766568 0 -0.012773044753576407 0.0028281462136928955 0 -0.012273541039476336 0.0023236097724810838 0 -0.012684184996394954 0.0028180182227766568 0 -0.012273541039476336 0.0023236097724810838 0 -0.012014315532126264 0.0024864646804678117 0 -0.013534492034131195 0.0027583373124087534 0 -0.0079668963383451759 0.005778262744367991 0 -0.012608512355592705 0.0028142508808313214 0 -0.012654288571842228 0.0028232474764726856 0 -0.012647327438638518 0.0028287037310054559 0 -0.012684184996394954 0.0028180182227766568 0 -0.012654288571842228 0.0028232474764726856 0 -0.012681686044178499 0.0028439656748203146 0 -0.012684184996394954 0.0028180182227766568 0 -0.012726794686704779 0.0028486804175161412 0 -0.012681686044178499 0.0028439656748203146 0 -0.012647327438638518 0.0028287037310054559 0 -0.012652100872558454 0.0028574921955900087 0 -0.012681686044178499 0.0028439656748203146 0 -0.012654288571842228 0.0028232474764726856 0 -0.012647327438638518 0.0028287037310054559 0 -0.012681686044178499 0.0028439656748203146 0 -0.012628703998840262 0.0028255448432934656 0 -0.012647327438638518 0.0028287037310054559 0 -0.012652100872558454 0.0028574921955900087 0 -0.012718178088041118 0.0028776593919996912 0 -0.012652100872558454 0.0028574921955900087 0 -0.012681686044178499 0.0028439656748203146 0 -0.012726794686704779 0.0028486804175161412 0 -0.012718178088041118 0.0028776593919996912 0 -0.012681686044178499 0.0028439656748203146 0 -0.019175887049799663 0.0026277309052689115 0 -0.022329045492573963 0.0021188391844066956 0 -0.023927548849151981 0.0018828763380774518 0 -0.023839719495542942 0.0019736174575479804 0 -0.02396325560185518 0.0020564469202857447 0 -0.020452785480644119 0.0016226495505866254 0 -0.020849448813172744 0.0021039176321767127 0 -0.0206494985062197 0.0022626555241214239 0 -0.013728864811265767 0.0030174093975986966 0 -0.016449040551375575 0.0026288857995598177 0 -0.014984870293871917 0.0033482317378567719 0 -0.015020806271621499 0.0033440637542010861 0 -0.015097307189836946 0.0034435802418197842 0 -0.019175887049799663 0.0026277309052689115 0 -0.016449040551375575 0.0026288857995598177 0 -0.023839719495542942 0.0019736174575479804 0 -0.02396325560185518 0.0020564469202857447 0 -0.02385212733894795 0.0020713178869403073 0 -0.023782027453374235 0.0020287233740152321 0 -0.023839719495542942 0.0019736174575479804 0 -0.02385212733894795 0.0020713178869403073 0 -0.023927548849151981 0.0018828763380774518 0 -0.023839719495542942 0.0019736174575479804 0 -0.023756764075985624 0.0018344925016542048 0 -0.023782027453374235 0.0020287233740152321 0 -0.023839719495542942 0.0019736174575479804 0 -0.023701604608074033 0.0019342366477494558 0 -0.023782027453374235 0.0020287233740152321 0 -0.023701604608074033 0.0019342366477494558 0 -0.023692340451070881 0.002052476542371407 0 -0.023839719495542942 0.0019736174575479804 0 -0.023756764075985624 0.0018344925016542048 0 -0.023701604608074033 0.0019342366477494558 0 -0.023803449415734309 0.001701512621886196 0 -0.023927548849151981 0.0018828763380774518 0 -0.023756764075985624 0.0018344925016542048 0 -0.023803449415734309 0.001701512621886196 0 -0.023646956656511838 0.0016819177169078311 0 -0.023756764075985624 0.0018344925016542048 0 -0.023646956656511838 0.0016819177169078311 0 -0.023591088152881662 0.001824650769662862 0 -0.0234442678061881 0.0016168924929654944 0 -0.023646956656511838 0.0016819177169078311 0 -0.023756764075985624 0.0018344925016542048 0 -0.023591088152881662 0.001824650769662862 0 -0.023756764075985624 0.0018344925016542048 0 -0.023591088152881662 0.001824650769662862 0 -0.023701604608074033 0.0019342366477494558 0 -0.023591088152881662 0.001824650769662862 0 -0.023573920128303522 0.0019691924948821403 0 -0.023417892682278743 0.0019342964446358991 0 -0.023573920128303522 0.0019691924948821403 0 -0.023692340451070881 0.002052476542371407 0 -0.023514297140141246 0.0021703364925430902 0 -0.023591088152881662 0.001824650769662862 0 -0.023573920128303522 0.0019691924948821403 0 -0.023701604608074033 0.0019342366477494558 0 -0.023573920128303522 0.0019691924948821403 0 -0.023701604608074033 0.0019342366477494558 0 -0.023692340451070881 0.002052476542371407 0 -0.023573920128303522 0.0019691924948821403 0 -0.023417892682278743 0.0019342964446358991 0 -0.023514297140141246 0.0021703364925430902 0 -0.023396110927214185 0.0020157989986327868 0 -0.023218571220526625 0.0021244973170571621 0 -0.023151744345600651 0.00183319234798661 0 -0.023218571220526625 0.0021244973170571621 0 -0.023151744345600651 0.00183319234798661 0 -0.023044663869609086 0.0021131198301324785 0 -0.023591088152881662 0.001824650769662862 0 -0.023417892682278743 0.0019342964446358991 0 -0.0234442678061881 0.0016168924929654944 0 -0.023330337244896967 0.0019289738827839469 0 -0.023464909159470155 0.0016509232678846191 0 -0.023396110927214185 0.0020157989986327868 0 -0.023151744345600651 0.00183319234798661 0 -0.0234442678061881 0.0016168924929654944 0 -0.022855421985222044 0.002215556462963605 0 -0.023044663869609086 0.0021131198301324785 0 -0.022892472938994154 0.001916938683608667 0 -0.022855421985222044 0.002215556462963605 0 -0.022892472938994154 0.001916938683608667 0 -0.022716232988959497 0.0020252150361526359 0 -0.023151744345600651 0.00183319234798661 0 -0.022892472938994154 0.001916938683608667 0 -0.022874628673971737 0.0015287499623909458 0 -0.023151744345600651 0.00183319234798661 0 -0.023044663869609086 0.0021131198301324785 0 -0.022892472938994154 0.001916938683608667 0 -0.022892472938994154 0.001916938683608667 0 -0.022659484831104814 0.0017185980346767632 0 -0.022716232988959497 0.0020252150361526359 0 -0.022874628673971737 0.0015287499623909458 0 -0.02254414165175269 0.0013621710385810001 0 -0.022659484831104814 0.0017185980346767632 0 -0.022892472938994154 0.001916938683608667 0 -0.022874628673971737 0.0015287499623909458 0 -0.022659484831104814 0.0017185980346767632 0 -0.022874628673971737 0.0015287499623909458 0 -0.022962986724236342 0.0012921193882177724 0 -0.023156572332195861 0.0014287365285138981 0 -0.022874628673971737 0.0015287499623909458 0 -0.022962986724236342 0.0012921193882177724 0 -0.022731087144504544 0.0011599376115767582 0 -0.022874628673971737 0.0015287499623909458 0 -0.022731087144504544 0.0011599376115767582 0 -0.02254414165175269 0.0013621710385810001 0 -0.022548287251802628 0.0011673165775182041 0 -0.022731087144504544 0.0011599376115767582 0 -0.02254414165175269 0.0013621710385810001 0 -0.023151744345600651 0.00183319234798661 0 -0.0234442678061881 0.0016168924929654944 0 -0.023156572332195861 0.0014287365285138981 0 -0.023151744345600651 0.00183319234798661 0 -0.022874628673971737 0.0015287499623909458 0 -0.023156572332195861 0.0014287365285138981 0 -0.022962986724236342 0.0012921193882177724 0 -0.023156572332195861 0.0014287365285138981 0 -0.023089288849855949 0.0010429121380378444 0 -0.0234442678061881 0.0016168924929654944 0 -0.023156572332195861 0.0014287365285138981 0 -0.023394897237226413 0.001284910360128148 0 -0.010827734565095516 0.0031500714247016987 0 -0.011120745681990979 0.0028337911051343184 0 -0.014983476221326295 0.0025999070748309282 0 -0.014631520627695535 0.002697107023309245 0 -0.014336697030576925 0.0017809854461907741 0 -0.014631520627695535 0.002697107023309245 0 -0.014336697030576925 0.0017809854461907741 0 -0.013651758377395976 0.0019674994528119313 0 -0.019491485608267887 0.0020051914214712476 0 -0.018736983886213584 0.0017174684254540468 0 -0.011120745681990979 0.0028337911051343184 0 -0.0056899794574401348 0.0012083414265016781 0 -0.014336697030576925 0.0017809854461907741 0 -0.013651758377395976 0.0019674994528119313 0 -0.013695736683122017 0.00099354899832241206 0 -0.013651758377395976 0.0019674994528119313 0 -0.012722444681493092 0.0012668790753702145 0 -0.013695736683122017 0.00099354899832241206 0 -0.023156572332195861 0.0014287365285138981 0 -0.023394897237226413 0.001284910360128148 0 -0.023089288849855949 0.0010429121380378444 0 -0.022962986724236342 0.0012921193882177724 0 -0.023089288849855949 0.0010429121380378444 0 -0.022731087144504544 0.0011599376115767582 0 -0.022731087144504544 0.0011599376115767582 0 -0.022552649618081469 0.0010345864632047355 0 -0.022747576403635349 0.00081058252412936611 0 -0.022548287251802628 0.0011673165775182041 0 -0.022731087144504544 0.0011599376115767582 0 -0.022552649618081469 0.0010345864632047355 0 -0.014033009904308611 -0.00060351369106389141 0 -0.013007737174207166 -0.00064651723373912559 0 -0.012660910326336207 -0.00023581952897075648 0 -0.022552649618081469 0.0010345864632047355 0 -0.022747576403635349 0.00081058252412936611 0 -0.022374326344826466 0.00092325482496169518 0 -0.015357125630349223 0.00018782067602738896 0 -0.015835289664085185 -0.00035748235384501444 0 -0.018736983886213584 0.0017174684254540468 0 -0.015357125630349223 0.00018782067602738896 0 -0.023089288849855949 0.0010429121380378444 0 -0.022731087144504544 0.0011599376115767582 0 -0.022747576403635349 0.00081058252412936611 0 -0.0074283257564129379 -0.00016655646471904842 0 -0.0074329829299329513 -0.00038090038620716579 0 -0.0075722929772987129 -0.00020854205105668439 0 -0.0074283257564129379 -0.00016655646471904842 0 -0.0073445940460230884 -0.00031648847302963323 0 -0.0074329829299329513 -0.00038090038620716579 0 -0.015357125630349223 0.00018782067602738896 0 -0.0056899794574401348 0.0012083414265016781 0 -0.0074283257564129379 -0.00016655646471904842 0 -0.0073445940460230884 -0.00031648847302963323 0 -0.0072460020733929346 -0.00029517787211674485 0 -0.015357125630349223 0.00018782067602738896 0 -0.0089355092787514988 -0.0015324908717551735 0 -0.014033009904308611 -0.00060351369106389141 0 -0.013006833458552112 -0.0012208597795935689 0 -0.013007737174207166 -0.00064651723373912559 0 -0.014033009904308611 -0.00060351369106389141 0 -0.013006833458552112 -0.0012208597795935689 0 -0.013042619800857726 -0.0013211879512578077 0 -0.0054610865741068588 -0.0013979014284448445 0 -0.0053180108695622215 -0.0015990613329815045 0 -0.0055332929819130261 -0.0020151483594677572 0 -0.0073445940460230884 -0.00031648847302963323 0 -0.0072613663317870128 -0.00041940508843254273 0 -0.0074329829299329513 -0.00038090038620716579 0 -0.0072728764783090444 -0.00054960492077185663 0 -0.0072613663317870128 -0.00041940508843254273 0 -0.0074329829299329513 -0.00038090038620716579 0 -0.0062999997526557187 -0.0010965237170298997 0 -0.0089355092787514988 -0.0015324908717551735 0 -0.0073445940460230884 -0.00031648847302963323 0 -0.0072613663317870128 -0.00041940508843254273 0 -0.0072460020733929346 -0.00029517787211674485 0 0.0021831579888984339 0.0006803028049697234 0 0.0024623810201801484 0.0011890711500351727 0 0.0019212219438364355 0.00095173333341927696 0 0.0024623810201801484 0.0011890711500351727 0 0.0019212219438364355 0.00095173333341927696 0 0.0016027738041768692 0.001371927544054204 0 0.0015532411977648079 0.00080815691014141555 0 0.0019212219438364355 0.00095173333341927696 0 0.0016027738041768692 0.001371927544054204 0 0.00089365638332794691 0.001631640738248536 0 0.0011929195447399911 0.0010247880170114623 0 0.0016027738041768692 0.001371927544054204 0 0.0015532411977648079 0.00080815691014141555 0 0.0011929195447399911 0.0010247880170114623 0 0.0016027738041768692 0.001371927544054204 0 0.00089365638332794691 0.001631640738248536 0 0.0016027738041768692 0.001371927544054204 0 0.0018885317626241519 0.0018988444654419046 0 -0.0076582902191184915 0.0017051325876930085 0 -0.0068240591834725986 0.0031289833872316201 0 -0.0060562521774890944 0.0021501284401086538 0 -0.0017017246571645443 0.0025153947831115897 0 -0.0056899794574401348 0.0012083414265016781 0 0.0024623810201801484 0.0011890711500351727 0 0.0016027738041768692 0.001371927544054204 0 0.0018885317626241519 0.0018988444654419046 0 -0.0020543897947964402 0.00024031290224968066 0 -0.0056899794574401348 0.0012083414265016781 0 -0.0088554232022464169 -0.0015575949045040268 0 -0.00854173138371183 -0.0016915565993278793 0 -0.0086786603401994861 -0.0018703002896002466 0 -0.0088554232022464169 -0.0015575949045040268 0 -0.0086786603401994861 -0.0018703002896002466 0 -0.0089112129588683493 -0.0018521370551996287 0 -0.0088554232022464169 -0.0015575949045040268 0 -0.00854173138371183 -0.0016915565993278793 0 -0.0085357177718471608 -0.0014561624969023983 0 -0.00854173138371183 -0.0016915565993278793 0 -0.0085357177718471608 -0.0014561624969023983 0 -0.0083231882378104697 -0.0017067369809809817 0 -0.00854173138371183 -0.0016915565993278793 0 -0.0084271679347979796 -0.0018991247780101965 0 -0.0083231882378104697 -0.0017067369809809817 0 -0.00854173138371183 -0.0016915565993278793 0 -0.0084271679347979796 -0.0018991247780101965 0 -0.0086786603401994861 -0.0018703002896002466 0 -0.0084271679347979796 -0.0018991247780101965 0 -0.0085524363223227241 -0.002113910669271303 0 -0.0086786603401994861 -0.0018703002896002466 0 -0.0084271679347979796 -0.0018991247780101965 0 -0.0085524363223227241 -0.002113910669271303 0 -0.0082781962579238939 -0.0021402302849883215 0 -0.0085524363223227241 -0.002113910669271303 0 -0.0086786603401994861 -0.0018703002896002466 0 -0.0088148392545030711 -0.0020818485522644732 0 -0.0086786603401994861 -0.0018703002896002466 0 -0.0089112129588683493 -0.0018521370551996287 0 -0.0088148392545030711 -0.0020818485522644732 0 -0.0089112129588683493 -0.0018521370551996287 0 -0.0090616475474819061 -0.0020570115405567427 0 -0.0091267949764076359 -0.001695041680708462 0 -0.0089112129588683493 -0.0018521370551996287 0 -0.0088148392545030711 -0.0020818485522644732 0 -0.0090616475474819061 -0.0020570115405567427 0 -0.0092666583460481802 -0.0021657416773032982 0 -0.0090616475474819061 -0.0020570115405567427 0 -0.0092671606831897842 -0.0019076478122870683 0 -0.0092269907542103687 -0.0020821964571791011 0 -0.0089355092787514988 -0.0015324908717551735 0 -0.0090616475474819061 -0.0020570115405567427 0 -0.0095855156281432589 -0.0017751238457827986 0 -0.0093498127390679933 -0.001756871793153448 0 -0.0076687646120546541 -0.0020384119200588047 0 -0.0089355092787514988 -0.0015324908717551735 0 -0.0095658973959497021 -0.001727370291151466 0 -0.0093345089776926092 -0.0015847618835499097 0 -0.0094402683673497825 -0.0013333220160758363 0 -0.0095658973959497021 -0.001727370291151466 0 -0.0095855156281432589 -0.0017751238457827986 0 -0.0093498127390679933 -0.001756871793153448 0 -0.010141199557207057 -0.001434337059537051 0 -0.0089355092787514988 -0.0015324908717551735 0 -0.0095658973959497021 -0.001727370291151466 0 -0.0093498127390679933 -0.001756871793153448 0 -0.0093345089776926092 -0.0015847618835499097 0 -0.0093498127390679933 -0.001756871793153448 0 -0.0093345089776926092 -0.0015847618835499097 0 -0.0091267949764076359 -0.001695041680708462 0 -0.010141199557207057 -0.001434337059537051 0 -0.012134479652390862 -0.00077488469204441699 0 -0.0088554232022464169 -0.0015575949045040268 0 -0.0091267949764076359 -0.001695041680708462 0 -0.0091849860870072599 -0.0014516062554667634 0 -0.0088554232022464169 -0.0015575949045040268 0 -0.0089112129588683493 -0.0018521370551996287 0 -0.0091267949764076359 -0.001695041680708462 0 -0.0090616475474819061 -0.0020570115405567427 0 -0.0093498127390679933 -0.001756871793153448 0 -0.0091267949764076359 -0.001695041680708462 0 -0.0093345089776926092 -0.0015847618835499097 0 -0.0091267949764076359 -0.001695041680708462 0 -0.0091849860870072599 -0.0014516062554667634 0 -0.0091849860870072599 -0.0014516062554667634 0 -0.0090837619557265041 -0.0012435036854773554 0 -0.0094402683673497825 -0.0013333220160758363 0 -0.016647505900066809 -0.0015029281993952177 0 -0.015835289664085185 -0.00035748235384501444 0 -0.0088554232022464169 -0.0015575949045040268 0 -0.0091849860870072599 -0.0014516062554667634 0 -0.0090837619557265041 -0.0012435036854773554 0 -0.010141199557207057 -0.001434337059537051 0 -0.015835289664085185 -0.00035748235384501444 0 -0.013007241694174602 -0.0012164387822788804 0 -0.013007737174207166 -0.00064651723373912559 0 -0.012660910326336207 -0.00023581952897075648 0 -0.0093345089776926092 -0.0015847618835499097 0 -0.0091849860870072599 -0.0014516062554667634 0 -0.0094402683673497825 -0.0013333220160758363 0 -0.022548287251802628 0.0011673165775182041 0 -0.022387503538995299 0.001082873230898183 0 -0.02254414165175269 0.0013621710385810001 0 -0.022387503538995299 0.001082873230898183 0 -0.022356946277574799 0.001070299847837167 0 -0.022267081914437763 0.0013506678333220503 0 -0.022552649618081469 0.0010345864632047355 0 -0.022374326344826466 0.00092325482496169518 0 -0.022387503538995299 0.001082873230898183 0 -0.022548287251802628 0.0011673165775182041 0 -0.022552649618081469 0.0010345864632047355 0 -0.022387503538995299 0.001082873230898183 0 -0.022374326344826466 0.00092325482496169518 0 -0.022387503538995299 0.001082873230898183 0 -0.022349032088530937 0.0010688465987404706 0 -0.015835289664085185 -0.00035748235384501444 0 -0.020948713201210157 -0.00014058262681964474 0 -0.021322015502961675 4.7601608036416796e-05 0 -0.020948713201210157 -0.00014058262681964474 0 -0.017476692710432489 -0.00086279332651921069 0 -0.017858348233453593 -0.000957837471270028 0 -0.017783629712459795 -0.00074028284957826439 0 -0.021917070985655752 -0.002029231408331908 0 -0.022104602297190405 -0.0010584586254087311 0 -0.021088277037698409 -0.00062250629622236716 0 -0.016647505900066809 -0.0015029281993952177 0 -0.020948713201210157 -0.00014058262681964474 0 -0.021917070985655752 -0.002029231408331908 0 -0.022977056390865867 -0.0016008907145255381 0 -0.022104602297190405 -0.0010584586254087311 0 -0.021917070985655752 -0.002029231408331908 0 -0.020634812364813068 -0.0017046278161414578 0 -0.021088277037698409 -0.00062250629622236716 0 -0.016647505900066809 -0.0015029281993952177 0 -0.022503241191147955 -0.002189779854568696 0 -0.016647505900066809 -0.0015029281993952177 0 -0.01404865485100964 -0.0022613334172132747 0 -0.0088554232022464169 -0.0015575949045040268 0 -0.0090837619557265041 -0.0012435036854773554 0 -0.0085357177718471608 -0.0014561624969023983 0 -0.021893361837632533 -0.0020464402272634464 0 -0.020634812364813068 -0.0017046278161414578 0 -0.019810910485622456 -0.0029289154588504835 0 -0.020634812364813068 -0.0017046278161414578 0 -0.019810910485622456 -0.0029289154588504835 0 -0.018868617583326312 -0.0022351439949995621 0 -0.020634812364813068 -0.0017046278161414578 0 -0.01941780005702733 -0.0010057937033144538 0 -0.018868617583326312 -0.0022351439949995621 0 -0.020634812364813068 -0.0017046278161414578 0 -0.01941780005702733 -0.0010057937033144538 0 -0.021088277037698409 -0.00062250629622236716 0 -0.01941780005702733 -0.0010057937033144538 0 -0.019584353578709527 3.1217855942181197e-05 0 -0.021088277037698409 -0.00062250629622236716 0 -0.019584353578709527 3.1217855942181197e-05 0 -0.021088277037698409 -0.00062250629622236716 0 -0.020661748833883564 0.00033542556377992886 0 -0.021088277037698409 -0.00062250629622236716 0 -0.021362060590612835 0.00057788278706569815 0 -0.022404321265131824 3.9031411026821383e-05 0 -0.021088277037698409 -0.00062250629622236716 0 -0.020661748833883564 0.00033542556377992886 0 -0.021362060590612835 0.00057788278706569815 0 -0.020661748833883564 0.00033542556377992886 0 -0.021362060590612835 0.00057788278706569815 0 -0.020788122941326426 0.0014398522173284304 0 -0.021362060590612835 0.00057788278706569815 0 -0.02188866659664631 0.0016952890159347858 0 -0.020788122941326426 0.0014398522173284304 0 -0.020661748833883564 0.00033542556377992886 0 -0.019598488385366399 0.0017242574175168745 0 -0.020788122941326426 0.0014398522173284304 0 -0.019584353578709527 3.1217855942181197e-05 0 -0.020661748833883564 0.00033542556377992886 0 -0.019598488385366399 0.0017242574175168745 0 -0.022387503538995299 0.001082873230898183 0 -0.02254414165175269 0.0013621710385810001 0 -0.022267081914437763 0.0013506678333220503 0 -0.022104602297190405 -0.0010584586254087311 0 -0.021088277037698409 -0.00062250629622236716 0 -0.022404321265131824 3.9031411026821383e-05 0 -0.022977056390865867 -0.0016008907145255381 0 -0.022104602297190405 -0.0010584586254087311 0 -0.022404321265131824 3.9031411026821383e-05 0 -0.020948713201210157 -0.00014058262681964474 0 -0.022521737686035562 0.0006189839094433528 0 -0.022521737686035562 0.0006189839094433528 0 -0.021867621498516697 0.0017042794743567455 0 -0.022267081914437763 0.0013506678333220503 0 -0.02239850520486894 0.0015822945986380976 0 -0.02188866659664631 0.0016952890159347858 0 -0.021362060590612835 0.00057788278706569815 0 -0.022404321265131824 3.9031411026821383e-05 0 -0.02188866659664631 0.0016952890159347858 0 -0.02254414165175269 0.0013621710385810001 0 -0.022267081914437763 0.0013506678333220503 0 -0.02239850520486894 0.0015822945986380976 0 -0.02254414165175269 0.0013621710385810001 0 -0.02239850520486894 0.0015822945986380976 0 -0.022659484831104814 0.0017185980346767632 0 -0.02239850520486894 0.0015822945986380976 0 -0.022659484831104814 0.0017185980346767632 0 -0.022431797779516996 0.0019075738109916322 0 -0.022659484831104814 0.0017185980346767632 0 -0.022716232988959497 0.0020252150361526359 0 -0.022431797779516996 0.0019075738109916322 0 -0.022431797779516996 0.0019075738109916322 0 -0.02188866659664631 0.0016952890159347858 0 -0.021412435923267231 0.0022957758523243117 0 -0.02239850520486894 0.0015822945986380976 0 -0.022431797779516996 0.0019075738109916322 0 -0.02188866659664631 0.0016952890159347858 0 -0.022431797779516996 0.0019075738109916322 0 -0.022666072879034327 0.0022823468028283713 0 -0.021412435923267231 0.0022957758523243117 0 -0.022576330641383237 0.0022919416574402364 0 -0.021873309145778397 0.0021479560847419144 0 -0.022716232988959497 0.0020252150361526359 0 -0.022431797779516996 0.0019075738109916322 0 -0.022666072879034327 0.0022823468028283713 0 -0.022855421985222044 0.002215556462963605 0 -0.022716232988959497 0.0020252150361526359 0 -0.022666072879034327 0.0022823468028283713 0 -0.021715324824057976 0.001756631428950001 0 -0.022371223279967684 0.0020443643219466216 0 -0.021718337961498677 0.0023640023025526167 0 -0.020644564830587048 0.0017158924483473301 0 -0.021873309145778397 0.0021479560847419144 0 -0.019598488385366399 0.0017242574175168745 0 -0.020788122941326426 0.0014398522173284304 0 -0.021412435923267231 0.0022957758523243117 0 -0.02188866659664631 0.0016952890159347858 0 -0.020788122941326426 0.0014398522173284304 0 -0.021412435923267231 0.0022957758523243117 0 -0.022666072879034327 0.0022823468028283713 0 -0.022371223279967684 0.0020443643219466216 0 -0.022420955178772298 0.002405141823771318 0 -0.022371223279967684 0.0020443643219466216 0 -0.021718337961498677 0.0023640023025526167 0 -0.022420955178772298 0.002405141823771318 0 -0.021718337961498677 0.0023640023025526167 0 -0.022420955178772298 0.002405141823771318 0 -0.021670133249262813 0.002807665371503476 0 -0.022420955178772298 0.002405141823771318 0 -0.02236156938980173 0.0029581914819777613 0 -0.023015950700513807 0.0024071919798197444 0 -0.022420955178772298 0.002405141823771318 0 -0.02236156938980173 0.0029581914819777613 0 -0.021670133249262813 0.002807665371503476 0 -0.02236156938980173 0.0029581914819777613 0 -0.021670133249262813 0.002807665371503476 0 -0.021747412374738626 0.0032876687572877743 0 -0.02236156938980173 0.0029581914819777613 0 -0.021747412374738626 0.0032876687572877743 0 -0.022118407768414578 0.003719219229301806 0 -0.021747412374738626 0.0032876687572877743 0 -0.022118407768414578 0.003719219229301806 0 -0.021334429870956462 0.0037987909891067295 0 -0.02236156938980173 0.0029581914819777613 0 -0.022118407768414578 0.003719219229301806 0 -0.023307643383554073 0.0036033159699365076 0 -0.022118407768414578 0.003719219229301806 0 -0.023307643383554073 0.0036033159699365076 0 -0.022460290030228935 0.0044283950693040277 0 -0.023307643383554073 0.0036033159699365076 0 -0.022460290030228935 0.0044283950693040277 0 -0.023411408241471879 0.0047867358808743894 0 -0.022118407768414578 0.003719219229301806 0 -0.021796143386084824 0.0042304306372712075 0 -0.021334429870956462 0.0037987909891067295 0 -0.022118407768414578 0.003719219229301806 0 -0.021796143386084824 0.0042304306372712075 0 -0.022460290030228935 0.0044283950693040277 0 -0.024975823391392569 0.003538746285423779 0 -0.02560661113496375 0.0044828876389293865 0 -0.024423912375118213 0.0044386761462829423 0 -0.023307643383554073 0.0036033159699365076 0 -0.024975823391392569 0.003538746285423779 0 -0.024423912375118213 0.0044386761462829423 0 -0.023307643383554073 0.0036033159699365076 0 -0.023411408241471879 0.0047867358808743894 0 -0.024423912375118213 0.0044386761462829423 0 -0.023307643383554073 0.0036033159699365076 0 -0.024080970721755197 0.002976350682840221 0 -0.023015950700513807 0.0024071919798197444 0 -0.023307643383554073 0.0036033159699365076 0 -0.024080970721755197 0.002976350682840221 0 -0.024975823391392569 0.003538746285423779 0 -0.024080970721755197 0.002976350682840221 0 -0.025080182141876524 0.0023034376932311055 0 -0.024975823391392569 0.003538746285423779 0 -0.023164949724496314 0.0023776157341416221 0 -0.023756622764369597 0.0023790454370973282 0 -0.024080970721755197 0.002976350682840221 0 -0.023015950700513807 0.0024071919798197444 0 -0.025080182141876524 0.0023034376932311055 0 -0.02236156938980173 0.0029581914819777613 0 -0.023307643383554073 0.0036033159699365076 0 -0.023015950700513807 0.0024071919798197444 0 -0.022666072879034327 0.0022823468028283713 0 -0.022420955178772298 0.002405141823771318 0 -0.023015950700513807 0.0024071919798197444 0 -0.022666072879034327 0.0022823468028283713 0 -0.023015950700513807 0.0024071919798197444 0 -0.022839424360341275 0.0023439479664409519 0 -0.022855421985222044 0.002215556462963605 0 -0.022666072879034327 0.0022823468028283713 0 -0.022839424360341275 0.0023439479664409519 0 -0.023015950700513807 0.0024071919798197444 0 -0.022839424360341275 0.0023439479664409519 0 -0.022851148593616179 0.0023597677028173907 0 -0.022855421985222044 0.002215556462963605 0 -0.023010086170229618 0.0022735565366710066 0 -0.022851148593616179 0.0023597677028173907 0 -0.022855421985222044 0.002215556462963605 0 -0.022839424360341275 0.0023439479664409519 0 -0.022851148593616179 0.0023597677028173907 0 -0.022855421985222044 0.002215556462963605 0 -0.023044663869609086 0.0021131198301324785 0 -0.023010086170229618 0.0022735565366710066 0 -0.023044663869609086 0.0021131198301324785 0 -0.023010086170229618 0.0022735565366710066 0 -0.023168801222014961 0.002273031371758025 0 -0.023010086170229618 0.0022735565366710066 0 -0.022851148593616179 0.0023597677028173907 0 -0.023191447390266937 0.0024392940229103714 0 -0.025080182141876524 0.0023034376932311055 0 -0.026439842781470279 0.0024510473552913259 0 -0.025638670140651663 0.0029898265069840733 0 -0.023756622764369597 0.0023790454370973282 0 -0.025665289248751801 0.0021912933892167755 0 -0.025665289248751801 0.0021912933892167755 0 -0.026358215958111761 0.0026119843797638756 0 -0.023396110927214185 0.0020157989986327868 0 -0.023218571220526625 0.0021244973170571621 0 -0.023330306116133754 0.0023551862408295542 0 -0.023417892682278743 0.0019342964446358991 0 -0.023514297140141246 0.0021703364925430902 0 -0.023357273290922263 0.0022783082359841334 0 -0.023330337244896967 0.0019289738827839469 0 -0.023926174100971857 0.0025428946134084837 0 -0.023452924813290442 0.0022498487741675448 0 -0.023926174100971857 0.0025428946134084837 0 -0.023463827680398494 0.0022290729694463517 0 -0.02322166844476975 0.0024161058802571666 0 -0.023428603977793613 0.0024612616829949672 0 -0.023218571220526625 0.0021244973170571621 0 -0.023168801222014961 0.002273031371758025 0 -0.023330306116133754 0.0023551862408295542 0 -0.023218571220526625 0.0021244973170571621 0 -0.023044663869609086 0.0021131198301324785 0 -0.023168801222014961 0.002273031371758025 0 -0.023010086170229618 0.0022735565366710066 0 -0.023168801222014961 0.002273031371758025 0 -0.023191447390266937 0.0024392940229103714 0 -0.025665289248751801 0.0021912933892167755 0 -0.02636349868573647 0.002369902654688079 0 -0.027960699109522393 0.0015432521556098271 0 -0.028715047587092691 0.001632044391991692 0 -0.0277189797810896 0.0025607281699240501 0 -0.025665954118032706 0.0021003512806444975 0 -0.024977915452325916 0.002554279365991877 0 -0.025084711552307765 0.0020349031566908931 0 -0.023168801222014961 0.002273031371758025 0 -0.023191447390266937 0.0024392940229103714 0 -0.023330306116133754 0.0023551862408295542 0 -0.025665289248751801 0.0021912933892167755 0 -0.023926174100971857 0.0025428946134084837 0 -0.023194399195877874 0.0025881868305138449 0 -0.023428603977793613 0.0024612616829949672 0 -0.023627820959779298 0.0026786388165751717 0 -0.02636349868573647 0.002369902654688079 0 -0.026380851162389959 0.0031860254331978369 0 -0.028544829092848816 0.0034626837212261329 0 -0.028948427492187158 0.0039696172514898532 0 -0.02935575570327241 0.0035915937608451787 0 -0.02322166844476975 0.0024161058802571666 0 -0.023194399195877874 0.0025881868305138449 0 -0.023428603977793613 0.0024612616829949672 0 -0.023926174100971857 0.0025428946134084837 0 -0.02636349868573647 0.002369902654688079 0 -0.028544829092848816 0.0034626837212261329 0 -0.028948427492187158 0.0039696172514898532 0 -0.028385368252220346 0.0042662620711637475 0 -0.0277189797810896 0.0025607281699240501 0 -0.028410797017293214 0.0033505258756069385 0 -0.026911993045945621 0.0038706428751937054 0 -0.02636349868573647 0.002369902654688079 0 -0.0285928046081034 0.0038101277031609903 0 -0.028715047587092691 0.001632044391991692 0 -0.0277189797810896 0.0025607281699240501 0 -0.028410797017293214 0.0033505258756069385 0 -0.028410797017293214 0.0033505258756069385 0 -0.026911993045945621 0.0038706428751937054 0 -0.028147804388844566 0.005031842405383462 0 -0.028385368252220346 0.0042662620711637475 0 -0.028683048409183166 0.004798959967119985 0 -0.028147804388844566 0.005031842405383462 0 -0.0285928046081034 0.0038101277031609903 0 -0.028128482090644915 0.0049707290910664817 0 -0.028948427492187158 0.0039696172514898532 0 -0.028385368252220346 0.0042662620711637475 0 -0.029230172263651905 0.0045987361820323744 0 -0.028385368252220346 0.0042662620711637475 0 -0.028683048409183166 0.004798959967119985 0 -0.029230172263651905 0.0045987361820323744 0 -0.025080182141876524 0.0023034376932311055 0 -0.025638670140651663 0.0029898265069840733 0 -0.024975823391392569 0.003538746285423779 0 -0.026574372623999844 0.0024283094614781123 0 -0.026911993045945621 0.0038706428751937054 0 -0.024975823391392569 0.003538746285423779 0 -0.026358215958111761 0.0026119843797638756 0 -0.024960184765203661 0.0035196406991259508 0 -0.027960699109522393 0.0015432521556098271 0 -0.0277189797810896 0.0025607281699240501 0 -0.026574372623999844 0.0024283094614781123 0 -0.0277189797810896 0.0025607281699240501 0 -0.026574372623999844 0.0024283094614781123 0 -0.026911993045945621 0.0038706428751937054 0 -0.026911993045945621 0.0038706428751937054 0 -0.024975823391392569 0.003538746285423779 0 -0.02560661113496375 0.0044828876389293865 0 -0.026911993045945621 0.0038706428751937054 0 -0.02560661113496375 0.0044828876389293865 0 -0.026637142932867224 0.0053392336040093535 0 -0.02560661113496375 0.0044828876389293865 0 -0.026637142932867224 0.0053392336040093535 0 -0.025248704012317102 0.005216283597330609 0 -0.026911993045945621 0.0038706428751937054 0 -0.026637142932867224 0.0053392336040093535 0 -0.028147804388844566 0.005031842405383462 0 -0.026637142932867224 0.0053392336040093535 0 -0.028003624072538598 0.0059705212942321451 0 -0.027320329852369367 0.0064944474701379784 0 -0.026637142932867224 0.0053392336040093535 0 -0.028147804388844566 0.005031842405383462 0 -0.028003624072538598 0.0059705212942321451 0 -0.026637142932867224 0.0053392336040093535 0 -0.025529127847007307 0.0060770445031932043 0 -0.027320329852369367 0.0064944474701379784 0 -0.026637142932867224 0.0053392336040093535 0 -0.025529127847007307 0.0060770445031932043 0 -0.025248704012317102 0.005216283597330609 0 -0.028683048409183166 0.004798959967119985 0 -0.028995719570495737 0.0053705052441301885 0 -0.028147804388844566 0.005031842405383462 0 -0.028995719570495737 0.0053705052441301885 0 -0.028147804388844566 0.005031842405383462 0 -0.028653905520236979 0.0058591083024656671 0 -0.028683048409183166 0.004798959967119985 0 -0.028995719570495737 0.0053705052441301885 0 -0.029230172263651905 0.0045987361820323744 0 -0.028147804388844566 0.005031842405383462 0 -0.028003624072538598 0.0059705212942321451 0 -0.028653905520236979 0.0058591083024656671 0 -0.028003624072538598 0.0059705212942321451 0 -0.028653905520236979 0.0058591083024656671 0 -0.028574545121875575 0.0063687908136586041 0 -0.028653905520236979 0.0058591083024656671 0 -0.02893454190079096 0.0063989966259411857 0 -0.028574545121875575 0.0063687908136586041 0 -0.029158426563463999 0.0059713203843297976 0 -0.029148128511763752 0.0063108523830974509 0 -0.02893454190079096 0.0063989966259411857 0 -0.028653905520236979 0.0058591083024656671 0 -0.029158426563463999 0.0059713203843297976 0 -0.02893454190079096 0.0063989966259411857 0 -0.028995719570495737 0.0053705052441301885 0 -0.028653905520236979 0.0058591083024656671 0 -0.029158426563463999 0.0059713203843297976 0 -0.028941515707311224 0.0068143943904549094 0 -0.029154583750211082 0.0064983185171177474 0 -0.02893454190079096 0.0063989966259411857 0 -0.029154583750211082 0.0064983185171177474 0 -0.029148128511763752 0.0063108523830974509 0 -0.02893454190079096 0.0063989966259411857 0 -0.028941515707311224 0.0068143943904549094 0 -0.02893454190079096 0.0063989966259411857 0 -0.028777088515706824 0.0065876741275731681 0 -0.02893454190079096 0.0063989966259411857 0 -0.028777088515706824 0.0065876741275731681 0 -0.028574545121875575 0.0063687908136586041 0 -0.028941515707311224 0.0068143943904549094 0 -0.028777088515706824 0.0065876741275731681 0 -0.028748219081753325 0.0068498065761128804 0 -0.028748219081753325 0.0068498065761128804 0 -0.028574545121875575 0.0063687908136586041 0 -0.028315747767391083 0.0066112792351081754 0 -0.028777088515706824 0.0065876741275731681 0 -0.028748219081753325 0.0068498065761128804 0 -0.028574545121875575 0.0063687908136586041 0 -0.028003624072538598 0.0059705212942321451 0 -0.028574545121875575 0.0063687908136586041 0 -0.028315747767391083 0.0066112792351081754 0 -0.028748219081753325 0.0068498065761128804 0 -0.028315747767391083 0.0066112792351081754 0 -0.02889017366814629 0.0072702362355743441 0 -0.02889017366814629 0.0072702362355743441 0 -0.029062358098123384 0.0071532467903174394 0 -0.029229184187476481 0.0073728193977761515 0 -0.02889017366814629 0.0072702362355743441 0 -0.029062358098123384 0.0071532467903174394 0 -0.028889193841100311 0.0070746757540156909 0 -0.029062358098123384 0.0071532467903174394 0 -0.028889193841100311 0.0070746757540156909 0 -0.028902459077531223 0.0069986637684565532 0 -0.028748219081753325 0.0068498065761128804 0 -0.02889017366814629 0.0072702362355743441 0 -0.028889193841100311 0.0070746757540156909 0 -0.028941515707311224 0.0068143943904549094 0 -0.028889193841100311 0.0070746757540156909 0 -0.028902459077531223 0.0069986637684565532 0 -0.028941515707311224 0.0068143943904549094 0 -0.028775110099176087 0.0070204743881340107 0 -0.028902459077531223 0.0069986637684565532 0 -0.028941515707311224 0.0068143943904549094 0 -0.028748219081753325 0.0068498065761128804 0 -0.028889193841100311 0.0070746757540156909 0 -0.025529127847007307 0.0060770445031932043 0 -0.026021804621545408 0.0073781811014894247 0 -0.027320329852369367 0.0064944474701379784 0 -0.028315747767391083 0.0066112792351081754 0 -0.02889017366814629 0.0072702362355743441 0 -0.027320329852369367 0.0064944474701379784 0 -0.02889017366814629 0.0072702362355743441 0 -0.026021804621545408 0.0073781811014894247 0 -0.027320329852369367 0.0064944474701379784 0 -0.028003624072538598 0.0059705212942321451 0 -0.028315747767391083 0.0066112792351081754 0 -0.027320329852369367 0.0064944474701379784 0 -0.02889017366814629 0.0072702362355743441 0 -0.028378703997862638 0.0072434484671530493 0 -0.029229184187476481 0.0073728193977761515 0 -0.028721977195703522 0.007270587182355381 0 -0.026964433489705494 0.0069461842127730971 0 -0.02889017366814629 0.0072702362355743441 0 -0.027914284826045181 0.0065849494570972434 0 -0.028378703997862638 0.0072434484671530493 0 -0.027914284826045181 0.0065849494570972434 0 -0.028378703997862638 0.0072434484671530493 0 -0.026940674992343708 0.0073428100856337344 0 -0.028378703997862638 0.0072434484671530493 0 -0.026940674992343708 0.0073428100856337344 0 -0.027928172053331042 0.0080175302120804003 0 -0.027914284826045181 0.0065849494570972434 0 -0.026940674992343708 0.0073428100856337344 0 -0.026136364170200516 0.0059215551983592685 0 -0.025529127847007307 0.0060770445031932043 0 -0.026021804621545408 0.0073781811014894247 0 -0.023883251348086658 0.0067231002566827333 0 -0.026964433489705494 0.0069461842127730971 0 -0.025016850886737649 0.006321453583549983 0 -0.026136364170200516 0.0059215551983592685 0 -0.025705586921228086 0.0070340176003373814 0 -0.025042690625940528 0.0064939255517814246 0 -0.026940674992343708 0.0073428100856337344 0 -0.025705586921228086 0.0070340176003373814 0 -0.025577830569073392 0.0081647380970139849 0 -0.025705586921228086 0.0070340176003373814 0 -0.02494008711531618 0.0072401192909302631 0 -0.025577830569073392 0.0081647380970139849 0 -0.026940674992343708 0.0073428100856337344 0 -0.026136364170200516 0.0059215551983592685 0 -0.025705586921228086 0.0070340176003373814 0 -0.02494008711531618 0.0072401192909302631 0 -0.02427333066946662 0.00674556351859749 0 -0.024541558758108529 0.007810272374650473 0 -0.02494008711531618 0.0072401192909302631 0 -0.02427333066946662 0.00674556351859749 0 -0.025042690625940528 0.0064939255517814246 0 -0.025705586921228086 0.0070340176003373814 0 -0.02494008711531618 0.0072401192909302631 0 -0.025042690625940528 0.0064939255517814246 0 -0.02427333066946662 0.00674556351859749 0 -0.024019463772490715 0.0077680532647231917 0 -0.024541558758108529 0.007810272374650473 0 -0.02277084253132804 0.0070540399152509902 0 -0.023402147456081879 0.008266855649727612 0 -0.022454073184650473 0.0081797129273686892 0 -0.023864452862175249 0.0069580137166453488 0 -0.02277084253132804 0.0070540399152509902 0 -0.023402147456081879 0.008266855649727612 0 -0.024043401963605153 0.0069162498406248139 0 -0.024243879302456993 0.0074503587165506242 0 -0.023864452862175249 0.0069580137166453488 0 -0.02277084253132804 0.0070540399152509902 0 -0.023674273193522284 0.0061421325308438912 0 -0.02277084253132804 0.0070540399152509902 0 -0.023674273193522284 0.0061421325308438912 0 -0.022149800066032614 0.0060528577220510631 0 -0.023674273193522284 0.0061421325308438912 0 -0.022718436946272992 0.0056057003134503767 0 -0.022149800066032614 0.0060528577220510631 0 -0.023674273193522284 0.0061421325308438912 0 -0.022718436946272992 0.0056057003134503767 0 -0.023816011021780572 0.0052713943060527053 0 -0.026136364170200516 0.0059215551983592685 0 -0.025042690625940528 0.0064939255517814246 0 -0.024401945396552393 0.0055887242095798862 0 -0.026136364170200516 0.0059215551983592685 0 -0.024401945396552393 0.0055887242095798862 0 -0.023816011021780572 0.0052713943060527053 0 -0.025016850886737649 0.006321453583549983 0 -0.02305429669354855 0.0055965120027233872 0 -0.023864452862175249 0.0069580137166453488 0 -0.023674273193522284 0.0061421325308438912 0 -0.024401945396552393 0.0055887242095798862 0 -0.024043401963605153 0.0069162498406248139 0 -0.024398270685595386 0.0056981385296112257 0 -0.02427333066946662 0.00674556351859749 0 -0.025042690625940528 0.0064939255517814246 0 -0.024401945396552393 0.0055887242095798862 0 -0.023674273193522284 0.0061421325308438912 0 -0.024401945396552393 0.0055887242095798862 0 -0.023816011021780572 0.0052713943060527053 0 -0.023883251348086658 0.0067231002566827333 0 -0.022265903093184877 0.0058964621633001511 0 -0.023241547411392036 0.0056197025439641652 0 -0.022634423307304273 0.005143817785496955 0 -0.022265903093184877 0.0058964621633001511 0 -0.023241547411392036 0.0056197025439641652 0 -0.02305429669354855 0.0055965120027233872 0 -0.021385496373912672 0.0050660809716607403 0 -0.022718436946272992 0.0056057003134503767 0 -0.023816011021780572 0.0052713943060527053 0 -0.021250842960610087 0.0050190890335531811 0 -0.022265903093184877 0.0058964621633001511 0 -0.021722945395712585 0.0050445320721828552 0 -0.021250842960610087 0.0050190890335531811 0 -0.022634423307304273 0.005143817785496955 0 -0.022265903093184877 0.0058964621633001511 0 -0.022105884192950568 0.0052107727426236186 0 -0.022265903093184877 0.0058964621633001511 0 -0.022105884192950568 0.0052107727426236186 0 -0.021722945395712585 0.0050445320721828552 0 -0.021796143386084824 0.0042304306372712075 0 -0.021948914994014131 0.0047623790561334483 0 -0.02132212562289244 0.0044945695192457457 0 -0.022105884192950568 0.0052107727426236186 0 -0.021722945395712585 0.0050445320721828552 0 -0.021948914994014131 0.0047623790561334483 0 -0.022634423307304273 0.005143817785496955 0 -0.021948914994014131 0.0047623790561334483 0 -0.022460290030228935 0.0044283950693040277 0 -0.022634423307304273 0.005143817785496955 0 -0.022105884192950568 0.0052107727426236186 0 -0.021948914994014131 0.0047623790561334483 0 -0.021796143386084824 0.0042304306372712075 0 -0.021948914994014131 0.0047623790561334483 0 -0.022460290030228935 0.0044283950693040277 0 -0.022634423307304273 0.005143817785496955 0 -0.022460290030228935 0.0044283950693040277 0 -0.023411408241471879 0.0047867358808743894 0 -0.022634423307304273 0.005143817785496955 0 -0.023411408241471879 0.0047867358808743894 0 -0.023241547411392036 0.0056197025439641652 0 -0.023411408241471879 0.0047867358808743894 0 -0.024423912375118213 0.0044386761462829423 0 -0.024226034960469666 0.0054715895949019175 0 -0.02560661113496375 0.0044828876389293865 0 -0.024423912375118213 0.0044386761462829423 0 -0.025248704012317102 0.005216283597330609 0 -0.024423912375118213 0.0044386761462829423 0 -0.025248704012317102 0.005216283597330609 0 -0.024226034960469666 0.0054715895949019175 0 -0.025529127847007307 0.0060770445031932043 0 -0.023883251348086658 0.0067231002566827333 0 -0.024226034960469666 0.0054715895949019175 0 -0.025529127847007307 0.0060770445031932043 0 -0.025248704012317102 0.005216283597330609 0 -0.024226034960469666 0.0054715895949019175 0 -0.023883251348086658 0.0067231002566827333 0 -0.024226034960469666 0.0054715895949019175 0 -0.023241547411392036 0.0056197025439641652 0 -0.023411408241471879 0.0047867358808743894 0 -0.024226034960469666 0.0054715895949019175 0 -0.023241547411392036 0.0056197025439641652 0 -0.015325999921430239 0.0059157371777736742 0 -0.01506013195317819 0.0040840837964891538 0 -0.013338479979594158 0.0051509440026199565 0 -0.01506013195317819 0.0040840837964891538 0 -0.013338479979594158 0.0051509440026199565 0 -0.013484755630168082 0.0035353642976934038 0 -0.020241043765730351 0.003444743184924885 0 -0.020471494449416965 0.0040173323690233086 0 -0.015338657201518066 0.0050092277174479793 0 -0.01438704746441884 0.0043936057643670047 0 -0.014222763834893837 0.0037345077431179801 0 -0.014651255408506706 0.0048327897897486602 0 -0.013929552031684063 0.0045850858287060023 0 -0.015044758465530833 0.0057720599017262392 0 -0.014397963634798379 0.0049904743304328199 0 -0.013427261790710018 0.0034486735760696501 0 -0.014651255408506706 0.0048327897897486602 0 -0.01438704746441884 0.0043936057643670047 0 -0.013929552031684063 0.0045850858287060023 0 -0.015338657201518066 0.0050092277174479793 0 -0.014651255408506706 0.0048327897897486602 0 -0.01438704746441884 0.0043936057643670047 0 -0.012599988567246796 0.0029789542746712482 0 -0.01313129607791705 0.0029246872557991384 0 -0.013484755630168082 0.0035353642976934038 0 -0.013338479979594158 0.0051509440026199565 0 -0.012599988567246796 0.0029789542746712482 0 -0.013484755630168082 0.0035353642976934038 0 -0.01438704746441884 0.0043936057643670047 0 -0.013853159926119475 0.0038941143841165096 0 -0.013929552031684063 0.0045850858287060023 0 -0.01438704746441884 0.0043936057643670047 0 -0.014222763834893837 0.0037345077431179801 0 -0.013853159926119475 0.0038941143841165096 0 -0.012599988567246796 0.0029789542746712482 0 -0.01313129607791705 0.0029246872557991384 0 -0.012856385521941039 0.0028389062550637752 0 -0.01506013195317819 0.0040840837964891538 0 -0.013484755630168082 0.0035353642976934038 0 -0.014038014199422298 0.0025755349237716373 0 -0.01313129607791705 0.0029246872557991384 0 -0.013484755630168082 0.0035353642976934038 0 -0.014038014199422298 0.0025755349237716373 0 -0.01313129607791705 0.0029246872557991384 0 -0.014038014199422298 0.0025755349237716373 0 -0.013010199121382418 0.0026538484512553325 0 -0.013798004793894583 0.0028200032917372214 0 -0.014038014199422298 0.0025755349237716373 0 -0.013010199121382418 0.0026538484512553325 0 -0.012824257167958637 0.0030867187411068157 0 -0.012979012261359169 0.0027188547476874126 0 -0.011875355757657092 0.0033182642382872398 0 -0.012238972639188718 0.0034326157759517698 0 -0.013010199121382418 0.0026538484512553325 0 -0.012667138228306887 0.003097735744215777 0 -0.012806294813294858 0.002916670019317745 0 -0.013010199121382418 0.0026538484512553325 0 -0.012238972639188718 0.0034326157759517698 0 -0.012667138228306887 0.003097735744215777 0 -0.013010199121382418 0.0026538484512553325 0 -0.012560236044255916 0.0033316311715559949 0 -0.012667138228306887 0.003097735744215777 0 -0.012780019677384249 0.0031102370539486759 0 -0.012667138228306887 0.003097735744215777 0 -0.012806294813294858 0.002916670019317745 0 -0.012780019677384249 0.0031102370539486759 0 -0.012806294813294858 0.002916670019317745 0 -0.012790008464786397 0.0028905532498550972 0 -0.013010199121382418 0.0026538484512553325 0 -0.012790008464786397 0.0028905532498550972 0 -0.013010199121382418 0.0026538484512553325 0 -0.012856385521941039 0.0028389062550637752 0 -0.01313129607791705 0.0029246872557991384 0 -0.013010199121382418 0.0026538484512553325 0 -0.012856385521941039 0.0028389062550637752 0 -0.012599988567246796 0.0029789542746712482 0 -0.012790008464786397 0.0028905532498550972 0 -0.012856385521941039 0.0028389062550637752 0 -0.014222763834893837 0.0037345077431179801 0 -0.013492146768307888 0.0035041004787061277 0 -0.013270853720721738 0.0032211397165558217 0 -0.013427261790710018 0.0034486735760696501 0 -0.013045584154421905 0.00292275702497507 0 -0.014222763834893837 0.0037345077431179801 0 -0.013270853720721738 0.0032211397165558217 0 -0.012995504486915365 0.0028915141516733813 0 -0.012599988567246796 0.0029789542746712482 0 -0.012790008464786397 0.0028905532498550972 0 -0.012995504486915365 0.0028915141516733813 0 -0.013161023847682085 0.0033419915896439321 0 -0.012972032711586843 0.0031576051236390408 0 -0.012928597927978305 0.0035321325295037615 0 -0.013492146768307888 0.0035041004787061277 0 -0.013161023847682085 0.0033419915896439321 0 -0.012928597927978305 0.0035321325295037615 0 -0.013492146768307888 0.0035041004787061277 0 -0.013161023847682085 0.0033419915896439321 0 -0.013270853720721738 0.0032211397165558217 0 -0.013270853720721738 0.0032211397165558217 0 -0.012981436444402566 0.0030173007543863352 0 -0.012995504486915365 0.0028915141516733813 0 -0.013270853720721738 0.0032211397165558217 0 -0.012981436444402566 0.0030173007543863352 0 -0.012972032711586843 0.0031576051236390408 0 -0.013161023847682085 0.0033419915896439321 0 -0.013270853720721738 0.0032211397165558217 0 -0.012972032711586843 0.0031576051236390408 0 -0.012790008464786397 0.0028905532498550972 0 -0.012861232661879909 0.0029025729600873056 0 -0.012995504486915365 0.0028915141516733813 0 -0.012806294813294858 0.002916670019317745 0 -0.012790008464786397 0.0028905532498550972 0 -0.012861232661879909 0.0029025729600873056 0 -0.012806294813294858 0.002916670019317745 0 -0.012861232661879909 0.0029025729600873056 0 -0.012852892426256575 0.002949046650176197 0 -0.012852892426256575 0.002949046650176197 0 -0.012866942902508281 0.0030273140359160346 0 -0.012780019677384249 0.0031102370539486759 0 -0.012806294813294858 0.002916670019317745 0 -0.012852892426256575 0.002949046650176197 0 -0.012780019677384249 0.0031102370539486759 0 -0.012852892426256575 0.002949046650176197 0 -0.012866942902508281 0.0030273140359160346 0 -0.012961862419577122 0.0029213848174291213 0 -0.012861232661879909 0.0029025729600873056 0 -0.012902659123951728 0.0029120689757913577 0 -0.012995504486915365 0.0028915141516733813 0 -0.012861232661879909 0.0029025729600873056 0 -0.012852892426256575 0.002949046650176197 0 -0.012902659123951728 0.0029120689757913577 0 -0.012852892426256575 0.002949046650176197 0 -0.012902659123951728 0.0029120689757913577 0 -0.012961862419577122 0.0029213848174291213 0 -0.012902659123951728 0.0029120689757913577 0 -0.012995504486915365 0.0028915141516733813 0 -0.012961862419577122 0.0029213848174291213 0 -0.012866942902508281 0.0030273140359160346 0 -0.012961862419577122 0.0029213848174291213 0 -0.012872949187597234 0.0031617026788543241 0 -0.012995504486915365 0.0028915141516733813 0 -0.012961862419577122 0.0029213848174291213 0 -0.01295711780039061 0.0029118084405278461 0 -0.012981436444402566 0.0030173007543863352 0 -0.012995504486915365 0.0028915141516733813 0 -0.012939667433583159 0.0029421077446829562 0 -0.012995504486915365 0.0028915141516733813 0 -0.012939667433583159 0.0029421077446829562 0 -0.01295711780039061 0.0029118084405278461 0 -0.012961862419577122 0.0029213848174291213 0 -0.01295711780039061 0.0029118084405278461 0 -0.012903357603859907 0.0029034451271851133 0 -0.012939667433583159 0.0029421077446829562 0 -0.01295711780039061 0.0029118084405278461 0 -0.012903357603859907 0.0029034451271851133 0 -0.012812924610844389 0.002866259842241088 0 -0.012961862419577122 0.0029213848174291213 0 -0.012903357603859907 0.0029034451271851133 0 -0.012866942902508281 0.0030273140359160346 0 -0.012872949187597234 0.0031617026788543241 0 -0.01283040946682181 0.003127952199382689 0 -0.012801621913005183 0.003213521760843168 0 -0.012872949187597234 0.0031617026788543241 0 -0.01283040946682181 0.003127952199382689 0 -0.012801621913005183 0.003213521760843168 0 -0.01283040946682181 0.003127952199382689 0 -0.012780019677384249 0.0031102370539486759 0 -0.012866942902508281 0.0030273140359160346 0 -0.01283040946682181 0.003127952199382689 0 -0.012780019677384249 0.0031102370539486759 0 -0.01285246825656868 0.0034359033726040094 0 -0.012961862419577122 0.0029213848174291213 0 -0.012872949187597234 0.0031617026788543241 0 -0.013534492034131195 0.0027583373124087534 0 -0.012712578939330811 0.0030222089163263006 0 -0.012718178088041118 0.0028776593919996912 0 -0.012812924610844389 0.002866259842241088 0 -0.012803083027723594 0.0029083301442758389 0 -0.012718178088041118 0.0028776593919996912 0 -0.012803083027723594 0.0029083301442758389 0 -0.012689430444918888 0.0029768382547431067 0 -0.012812924610844389 0.002866259842241088 0 -0.012903357603859907 0.0029034451271851133 0 -0.012803083027723594 0.0029083301442758389 0 -0.012903357603859907 0.0029034451271851133 0 -0.012803083027723594 0.0029083301442758389 0 -0.012861209979777534 0.0029757435794679943 0 -0.012939667433583159 0.0029421077446829562 0 -0.012903357603859907 0.0029034451271851133 0 -0.012861209979777534 0.0029757435794679943 0 -0.012981436444402566 0.0030173007543863352 0 -0.012939667433583159 0.0029421077446829562 0 -0.012861209979777534 0.0029757435794679943 0 -0.012803083027723594 0.0029083301442758389 0 -0.012861209979777534 0.0029757435794679943 0 -0.012689430444918888 0.0029768382547431067 0 -0.014997011019730055 0.0027540034609572022 0 -0.017593455862486236 0.0033243071043080109 0 -0.018048839576717313 0.0028538254836336786 0 -0.018524156917913235 0.0034844230714128985 0 -0.018017168541692302 0.0032429201621199969 0 -0.012689430444918888 0.0029768382547431067 0 -0.012972032711586843 0.0031576051236390408 0 -0.012928597927978305 0.0035321325295037615 0 -0.012861209979777534 0.0029757435794679943 0 -0.012689430444918888 0.0029768382547431067 0 -0.012972032711586843 0.0031576051236390408 0 -0.012981436444402566 0.0030173007543863352 0 -0.012861209979777534 0.0029757435794679943 0 -0.012972032711586843 0.0031576051236390408 0 -0.017593455862486236 0.0033243071043080109 0 -0.023177447570509584 0.0026714743617543379 0 -0.025659593022362769 0.002164031205717227 0 -0.025755088952778591 0.0019307851427001858 0 -0.025435650779380956 0.0017932052031849474 0 -0.026311811326932454 0.0025880914912289154 0 -0.023177447570509584 0.0026714743617543379 0 -0.025659593022362769 0.002164031205717227 0 -0.025755088952778591 0.0019307851427001858 0 -0.025871698636313799 0.0022572708199349208 0 -0.026633847970706108 0.0029802837581804024 0 -0.026438547529593348 0.0027440501468685846 0 -0.026381365903025134 0.0032721975970956148 0 -0.026633847970706108 0.0029802837581804024 0 -0.026438547529593348 0.0027440501468685846 0 -0.026411377982226432 0.0025013982732916902 0 -0.013492146768307888 0.0035041004787061277 0 -0.012928597927978305 0.0035321325295037615 0 -0.013853159926119475 0.0038941143841165096 0 -0.017593455862486236 0.0033243071043080109 0 -0.020241043765730351 0.003444743184924885 0 -0.025755088952778591 0.0019307851427001858 0 -0.025871698636313799 0.0022572708199349208 0 -0.026042606713099516 0.0023173586939819663 0 -0.013136729276642745 0.0035311486544470426 0 -0.013853159926119475 0.0038941143841165096 0 -0.013929552031684063 0.0045850858287060023 0 -0.017593455862486236 0.0033243071043080109 0 -0.012548645035854901 0.0032747897035863742 0 -0.014222763834893837 0.0037345077431179801 0 -0.013492146768307888 0.0035041004787061277 0 -0.013853159926119475 0.0038941143841165096 0 -0.025871698636313799 0.0022572708199349208 0 -0.026042606713099516 0.0023173586939819663 0 -0.025975389295633165 0.0023480552692440671 0 -0.026042606713099516 0.0023173586939819663 0 -0.025975389295633165 0.0023480552692440671 0 -0.026050667153512942 0.0024079729218038875 0 -0.025975389295633165 0.0023480552692440671 0 -0.025924257087575189 0.0024128407133968874 0 -0.026004038575573568 0.002403480386100978 0 -0.025871698636313799 0.0022572708199349208 0 -0.025975389295633165 0.0023480552692440671 0 -0.025924257087575189 0.0024128407133968874 0 -0.025659593022362769 0.002164031205717227 0 -0.025871698636313799 0.0022572708199349208 0 -0.025924257087575189 0.0024128407133968874 0 -0.026633847970706108 0.0029802837581804024 0 -0.02682497064058036 0.0034086968092040281 0 -0.026381365903025134 0.0032721975970956148 0 -0.026311811326932454 0.0025880914912289154 0 -0.026427044366986036 0.0030247767592408927 0 -0.030187680266518278 0.0039061761027009471 0 -0.030169306878749032 0.0038961230850856365 0 -0.030163757997051479 0.0039379795734718597 0 -0.030169306878749032 0.0038961230850856365 0 -0.030136771305736564 0.0039135486169774199 0 -0.030163757997051479 0.0039379795734718597 0 -0.030145631301743882 0.0038732790938008281 0 -0.030101018082243056 0.0042330597913335611 0 -0.030169306878749032 0.0038961230850856365 0 -0.030137529457363147 0.0038273700180981845 0 -0.030136771305736564 0.0039135486169774199 0 -0.027082149593603892 0.0033973307364191549 0 -0.027253192450689877 0.0032911159682386284 0 -0.030169306878749032 0.0038961230850856365 0 -0.030137529457363147 0.0038273700180981845 0 -0.030223339916174884 0.0038355706428195128 0 -0.030137529457363147 0.0038273700180981845 0 -0.030223339916174884 0.0038355706428195128 0 -0.030055796334348531 0.0037652484678096826 0 -0.026438547529593348 0.0027440501468685846 0 -0.026381365903025134 0.0032721975970956148 0 -0.026211441723471202 0.0027210643655595146 0 -0.030187680266518278 0.0039061761027009471 0 -0.030169306878749032 0.0038961230850856365 0 -0.030223339916174884 0.0038355706428195128 0 -0.028434922908582575 0.0036465488392198016 0 -0.027082149593603892 0.0033973307364191549 0 -0.026248929832012123 0.0029527336025020555 0 -0.027082149593603892 0.0033973307364191549 0 -0.026438547529593348 0.0027440501468685846 0 -0.0261484791221583 0.0027264896463992223 0 -0.026411377982226432 0.0025013982732916902 0 -0.027082149593603892 0.0033973307364191549 0 -0.024084194556338267 0.0022267301545180196 0 -0.0261484791221583 0.0027264896463992223 0 -0.026411377982226432 0.0025013982732916902 0 -0.026021809269025475 0.0023196734223726177 0 -0.018048839576717313 0.0028538254836336786 0 -0.018017168541692302 0.0032429201621199969 0 -0.017780406675682498 0.0027316702839922623 0 -0.023177447570509584 0.0026714743617543379 0 -0.019456929842895192 0.0026389248428196426 0 -0.021365308385629025 0.003169338830405103 0 -0.020854362720961288 0.0029383715346113681 0 -0.021108381115276305 0.0026295218792625028 0 -0.023177447570509584 0.0026714743617543379 0 -0.024084194556338267 0.0022267301545180196 0 -0.020854362720961288 0.0029383715346113681 0 -0.021108381115276305 0.0026295218792625028 0 -0.0206494985062197 0.0022626555241214239 0 -0.012718178088041118 0.0028776593919996912 0 -0.012652100872558454 0.0028574921955900087 0 -0.012689430444918888 0.0029768382547431067 0 -0.017542407693877063 0.0022127737786160895 0 -0.018048839576717313 0.0028538254836336786 0 -0.017780406675682498 0.0027316702839922623 0 -0.016449040551375575 0.0026288857995598177 0 -0.014997011019730055 0.0027540034609572022 0 -0.020849448813172744 0.0021039176321767127 0 -0.021108381115276305 0.0026295218792625028 0 -0.0206494985062197 0.0022626555241214239 0 -0.016449040551375575 0.0026288857995598177 0 -0.019456929842895192 0.0026389248428196426 0 -0.024084194556338267 0.0022267301545180196 0 -0.022329045492573963 0.0021188391844066956 0 -0.02399484565264054 0.0021852809928708705 0 -0.02396325560185518 0.0020564469202857447 0 -0.023884600270560167 0.0021333985886877937 0 -0.02396325560185518 0.0020564469202857447 0 -0.023884600270560167 0.0021333985886877937 0 -0.02385212733894795 0.0020713178869403073 0 -0.024084194556338267 0.0022267301545180196 0 -0.024149129173028479 0.0022295169573144629 0 -0.02431405327862567 0.0022678088356706616 0 -0.02447029202164621 0.0025783182532147495 0 -0.024241178213863481 0.0025420790461569381 0 -0.024956511400592563 0.00293171912747513 0 -0.02447029202164621 0.0025783182532147495 0 -0.024224193271194322 0.0028234882999921647 0 -0.02482138672413706 0.0024709545743641609 0 -0.02431405327862567 0.0022678088356706616 0 -0.02447029202164621 0.0025783182532147495 0 -0.024956511400592563 0.00293171912747513 0 -0.02482138672413706 0.0024709545743641609 0 -0.02447029202164621 0.0025783182532147495 0 -0.02447029202164621 0.0025783182532147495 0 -0.024224193271194322 0.0028234882999921647 0 -0.024241178213863481 0.0025420790461569381 0 -0.027253192450689877 0.0032911159682386284 0 -0.026380851162389959 0.0031860254331978369 0 -0.024224193271194322 0.0028234882999921647 0 -0.023960191584346674 0.0025011370978428368 0 -0.023627820959779298 0.0026786388165751717 0 -0.02431405327862567 0.0022678088356706616 0 -0.023960191584346674 0.0025011370978428368 0 -0.024241178213863481 0.0025420790461569381 0 -0.024224193271194322 0.0028234882999921647 0 -0.023960191584346674 0.0025011370978428368 0 -0.024241178213863481 0.0025420790461569381 0 -0.02431405327862567 0.0022678088356706616 0 -0.023960191584346674 0.0025011370978428368 0 -0.023832782831732149 0.0023080984932659135 0 -0.02431405327862567 0.0022678088356706616 0 -0.023832782831732149 0.0023080984932659135 0 -0.023804099202758802 0.002113445747582752 0 -0.024149129173028479 0.0022295169573144629 0 -0.023830273526053113 0.0021089883482872814 0 -0.023960191584346674 0.0025011370978428368 0 -0.023832782831732149 0.0023080984932659135 0 -0.023653175806145205 0.0023910778150727074 0 -0.023782027453374235 0.0020287233740152321 0 -0.023804099202758802 0.002113445747582752 0 -0.02385212733894795 0.0020713178869403073 0 -0.023782027453374235 0.0020287233740152321 0 -0.023692340451070881 0.002052476542371407 0 -0.023804099202758802 0.002113445747582752 0 -0.023884600270560167 0.0021333985886877937 0 -0.023804099202758802 0.002113445747582752 0 -0.02385212733894795 0.0020713178869403073 0 -0.023683042237443535 0.0020657980641382266 0 -0.023452924813290442 0.0022498487741675448 0 -0.023692340451070881 0.002052476542371407 0 -0.023463827680398494 0.0022290729694463517 0 -0.023684569075000179 0.0022125607516098019 0 -0.023692340451070881 0.002052476542371407 0 -0.023804099202758802 0.002113445747582752 0 -0.023684569075000179 0.0022125607516098019 0 -0.023832782831732149 0.0023080984932659135 0 -0.023684569075000179 0.0022125607516098019 0 -0.023653175806145205 0.0023910778150727074 0 -0.023832782831732149 0.0023080984932659135 0 -0.023804099202758802 0.002113445747582752 0 -0.023684569075000179 0.0022125607516098019 0 -0.023463827680398494 0.0022290729694463517 0 -0.023428603977793613 0.0024612616829949672 0 -0.023653175806145205 0.0023910778150727074 0 -0.023463827680398494 0.0022290729694463517 0 -0.023684569075000179 0.0022125607516098019 0 -0.023653175806145205 0.0023910778150727074 0 -0.023428603977793613 0.0024612616829949672 0 -0.023653175806145205 0.0023910778150727074 0 -0.023627820959779298 0.0026786388165751717 0 -0.023960191584346674 0.0025011370978428368 0 -0.023653175806145205 0.0023910778150727074 0 -0.023627820959779298 0.0026786388165751717 0 -0.028948427492187158 0.0039696172514898532 0 -0.02935575570327241 0.0035915937608451787 0 -0.029706186954318349 0.0040751932010697784 0 -0.028948427492187158 0.0039696172514898532 0 -0.029706186954318349 0.0040751932010697784 0 -0.029230172263651905 0.0045987361820323744 0 -0.030055796334348531 0.0037652484678096826 0 -0.02935575570327241 0.0035915937608451787 0 -0.029706186954318349 0.0040751932010697784 0 -0.030137529457363147 0.0038273700180981845 0 -0.029706186954318349 0.0040751932010697784 0 -0.030059144804259749 0.0045583552138185922 0 -0.030137529457363147 0.0038273700180981845 0 -0.030055796334348531 0.0037652484678096826 0 -0.029706186954318349 0.0040751932010697784 0 -0.029706186954318349 0.0040751932010697784 0 -0.030059144804259749 0.0045583552138185922 0 -0.029230172263651905 0.0045987361820323744 0 -0.028995719570495737 0.0053705052441301885 0 -0.029230172263651905 0.0045987361820323744 0 -0.029846168374021362 0.0054762872757786714 0 -0.030101018082243056 0.0042330597913335611 0 -0.02990805213546702 0.0047291382133647876 0 -0.030059144804259749 0.0045583552138185922 0 -0.029230172263651905 0.0045987361820323744 0 -0.029846168374021362 0.0054762872757786714 0 -0.030136771305736564 0.0039135486169774199 0 -0.030149524522913682 0.0039487726465385958 0 -0.030163757997051479 0.0039379795734718597 0 -0.030149524522913682 0.0039487726465385958 0 -0.030163588553609639 0.0039514205932516368 0 -0.030163757997051479 0.0039379795734718597 0 -0.030149524522913682 0.0039487726465385958 0 -0.030163588553609639 0.0039514205932516368 0 -0.030166341132567803 0.0039547111713053307 0 -0.02990805213546702 0.0047291382133647876 0 -0.030630988885032778 0.0053718165307210138 0 -0.028995719570495737 0.0053705052441301885 0 -0.029158426563463999 0.0059713203843297976 0 -0.029846168374021362 0.0054762872757786714 0 -0.029158426563463999 0.0059713203843297976 0 -0.029846168374021362 0.0054762872757786714 0 -0.029370899208501083 0.0063701431449219538 0 -0.030149524522913682 0.0039487726465385958 0 -0.030169186739844769 0.0039607040563933871 0 -0.030166341132567803 0.0039547111713053307 0 -0.029846168374021362 0.0054762872757786714 0 -0.029370899208501083 0.0063701431449219538 0 -0.029507753754455194 0.0065311573237121527 0 -0.029158426563463999 0.0059713203843297976 0 -0.029148128511763752 0.0063108523830974509 0 -0.029370899208501083 0.0063701431449219538 0 -0.029154583750211082 0.0064983185171177474 0 -0.029148128511763752 0.0063108523830974509 0 -0.029370899208501083 0.0063701431449219538 0 -0.029154583750211082 0.0064983185171177474 0 -0.029370899208501083 0.0063701431449219538 0 -0.029428544553829039 0.0065642898951367226 0 -0.030411038090399144 0.0055649061270939366 0 -0.030630988885032778 0.0053718165307210138 0 -0.030630988885032778 0.0053718165307210138 0 -0.031147680460402952 0.0043382087763076029 0 -0.028941515707311224 0.0068143943904549094 0 -0.029154583750211082 0.0064983185171177474 0 -0.029428544553829039 0.0065642898951367226 0 -0.028941515707311224 0.0068143943904549094 0 -0.028775110099176087 0.0070204743881340107 0 -0.029428544553829039 0.0065642898951367226 0 -0.033182675976589388 0.0040730193571346766 0 -0.032607182790780356 0.0053752902457523842 0 -0.032034864604461276 0.0046545564967775659 0 -0.033182675976589388 0.0040730193571346766 0 -0.032034864604461276 0.0046545564967775659 0 -0.032292917077711723 0.0038424462595411358 0 -0.031015307768077646 0.0055968083454904297 0 -0.030630988885032778 0.0053718165307210138 0 -0.030176698112154163 0.0039494146093019891 0 -0.030170148088818956 0.0039497806458824343 0 -0.03017907807122085 0.0039334746764096958 0 -0.031147680460402952 0.0043382087763076029 0 -0.031765871021802831 0.0026192446931929459 0 -0.032034864604461276 0.0046545564967775659 0 -0.031453824947807775 0.0039276222842901647 0 -0.032292917077711723 0.0038424462595411358 0 -0.030176698112154163 0.0039494146093019891 0 -0.030170148088818956 0.0039497806458824343 0 -0.030166341132567803 0.0039547111713053307 0 -0.030169186739844769 0.0039607040563933871 0 -0.030176698112154163 0.0039494146093019891 0 -0.030166341132567803 0.0039547111713053307 0 -0.030163588553609639 0.0039514205932516368 0 -0.030170148088818956 0.0039497806458824343 0 -0.030166341132567803 0.0039547111713053307 0 -0.030163588553609639 0.0039514205932516368 0 -0.030170148088818956 0.0039497806458824343 0 -0.030163359444507268 0.003950790810757521 0 -0.030170148088818956 0.0039497806458824343 0 -0.030163359444507268 0.003950790810757521 0 -0.03017907807122085 0.0039334746764096958 0 -0.029315330540851493 0.0030271982440001144 0 -0.029930307402365297 0.0021719522020764589 0 -0.030389693541959879 0.0017570392909997102 0 -0.029646909195774201 0.0036605383342545772 0 -0.031765871021802831 0.0026192446931929459 0 -0.029930307402365297 0.0021719522020764589 0 -0.029982405996088132 0.0017489782553431967 0 -0.030389693541959879 0.0017570392909997102 0 -0.029315330540851493 0.0030271982440001144 0 -0.029930307402365297 0.0021719522020764589 0 -0.028573691313931098 0.0023162385586659459 0 -0.029930307402365297 0.0021719522020764589 0 -0.028573691313931098 0.0023162385586659459 0 -0.028366856039493384 0.001145079178184717 0 -0.029315330540851493 0.0030271982440001144 0 -0.028573691313931098 0.0023162385586659459 0 -0.027807466850491781 0.0032313995917972109 0 -0.029315330540851493 0.0030271982440001144 0 -0.028153755115492535 0.0045147962650324714 0 -0.027807466850491781 0.0032313995917972109 0 -0.029646909195774201 0.0036605383342545772 0 -0.02805087637979102 0.0036245041398258022 0 -0.030163359444507268 0.003950790810757521 0 -0.030163757997051479 0.0039379795734718597 0 -0.030173256263639169 0.0039369411393826801 0 -0.030163588553609639 0.0039514205932516368 0 -0.030163359444507268 0.003950790810757521 0 -0.030163757997051479 0.0039379795734718597 0 -0.030187680266518278 0.0039061761027009471 0 -0.030163757997051479 0.0039379795734718597 0 -0.030173256263639169 0.0039369411393826801 0 -0.028434922908582575 0.0036465488392198016 0 -0.02805087637979102 0.0036245041398258022 0 -0.02682497064058036 0.0034086968092040281 0 -0.026381365903025134 0.0032721975970956148 0 -0.026539237644960023 0.003790886025672019 0 -0.026901544424563585 0.0033915614357711032 0 -0.026625644720806616 0.0027516755091135359 0 -0.027384762124590956 0.0027825857104986501 0 -0.026427044366986036 0.0030247767592408927 0 -0.02805087637979102 0.0036245041398258022 0 -0.025924257087575189 0.0024128407133968874 0 -0.026004038575573568 0.002403480386100978 0 -0.026152931251594239 0.0023776670261953176 0 -0.026427044366986036 0.0030247767592408927 0 -0.026373720123728798 0.0025097673554686714 0 -0.025975389295633165 0.0023480552692440671 0 -0.026004038575573568 0.002403480386100978 0 -0.026050667153512942 0.0024079729218038875 0 -0.026004038575573568 0.002403480386100978 0 -0.026050667153512942 0.0024079729218038875 0 -0.026152931251594239 0.0023776670261953176 0 -0.026050667153512942 0.0024079729218038875 0 -0.026152931251594239 0.0023776670261953176 0 -0.026101189889882876 0.002362104365316016 0 -0.026373720123728798 0.0025097673554686714 0 -0.026319673898792327 0.0021431364338931652 0 -0.026625644720806616 0.0027516755091135359 0 -0.027192312677433883 0.0020496355583461546 0 -0.026344221093743122 0.0020924895642800896 0 -0.026152931251594239 0.0023776670261953176 0 -0.026344221093743122 0.0020924895642800896 0 -0.026101189889882876 0.002362104365316016 0 -0.026625644720806616 0.0027516755091135359 0 -0.027384762124590956 0.0027825857104986501 0 -0.027192312677433883 0.0020496355583461546 0 -0.02805087637979102 0.0036245041398258022 0 -0.027480173931628282 0.0026402625213028299 0 -0.027480173931628282 0.0026402625213028299 0 -0.027233198025311912 0.0016818042836088012 0 -0.028573691313931098 0.0023162385586659459 0 -0.027807466850491781 0.0032313995917972109 0 -0.027433896241790112 0.0019970572680540677 0 -0.027192312677433883 0.0020496355583461546 0 -0.027027949147913153 0.001407958856951284 0 -0.026635193923085915 0.0016787171557254232 0 -0.028573691313931098 0.0023162385586659459 0 -0.027433896241790112 0.0019970572680540677 0 -0.028366856039493384 0.001145079178184717 0 -0.027027949147913153 0.001407958856951284 0 -0.026635193923085915 0.0016787171557254232 0 -0.026469465054786829 0.0012380148700571075 0 -0.027192312677433883 0.0020496355583461546 0 -0.026635193923085915 0.0016787171557254232 0 -0.026344221093743122 0.0020924895642800896 0 -0.026344221093743122 0.0020924895642800896 0 -0.02592964302850809 0.0019341853080605553 0 -0.025993270612273817 0.0022274959762372203 0 -0.026344221093743122 0.0020924895642800896 0 -0.026216346841996557 0.0016643891629257023 0 -0.02592964302850809 0.0019341853080605553 0 -0.026635193923085915 0.0016787171557254232 0 -0.026344221093743122 0.0020924895642800896 0 -0.026216346841996557 0.0016643891629257023 0 -0.026635193923085915 0.0016787171557254232 0 -0.026216346841996557 0.0016643891629257023 0 -0.026469465054786829 0.0012380148700571075 0 -0.026216346841996557 0.0016643891629257023 0 -0.025781384150080633 0.0015371078868794249 0 -0.026010316307367918 0.0011822426654747975 0 -0.026216346841996557 0.0016643891629257023 0 -0.026010316307367918 0.0011822426654747975 0 -0.026469465054786829 0.0012380148700571075 0 -0.025521825782882358 0.00095725666820739943 0 -0.025781384150080633 0.0015371078868794249 0 -0.026010316307367918 0.0011822426654747975 0 -0.025521825782882358 0.00095725666820739943 0 -0.025478637757950697 0.0015179096672003141 0 -0.025781384150080633 0.0015371078868794249 0 -0.025478637757950697 0.0015179096672003141 0 -0.025781384150080633 0.0015371078868794249 0 -0.025590937372979999 0.0017867175547981405 0 -0.02592964302850809 0.0019341853080605553 0 -0.025616718093059765 0.0021680191986955524 0 -0.025993270612273817 0.0022274959762372203 0 -0.025781384150080633 0.0015371078868794249 0 -0.025590937372979999 0.0017867175547981405 0 -0.02592964302850809 0.0019341853080605553 0 -0.026216346841996557 0.0016643891629257023 0 -0.025781384150080633 0.0015371078868794249 0 -0.02592964302850809 0.0019341853080605553 0 -0.025590937372979999 0.0017867175547981405 0 -0.02592964302850809 0.0019341853080605553 0 -0.025616718093059765 0.0021680191986955524 0 -0.025616718093059765 0.0021680191986955524 0 -0.025993270612273817 0.0022274959762372203 0 -0.026005106734368292 0.0024540378612043947 0 -0.016395062433298295 0.0063329023588428032 0 -0.016139640955066897 0.0068832639682679378 0 -0.015044758465530833 0.0057720599017262392 0 -0.020743979947308679 0.0049163487520759303 0 -0.020471494449416965 0.0040173323690233086 0 -0.025993270612273817 0.0022274959762372203 0 -0.026101189889882876 0.002362104365316016 0 -0.026005106734368292 0.0024540378612043947 0 -0.026344221093743122 0.0020924895642800896 0 -0.025993270612273817 0.0022274959762372203 0 -0.026101189889882876 0.002362104365316016 0 -0.015338657201518066 0.0050092277174479793 0 -0.014651255408506706 0.0048327897897486602 0 -0.015044758465530833 0.0057720599017262392 0 -0.026042606713099516 0.0023173586939819663 0 -0.026050667153512942 0.0024079729218038875 0 -0.026005106734368292 0.0024540378612043947 0 -0.026050667153512942 0.0024079729218038875 0 -0.026101189889882876 0.002362104365316016 0 -0.026005106734368292 0.0024540378612043947 0 -0.016395062433298295 0.0063329023588428032 0 -0.015338657201518066 0.0050092277174479793 0 -0.015044758465530833 0.0057720599017262392 0 -0.015325999921430239 0.0059157371777736742 0 -0.015146579274079672 0.0081601006511880583 0 -0.013338479979594158 0.0051509440026199565 0 -0.015437817259877263 0.007878998689125111 0 -0.014397963634798379 0.0049904743304328199 0 -0.030474429452062128 0.0016604660574692839 0 -0.030436083334676782 0.0017530402868394029 0 -0.030399118610142016 0.0016891013229731358 0 -0.030353342810008038 0.0017060244031142794 0 -0.030364014348326109 0.0017568005351523246 0 -0.030399118610142016 0.0016891013229731358 0 -0.030353342810008038 0.0017060244031142794 0 -0.030364014348326109 0.0017568005351523246 0 -0.030320507676881363 0.0017184942413212823 0 -0.030353342810008038 0.0017060244031142794 0 -0.030320507676881363 0.0017184942413212823 0 -0.030327341254952598 0.0016893480293679482 0 -0.030436083334676782 0.0017530402868394029 0 -0.030364014348326109 0.0017568005351523246 0 -0.030399118610142016 0.0016891013229731358 0 -0.030436083334676782 0.0017530402868394029 0 -0.030364014348326109 0.0017568005351523246 0 -0.030423195233898102 0.0018322314683926772 0 -0.030364014348326109 0.0017568005351523246 0 -0.030290020078453033 0.0017578089698385632 0 -0.030321650920117016 0.001804880252019542 0 -0.030364014348326109 0.0017568005351523246 0 -0.030290020078453033 0.0017578089698385632 0 -0.030320507676881363 0.0017184942413212823 0 -0.030290020078453033 0.0017578089698385632 0 -0.030243442818053114 0.0017965333169428959 0 -0.030321650920117016 0.001804880252019542 0 -0.030290020078453033 0.0017578089698385632 0 -0.030243442818053114 0.0017965333169428959 0 -0.030226174768276347 0.0017352567494807204 0 -0.030290020078453033 0.0017578089698385632 0 -0.030226174768276347 0.0017352567494807204 0 -0.030273146124552217 0.0017093468392194078 0 -0.030226174768276347 0.0017352567494807204 0 -0.030273146124552217 0.0017093468392194078 0 -0.030231465369095004 0.0016832359869878206 0 -0.030226174768276347 0.0017352567494807204 0 -0.030231465369095004 0.0016832359869878206 0 -0.030185764795396322 0.0016994184094639916 0 -0.030290020078453033 0.0017578089698385632 0 -0.030273146124552217 0.0017093468392194078 0 -0.030320507676881363 0.0017184942413212823 0 -0.030273146124552217 0.0017093468392194078 0 -0.030320507676881363 0.0017184942413212823 0 -0.030302314783392049 0.0016804588242699417 0 -0.030320507676881363 0.0017184942413212823 0 -0.030327341254952598 0.0016893480293679482 0 -0.030302314783392049 0.0016804588242699417 0 -0.030327341254952598 0.0016893480293679482 0 -0.03031472993906606 0.0016674057252253041 0 -0.030336108562403114 0.0016680461585479337 0 -0.030315625428256148 0.0016293656551924812 0 -0.030065921243517649 0.0015141318082911824 0 -0.030165668773452937 0.0015851969848575973 0 -0.028028572886993848 0.00083016894450655679 0 -0.028507532860458571 0.00097948836771942689 0 -0.03031472993906606 0.0016674057252253041 0 -0.030311891763493137 0.0016489765148452887 0 -0.030336108562403114 0.0016680461585479337 0 -0.03031472993906606 0.0016674057252253041 0 -0.030302314783392049 0.0016804588242699417 0 -0.030295195779054204 0.0016546824963470398 0 -0.030327341254952598 0.0016893480293679482 0 -0.03031472993906606 0.0016674057252253041 0 -0.030302314783392049 0.0016804588242699417 0 -0.030273146124552217 0.0017093468392194078 0 -0.030302314783392049 0.0016804588242699417 0 -0.030270658405395116 0.001673922139784818 0 -0.030270658405395116 0.001673922139784818 0 -0.030295195779054204 0.0016546824963470398 0 -0.030272086348758477 0.0016539779805049546 0 -0.030270658405395116 0.001673922139784818 0 -0.030272086348758477 0.0016539779805049546 0 -0.030253336720818823 0.0016523728059664258 0 -0.030302314783392049 0.0016804588242699417 0 -0.030270658405395116 0.001673922139784818 0 -0.030295195779054204 0.0016546824963470398 0 -0.030302126625177846 0.0016313498201012207 0 -0.030315625428256148 0.0016293656551924812 0 -0.030251725848782874 0.0016298658958741777 0 -0.03027005430521254 0.0016422949798561744 0 -0.030302126625177846 0.0016313498201012207 0 -0.030251725848782874 0.0016298658958741777 0 -0.030295195779054204 0.0016546824963470398 0 -0.030272086348758477 0.0016539779805049546 0 -0.03027005430521254 0.0016422949798561744 0 -0.030272086348758477 0.0016539779805049546 0 -0.03027005430521254 0.0016422949798561744 0 -0.030253336720818823 0.0016523728059664258 0 -0.030295195779054204 0.0016546824963470398 0 -0.03027005430521254 0.0016422949798561744 0 -0.030302126625177846 0.0016313498201012207 0 -0.030315625428256148 0.0016293656551924812 0 -0.030311891763493137 0.0016489765148452887 0 -0.030336108562403114 0.0016680461585479337 0 -0.030302126625177846 0.0016313498201012207 0 -0.030315625428256148 0.0016293656551924812 0 -0.030311891763493137 0.0016489765148452887 0 -0.030295195779054204 0.0016546824963470398 0 -0.030302126625177846 0.0016313498201012207 0 -0.030311891763493137 0.0016489765148452887 0 -0.03031472993906606 0.0016674057252253041 0 -0.030295195779054204 0.0016546824963470398 0 -0.030311891763493137 0.0016489765148452887 0 -0.030231465369095004 0.0016832359869878206 0 -0.030218335953080242 0.0016450459006396509 0 -0.030190086430634241 0.0016614364592826255 0 -0.030270658405395116 0.001673922139784818 0 -0.030231465369095004 0.0016832359869878206 0 -0.030253336720818823 0.0016523728059664258 0 -0.030273146124552217 0.0017093468392194078 0 -0.030270658405395116 0.001673922139784818 0 -0.030231465369095004 0.0016832359869878206 0 -0.030251725848782874 0.0016298658958741777 0 -0.030218335953080242 0.0016450459006396509 0 -0.030203056757438708 0.0016204413662274778 0 -0.030231465369095004 0.0016832359869878206 0 -0.030253336720818823 0.0016523728059664258 0 -0.030218335953080242 0.0016450459006396509 0 -0.030253336720818823 0.0016523728059664258 0 -0.030251725848782874 0.0016298658958741777 0 -0.030218335953080242 0.0016450459006396509 0 -0.03027005430521254 0.0016422949798561744 0 -0.030253336720818823 0.0016523728059664258 0 -0.030251725848782874 0.0016298658958741777 0 -0.030218335953080242 0.0016450459006396509 0 -0.030176752260154347 0.0016216259660400295 0 -0.030190086430634241 0.0016614364592826255 0 -0.030251725848782874 0.0016298658958741777 0 -0.030203056757438708 0.0016204413662274778 0 -0.030165668773452937 0.0015851969848575973 0 -0.030315625428256148 0.0016293656551924812 0 -0.030251725848782874 0.0016298658958741777 0 -0.030165668773452937 0.0015851969848575973 0 -0.030218335953080242 0.0016450459006396509 0 -0.030203056757438708 0.0016204413662274778 0 -0.030176752260154347 0.0016216259660400295 0 -0.026087679019715863 0.00010247356470324739 0 -0.026092414396324266 0.0004096968145827381 0 -0.026384545508034766 0.00036353651825543197 0 -0.025499054507987583 0.00016408228684484458 0 -0.026087679019715863 0.00010247356470324739 0 -0.02578538805321064 0.00042677933369989358 0 -0.030474429452062128 0.0016604660574692839 0 -0.030315625428256148 0.0016293656551924812 0 -0.030399118610142016 0.0016891013229731358 0 -0.026087679019715863 0.00010247356470324739 0 -0.02578538805321064 0.00042677933369989358 0 -0.026092414396324266 0.0004096968145827381 0 -0.027980298029002447 0.00090638658197621995 0 -0.028028572886993848 0.00083016894450655679 0 -0.030353342810008038 0.0017060244031142794 0 -0.030336108562403114 0.0016680461585479337 0 -0.030399118610142016 0.0016891013229731358 0 -0.030315625428256148 0.0016293656551924812 0 -0.030336108562403114 0.0016680461585479337 0 -0.030399118610142016 0.0016891013229731358 0 -0.030353342810008038 0.0017060244031142794 0 -0.030327341254952598 0.0016893480293679482 0 -0.030336108562403114 0.0016680461585479337 0 -0.025521825782882358 0.00095725666820739943 0 -0.02578538805321064 0.00042677933369989358 0 -0.026112947146989477 0.00074357252996252944 0 -0.02578538805321064 0.00042677933369989358 0 -0.026112947146989477 0.00074357252996252944 0 -0.026092414396324266 0.0004096968145827381 0 -0.025521825782882358 0.00095725666820739943 0 -0.026010316307367918 0.0011822426654747975 0 -0.026112947146989477 0.00074357252996252944 0 -0.026010316307367918 0.0011822426654747975 0 -0.026469465054786829 0.0012380148700571075 0 -0.026112947146989477 0.00074357252996252944 0 -0.026469465054786829 0.0012380148700571075 0 -0.026112947146989477 0.00074357252996252944 0 -0.026513051028743 0.00074958293005849045 0 -0.026087679019715863 0.00010247356470324739 0 -0.026384545508034766 0.00036353651825543197 0 -0.026838627875192637 0.00038973297127470189 0 -0.02631415433739356 0.0005521394403607883 0 -0.026112947146989477 0.00074357252996252944 0 -0.026513051028743 0.00074958293005849045 0 -0.02631415433739356 0.0005521394403607883 0 -0.026510291872311149 0.0005118002574366515 0 -0.026513051028743 0.00074958293005849045 0 -0.02631415433739356 0.0005521394403607883 0 -0.026112947146989477 0.00074357252996252944 0 -0.026092414396324266 0.0004096968145827381 0 -0.02631415433739356 0.0005521394403607883 0 -0.026092414396324266 0.0004096968145827381 0 -0.026384545508034766 0.00036353651825543197 0 -0.02631415433739356 0.0005521394403607883 0 -0.026510291872311149 0.0005118002574366515 0 -0.026384545508034766 0.00036353651825543197 0 -0.030065921243517649 0.0015141318082911824 0 -0.030165668773452937 0.0015851969848575973 0 -0.030109671810378116 0.0015758003085043775 0 -0.026510291872311149 0.0005118002574366515 0 -0.026384545508034766 0.00036353651825543197 0 -0.026838627875192637 0.00038973297127470189 0 -0.030065921243517649 0.0015141318082911824 0 -0.030076368865984183 0.0015993545923068809 0 -0.030109671810378116 0.0015758003085043775 0 -0.030065921243517649 0.0015141318082911824 0 -0.029988067368634248 0.0015919985958031218 0 -0.030076368865984183 0.0015993545923068809 0 -0.026838627875192637 0.00038973297127470189 0 -0.026513051028743 0.00074958293005849045 0 -0.027025197721137196 0.00082098498788115858 0 -0.026510291872311149 0.0005118002574366515 0 -0.026838627875192637 0.00038973297127470189 0 -0.026513051028743 0.00074958293005849045 0 -0.027027949147913153 0.001407958856951284 0 -0.026469465054786829 0.0012380148700571075 0 -0.026721001292465633 0.0010274544835039033 0 -0.027027949147913153 0.001407958856951284 0 -0.027025197721137196 0.00082098498788115858 0 -0.026721001292465633 0.0010274544835039033 0 -0.026513051028743 0.00074958293005849045 0 -0.027025197721137196 0.00082098498788115858 0 -0.026721001292465633 0.0010274544835039033 0 -0.027233198025311912 0.0016818042836088012 0 -0.027032591678116481 0.0008800386440894005 0 -0.026469465054786829 0.0012380148700571075 0 -0.026513051028743 0.00074958293005849045 0 -0.026721001292465633 0.0010274544835039033 0 -0.027433896241790112 0.0019970572680540677 0 -0.027025197721137196 0.00082098498788115858 0 -0.028366856039493384 0.001145079178184717 0 -0.026838627875192637 0.00038973297127470189 0 -0.027025197721137196 0.00082098498788115858 0 -0.028366856039493384 0.001145079178184717 0 -0.030065921243517649 0.0015141318082911824 0 -0.02990533636659996 0.0015570753386019095 0 -0.029988067368634248 0.0015919985958031218 0 -0.028507532860458571 0.00097948836771942689 0 -0.02910946433993343 0.0013948510815129658 0 -0.030065921243517649 0.0015141318082911824 0 -0.02990533636659996 0.0015570753386019095 0 -0.029830221924948819 0.0015698084357579154 0 -0.02990533636659996 0.0015570753386019095 0 -0.029928035884497103 0.0015772791147306024 0 -0.029988067368634248 0.0015919985958031218 0 -0.029988067368634248 0.0015919985958031218 0 -0.030004150931939911 0.001721243965208814 0 -0.029902422286657258 0.0016014468498953972 0 -0.029988067368634248 0.0015919985958031218 0 -0.030070746059404348 0.0016619764389815266 0 -0.030004150931939911 0.001721243965208814 0 -0.029928035884497103 0.0015772791147306024 0 -0.029988067368634248 0.0015919985958031218 0 -0.029902422286657258 0.0016014468498953972 0 -0.030056619759553566 0.0017740043680723786 0 -0.0311162598480434 0.0014226020114062093 0 -0.029988067368634248 0.0015919985958031218 0 -0.030076368865984183 0.0015993545923068809 0 -0.030070746059404348 0.0016619764389815266 0 -0.030076368865984183 0.0015993545923068809 0 -0.030109671810378116 0.0015758003085043775 0 -0.030130817125014156 0.0016045165878909393 0 -0.030076368865984183 0.0015993545923068809 0 -0.030130817125014156 0.0016045165878909393 0 -0.030137402874647595 0.0016565989356880975 0 -0.030165668773452937 0.0015851969848575973 0 -0.030109671810378116 0.0015758003085043775 0 -0.030130817125014156 0.0016045165878909393 0 -0.030130817125014156 0.0016045165878909393 0 -0.030176752260154347 0.0016216259660400295 0 -0.030137402874647595 0.0016565989356880975 0 -0.030203056757438708 0.0016204413662274778 0 -0.030165668773452937 0.0015851969848575973 0 -0.030176752260154347 0.0016216259660400295 0 -0.030165668773452937 0.0015851969848575973 0 -0.030130817125014156 0.0016045165878909393 0 -0.030176752260154347 0.0016216259660400295 0 -0.030176752260154347 0.0016216259660400295 0 -0.030137402874647595 0.0016565989356880975 0 -0.030190086430634241 0.0016614364592826255 0 -0.030231465369095004 0.0016832359869878206 0 -0.030190086430634241 0.0016614364592826255 0 -0.030185764795396322 0.0016994184094639916 0 -0.030137402874647595 0.0016565989356880975 0 -0.030190086430634241 0.0016614364592826255 0 -0.030185764795396322 0.0016994184094639916 0 -0.030137402874647595 0.0016565989356880975 0 -0.030070746059404348 0.0016619764389815266 0 -0.030156628413645484 0.0017344575319085951 0 -0.030076368865984183 0.0015993545923068809 0 -0.030137402874647595 0.0016565989356880975 0 -0.030070746059404348 0.0016619764389815266 0 -0.030070746059404348 0.0016619764389815266 0 -0.030156628413645484 0.0017344575319085951 0 -0.030004150931939911 0.001721243965208814 0 -0.030137402874647595 0.0016565989356880975 0 -0.030156628413645484 0.0017344575319085951 0 -0.030185764795396322 0.0016994184094639916 0 -0.030226174768276347 0.0017352567494807204 0 -0.030156628413645484 0.0017344575319085951 0 -0.030185764795396322 0.0016994184094639916 0 -0.030243442818053114 0.0017965333169428959 0 -0.030156628413645484 0.0017344575319085951 0 -0.030189811004543512 0.0018334948068347294 0 -0.030243442818053114 0.0017965333169428959 0 -0.030226174768276347 0.0017352567494807204 0 -0.030156628413645484 0.0017344575319085951 0 -0.030156628413645484 0.0017344575319085951 0 -0.030004150931939911 0.001721243965208814 0 -0.030189811004543512 0.0018334948068347294 0 -0.030264824732785005 0.0018885133300170893 0 -0.030335764653170106 0.0019473015552209079 0 -0.030309518054508541 0.0018235117483779391 0 -0.030056619759553566 0.0017740043680723786 0 -0.03019635410063452 0.0018462976907744884 0 -0.030264824732785005 0.0018885133300170893 0 -0.030244637412834847 0.0018394297729428452 0 -0.030189811004543512 0.0018334948068347294 0 -0.030264824732785005 0.0018885133300170893 0 -0.030309518054508541 0.0018235117483779391 0 -0.030244637412834847 0.0018394297729428452 0 -0.034459587038031293 -5.6391501169479088e-05 0 -0.03428672491897039 0.00026127464063377761 0 -0.034250733935875459 -0.00017520547059051374 0 -0.0311162598480434 0.0014226020114062093 0 -0.033757650594207718 0.00028646746349605734 0 -0.034662168172120658 4.7310500298137539e-05 0 -0.033757650594207718 0.00028646746349605734 0 -0.034459587038031293 -5.6391501169479088e-05 0 -0.034698520063717021 7.8726558642129522e-05 0 -0.034519512428272697 0.00022407189466508822 0 -0.034754816500479201 2.1156987170156829e-05 0 -0.034698520063717021 7.8726558642129522e-05 0 -0.034753951620533949 1.9205086897125251e-05 0 -0.034662168172120658 4.7310500298137539e-05 0 -0.034676939869084107 5.2322258205318703e-05 0 -0.034698520063717021 7.8726558642129522e-05 0 -0.034519512428272697 0.00022407189466508822 0 -0.034657422330568684 0.00030635695840730288 0 -0.034459587038031293 -5.6391501169479088e-05 0 -0.034519512428272697 0.00022407189466508822 0 -0.03428672491897039 0.00026127464063377761 0 -0.0311162598480434 0.0014226020114062093 0 -0.030990542911901644 0.0014566733436296676 0 -0.029928035884497103 0.0015772791147306024 0 -0.029902422286657258 0.0016014468498953972 0 -0.029909183618050242 0.0015769667031561812 0 -0.02990533636659996 0.0015570753386019095 0 -0.029928035884497103 0.0015772791147306024 0 -0.029909183618050242 0.0015769667031561812 0 -0.034519512428272697 0.00022407189466508822 0 -0.03428672491897039 0.00026127464063377761 0 -0.034479280141812459 0.000475395752711858 0 -0.02990533636659996 0.0015570753386019095 0 -0.029830221924948819 0.0015698084357579154 0 -0.029924719004248538 0.0015439264574220535 0 -0.0311162598480434 0.0014226020114062093 0 -0.032334311278281395 0.00083176180434981145 0 -0.029907817604043652 0.0015817736099201034 0 -0.029909183618050242 0.0015769667031561812 0 -0.029924719004248538 0.0015439264574220535 0 -0.02990533636659996 0.0015570753386019095 0 -0.029909183618050242 0.0015769667031561812 0 -0.029924719004248538 0.0015439264574220535 0 -0.029923756886304394 0.0021187521268481542 0 -0.02910946433993343 0.0013948510815129658 0 -0.029830221924948819 0.0015698084357579154 0 -0.029982405996088132 0.0017489782553431967 0 -0.029924719004248538 0.0015439264574220535 0 -0.032334311278281395 0.00083176180434981145 0 -0.031765871021802831 0.0026192446931929459 0 -0.029982405996088132 0.0017489782553431967 0 -0.029924719004248538 0.0015439264574220535 0 -0.030389693541959879 0.0017570392909997102 0 -0.034479280141812459 0.000475395752711858 0 -0.03465892341158773 0.00047834845651278072 0 -0.034644381072784051 0.0007131888950615402 0 -0.029930307402365297 0.0021719522020764589 0 -0.029830221924948819 0.0015698084357579154 0 -0.029982405996088132 0.0017489782553431967 0 -0.034519512428272697 0.00022407189466508822 0 -0.034479280141812459 0.000475395752711858 0 -0.034657422330568684 0.00030635695840730288 0 -0.034479280141812459 0.000475395752711858 0 -0.034657422330568684 0.00030635695840730288 0 -0.03465892341158773 0.00047834845651278072 0 -0.034657422330568684 0.00030635695840730288 0 -0.034849369238004337 0.00042620549513640099 0 -0.034811441265763195 0.00020273003530115803 0 -0.034657422330568684 0.00030635695840730288 0 -0.03465892341158773 0.00047834845651278072 0 -0.034849369238004337 0.00042620549513640099 0 -0.031765871021802831 0.0026192446931929459 0 -0.033794661628844806 0.0014977965948694215 0 -0.03465892341158773 0.00047834845651278072 0 -0.034644381072784051 0.0007131888950615402 0 -0.034849369238004337 0.00042620549513640099 0 -0.031453824947807775 0.0039276222842901647 0 -0.032292917077711723 0.0038424462595411358 0 -0.03233761684587607 0.0028111632635463573 0 -0.033182675976589388 0.0040730193571346766 0 -0.03233761684587607 0.0028111632635463573 0 -0.033769851379399966 0.0027481233979248011 0 -0.033182675976589388 0.0040730193571346766 0 -0.032292917077711723 0.0038424462595411358 0 -0.03233761684587607 0.0028111632635463573 0 -0.03233761684587607 0.0028111632635463573 0 -0.033769851379399966 0.0027481233979248011 0 -0.03324418243372277 0.0016876476220426036 0 -0.033794661628844806 0.0014977965948694215 0 -0.034056468985327847 0.000968427035440206 0 -0.034849369238004337 0.00042620549513640099 0 -0.034811441265763195 0.00020273003530115803 0 -0.034950282372492328 0.00016420439098339872 0 -0.034811441265763195 0.00020273003530115803 0 -0.034858119394729145 5.0729629546645407e-05 0 -0.034950282372492328 0.00016420439098339872 0 -0.034698520063717021 7.8726558642129522e-05 0 -0.034657422330568684 0.00030635695840730288 0 -0.034811441265763195 0.00020273003530115803 0 -0.034698520063717021 7.8726558642129522e-05 0 -0.034858119394729145 5.0729629546645407e-05 0 -0.034753951620533949 1.9205086897125251e-05 0 -0.034698520063717021 7.8726558642129522e-05 0 -0.034811441265763195 0.00020273003530115803 0 -0.034858119394729145 5.0729629546645407e-05 0 -0.034858119394729145 5.0729629546645407e-05 0 -0.034950282372492328 0.00016420439098339872 0 -0.034918878291985596 2.1734291365637606e-05 0 -0.034858119394729145 5.0729629546645407e-05 0 -0.034920526059528278 6.0953633578484298e-06 0 -0.034918878291985596 2.1734291365637606e-05 0 -0.034920526059528278 6.0953633578484298e-06 0 -0.034918878291985596 2.1734291365637606e-05 0 -0.034929435545821112 3.8502437279067046e-06 0 -0.034858119394729145 5.0729629546645407e-05 0 -0.034777266667232298 -9.2973371518791174e-06 0 -0.034753951620533949 1.9205086897125251e-05 0 -0.034864192568349606 5.069122101934831e-05 0 -0.034860999949058967 9.7940256160743376e-07 0 -0.034858119394729145 5.0729629546645407e-05 0 -0.034920526059528278 6.0953633578484298e-06 0 -0.034938096461785702 6.8783506841716537e-07 0 -0.034920526059528278 6.0953633578484298e-06 0 -0.034938096461785702 6.8783506841716537e-07 0 -0.034960586201583106 1.452099090627516e-06 0 -0.034920526059528278 6.0953633578484298e-06 0 -0.034960586201583106 1.452099090627516e-06 0 -0.034929435545821112 3.8502437279067046e-06 0 -0.034960586201583106 1.452099090627516e-06 0 -0.034929435545821112 3.8502437279067046e-06 0 -0.034964124873207762 -5.8933293396065465e-06 0 -0.034999887958700779 -2.1007219682404167e-08 0 -0.034960586201583106 1.452099090627516e-06 0 -0.034964124873207762 -5.8933293396065465e-06 0 -0.034999887958700779 -2.1007219682404167e-08 0 -0.034960586201583106 1.452099090627516e-06 0 -0.03499998194716894 1.5853044076841619e-08 0 -0.034938096461785702 6.8783506841716537e-07 0 -0.034960586201583106 1.452099090627516e-06 0 -0.034983908147047382 1.9768827867474771e-07 0 -0.034960586201583106 1.452099090627516e-06 0 -0.034983908147047382 1.9768827867474771e-07 0 -0.03499998194716894 1.5853044076841619e-08 0 -0.034983908147047382 1.9768827867474771e-07 0 -0.03499998194716894 1.5853044076841619e-08 0 -0.034999995212862851 -7.8792122132851497e-09 0 -0.034999794696906443 5.4134999741682097e-08 0 -0.034854278813015685 -1.3817616441062739e-06 0 -0.035000091680029349 -2.6282132710750755e-08 0 -0.034910559114425019 -3.1038918162786256e-06 0 -0.034999958895888722 -9.3137339669616597e-09 0 -0.034838318362778342 5.3262321217447976e-06 0 -0.034999794696906443 5.4134999741682097e-08 0 -0.034854278813015685 -1.3817616441062739e-06 0 -0.035074066991277734 -4.6832131613743722e-05 0 -0.033757650594207718 0.00028646746349605734 0 -0.034854278813015685 -1.3817616441062739e-06 0 -0.03479917877139195 -1.4655783365330073e-06 0 -0.034779312868710076 4.7475996501631321e-06 0 -0.034838318362778342 5.3262321217447976e-06 0 -0.034854278813015685 -1.3817616441062739e-06 0 -0.03479917877139195 -1.4655783365330073e-06 0 -0.034860999949058967 9.7940256160743376e-07 0 -0.034910559114425019 -3.1038918162786256e-06 0 -0.034777266667232298 -9.2973371518791174e-06 0 -0.034838318362778342 5.3262321217447976e-06 0 -0.03479917877139195 -1.4655783365330073e-06 0 -0.034777266667232298 -9.2973371518791174e-06 0 -0.03479917877139195 -1.4655783365330073e-06 0 -0.034753951620533949 1.9205086897125251e-05 0 -0.034754816500479201 2.1156987170156829e-05 0 -0.03479917877139195 -1.4655783365330073e-06 0 -0.034753951620533949 1.9205086897125251e-05 0 -0.034754816500479201 2.1156987170156829e-05 0 -0.03479917877139195 -1.4655783365330073e-06 0 -0.034779312868710076 4.7475996501631321e-06 0 -0.033757650594207718 0.00028646746349605734 0 -0.032407919211191002 0.00095357144690014163 0 -0.030309518054508541 0.0018235117483779391 0 -0.030244637412834847 0.0018394297729428452 0 -0.030205746249317936 0.0018421281214873707 0 -0.030244637412834847 0.0018394297729428452 0 -0.030189811004543512 0.0018334948068347294 0 -0.030205746249317936 0.0018421281214873707 0 -0.030243442818053114 0.0017965333169428959 0 -0.030189811004543512 0.0018334948068347294 0 -0.030271178083410791 0.0018544838634083956 0 -0.030189811004543512 0.0018334948068347294 0 -0.030205746249317936 0.0018421281214873707 0 -0.030271178083410791 0.0018544838634083956 0 -0.034959733668983743 9.3008425387449323e-06 0 -0.034983247127278592 6.9392311375727495e-06 0 -0.034971202918255437 1.2619098739832414e-05 0 -0.032407919211191002 0.00095357144690014163 0 -0.032708142552029897 0.00098938625975036106 0 -0.030205746249317936 0.0018421281214873707 0 -0.030326671273250016 0.0019514070599465946 0 -0.030271178083410791 0.0018544838634083956 0 -0.034973517807852024 8.1005180419107064e-06 0 -0.034947233758179395 9.3050937294046781e-06 0 -0.034959733668983743 9.3008425387449323e-06 0 -0.034973517807852024 8.1005180419107064e-06 0 -0.034959733668983743 9.3008425387449323e-06 0 -0.034983247127278592 6.9392311375727495e-06 0 -0.034973517807852024 8.1005180419107064e-06 0 -0.034999982216669979 3.3089676790479817e-09 0 -0.034983247127278592 6.9392311375727495e-06 0 -0.035074066991277734 -4.6832131613743722e-05 0 -0.034999870075216502 1.0850771724880156e-07 0 -0.034999982216669979 3.3089676790479817e-09 0 -0.034999984519961044 7.4852635737177275e-09 0 -0.034983247127278592 6.9392311375727495e-06 0 -0.034999984519961044 7.4852635737177275e-09 0 -0.034983247127278592 6.9392311375727495e-06 0 -0.03498863949851818 6.8379842539062159e-06 0 -0.03498863949851818 6.8379842539062159e-06 0 -0.034987391758480035 9.8007062313371668e-06 0 -0.034971202918255437 1.2619098739832414e-05 0 -0.034983247127278592 6.9392311375727495e-06 0 -0.03498863949851818 6.8379842539062159e-06 0 -0.034971202918255437 1.2619098739832414e-05 0 -0.034999984519961044 7.4852635737177275e-09 0 -0.03498863949851818 6.8379842539062159e-06 0 -0.034999965271694133 -2.2919416951361486e-09 0 -0.03498863949851818 6.8379842539062159e-06 0 -0.034999965271694133 -2.2919416951361486e-09 0 -0.034987391758480035 9.8007062313371668e-06 0 -0.03499083707972752 -2.9611332502895045e-06 0 -0.034987391758480035 9.8007062313371668e-06 0 -0.034971788650144532 2.5453028349062886e-05 0 -0.034999979084571357 -1.4898931316065882e-09 0 -0.03499083707972752 -2.9611332502895045e-06 0 -0.034999965271694133 -2.2919416951361486e-09 0 -0.03499083707972752 -2.9611332502895045e-06 0 -0.034999965271694133 -2.2919416951361486e-09 0 -0.034987391758480035 9.8007062313371668e-06 0 -0.032564169935422209 0.0010499649446057771 0 -0.032708142552029897 0.00098938625975036106 0 -0.034987391758480035 9.8007062313371668e-06 0 -0.034971788650144532 2.5453028349062886e-05 0 -0.034971202918255437 1.2619098739832414e-05 0 -0.030488657899413615 0.0020233058572847514 0 -0.030444840987455302 0.0019146459334033734 0 -0.030326671273250016 0.0019514070599465946 0 -0.030444840987455302 0.0019146459334033734 0 -0.030326671273250016 0.0019514070599465946 0 -0.030357493049743819 0.0018705130281813588 0 -0.030326671273250016 0.0019514070599465946 0 -0.030357493049743819 0.0018705130281813588 0 -0.030271178083410791 0.0018544838634083956 0 -0.030357493049743819 0.0018705130281813588 0 -0.030271178083410791 0.0018544838634083956 0 -0.030321650920117016 0.001804880252019542 0 -0.030243442818053114 0.0017965333169428959 0 -0.030271178083410791 0.0018544838634083956 0 -0.030321650920117016 0.001804880252019542 0 -0.030364014348326109 0.0017568005351523246 0 -0.030321650920117016 0.001804880252019542 0 -0.030423195233898102 0.0018322314683926772 0 -0.030516941249203473 0.0018831199867381174 0 -0.030444840987455302 0.0019146459334033734 0 -0.030423195233898102 0.0018322314683926772 0 -0.030357493049743819 0.0018705130281813588 0 -0.030321650920117016 0.001804880252019542 0 -0.030423195233898102 0.0018322314683926772 0 -0.030444840987455302 0.0019146459334033734 0 -0.030357493049743819 0.0018705130281813588 0 -0.030423195233898102 0.0018322314683926772 0 -0.03615385455265898 0.0032948629887577007 0 -0.03191545656259176 0.0051809856783439114 0 -0.034870346901980293 0.0030954714186210595 0 -0.03634777894646974 0.004782146825887304 0 -0.034405681316987159 0.0057157271275003656 0 -0.034870346901980293 0.0030954714186210595 0 -0.034405681316987159 0.0057157271275003656 0 -0.032745000440382518 0.0044366447684286107 0 -0.034870346901980293 0.0030954714186210595 0 -0.032745000440382518 0.0044366447684286107 0 -0.033303096436719901 0.0027948600704335112 0 -0.034870346901980293 0.0030954714186210595 0 -0.033303096436719901 0.0027948600704335112 0 -0.034411098099521233 0.0019584351889907572 0 -0.034870346901980293 0.0030954714186210595 0 -0.034411098099521233 0.0019584351889907572 0 -0.035457613751855972 0.0020722139722837811 0 -0.036161137292347344 0.0028236968368370633 0 -0.03635456842390665 0.00197733609136288 0 -0.035457613751855972 0.0020722139722837811 0 -0.034870346901980293 0.0030954714186210595 0 -0.036161137292347344 0.0028236968368370633 0 -0.035457613751855972 0.0020722139722837811 0 -0.036161137292347344 0.0028236968368370633 0 -0.037393500195224721 0.0024420870906475389 0 -0.03708340958682791 0.0033491955636846655 0 -0.036161137292347344 0.0028236968368370633 0 -0.03635456842390665 0.00197733609136288 0 -0.037393500195224721 0.0024420870906475389 0 -0.03191545656259176 0.0051809856783439114 0 -0.03264733511210309 0.0026434668597406156 0 -0.036161137292347344 0.0028236968368370633 0 -0.035735500994742091 0.0039952494586040039 0 -0.03708340958682791 0.0033491955636846655 0 -0.030017492807739722 0.003975852122195294 0 -0.031043026457667114 0.0041066127823562674 0 -0.031299159718976233 0.0033765260272008908 0 -0.030016266231324237 0.0031881397963000341 0 -0.03264733511210309 0.0026434668597406156 0 -0.034870346901980293 0.0030954714186210595 0 -0.036161137292347344 0.0028236968368370633 0 -0.035735500994742091 0.0039952494586040039 0 -0.024996238588236658 0.009380437221867783 0 -0.02393293160293267 0.0082610472117279291 0 -0.024666261788754328 0.008346422936135375 0 -0.03191545656259176 0.0051809856783439114 0 -0.027093250932056445 0.0052478907631769052 0 -0.024996238588236658 0.009380437221867783 0 -0.024666261788754328 0.008346422936135375 0 -0.025577830569073392 0.0081647380970139849 0 -0.030017492807739722 0.003975852122195294 0 -0.031043026457667114 0.0041066127823562674 0 -0.030781801564048434 0.0048322713669378004 0 -0.028860413810384428 0.0026041829573256745 0 -0.028954210909875069 0.0023178308022006617 0 -0.028730743372479897 0.0023831384455383436 0 -0.030016266231324237 0.0031881397963000341 0 -0.027093250932056445 0.0052478907631769052 0 -0.028954210909875069 0.0023178308022006617 0 -0.028784455915666109 0.0021169467996530991 0 -0.028730743372479897 0.0023831384455383436 0 -0.02393293160293267 0.0082610472117279291 0 -0.024311131882282382 0.008042399597007744 0 -0.024666261788754328 0.008346422936135375 0 -0.02393293160293267 0.0082610472117279291 0 -0.024311131882282382 0.008042399597007744 0 -0.024104413367551092 0.0077709002530161313 0 -0.027093250932056445 0.0052478907631769052 0 -0.024243879302456993 0.0074503587165506242 0 -0.024311131882282382 0.008042399597007744 0 -0.024104413367551092 0.0077709002530161313 0 -0.024541558758108529 0.007810272374650473 0 -0.024243879302456993 0.0074503587165506242 0 -0.024383820685381884 0.0076046024654885603 0 -0.024243879302456993 0.0074503587165506242 0 -0.024144463702277474 0.005436788669682076 0 -0.025471423830750049 0.006280867964854873 0 -0.025621655849832066 0.0058248581763657142 0 -0.024994154178875971 0.0057678960950332814 0 -0.027093250932056445 0.0052478907631769052 0 -0.024144463702277474 0.005436788669682076 0 -0.024666261788754328 0.008346422936135375 0 -0.024541558758108529 0.007810272374650473 0 -0.025577830569073392 0.0081647380970139849 0 -0.024311131882282382 0.008042399597007744 0 -0.024666261788754328 0.008346422936135375 0 -0.024541558758108529 0.007810272374650473 0 -0.02494008711531618 0.0072401192909302631 0 -0.024541558758108529 0.007810272374650473 0 -0.025577830569073392 0.0081647380970139849 0 -0.026940674992343708 0.0073428100856337344 0 -0.025577830569073392 0.0081647380970139849 0 -0.026495299330600783 0.0087249721735264008 0 -0.024996238588236658 0.009380437221867783 0 -0.025577830569073392 0.0081647380970139849 0 -0.026495299330600783 0.0087249721735264008 0 -0.03191545656259176 0.0051809856783439114 0 -0.030118793753421129 0.0075203995833398284 0 -0.034405681316987159 0.0057157271275003656 0 -0.032292368384808437 0.0067454332646015224 0 -0.032745000440382518 0.0044366447684286107 0 -0.030118793753421129 0.0075203995833398284 0 -0.030163103836840763 0.0072920089249015347 0 -0.026940674992343708 0.0073428100856337344 0 -0.026495299330600783 0.0087249721735264008 0 -0.027928172053331042 0.0080175302120804003 0 -0.029312798725386207 0.0074263163761584539 0 -0.030163103836840763 0.0072920089249015347 0 -0.032292368384808437 0.0067454332646015224 0 -0.030359912330504144 0.006531805728398502 0 -0.030822668420978642 0.0055672378134623661 0 -0.028378703997862638 0.0072434484671530493 0 -0.029229184187476481 0.0073728193977761515 0 -0.027928172053331042 0.0080175302120804003 0 -0.029229184187476481 0.0073728193977761515 0 -0.032292368384808437 0.0067454332646015224 0 -0.030359912330504144 0.006531805728398502 0 -0.029229184187476481 0.0073728193977761515 0 -0.030359912330504144 0.006531805728398502 0 -0.029415280734729651 0.0065011099149460084 0 -0.030359912330504144 0.006531805728398502 0 -0.030822668420978642 0.0055672378134623661 0 -0.029415280734729651 0.0065011099149460084 0 -0.030822668420978642 0.0055672378134623661 0 -0.029925500781463991 0.0051760096521389614 0 -0.031053824977347832 0.0041679993789772406 0 -0.030822668420978642 0.0055672378134623661 0 -0.032745000440382518 0.0044366447684286107 0 -0.031053824977347832 0.0041679993789772406 0 -0.032292368384808437 0.0067454332646015224 0 -0.030822668420978642 0.0055672378134623661 0 -0.032745000440382518 0.0044366447684286107 0 -0.031015307768077646 0.0055968083454904297 0 -0.031259325683742449 0.0042387748932032464 0 -0.028775110099176087 0.0070204743881340107 0 -0.028902459077531223 0.0069986637684565532 0 -0.028666932574468326 0.0058027736892932438 0 -0.028902459077531223 0.0069986637684565532 0 -0.029415280734729651 0.0065011099149460084 0 -0.028666932574468326 0.0058027736892932438 0 -0.029062358098123384 0.0071532467903174394 0 -0.028902459077531223 0.0069986637684565532 0 -0.029415280734729651 0.0065011099149460084 0 -0.029062358098123384 0.0071532467903174394 0 -0.029229184187476481 0.0073728193977761515 0 -0.029415280734729651 0.0065011099149460084 0 -0.029925500781463991 0.0051760096521389614 0 -0.028666932574468326 0.0058027736892932438 0 -0.029687434915690529 0.0036335681342615053 0 -0.030822668420978642 0.0055672378134623661 0 -0.029415280734729651 0.0065011099149460084 0 -0.029925500781463991 0.0051760096521389614 0 -0.029415280734729651 0.0065011099149460084 0 -0.029925500781463991 0.0051760096521389614 0 -0.028666932574468326 0.0058027736892932438 0 -0.033769851379399966 0.0027481233979248011 0 -0.03324418243372277 0.0016876476220426036 0 -0.034342526088816695 0.001422149084655358 0 -0.031259325683742449 0.0042387748932032464 0 -0.03202257883111901 0.0025657379922504955 0 -0.029925500781463991 0.0051760096521389614 0 -0.029687434915690529 0.0036335681342615053 0 -0.031053824977347832 0.0041679993789772406 0 -0.03202257883111901 0.0025657379922504955 0 -0.032964884695787587 0.0011211397552228317 0 -0.029687434915690529 0.0036335681342615053 0 -0.031236609884377979 0.003017489881264321 0 -0.031178378986828091 0.0017815526788268552 0 -0.034342526088816695 0.001422149084655358 0 -0.034162244488984216 0.00067472649437624356 0 -0.034772828965342943 0.00035933143892803867 0 -0.034056468985327847 0.000968427035440206 0 -0.034553200424014011 0.00036346621723471433 0 -0.03324418243372277 0.0016876476220426036 0 -0.034342526088816695 0.001422149084655358 0 -0.034162244488984216 0.00067472649437624356 0 -0.034950282372492328 0.00016420439098339872 0 -0.034938793296454787 3.714906764219172e-05 0 -0.034918878291985596 2.1734291365637606e-05 0 -0.032745000440382518 0.0044366447684286107 0 -0.03206585478360522 0.0033698996769994669 0 -0.033303096436719901 0.0027948600704335112 0 -0.032745000440382518 0.0044366447684286107 0 -0.031053824977347832 0.0041679993789772406 0 -0.03206585478360522 0.0033698996769994669 0 -0.029687434915690529 0.0036335681342615053 0 -0.031053824977347832 0.0041679993789772406 0 -0.031236609884377979 0.003017489881264321 0 -0.031053824977347832 0.0041679993789772406 0 -0.03206585478360522 0.0033698996769994669 0 -0.031236609884377979 0.003017489881264321 0 -0.03206585478360522 0.0033698996769994669 0 -0.031236609884377979 0.003017489881264321 0 -0.032340381008351661 0.0023330617715196281 0 -0.031236609884377979 0.003017489881264321 0 -0.032340381008351661 0.0023330617715196281 0 -0.031178378986828091 0.0017815526788268552 0 -0.03206585478360522 0.0033698996769994669 0 -0.032340381008351661 0.0023330617715196281 0 -0.033303096436719901 0.0027948600704335112 0 -0.032340381008351661 0.0023330617715196281 0 -0.033303096436719901 0.0027948600704335112 0 -0.033434502169560627 0.0017260512568548641 0 -0.033434502169560627 0.0017260512568548641 0 -0.033619460572606043 0.00085730359751335012 0 -0.034269885819735807 0.0011308519842958419 0 -0.033434502169560627 0.0017260512568548641 0 -0.032644585349888802 0.0013744505787697358 0 -0.033619460572606043 0.00085730359751335012 0 -0.032340381008351661 0.0023330617715196281 0 -0.033434502169560627 0.0017260512568548641 0 -0.032644585349888802 0.0013744505787697358 0 -0.032644585349888802 0.0013744505787697358 0 -0.032814713067113366 0.00045432706457581223 0 -0.031178378986828091 0.0017815526788268552 0 -0.032340381008351661 0.0023330617715196281 0 -0.032644585349888802 0.0013744505787697358 0 -0.031178378986828091 0.0017815526788268552 0 -0.033878231972215372 0.00025799542093168779 0 -0.032964884695787587 0.0011211397552228317 0 -0.034838224002325544 7.9008359846036039e-05 0 -0.034943019115332437 -0.00011294228221920835 0 -0.034772828965342943 0.00035933143892803867 0 -0.034838224002325544 7.9008359846036039e-05 0 -0.034943019115332437 -0.00011294228221920835 0 -0.034885422788312206 -3.3189768100349001e-05 0 -0.032644585349888802 0.0013744505787697358 0 -0.032814713067113366 0.00045432706457581223 0 -0.033619460572606043 0.00085730359751335012 0 -0.032814713067113366 0.00045432706457581223 0 -0.033619460572606043 0.00085730359751335012 0 -0.034029961496181087 0.00027050611037016857 0 -0.033619460572606043 0.00085730359751335012 0 -0.034029961496181087 0.00027050611037016857 0 -0.034293215275896807 0.00045753131416619941 0 -0.034918878291985596 2.1734291365637606e-05 0 -0.034906450406679362 2.7907354961304296e-05 0 -0.034929435545821112 3.8502437279067046e-06 0 -0.034938793296454787 3.714906764219172e-05 0 -0.034918878291985596 2.1734291365637606e-05 0 -0.034906450406679362 2.7907354961304296e-05 0 -0.034553200424014011 0.00036346621723471433 0 -0.0348060842984666 0.00010004304646219079 0 -0.034162244488984216 0.00067472649437624356 0 -0.034838224002325544 7.9008359846036039e-05 0 -0.034772828965342943 0.00035933143892803867 0 -0.034938793296454787 3.714906764219172e-05 0 -0.034838224002325544 7.9008359846036039e-05 0 -0.034906450406679362 2.7907354961304296e-05 0 -0.034906450406679362 2.7907354961304296e-05 0 -0.034885422788312206 -3.3189768100349001e-05 0 -0.03492704816725508 -2.748255747536692e-05 0 -0.034838224002325544 7.9008359846036039e-05 0 -0.034906450406679362 2.7907354961304296e-05 0 -0.034885422788312206 -3.3189768100349001e-05 0 -0.034906450406679362 2.7907354961304296e-05 0 -0.034929435545821112 3.8502437279067046e-06 0 -0.03492704816725508 -2.748255747536692e-05 0 -0.034929435545821112 3.8502437279067046e-06 0 -0.034964124873207762 -5.8933293396065465e-06 0 -0.03492704816725508 -2.748255747536692e-05 0 -0.034885422788312206 -3.3189768100349001e-05 0 -0.03492704816725508 -2.748255747536692e-05 0 -0.034900237194292756 -6.0808014945380895e-05 0 -0.034964124873207762 -5.8933293396065465e-06 0 -0.03492704816725508 -2.748255747536692e-05 0 -0.035000168951078325 5.9130965095176878e-08 0 -0.03492704816725508 -2.748255747536692e-05 0 -0.035000168951078325 5.9130965095176878e-08 0 -0.034900237194292756 -6.0808014945380895e-05 0 -0.034999887958700779 -2.1007219682404167e-08 0 -0.034964124873207762 -5.8933293396065465e-06 0 -0.035000168951078325 5.9130965095176878e-08 0 -0.034029961496181087 0.00027050611037016857 0 -0.03461919854371337 4.2071744949837979e-05 0 -0.034293215275896807 0.00045753131416619941 0 -0.032814713067113366 0.00045432706457581223 0 -0.034029961496181087 0.00027050611037016857 0 -0.034711114992302346 -3.2343711579402015e-05 0 -0.034029961496181087 0.00027050611037016857 0 -0.034711114992302346 -3.2343711579402015e-05 0 -0.03461919854371337 4.2071744949837979e-05 0 -0.033878231972215372 0.00025799542093168779 0 -0.03453756356405005 2.1624713839250773e-05 0 -0.034943019115332437 -0.00011294228221920835 0 -0.034900237194292756 -6.0808014945380895e-05 0 -0.034711114992302346 -3.2343711579402015e-05 0 -0.034943019115332437 -0.00011294228221920835 0 -0.034885422788312206 -3.3189768100349001e-05 0 -0.034900237194292756 -6.0808014945380895e-05 0 -0.035000168951078325 5.9130965095176878e-08 0 -0.034900237194292756 -6.0808014945380895e-05 0 -0.034711114992302346 -3.2343711579402015e-05 0 -0.035000168951078325 5.9130965095176878e-08 0 -0.034998898579742949 -4.6085542997393722e-08 0 -0.034711114992302346 -3.2343711579402015e-05 0 -0.034998898579742949 -4.6085542997393722e-08 0 -0.034711114992302346 -3.2343711579402015e-05 0 -0.03461919854371337 4.2071744949837979e-05 0 -0.034998898579742949 -4.6085542997393722e-08 0 -0.03461919854371337 4.2071744949837979e-05 0 -0.034999811163258919 -4.9480478556364232e-08 0 -0.03461919854371337 4.2071744949837979e-05 0 -0.034999811163258919 -4.9480478556364232e-08 0 -0.034754434899358318 0.00018415670123117032 0 -0.034999811163258919 -4.9480478556364232e-08 0 -0.034996863182500892 8.4938670717938999e-05 0 -0.03500023415034656 1.0670724128024828e-07 0 -0.034999811163258919 -4.9480478556364232e-08 0 -0.034996863182500892 8.4938670717938999e-05 0 -0.034754434899358318 0.00018415670123117032 0 -0.034996863182500892 8.4938670717938999e-05 0 -0.03491723310382721 0.00041643213727282456 0 -0.035156465209044842 0.00013604976754597086 0 -0.034996863182500892 8.4938670717938999e-05 0 -0.03491723310382721 0.00041643213727282456 0 -0.034754434899358318 0.00018415670123117032 0 -0.03491723310382721 0.00041643213727282456 0 -0.034754434899358318 0.00018415670123117032 0 -0.034595117962264631 0.00066355633024558949 0 -0.03461919854371337 4.2071744949837979e-05 0 -0.034754434899358318 0.00018415670123117032 0 -0.034293215275896807 0.00045753131416619941 0 -0.034754434899358318 0.00018415670123117032 0 -0.034293215275896807 0.00045753131416619941 0 -0.034595117962264631 0.00066355633024558949 0 -0.033619460572606043 0.00085730359751335012 0 -0.034293215275896807 0.00045753131416619941 0 -0.034269885819735807 0.0011308519842958419 0 -0.034293215275896807 0.00045753131416619941 0 -0.034269885819735807 0.0011308519842958419 0 -0.034595117962264631 0.00066355633024558949 0 -0.03491723310382721 0.00041643213727282456 0 -0.034595117962264631 0.00066355633024558949 0 -0.034959044956266276 0.0012104097936774746 0 -0.03491723310382721 0.00041643213727282456 0 -0.034959044956266276 0.0012104097936774746 0 -0.035200057896946788 0.00067806758146485627 0 -0.034269885819735807 0.0011308519842958419 0 -0.034595117962264631 0.00066355633024558949 0 -0.034959044956266276 0.0012104097936774746 0 -0.034959044956266276 0.0012104097936774746 0 -0.034411098099521233 0.0019584351889907572 0 -0.035457613751855972 0.0020722139722837811 0 -0.033303096436719901 0.0027948600704335112 0 -0.033434502169560627 0.0017260512568548641 0 -0.034411098099521233 0.0019584351889907572 0 -0.033434502169560627 0.0017260512568548641 0 -0.034269885819735807 0.0011308519842958419 0 -0.034411098099521233 0.0019584351889907572 0 -0.034269885819735807 0.0011308519842958419 0 -0.034959044956266276 0.0012104097936774746 0 -0.034411098099521233 0.0019584351889907572 0 -0.034076673896875811 0.0018267303947380031 0 -0.036003842709807221 0.0012115403987976122 0 -0.03635456842390665 0.00197733609136288 0 -0.03678625428076026 0.0014005029367631803 0 -0.037393500195224721 0.0024420870906475389 0 -0.03635456842390665 0.00197733609136288 0 -0.03678625428076026 0.0014005029367631803 0 -0.035929722993216492 0.0013569194393594679 0 -0.034890414037820817 0.0012129447517764816 0 -0.036003842709807221 0.0012115403987976122 0 -0.03635456842390665 0.00197733609136288 0 -0.035457613751855972 0.0020722139722837811 0 -0.035929722993216492 0.0013569194393594679 0 -0.034959044956266276 0.0012104097936774746 0 -0.035457613751855972 0.0020722139722837811 0 -0.035929722993216492 0.0013569194393594679 0 -0.035357711096925745 0.0010599810823313076 0 -0.035200057896946788 0.00067806758146485627 0 -0.035590990430752673 0.00062503271202855729 0 -0.034959044956266276 0.0012104097936774746 0 -0.035357711096925745 0.0010599810823313076 0 -0.035200057896946788 0.00067806758146485627 0 -0.035023773098105816 -6.3996884312943592e-06 0 -0.035068565010257312 2.5038031800709594e-05 0 -0.035002586177426367 2.2329214528372398e-05 0 -0.03584397394128943 0.0010467482645946384 0 -0.035357711096925745 0.0010599810823313076 0 -0.035590990430752673 0.00062503271202855729 0 -0.034076673896875811 0.0018267303947380031 0 -0.035245258973979503 0.00030057046142988037 0 -0.035068565010257312 2.5038031800709594e-05 0 -0.035156465209044842 0.00013604976754597086 0 -0.035024347911847567 5.7072059728001508e-05 0 -0.035068565010257312 2.5038031800709594e-05 0 -0.035024347911847567 5.7072059728001508e-05 0 -0.035002586177426367 2.2329214528372398e-05 0 -0.03491723310382721 0.00041643213727282456 0 -0.035200057896946788 0.00067806758146485627 0 -0.035156465209044842 0.00013604976754597086 0 -0.035245258973979503 0.00030057046142988037 0 -0.035203035115780781 0.00018375702859501773 0 -0.035200057896946788 0.00067806758146485627 0 -0.035590990430752673 0.00062503271202855729 0 -0.035156465209044842 0.00013604976754597086 0 -0.034996863182500892 8.4938670717938999e-05 0 -0.035156465209044842 0.00013604976754597086 0 -0.03500023415034656 1.0670724128024828e-07 0 -0.035156465209044842 0.00013604976754597086 0 -0.035024347911847567 5.7072059728001508e-05 0 -0.03500023415034656 1.0670724128024828e-07 0 -0.035024347911847567 5.7072059728001508e-05 0 -0.03500023415034656 1.0670724128024828e-07 0 -0.034999975101847894 4.138444211607282e-08 0 -0.035024347911847567 5.7072059728001508e-05 0 -0.034999975101847894 4.138444211607282e-08 0 -0.03498075827151418 2.1429537303978779e-05 0 -0.034999975101847894 4.138444211607282e-08 0 -0.03498075827151418 2.1429537303978779e-05 0 -0.034999965191790904 7.8446919055988608e-09 0 -0.035024347911847567 5.7072059728001508e-05 0 -0.03498075827151418 2.1429537303978779e-05 0 -0.035002586177426367 2.2329214528372398e-05 0 -0.034999965191790904 7.8446919055988608e-09 0 -0.034974285637446249 1.3021845624218255e-05 0 -0.034999960622010981 1.3521596321339239e-08 0 -0.03498075827151418 2.1429537303978779e-05 0 -0.034999965191790904 7.8446919055988608e-09 0 -0.034974285637446249 1.3021845624218255e-05 0 -0.03498075827151418 2.1429537303978779e-05 0 -0.034955957504599622 1.1956266933203123e-05 0 -0.034974285637446249 1.3021845624218255e-05 0 -0.034974285637446249 1.3021845624218255e-05 0 -0.034921206097602672 7.1030205529628076e-06 0 -0.034868889558856121 2.1671275785640679e-05 0 -0.034955957504599622 1.1956266933203123e-05 0 -0.034974285637446249 1.3021845624218255e-05 0 -0.034921206097602672 7.1030205529628076e-06 0 -0.035170689583279617 3.046183155397442e-06 0 -0.034235196133851988 0.00027581050426836424 0 -0.034921206097602672 7.1030205529628076e-06 0 -0.034927304083513598 -8.2162787257105406e-06 0 -0.034856399221972582 -1.6771370280600404e-05 0 -0.034955957504599622 1.1956266933203123e-05 0 -0.034927304083513598 -8.2162787257105406e-06 0 -0.034957215559584615 -1.9034188958967111e-07 0 -0.034955957504599622 1.1956266933203123e-05 0 -0.034921206097602672 7.1030205529628076e-06 0 -0.034927304083513598 -8.2162787257105406e-06 0 -0.028394556755987215 0.0028899625411595666 0 -0.02853934767709149 0.0029768258924614739 0 -0.028458912011843439 0.0028517202912097129 0 -0.028394556755987215 0.0028899625411595666 0 -0.028458912011843439 0.0028517202912097129 0 -0.028380715981489137 0.0028177852122798696 0 -0.031995856456491119 0.0014872532905914034 0 -0.031269141286499817 0.0014534314118060335 0 -0.028394556755987215 0.0028899625411595666 0 -0.028380715981489137 0.0028177852122798696 0 -0.028308788449163999 0.0028043169484104824 0 -0.028394556755987215 0.0028899625411595666 0 -0.028308788449163999 0.0028043169484104824 0 -0.028328647625307578 0.0028615028958208694 0 -0.031995856456491119 0.0014872532905914034 0 -0.030465146819008301 0.0010088101911826517 0 -0.035023773098105816 -6.3996884312943592e-06 0 -0.035002586177426367 2.2329214528372398e-05 0 -0.034957215559584615 -1.9034188958967111e-07 0 -0.03498075827151418 2.1429537303978779e-05 0 -0.034955957504599622 1.1956266933203123e-05 0 -0.034957215559584615 -1.9034188958967111e-07 0 -0.03498075827151418 2.1429537303978779e-05 0 -0.035002586177426367 2.2329214528372398e-05 0 -0.034957215559584615 -1.9034188958967111e-07 0 -0.02853934767709149 0.0029768258924614739 0 -0.02855143686658752 0.0028686732639171372 0 -0.02867999355658684 0.0028670493022426502 0 -0.02855143686658752 0.0028686732639171372 0 -0.02867999355658684 0.0028670493022426502 0 -0.028543734005582456 0.0028084338211874665 0 -0.02853934767709149 0.0029768258924614739 0 -0.028458912011843439 0.0028517202912097129 0 -0.02855143686658752 0.0028686732639171372 0 -0.028458912011843439 0.0028517202912097129 0 -0.02855143686658752 0.0028686732639171372 0 -0.028543734005582456 0.0028084338211874665 0 -0.029038343743415674 0.0030430452279295106 0 -0.02853934767709149 0.0029768258924614739 0 -0.02867999355658684 0.0028670493022426502 0 -0.034076673896875811 0.0018267303947380031 0 -0.03131458543960907 0.002796087317243168 0 -0.029341633054856195 0.0031992304795239895 0 -0.03131458543960907 0.002796087317243168 0 -0.029038343743415674 0.0030430452279295106 0 -0.02867999355658684 0.0028670493022426502 0 -0.028778754789114354 0.002624660406831699 0 -0.034076673896875811 0.0018267303947380031 0 -0.031269141286499817 0.0014534314118060335 0 -0.03131458543960907 0.002796087317243168 0 -0.03264733511210309 0.0026434668597406156 0 -0.031142850239065621 0.0032525230660568434 0 -0.031454400449868497 0.0023484671669738665 0 -0.030767611991644839 0.0026569175287088236 0 -0.02867999355658684 0.0028670493022426502 0 -0.028636469594727081 0.0028054576082364386 0 -0.028543734005582456 0.0028084338211874665 0 -0.03131458543960907 0.002796087317243168 0 -0.028958824123702161 0.0027278168447475229 0 -0.028636469594727081 0.0028054576082364386 0 -0.028530023448792397 0.0027457787485076291 0 -0.028543734005582456 0.0028084338211874665 0 -0.028535997635705992 0.0029641670779063595 0 -0.028619715712720924 0.0027552050258026878 0 -0.028413734703270514 0.002772560874257994 0 -0.028772883663638643 0.0028637166519998839 0 -0.028535997635705992 0.0029641670779063595 0 -0.028619715712720924 0.0027552050258026878 0 -0.03264733511210309 0.0026434668597406156 0 -0.028958824123702161 0.0027278168447475229 0 -0.028619715712720924 0.0027552050258026878 0 -0.028413734703270514 0.002772560874257994 0 -0.028527063413805433 0.0025776481879354034 0 -0.028860413810384428 0.0026041829573256745 0 -0.028772883663638643 0.0028637166519998839 0 -0.028619715712720924 0.0027552050258026878 0 -0.028413734703270514 0.002772560874257994 0 -0.028347545269344354 0.0027462553042644942 0 -0.028272762762630004 0.0027135579050594819 0 -0.028958824123702161 0.0027278168447475229 0 -0.028535518667650424 0.0027104368805878271 0 -0.028491992902409034 0.0027597159660910091 0 -0.028413734703270514 0.002772560874257994 0 -0.028493005488075283 0.0027597373498617047 0 -0.028413734703270514 0.002772560874257994 0 -0.028418250958846411 0.0027653284206483534 0 -0.028493005488075283 0.0027597373498617047 0 -0.028413734703270514 0.002772560874257994 0 -0.028418250958846411 0.0027653284206483534 0 -0.028347545269344354 0.0027462553042644942 0 -0.028418250958846411 0.0027653284206483534 0 -0.028454069398208885 0.0027885084469145348 0 -0.028378898639498398 0.0027697409902521048 0 -0.028454069398208885 0.0027885084469145348 0 -0.028493005488075283 0.0027597373498617047 0 -0.028543734005582456 0.0028084338211874665 0 -0.028530023448792397 0.0027457787485076291 0 -0.028493005488075283 0.0027597373498617047 0 -0.028543734005582456 0.0028084338211874665 0 -0.028418250958846411 0.0027653284206483534 0 -0.028454069398208885 0.0027885084469145348 0 -0.028493005488075283 0.0027597373498617047 0 -0.028958824123702161 0.0027278168447475229 0 -0.028798833223208833 0.0027792145844577859 0 -0.028458912011843439 0.0028517202912097129 0 -0.028454069398208885 0.0027885084469145348 0 -0.028416544743890468 0.0028065138314693587 0 -0.028458912011843439 0.0028517202912097129 0 -0.028454069398208885 0.0027885084469145348 0 -0.028543734005582456 0.0028084338211874665 0 -0.028458912011843439 0.0028517202912097129 0 -0.028416544743890468 0.0028065138314693587 0 -0.028380715981489137 0.0028177852122798696 0 -0.028380715981489137 0.0028177852122798696 0 -0.028378898639498398 0.0027697409902521048 0 -0.028344953493529189 0.0027747284867441894 0 -0.028416544743890468 0.0028065138314693587 0 -0.028380715981489137 0.0028177852122798696 0 -0.028378898639498398 0.0027697409902521048 0 -0.028454069398208885 0.0027885084469145348 0 -0.028416544743890468 0.0028065138314693587 0 -0.028378898639498398 0.0027697409902521048 0 -0.028380715981489137 0.0028177852122798696 0 -0.028344953493529189 0.0027747284867441894 0 -0.028308788449163999 0.0028043169484104824 0 -0.028344953493529189 0.0027747284867441894 0 -0.028300285849963261 0.0027491178266772086 0 -0.028308788449163999 0.0028043169484104824 0 -0.028344953493529189 0.0027747284867441894 0 -0.028350375070149158 0.0027429705286479249 0 -0.028300285849963261 0.0027491178266772086 0 -0.028277451624901959 0.0027869036756906084 0 -0.025750696496824033 0.0024706149402440761 0 -0.028350375070149158 0.0027429705286479249 0 -0.028347545269344354 0.0027462553042644942 0 -0.028272762762630004 0.0027135579050594819 0 -0.028418250958846411 0.0027653284206483534 0 -0.028378898639498398 0.0027697409902521048 0 -0.028347545269344354 0.0027462553042644942 0 -0.028378898639498398 0.0027697409902521048 0 -0.028344953493529189 0.0027747284867441894 0 -0.028350375070149158 0.0027429705286479249 0 -0.028378898639498398 0.0027697409902521048 0 -0.028350375070149158 0.0027429705286479249 0 -0.028347545269344354 0.0027462553042644942 0 -0.02771315430804587 0.0023998576619850575 0 -0.028225201936082901 0.00232347208324255 0 -0.028272762762630004 0.0027135579050594819 0 -0.028277451624901959 0.0027869036756906084 0 -0.028130514768432337 0.0027644984154219301 0 -0.027565126908294858 0.0029540871235711327 0 -0.02771315430804587 0.0023998576619850575 0 -0.028272762762630004 0.0027135579050594819 0 -0.027565126908294858 0.0029540871235711327 0 -0.026969551084091062 0.0024301922467053617 0 -0.026894741196062 0.0031160994177083781 0 -0.027565126908294858 0.0029540871235711327 0 -0.02771315430804587 0.0023998576619850575 0 -0.026969551084091062 0.0024301922467053617 0 -0.02308533338274105 0.0020629518321611507 0 -0.022018048268445077 0.0027707430323448919 0 -0.027368634766018394 0.0021115438001949381 0 -0.027748600252195905 0.0018580143413716521 0 -0.027025800637449117 0.0017648657127191482 0 -0.027368634766018394 0.0021115438001949381 0 -0.026969551084091062 0.0024301922467053617 0 -0.027025800637449117 0.0017648657127191482 0 -0.02771315430804587 0.0023998576619850575 0 -0.027368634766018394 0.0021115438001949381 0 -0.026969551084091062 0.0024301922467053617 0 -0.02771315430804587 0.0023998576619850575 0 -0.028225201936082901 0.00232347208324255 0 -0.027748600252195905 0.0018580143413716521 0 -0.02771315430804587 0.0023998576619850575 0 -0.027368634766018394 0.0021115438001949381 0 -0.027748600252195905 0.0018580143413716521 0 -0.028225201936082901 0.00232347208324255 0 -0.028356830761620606 0.0020052007117722505 0 -0.027748600252195905 0.0018580143413716521 0 -0.028225201936082901 0.00232347208324255 0 -0.028356830761620606 0.0020052007117722505 0 -0.028510018106138898 0.002297189728511069 0 -0.028356830761620606 0.0020052007117722505 0 -0.028784455915666109 0.0021169467996530991 0 -0.028510018106138898 0.002297189728511069 0 -0.024273544633987749 0.003336265389217212 0 -0.024144463702277474 0.005436788669682076 0 -0.028784455915666109 0.0021169467996530991 0 -0.028730743372479897 0.0023831384455383436 0 -0.028510018106138898 0.002297189728511069 0 -0.028860413810384428 0.0026041829573256745 0 -0.028730743372479897 0.0023831384455383436 0 -0.028527063413805433 0.0025776481879354034 0 -0.028730743372479897 0.0023831384455383436 0 -0.028510018106138898 0.002297189728511069 0 -0.028527063413805433 0.0025776481879354034 0 -0.028860413810384428 0.0026041829573256745 0 -0.028619715712720924 0.0027552050258026878 0 -0.028527063413805433 0.0025776481879354034 0 -0.028413734703270514 0.002772560874257994 0 -0.028527063413805433 0.0025776481879354034 0 -0.028272762762630004 0.0027135579050594819 0 -0.028225201936082901 0.00232347208324255 0 -0.028510018106138898 0.002297189728511069 0 -0.028527063413805433 0.0025776481879354034 0 -0.028225201936082901 0.00232347208324255 0 -0.028527063413805433 0.0025776481879354034 0 -0.028272762762630004 0.0027135579050594819 0 -0.021712682253372115 0.00126314079205602 0 -0.020549176336750036 0.0015313734091715726 0 -0.021005477651175747 0.00087111585401171356 0 -0.020532145114520305 0.0018013016686650569 0 -0.022259971872033053 0.00023157131956214532 0 -0.022096109253877165 0.001408895671094488 0 -0.020532145114520305 0.0018013016686650569 0 -0.022096109253877165 0.001408895671094488 0 -0.021546401342206992 0.0023235250422479438 0 -0.020532145114520305 0.0018013016686650569 0 -0.020936866653182028 0.0031474737831590936 0 -0.021546401342206992 0.0023235250422479438 0 -0.020532145114520305 0.0018013016686650569 0 -0.020936866653182028 0.0031474737831590936 0 -0.020336097605708498 0.0030252717796553593 0 -0.020532145114520305 0.0018013016686650569 0 -0.020336097605708498 0.0030252717796553593 0 -0.019732255908025714 0.0031872579484284722 0 -0.021146023072409783 0.0015269490940476391 0 -0.020288094596452765 0.0028938209773961853 0 -0.020837246669984537 0.0025706221723680962 0 -0.019916369938741626 0.0024317056844564734 0 -0.020549176336750036 0.0015313734091715726 0 -0.019916369938741626 0.0024317056844564734 0 -0.01930116106049291 0.0019253579638915351 0 -0.019149079159183822 0.0033656244546623362 0 -0.020837246669984537 0.0025706221723680962 0 -0.019916369938741626 0.0024317056844564734 0 -0.019591367912352723 0.0034298141571900954 0 -0.019916369938741626 0.0024317056844564734 0 -0.019149079159183822 0.0033656244546623362 0 -0.019591367912352723 0.0034298141571900954 0 -0.019916369938741626 0.0024317056844564734 0 -0.01930116106049291 0.0019253579638915351 0 -0.019890617993221074 0.0018102220176005358 0 -0.02308533338274105 0.0020629518321611507 0 -0.025750696496824033 0.0024706149402440761 0 -0.019744511015458429 0.0013697793390624611 0 -0.020549176336750036 0.0015313734091715726 0 -0.020369386255725107 0.0005746969524383673 0 -0.01930116106049291 0.0019253579638915351 0 -0.019744511015458429 0.0013697793390624611 0 -0.019496945419981156 0.00066260247366394876 0 -0.01930116106049291 0.0019253579638915351 0 -0.019890617993221074 0.0018102220176005358 0 -0.019744511015458429 0.0013697793390624611 0 -0.019890617993221074 0.0018102220176005358 0 -0.019744511015458429 0.0013697793390624611 0 -0.020549176336750036 0.0015313734091715726 0 -0.019916369938741626 0.0024317056844564734 0 -0.019890617993221074 0.0018102220176005358 0 -0.020549176336750036 0.0015313734091715726 0 -0.021712682253372115 0.00126314079205602 0 -0.020837246669984537 0.0025706221723680962 0 -0.020549176336750036 0.0015313734091715726 0 -0.020549176336750036 0.0015313734091715726 0 -0.020369386255725107 0.0005746969524383673 0 -0.021005477651175747 0.00087111585401171356 0 -0.020369386255725107 0.0005746969524383673 0 -0.021005477651175747 0.00087111585401171356 0 -0.021383534420704498 0.00028050716687476204 0 -0.022282135069233207 -0.00027055013189882594 0 -0.02225048926762142 -0.00024262062653416063 0 -0.022209303801114015 -0.00026183325113597399 0 -0.022328581972375968 0.00053312423301108693 0 -0.02160217006689431 -1.7118173981714982e-05 0 -0.022328581972375968 0.00053312423301108693 0 -0.025750696496824033 0.0024706149402440761 0 -0.027398691899475264 0.0021938409886344194 0 -0.026808471414995576 0.0023396974386036477 0 -0.026919766268099086 0.0015564582891428901 0 -0.019744511015458429 0.0013697793390624611 0 -0.020554224966145937 0.00040389450705578377 0 -0.019496945419981156 0.00066260247366394876 0 -0.019532105019363186 0.0015521917909572069 0 -0.022328581972375968 0.00053312423301108693 0 -0.025750696496824033 0.0024706149402440761 0 -0.027545111843811251 0.0023623884139430183 0 -0.027398691899475264 0.0021938409886344194 0 -0.026919766268099086 0.0015564582891428901 0 -0.02745667915262736 0.0017742083248824658 0 -0.026919766268099086 0.0015564582891428901 0 -0.02745667915262736 0.0017742083248824658 0 -0.027394102809925238 0.0014566509570879639 0 -0.022328581972375968 0.00053312423301108693 0 -0.025071260197730053 0.00065050500472270552 0 -0.027822439141251629 0.0016597066832621946 0 -0.02745667915262736 0.0017742083248824658 0 -0.027598645052175252 0.0015891750693081516 0 -0.027398691899475264 0.0021938409886344194 0 -0.027822439141251629 0.0016597066832621946 0 -0.02745667915262736 0.0017742083248824658 0 -0.027598645052175252 0.0015891750693081516 0 -0.027394102809925238 0.0014566509570879639 0 -0.027742820805926906 0.001351936765254346 0 -0.02745667915262736 0.0017742083248824658 0 -0.027598645052175252 0.0015891750693081516 0 -0.027394102809925238 0.0014566509570879639 0 -0.027822439141251629 0.0016597066832621946 0 -0.027598645052175252 0.0015891750693081516 0 -0.027742820805926906 0.001351936765254346 0 -0.022213529063294709 -0.00024184362259156182 0 -0.022209303801114015 -0.00026183325113597399 0 -0.022177205609272877 -0.00024502062617898755 0 -0.02225048926762142 -0.00024262062653416063 0 -0.022213529063294709 -0.00024184362259156182 0 -0.022220453746409189 -0.0002175511341055374 0 -0.02225048926762142 -0.00024262062653416063 0 -0.022213529063294709 -0.00024184362259156182 0 -0.022209303801114015 -0.00026183325113597399 0 -0.021712682253372115 0.00126314079205602 0 -0.021005477651175747 0.00087111585401171356 0 -0.021383534420704498 0.00028050716687476204 0 -0.021383534420704498 0.00028050716687476204 0 -0.021863836907052972 0.00040097284559672148 0 -0.02218884197315758 -0.00022417459511509758 0 -0.021146023072409783 0.0015269490940476391 0 -0.022201881094012683 0.00032874370933365452 0 -0.021712682253372115 0.00126314079205602 0 -0.021863836907052972 0.00040097284559672148 0 -0.022259971872033053 0.00023157131956214532 0 -0.021712682253372115 0.00126314079205602 0 -0.021383534420704498 0.00028050716687476204 0 -0.021863836907052972 0.00040097284559672148 0 -0.021863836907052972 0.00040097284559672148 0 -0.022069843599244108 0.00017704136846039898 0 -0.022259971872033053 0.00023157131956214532 0 -0.021863836907052972 0.00040097284559672148 0 -0.022069843599244108 0.00017704136846039898 0 -0.02218884197315758 -0.00022417459511509758 0 -0.02160217006689431 -1.7118173981714982e-05 0 -0.022268420591925069 -0.00020065483861493895 0 -0.022209303801114015 -0.00026183325113597399 0 -0.022177205609272877 -0.00024502062617898755 0 -0.02218884197315758 -0.00022417459511509758 0 -0.022177205609272877 -0.00024502062617898755 0 -0.022264752470906857 -0.00033056202973544388 0 -0.02218884197315758 -0.00022417459511509758 0 -0.021608164675611174 -0.00084511141309027158 0 -0.022301596338060413 -0.00030976475173945196 0 -0.021848422569838318 -0.0016281022366086814 0 -0.020613834840886597 -0.0016087997888909022 0 -0.021006484714353933 -0.0021320172114277797 0 -0.02147094333668742 -0.0010154113649816679 0 -0.021848422569838318 -0.0016281022366086814 0 -0.020613834840886597 -0.0016087997888909022 0 -0.02147094333668742 -0.0010154113649816679 0 -0.021848422569838318 -0.0016281022366086814 0 -0.022199336008908742 -0.0012937541826037054 0 -0.021848422569838318 -0.0016281022366086814 0 -0.021006484714353933 -0.0021320172114277797 0 -0.023016792128032437 -0.0021166735893791799 0 -0.021608164675611174 -0.00084511141309027158 0 -0.02393432027101982 -0.0009246047229599239 0 -0.022213529063294709 -0.00024184362259156182 0 -0.022177205609272877 -0.00024502062617898755 0 -0.022220453746409189 -0.0002175511341055374 0 -0.025109801224607969 0.0007661594698042673 0 -0.025884085473252348 -0.00080412718922392437 0 -0.026179853278173244 -0.00060082722099134064 0 -0.025071260197730053 0.00065050500472270552 0 -0.02393432027101982 -0.0009246047229599239 0 -0.025071260197730053 0.00065050500472270552 0 -0.027542945646914303 6.1291237709010834e-05 0 -0.029016178879753812 -0.00038496272266300797 0 -0.028701000463393484 0.00025805670408424278 0 -0.029945338914343509 0.00024962074199447106 0 -0.028192176036280811 0.0009426074857588183 0 -0.027705349919886556 0.0011119106277529128 0 -0.027930498802873925 0.00076350132726354719 0 -0.027542945646914303 6.1291237709010834e-05 0 -0.030850440001538519 0.00041315945101059375 0 -0.02584697500536793 -0.00093229574804153039 0 -0.026006499668823971 -0.00082178701082754409 0 -0.026020783457319695 -0.0010211744320617192 0 -0.027542945646914303 6.1291237709010834e-05 0 -0.02393432027101982 -0.0009246047229599239 0 -0.02584697500536793 -0.00093229574804153039 0 -0.026020783457319695 -0.0010211744320617192 0 -0.025960303511614595 -0.0011617100570168442 0 -0.027542945646914303 6.1291237709010834e-05 0 -0.0297986286003535 -0.00065213826408362836 0 -0.02393432027101982 -0.0009246047229599239 0 -0.02444964505242584 -0.0014230248270382076 0 -0.026006499668823971 -0.00082178701082754409 0 -0.026020783457319695 -0.0010211744320617192 0 -0.02626777600551411 -0.0011684770197677918 0 -0.026020783457319695 -0.0010211744320617192 0 -0.025960303511614595 -0.0011617100570168442 0 -0.02626777600551411 -0.0011684770197677918 0 -0.034708052102803998 -0.00023473113345533512 0 -0.034774774970293298 -0.00010638906324809833 0 -0.034624442234089024 -4.2915473429731553e-05 0 -0.0297986286003535 -0.00065213826408362836 0 -0.033179338865329921 0.00019245333599557157 0 -0.028941046884196048 -9.9062043664678516e-05 0 -0.029167434839697311 -0.00010196174693675849 0 -0.029273457822800487 -0.00073745246451893925 0 -0.0297986286003535 -0.00065213826408362836 0 -0.02444964505242584 -0.0014230248270382076 0 -0.034708052102803998 -0.00023473113345533512 0 -0.034774774970293298 -0.00010638906324809833 0 -0.034808736206209688 -0.00022825726609145941 0 -0.0297986286003535 -0.00065213826408362836 0 -0.030850440001538519 0.00041315945101059375 0 -0.02444964505242584 -0.0014230248270382076 0 -0.021951309315247195 -0.0023154566284444168 0 -0.023113459290479397 -0.0021012941970555616 0 -0.02315572490766233 -0.0021836147080906703 0 -0.023006259923811039 -0.0021707848525722505 0 -0.029556161956717446 -0.00058968896848881627 0 -0.029167434839697311 -0.00010196174693675849 0 -0.029273457822800487 -0.00073745246451893925 0 -0.028568903740646492 -0.00061112706583431493 0 -0.02444964505242584 -0.0014230248270382076 0 -0.026919766268099086 0.0015564582891428901 0 -0.027394102809925238 0.0014566509570879639 0 -0.027036112650790943 0.00077866802440980278 0 -0.027545111843811251 0.0023623884139430183 0 -0.030465146819008301 0.0010088101911826517 0 -0.027036112650790943 0.00077866802440980278 0 -0.027705349919886556 0.0011119106277529128 0 -0.027930498802873925 0.00076350132726354719 0 -0.027394102809925238 0.0014566509570879639 0 -0.027036112650790943 0.00077866802440980278 0 -0.027705349919886556 0.0011119106277529128 0 -0.027822439141251629 0.0016597066832621946 0 -0.028192176036280811 0.0009426074857588183 0 -0.027742820805926906 0.001351936765254346 0 -0.030465146819008301 0.0010088101911826517 0 -0.030850440001538519 0.00041315945101059375 0 -0.027394102809925238 0.0014566509570879639 0 -0.027742820805926906 0.001351936765254346 0 -0.027705349919886556 0.0011119106277529128 0 -0.028192176036280811 0.0009426074857588183 0 -0.027742820805926906 0.001351936765254346 0 -0.027705349919886556 0.0011119106277529128 0 -0.034808736206209688 -0.00022825726609145941 0 -0.034995118967567462 -6.2382633094784632e-05 0 -0.034883833363760872 -8.3635461223868405e-05 0 -0.034774774970293298 -0.00010638906324809833 0 -0.034808736206209688 -0.00022825726609145941 0 -0.034883833363760872 -8.3635461223868405e-05 0 -0.030850440001538519 0.00041315945101059375 0 -0.034235196133851988 0.00027581050426836424 0 -0.030465146819008301 0.0010088101911826517 0 -0.034235196133851988 0.00027581050426836424 0 -0.032191478073378937 0.00029907347506992959 0 -0.031256047326693036 0.00030675590322365502 0 -0.032137700595765081 0.00090077798842387721 0 -0.034921206097602672 7.1030205529628076e-06 0 -0.034856399221972582 -1.6771370280600404e-05 0 -0.034868889558856121 2.1671275785640679e-05 0 -0.034974285637446249 1.3021845624218255e-05 0 -0.034989515557454505 -4.1376400777238475e-05 0 -0.034988862750433405 -3.8002577993453879e-05 0 -0.034974285637446249 1.3021845624218255e-05 0 -0.034988862750433405 -3.8002577993453879e-05 0 -0.03498028974798309 -1.6087222493963869e-05 0 -0.034974285637446249 1.3021845624218255e-05 0 -0.03498028974798309 -1.6087222493963869e-05 0 -0.034984141981677909 1.1077386084347897e-06 0 -0.034995118967567462 -6.2382633094784632e-05 0 -0.034988862750433405 -3.8002577993453879e-05 0 -0.034961101865362727 -2.1900642963349233e-05 0 -0.034235196133851988 0.00027581050426836424 0 -0.034322748002208185 0.00014881504452874213 0 -0.034988862750433405 -3.8002577993453879e-05 0 -0.03498028974798309 -1.6087222493963869e-05 0 -0.034961101865362727 -2.1900642963349233e-05 0 -0.03498028974798309 -1.6087222493963869e-05 0 -0.034961101865362727 -2.1900642963349233e-05 0 -0.034984141981677909 1.1077386084347897e-06 0 -0.034995118967567462 -6.2382633094784632e-05 0 -0.034883833363760872 -8.3635461223868405e-05 0 -0.034961101865362727 -2.1900642963349233e-05 0 -0.034883833363760872 -8.3635461223868405e-05 0 -0.034961101865362727 -2.1900642963349233e-05 0 -0.034952978672741802 2.1169348339179113e-05 0 -0.034774774970293298 -0.00010638906324809833 0 -0.034883833363760872 -8.3635461223868405e-05 0 -0.034952978672741802 2.1169348339179113e-05 0 -0.034961101865362727 -2.1900642963349233e-05 0 -0.034952978672741802 2.1169348339179113e-05 0 -0.034984141981677909 1.1077386084347897e-06 0 -0.034952978672741802 2.1169348339179113e-05 0 -0.034999960622010981 1.3521596321339239e-08 0 -0.034999921276173213 7.8237563368238702e-09 0 -0.034974285637446249 1.3021845624218255e-05 0 -0.034999960622010981 1.3521596321339239e-08 0 -0.034984141981677909 1.1077386084347897e-06 0 -0.034952978672741802 2.1169348339179113e-05 0 -0.034999960622010981 1.3521596321339239e-08 0 -0.034984141981677909 1.1077386084347897e-06 0 -0.034994816788678211 2.6714571724649074e-05 0 -0.03499408157309291 3.0758287105811421e-05 0 -0.034985780703409242 1.8023247644650067e-05 0 -0.034924964418333704 1.2356795090424548e-05 0 -0.034905255489574835 1.3271886833766799e-05 0 -0.034948266624943033 9.7297432349396858e-06 0 -0.034924964418333704 1.2356795090424548e-05 0 -0.034917072697008861 1.8823324706464742e-05 0 -0.034905255489574835 1.3271886833766799e-05 0 -0.031811359750079517 -0.00056416023495409391 0 -0.034029035658678236 7.5962406466921782e-05 0 -0.030758235785563155 -0.00098579015556240503 0 -0.030308465666863058 -0.00040377053653184415 0 -0.032584817655185006 0.0010308344965599587 0 -0.034924964418333704 1.2356795090424548e-05 0 -0.034917072697008861 1.8823324706464742e-05 0 -0.034923891508571399 1.046243882898075e-05 0 -0.028568903740646492 -0.00061112706583431493 0 -0.031811359750079517 -0.00056416023495409391 0 -0.030758235785563155 -0.00098579015556240503 0 -0.032584817655185006 0.0010308344965599587 0 -0.03301106228383726 0.00016163422511728936 0 -0.028568903740646492 -0.00061112706583431493 0 -0.033179338865329921 0.00019245333599557157 0 -0.034029035658678236 7.5962406466921782e-05 0 -0.033179338865329921 0.00019245333599557157 0 -0.034952978672741802 2.1169348339179113e-05 0 -0.03499408157309291 3.0758287105811421e-05 0 -0.034985780703409242 1.8023247644650067e-05 0 -0.034774774970293298 -0.00010638906324809833 0 -0.034952978672741802 2.1169348339179113e-05 0 -0.034624442234089024 -4.2915473429731553e-05 0 -0.035583561340369989 6.6472590217341116e-05 0 -0.033179338865329921 0.00019245333599557157 0 -0.034029035658678236 7.5962406466921782e-05 0 -0.035028451367730376 0.0002263675173189363 0 -0.034952978672741802 2.1169348339179113e-05 0 -0.034985780703409242 1.8023247644650067e-05 0 -0.034999921276173213 7.8237563368238702e-09 0 -0.034985780703409242 1.8023247644650067e-05 0 -0.034999921276173213 7.8237563368238702e-09 0 -0.035000039880792623 6.1458906106838689e-09 0 -0.034905255489574835 1.3271886833766799e-05 0 -0.034999806473588385 4.255412757091437e-08 0 -0.034948266624943033 9.7297432349396858e-06 0 -0.034989568553924558 2.232080198860203e-05 0 -0.034985780703409242 1.8023247644650067e-05 0 -0.035000039880792623 6.1458906106838689e-09 0 -0.034029035658678236 7.5962406466921782e-05 0 -0.03500065373633264 -4.4954709614070186e-07 0 -0.034999806473588385 4.255412757091437e-08 0 -0.035000001775431354 -4.963998234271869e-08 0 -0.034941218003691654 1.6298416187611232e-05 0 -0.034999806473588385 4.255412757091437e-08 0 -0.034948266624943033 9.7297432349396858e-06 0 -0.034941218003691654 1.6298416187611232e-05 0 -0.034924964418333704 1.2356795090424548e-05 0 -0.034948266624943033 9.7297432349396858e-06 0 -0.034923891508571399 1.046243882898075e-05 0 -0.034948266624943033 9.7297432349396858e-06 0 -0.034923891508571399 1.046243882898075e-05 0 -0.034941218003691654 1.6298416187611232e-05 0 -0.034903563692031896 9.4558015827389094e-06 0 -0.034923891508571399 1.046243882898075e-05 0 -0.034941218003691654 1.6298416187611232e-05 0 -0.034903563692031896 9.4558015827389094e-06 0 -0.034923891508571399 1.046243882898075e-05 0 -0.034877729108395594 -2.200067708590629e-05 0 -0.034917413615627488 -2.0989528230259711e-06 0 -0.034923891508571399 1.046243882898075e-05 0 -0.034877729108395594 -2.200067708590629e-05 0 -0.031811359750079517 -0.00056416023495409391 0 -0.033261031010269976 -0.00090668542688316744 0 -0.03487036959272901 1.8109385804019485e-05 0 -0.034941218003691654 1.6298416187611232e-05 0 -0.03492271182148831 2.8010760326047789e-05 0 -0.034903563692031896 9.4558015827389094e-06 0 -0.03487036959272901 1.8109385804019485e-05 0 -0.034855054330778582 -1.7651995436599839e-06 0 -0.034903563692031896 9.4558015827389094e-06 0 -0.03487036959272901 1.8109385804019485e-05 0 -0.034941218003691654 1.6298416187611232e-05 0 -0.035000001775431354 -4.963998234271869e-08 0 -0.034941218003691654 1.6298416187611232e-05 0 -0.03492271182148831 2.8010760326047789e-05 0 -0.03492271182148831 2.8010760326047789e-05 0 -0.034999467944289743 3.1913920724627633e-07 0 -0.034847624142121787 4.3407196635450903e-05 0 -0.035000001775431354 -4.963998234271869e-08 0 -0.03492271182148831 2.8010760326047789e-05 0 -0.034999467944289743 3.1913920724627633e-07 0 -0.034999467944289743 3.1913920724627633e-07 0 -0.034801555433350617 5.9071666601975541e-05 0 -0.034649851093734349 0.00012226460317213953 0 -0.034999907313479107 1.5523749400724475e-08 0 -0.034821462793768458 4.5840042163517816e-05 0 -0.034999467944289743 3.1913920724627633e-07 0 -0.034801555433350617 5.9071666601975541e-05 0 -0.034847624142121787 4.3407196635450903e-05 0 -0.034847624142121787 4.3407196635450903e-05 0 -0.034700718795454957 5.3647827888207875e-05 0 -0.034769459332988931 3.1257288162930078e-05 0 -0.034801555433350617 5.9071666601975541e-05 0 -0.034847624142121787 4.3407196635450903e-05 0 -0.034700718795454957 5.3647827888207875e-05 0 -0.03487036959272901 1.8109385804019485e-05 0 -0.03492271182148831 2.8010760326047789e-05 0 -0.034769459332988931 3.1257288162930078e-05 0 -0.03492271182148831 2.8010760326047789e-05 0 -0.034847624142121787 4.3407196635450903e-05 0 -0.034769459332988931 3.1257288162930078e-05 0 -0.03487036959272901 1.8109385804019485e-05 0 -0.034806194037760023 4.1085063234014901e-06 0 -0.034769459332988931 3.1257288162930078e-05 0 -0.034806194037760023 4.1085063234014901e-06 0 -0.034769459332988931 3.1257288162930078e-05 0 -0.034738796157705969 2.585454520345228e-06 0 -0.034769459332988931 3.1257288162930078e-05 0 -0.034738796157705969 2.585454520345228e-06 0 -0.03468385093332161 1.7126132958547372e-05 0 -0.034806194037760023 4.1085063234014901e-06 0 -0.034738796157705969 2.585454520345228e-06 0 -0.034809373082970087 -3.7851657124856598e-05 0 -0.034769459332988931 3.1257288162930078e-05 0 -0.034657746136263518 5.5007936985920707e-05 0 -0.034648071320337689 4.1210088914541718e-05 0 -0.034700718795454957 5.3647827888207875e-05 0 -0.034769459332988931 3.1257288162930078e-05 0 -0.034657746136263518 5.5007936985920707e-05 0 -0.034769459332988931 3.1257288162930078e-05 0 -0.034648071320337689 4.1210088914541718e-05 0 -0.03468385093332161 1.7126132958547372e-05 0 -0.034654498006014167 -1.072488641161129e-05 0 -0.034565032758603939 7.0529011691499509e-05 0 -0.034474234600967782 0.0001266370699281079 0 -0.034648071320337689 4.1210088914541718e-05 0 -0.034635756944004857 3.0832286393330775e-05 0 -0.034565032758603939 7.0529011691499509e-05 0 -0.03468385093332161 1.7126132958547372e-05 0 -0.034635756944004857 3.0832286393330775e-05 0 -0.034654498006014167 -1.072488641161129e-05 0 -0.034648071320337689 4.1210088914541718e-05 0 -0.03468385093332161 1.7126132958547372e-05 0 -0.034635756944004857 3.0832286393330775e-05 0 -0.034635756944004857 3.0832286393330775e-05 0 -0.034654498006014167 -1.072488641161129e-05 0 -0.034565032758603939 7.0529011691499509e-05 0 -0.034738796157705969 2.585454520345228e-06 0 -0.034654498006014167 -1.072488641161129e-05 0 -0.034809373082970087 -3.7851657124856598e-05 0 -0.025421507080817494 -0.0016256797695730727 0 -0.024999598745268942 -0.0017356054844067702 0 -0.024293671937370004 -0.0021454424507947982 0 -0.030417931890423616 -0.00069627431016009171 0 -0.027799425245515156 -0.0014014846856460004 0 -0.024300249314544012 -0.0020747895218236152 0 -0.027799425245515156 -0.0014014846856460004 0 -0.034738796157705969 2.585454520345228e-06 0 -0.03468385093332161 1.7126132958547372e-05 0 -0.034654498006014167 -1.072488641161129e-05 0 -0.024581376764355539 -0.0017628423209065847 0 -0.024533964510227681 -0.0012290850558327878 0 -0.025813075763651678 -0.001274240351866501 0 -0.025421507080817494 -0.0016256797695730727 0 -0.024999598745268942 -0.0017356054844067702 0 -0.025813075763651678 -0.001274240351866501 0 -0.024300249314544012 -0.0020747895218236152 0 -0.025856960950965294 -0.0011880435508250812 0 -0.024581376764355539 -0.0017628423209065847 0 -0.024191956833448838 -0.0014787350427957046 0 -0.023760900200516639 -0.0017176317563652162 0 -0.024191956833448838 -0.0014787350427957046 0 -0.02389953851342675 -0.0011987486250432989 0 -0.024533964510227681 -0.0012290850558327878 0 -0.024581376764355539 -0.0017628423209065847 0 -0.024191956833448838 -0.0014787350427957046 0 -0.024533964510227681 -0.0012290850558327878 0 -0.024191956833448838 -0.0014787350427957046 0 -0.023760900200516639 -0.0017176317563652162 0 -0.02389953851342675 -0.0011987486250432989 0 -0.023502586910938157 -0.0013304081668082625 0 -0.023760900200516639 -0.0017176317563652162 0 -0.023289661123122928 -0.0017154707939082067 0 -0.023502586910938157 -0.0013304081668082625 0 -0.023760900200516639 -0.0017176317563652162 0 -0.02389953851342675 -0.0011987486250432989 0 -0.024581376764355539 -0.0017628423209065847 0 -0.023760900200516639 -0.0017176317563652162 0 -0.023537360072648672 -0.0021669225893412476 0 -0.023760900200516639 -0.0017176317563652162 0 -0.023289661123122928 -0.0017154707939082067 0 -0.023537360072648672 -0.0021669225893412476 0 -0.023289661123122928 -0.0017154707939082067 0 -0.023016792128032437 -0.0021166735893791799 0 -0.023537360072648672 -0.0021669225893412476 0 -0.023289661123122928 -0.0017154707939082067 0 -0.023119230904704368 -0.0011654391696188249 0 -0.022745679190224178 -0.0015550585262679927 0 -0.023502586910938157 -0.0013304081668082625 0 -0.023289661123122928 -0.0017154707939082067 0 -0.023119230904704368 -0.0011654391696188249 0 -0.023119230904704368 -0.0011654391696188249 0 -0.022626465182903847 -0.0011386158882204626 0 -0.022745679190224178 -0.0015550585262679927 0 -0.021848422569838318 -0.0016281022366086814 0 -0.022745679190224178 -0.0015550585262679927 0 -0.023016792128032437 -0.0021166735893791799 0 -0.02147094333668742 -0.0010154113649816679 0 -0.022199336008908742 -0.0012937541826037054 0 -0.022316400906613906 -0.00087146989962467796 0 -0.021848422569838318 -0.0016281022366086814 0 -0.022745679190224178 -0.0015550585262679927 0 -0.022199336008908742 -0.0012937541826037054 0 -0.022626465182903847 -0.0011386158882204626 0 -0.022199336008908742 -0.0012937541826037054 0 -0.022316400906613906 -0.00087146989962467796 0 -0.022626465182903847 -0.0011386158882204626 0 -0.022745679190224178 -0.0015550585262679927 0 -0.022199336008908742 -0.0012937541826037054 0 -0.023289661123122928 -0.0017154707939082067 0 -0.022745679190224178 -0.0015550585262679927 0 -0.023016792128032437 -0.0021166735893791799 0 -0.02315572490766233 -0.0021836147080906703 0 -0.023016792128032437 -0.0021166735893791799 0 -0.023006259923811039 -0.0021707848525722505 0 -0.031811359750079517 -0.00056416023495409391 0 -0.029121627284739087 -0.00099669864061878834 0 -0.030645336358287728 -0.00067632273638971248 0 -0.030473731960496731 -0.00045310770247867084 0 -0.029274510330439714 -0.0013792471637545001 0 -0.028568903740646492 -0.00061112706583431493 0 -0.029121627284739087 -0.00099669864061878834 0 -0.034903563692031896 9.4558015827389094e-06 0 -0.034877729108395594 -2.200067708590629e-05 0 -0.034855054330778582 -1.7651995436599839e-06 0 -0.03487036959272901 1.8109385804019485e-05 0 -0.034806194037760023 4.1085063234014901e-06 0 -0.034855054330778582 -1.7651995436599839e-06 0 -0.034806194037760023 4.1085063234014901e-06 0 -0.034855054330778582 -1.7651995436599839e-06 0 -0.034809373082970087 -3.7851657124856598e-05 0 -0.034877729108395594 -2.200067708590629e-05 0 -0.034855054330778582 -1.7651995436599839e-06 0 -0.034809373082970087 -3.7851657124856598e-05 0 -0.023016792128032437 -0.0021166735893791799 0 -0.023006259923811039 -0.0021707848525722505 0 -0.023537360072648672 -0.0021669225893412476 0 -0.029121627284739087 -0.00099669864061878834 0 -0.027799425245515156 -0.0014014846856460004 0 -0.034911588625556988 1.7033087333797418e-05 0 -0.034745894558128487 6.5650639159696561e-05 0 -0.034940166065319876 1.6963957275419038e-06 0 -0.034911588625556988 1.7033087333797418e-05 0 -0.034962384123569654 -1.8581376677655522e-06 0 -0.034745894558128487 6.5650639159696561e-05 0 -0.034911588625556988 1.7033087333797418e-05 0 -0.034999901489936307 4.8750396366589682e-08 0 -0.034999857365672973 -1.1887218006335923e-08 0 -0.034911588625556988 1.7033087333797418e-05 0 -0.034999901489936307 4.8750396366589682e-08 0 -0.034962384123569654 -1.8581376677655522e-06 0 -0.034999901489936307 4.8750396366589682e-08 0 -0.034962384123569654 -1.8581376677655522e-06 0 -0.034989057125797689 7.7375542005504197e-07 0 -0.034753446148931666 3.9412781243026415e-05 0 -0.034758736661728087 6.5011417124148554e-05 0 -0.03452820493083153 6.3920785810754423e-05 0 -0.034585823694682709 7.5912481921767616e-05 0 -0.034521716074780731 0.00011134101416502627 0 -0.03452820493083153 6.3920785810754423e-05 0 -0.034649851093734349 0.00012226460317213953 0 -0.034585823694682709 7.5912481921767616e-05 0 -0.034753446148931666 3.9412781243026415e-05 0 -0.034821462793768458 4.5840042163517816e-05 0 -0.034962384123569654 -1.8581376677655522e-06 0 -0.034989057125797689 7.7375542005504197e-07 0 -0.03500055683760718 -2.5142385341963941e-06 0 -0.034999901489936307 4.8750396366589682e-08 0 -0.034989057125797689 7.7375542005504197e-07 0 -0.035000011272662335 -1.1168301488229105e-08 0 -0.034989057125797689 7.7375542005504197e-07 0 -0.03500055683760718 -2.5142385341963941e-06 0 -0.035000011272662335 -1.1168301488229105e-08 0 -0.034999995508652362 5.3372440770973956e-09 0 -0.03500055683760718 -2.5142385341963941e-06 0 -0.035000011272662335 -1.1168301488229105e-08 0 -0.034801555433350617 5.9071666601975541e-05 0 -0.034700718795454957 5.3647827888207875e-05 0 -0.034649851093734349 0.00012226460317213953 0 -0.034700718795454957 5.3647827888207875e-05 0 -0.034649851093734349 0.00012226460317213953 0 -0.034585823694682709 7.5912481921767616e-05 0 -0.034700718795454957 5.3647827888207875e-05 0 -0.034585823694682709 7.5912481921767616e-05 0 -0.034582216924183812 7.604489440488069e-05 0 -0.034700718795454957 5.3647827888207875e-05 0 -0.034657746136263518 5.5007936985920707e-05 0 -0.034582216924183812 7.604489440488069e-05 0 -0.034585823694682709 7.5912481921767616e-05 0 -0.034582216924183812 7.604489440488069e-05 0 -0.034521716074780731 0.00011134101416502627 0 -0.034582216924183812 7.604489440488069e-05 0 -0.034499075022679106 0.00013461792476226656 0 -0.034521716074780731 0.00011134101416502627 0 -0.034657746136263518 5.5007936985920707e-05 0 -0.034648071320337689 4.1210088914541718e-05 0 -0.034582216924183812 7.604489440488069e-05 0 -0.034648071320337689 4.1210088914541718e-05 0 -0.034565032758603939 7.0529011691499509e-05 0 -0.034582216924183812 7.604489440488069e-05 0 -0.034565032758603939 7.0529011691499509e-05 0 -0.034582216924183812 7.604489440488069e-05 0 -0.034499075022679106 0.00013461792476226656 0 -0.034565032758603939 7.0529011691499509e-05 0 -0.034499075022679106 0.00013461792476226656 0 -0.034474234600967782 0.0001266370699281079 0 -0.034464696889598821 0.00021805659866061373 0 -0.034521716074780731 0.00011134101416502627 0 -0.034530552854814107 0.00015798575606921437 0 -0.034499075022679106 0.00013461792476226656 0 -0.034464696889598821 0.00021805659866061373 0 -0.034521716074780731 0.00011134101416502627 0 -0.034499075022679106 0.00013461792476226656 0 -0.034464696889598821 0.00021805659866061373 0 -0.034444717255556354 0.00021343391255073939 0 -0.03452820493083153 6.3920785810754423e-05 0 -0.034530552854814107 0.00015798575606921437 0 -0.034745894558128487 6.5650639159696561e-05 0 -0.03452820493083153 6.3920785810754423e-05 0 -0.034521716074780731 0.00011134101416502627 0 -0.034530552854814107 0.00015798575606921437 0 -0.034464696889598821 0.00021805659866061373 0 -0.034530552854814107 0.00015798575606921437 0 -0.034471691080286276 0.00036178516091539016 0 -0.034745894558128487 6.5650639159696561e-05 0 -0.034471691080286276 0.00036178516091539016 0 -0.034707401839312306 0.00033164360959864588 0 -0.034530552854814107 0.00015798575606921437 0 -0.034745894558128487 6.5650639159696561e-05 0 -0.034471691080286276 0.00036178516091539016 0 -0.034291203439277718 0.00074126214950837586 0 -0.034471691080286276 0.00036178516091539016 0 -0.034421513078703059 0.00068253754762782946 0 -0.034464696889598821 0.00021805659866061373 0 -0.034471691080286276 0.00036178516091539016 0 -0.034364413756980787 0.0003886289462675112 0 -0.034291203439277718 0.00074126214950837586 0 -0.034471691080286276 0.00036178516091539016 0 -0.034364413756980787 0.0003886289462675112 0 -0.031515730872032667 0.00043451753428608682 0 -0.029233907565593971 -0.00040595884477012678 0 -0.029880057970034811 0.0018606257314515867 0 -0.032944064505406184 0.00064148639761508303 0 -0.031837520853067194 1.2744814903168647e-05 0 -0.029233907565593971 -0.00040595884477012678 0 -0.027216781280357882 0.00057246524144727968 0 -0.02857126457918694 0.001037698263998543 0 -0.034364413756980787 0.0003886289462675112 0 -0.034444717255556354 0.00021343391255073939 0 -0.034474234600967782 0.0001266370699281079 0 -0.031837520853067194 1.2744814903168647e-05 0 -0.030736443022994074 -0.00050643298185686905 0 -0.034464696889598821 0.00021805659866061373 0 -0.034364413756980787 0.0003886289462675112 0 -0.034444717255556354 0.00021343391255073939 0 -0.034499075022679106 0.00013461792476226656 0 -0.034444717255556354 0.00021343391255073939 0 -0.034474234600967782 0.0001266370699281079 0 -0.027082874997286732 -0.0011153145199389049 0 -0.027216781280357882 0.00057246524144727968 0 -0.026145844072115308 -0.00035808009526628882 0 -0.029233907565593971 -0.00040595884477012678 0 -0.027082874997286732 -0.0011153145199389049 0 -0.027216781280357882 0.00057246524144727968 0 -0.027216781280357882 0.00057246524144727968 0 -0.02783815510187224 0.0024271699585479752 0 -0.02857126457918694 0.001037698263998543 0 -0.02783815510187224 0.0024271699585479752 0 -0.025862768820214075 0.0013140186085526247 0 -0.02599440207424673 0.0027768585908217046 0 -0.027216781280357882 0.00057246524144727968 0 -0.02783815510187224 0.0024271699585479752 0 -0.025862768820214075 0.0013140186085526247 0 -0.02783815510187224 0.0024271699585479752 0 -0.02599440207424673 0.0027768585908217046 0 -0.026632957456007494 0.004218876533362094 0 -0.02783815510187224 0.0024271699585479752 0 -0.029880057970034811 0.0018606257314515867 0 -0.02995871193403701 0.0038979077513690624 0 -0.02783815510187224 0.0024271699585479752 0 -0.02857126457918694 0.001037698263998543 0 -0.029880057970034811 0.0018606257314515867 0 -0.029233907565593971 -0.00040595884477012678 0 -0.02857126457918694 0.001037698263998543 0 -0.029880057970034811 0.0018606257314515867 0 -0.029880057970034811 0.0018606257314515867 0 -0.032020255629915895 0.0024802546949759625 0 -0.02995871193403701 0.0038979077513690624 0 -0.032020255629915895 0.0024802546949759625 0 -0.032244372307857254 0.0040201243055279301 0 -0.02995871193403701 0.0038979077513690624 0 -0.031515730872032667 0.00043451753428608682 0 -0.029880057970034811 0.0018606257314515867 0 -0.032020255629915895 0.0024802546949759625 0 -0.031515730872032667 0.00043451753428608682 0 -0.032020255629915895 0.0024802546949759625 0 -0.034074475172267672 0.0014942330621212974 0 -0.023033943885314156 0.00040298511588030813 0 -0.022692081792817433 2.6199089582763527e-05 0 -0.023247341289876249 -9.0707397435327403e-05 0 -0.023033943885314156 0.00040298511588030813 0 -0.023492769477755623 0.00037032834558345417 0 -0.023247341289876249 -9.0707397435327403e-05 0 -0.023492769477755623 0.00037032834558345417 0 -0.023247341289876249 -9.0707397435327403e-05 0 -0.023732036807425781 -0.00030094830215550552 0 -0.023492769477755623 0.00037032834558345417 0 -0.023732036807425781 -0.00030094830215550552 0 -0.024096498171517062 0.00046583927256243802 0 -0.023492769477755623 0.00037032834558345417 0 -0.023267068677603711 0.00097698457735335498 0 -0.024096498171517062 0.00046583927256243802 0 -0.023267068677603711 0.00097698457735335498 0 -0.024096498171517062 0.00046583927256243802 0 -0.024045711210083302 0.0013264615734103213 0 -0.023033943885314156 0.00040298511588030813 0 -0.023492769477755623 0.00037032834558345417 0 -0.023267068677603711 0.00097698457735335498 0 -0.023033943885314156 0.00040298511588030813 0 -0.023267068677603711 0.00097698457735335498 0 -0.022627625079569488 0.00075795156912564893 0 -0.022627625079569488 0.00075795156912564893 0 -0.022259971872033053 0.00023157131956214532 0 -0.022096109253877165 0.001408895671094488 0 -0.022069843599244108 0.00017704136846039898 0 -0.022259971872033053 0.00023157131956214532 0 -0.022327794434960968 -7.8775302056376077e-05 0 -0.023033943885314156 0.00040298511588030813 0 -0.022627625079569488 0.00075795156912564893 0 -0.022692081792817433 2.6199089582763527e-05 0 -0.022627625079569488 0.00075795156912564893 0 -0.022259971872033053 0.00023157131956214532 0 -0.022692081792817433 2.6199089582763527e-05 0 -0.022259971872033053 0.00023157131956214532 0 -0.022692081792817433 2.6199089582763527e-05 0 -0.022327794434960968 -7.8775302056376077e-05 0 -0.022692081792817433 2.6199089582763527e-05 0 -0.022627618821847613 -0.00039578136136373917 0 -0.022957483239793016 -0.00039023060830025374 0 -0.022692081792817433 2.6199089582763527e-05 0 -0.022627618821847613 -0.00039578136136373917 0 -0.022327794434960968 -7.8775302056376077e-05 0 -0.022627618821847613 -0.00039578136136373917 0 -0.022264752470906857 -0.00033056202973544388 0 -0.022485620660796478 -0.00059944067079238856 0 -0.022627618821847613 -0.00039578136136373917 0 -0.023041806456819386 -0.00077585342370657499 0 -0.022957483239793016 -0.00039023060830025374 0 -0.022069843599244108 0.00017704136846039898 0 -0.022327794434960968 -7.8775302056376077e-05 0 -0.02218884197315758 -0.00022417459511509758 0 -0.022327794434960968 -7.8775302056376077e-05 0 -0.022264752470906857 -0.00033056202973544388 0 -0.02218884197315758 -0.00022417459511509758 0 -0.022627618821847613 -0.00039578136136373917 0 -0.022327794434960968 -7.8775302056376077e-05 0 -0.022264752470906857 -0.00033056202973544388 0 -0.02147094333668742 -0.0010154113649816679 0 -0.022264752470906857 -0.00033056202973544388 0 -0.022316400906613906 -0.00087146989962467796 0 -0.022264752470906857 -0.00033056202973544388 0 -0.022316400906613906 -0.00087146989962467796 0 -0.022485620660796478 -0.00059944067079238856 0 -0.023119230904704368 -0.0011654391696188249 0 -0.022626465182903847 -0.0011386158882204626 0 -0.022713776510299891 -0.00081241985587890441 0 -0.022627618821847613 -0.00039578136136373917 0 -0.022713776510299891 -0.00081241985587890441 0 -0.023041806456819386 -0.00077585342370657499 0 -0.022627618821847613 -0.00039578136136373917 0 -0.022485620660796478 -0.00059944067079238856 0 -0.022713776510299891 -0.00081241985587890441 0 -0.022316400906613906 -0.00087146989962467796 0 -0.022485620660796478 -0.00059944067079238856 0 -0.022713776510299891 -0.00081241985587890441 0 -0.022626465182903847 -0.0011386158882204626 0 -0.022316400906613906 -0.00087146989962467796 0 -0.022713776510299891 -0.00081241985587890441 0 -0.023119230904704368 -0.0011654391696188249 0 -0.022713776510299891 -0.00081241985587890441 0 -0.023041806456819386 -0.00077585342370657499 0 -0.023502586910938157 -0.0013304081668082625 0 -0.023119230904704368 -0.0011654391696188249 0 -0.023414511947509237 -0.00076903880598506004 0 -0.023119230904704368 -0.0011654391696188249 0 -0.023414511947509237 -0.00076903880598506004 0 -0.023041806456819386 -0.00077585342370657499 0 -0.023414511947509237 -0.00076903880598506004 0 -0.023041806456819386 -0.00077585342370657499 0 -0.022957483239793016 -0.00039023060830025374 0 -0.023414511947509237 -0.00076903880598506004 0 -0.022957483239793016 -0.00039023060830025374 0 -0.023247341289876249 -9.0707397435327403e-05 0 -0.022692081792817433 2.6199089582763527e-05 0 -0.022957483239793016 -0.00039023060830025374 0 -0.023247341289876249 -9.0707397435327403e-05 0 -0.023414511947509237 -0.00076903880598506004 0 -0.023732036807425781 -0.00030094830215550552 0 -0.024120369474289 -0.00075950477343100136 0 -0.023414511947509237 -0.00076903880598506004 0 -0.023247341289876249 -9.0707397435327403e-05 0 -0.023732036807425781 -0.00030094830215550552 0 -0.023502586910938157 -0.0013304081668082625 0 -0.023414511947509237 -0.00076903880598506004 0 -0.02389953851342675 -0.0011987486250432989 0 -0.023414511947509237 -0.00076903880598506004 0 -0.02389953851342675 -0.0011987486250432989 0 -0.024120369474289 -0.00075950477343100136 0 -0.024120369474289 -0.00075950477343100136 0 -0.024533964510227681 -0.0012290850558327878 0 -0.024806524001922681 -0.00081380203822549132 0 -0.02389953851342675 -0.0011987486250432989 0 -0.024120369474289 -0.00075950477343100136 0 -0.024533964510227681 -0.0012290850558327878 0 -0.024533964510227681 -0.0012290850558327878 0 -0.024806524001922681 -0.00081380203822549132 0 -0.025813075763651678 -0.001274240351866501 0 -0.024806524001922681 -0.00081380203822549132 0 -0.024466304137039169 -0.00026230533370921353 0 -0.025355246928961395 -0.00054576800102717603 0 -0.023732036807425781 -0.00030094830215550552 0 -0.024120369474289 -0.00075950477343100136 0 -0.024466304137039169 -0.00026230533370921353 0 -0.024120369474289 -0.00075950477343100136 0 -0.024806524001922681 -0.00081380203822549132 0 -0.024466304137039169 -0.00026230533370921353 0 -0.030417931890423616 -0.00069627431016009171 0 -0.030736443022994074 -0.00050643298185686905 0 -0.027082874997286732 -0.0011153145199389049 0 -0.025813075763651678 -0.001274240351866501 0 -0.026145844072115308 -0.00035808009526628882 0 -0.025421507080817494 -0.0016256797695730727 0 -0.027082874997286732 -0.0011153145199389049 0 -0.025813075763651678 -0.001274240351866501 0 -0.024806524001922681 -0.00081380203822549132 0 -0.025813075763651678 -0.001274240351866501 0 -0.025355246928961395 -0.00054576800102717603 0 -0.025813075763651678 -0.001274240351866501 0 -0.025355246928961395 -0.00054576800102717603 0 -0.026145844072115308 -0.00035808009526628882 0 -0.027216781280357882 0.00057246524144727968 0 -0.026145844072115308 -0.00035808009526628882 0 -0.025862768820214075 0.0013140186085526247 0 -0.026145844072115308 -0.00035808009526628882 0 -0.025094418291006795 0.00028878475045383524 0 -0.025862768820214075 0.0013140186085526247 0 -0.025355246928961395 -0.00054576800102717603 0 -0.026145844072115308 -0.00035808009526628882 0 -0.025094418291006795 0.00028878475045383524 0 -0.023732036807425781 -0.00030094830215550552 0 -0.024466304137039169 -0.00026230533370921353 0 -0.024096498171517062 0.00046583927256243802 0 -0.024466304137039169 -0.00026230533370921353 0 -0.025094418291006795 0.00028878475045383524 0 -0.024096498171517062 0.00046583927256243802 0 -0.024466304137039169 -0.00026230533370921353 0 -0.025355246928961395 -0.00054576800102717603 0 -0.025094418291006795 0.00028878475045383524 0 -0.025094418291006795 0.00028878475045383524 0 -0.024096498171517062 0.00046583927256243802 0 -0.024867495008398591 0.0011992435597379817 0 -0.024045711210083302 0.0013264615734103213 0 -0.024640290778138597 0.0021060721388762795 0 -0.023417408429080293 0.0019188071680324155 0 -0.024096498171517062 0.00046583927256243802 0 -0.024045711210083302 0.0013264615734103213 0 -0.024867495008398591 0.0011992435597379817 0 -0.024045711210083302 0.0013264615734103213 0 -0.024867495008398591 0.0011992435597379817 0 -0.024640290778138597 0.0021060721388762795 0 -0.024640290778138597 0.0021060721388762795 0 -0.025862768820214075 0.0013140186085526247 0 -0.02599440207424673 0.0027768585908217046 0 -0.025094418291006795 0.00028878475045383524 0 -0.024867495008398591 0.0011992435597379817 0 -0.025862768820214075 0.0013140186085526247 0 -0.024867495008398591 0.0011992435597379817 0 -0.024640290778138597 0.0021060721388762795 0 -0.025862768820214075 0.0013140186085526247 0 -0.024640290778138597 0.0021060721388762795 0 -0.02599440207424673 0.0027768585908217046 0 -0.024976136289275332 0.0038521221156686321 0 -0.024640290778138597 0.0021060721388762795 0 -0.023854270758480744 0.003337707116584209 0 -0.024670939092867172 0.0033778302858407765 0 -0.024640290778138597 0.0021060721388762795 0 -0.023225457776944462 0.0028115545333622567 0 -0.023854270758480744 0.003337707116584209 0 -0.024616225136189562 0.002148647597654606 0 -0.024938974532454958 0.0038137768373123914 0 -0.024640290778138597 0.0021060721388762795 0 -0.023225457776944462 0.0028115545333622567 0 -0.023417408429080293 0.0019188071680324155 0 -0.023225457776944462 0.0028115545333622567 0 -0.022393280589076723 0.0022641206377071108 0 -0.021904301163129278 0.0031184164399200489 0 -0.023225457776944462 0.0028115545333622567 0 -0.023417408429080293 0.0019188071680324155 0 -0.022393280589076723 0.0022641206377071108 0 -0.023417408429080293 0.0019188071680324155 0 -0.02275309747627172 0.0015712973126693855 0 -0.022393280589076723 0.0022641206377071108 0 -0.023267068677603711 0.00097698457735335498 0 -0.023417408429080293 0.0019188071680324155 0 -0.02275309747627172 0.0015712973126693855 0 -0.023267068677603711 0.00097698457735335498 0 -0.022627625079569488 0.00075795156912564893 0 -0.02275309747627172 0.0015712973126693855 0 -0.023267068677603711 0.00097698457735335498 0 -0.024045711210083302 0.0013264615734103213 0 -0.023417408429080293 0.0019188071680324155 0 -0.022627625079569488 0.00075795156912564893 0 -0.02275309747627172 0.0015712973126693855 0 -0.022096109253877165 0.001408895671094488 0 -0.02275309747627172 0.0015712973126693855 0 -0.022096109253877165 0.001408895671094488 0 -0.022393280589076723 0.0022641206377071108 0 -0.022096109253877165 0.001408895671094488 0 -0.021546401342206992 0.0023235250422479438 0 -0.022393280589076723 0.0022641206377071108 0 -0.020936866653182028 0.0031474737831590936 0 -0.021546401342206992 0.0023235250422479438 0 -0.021904301163129278 0.0031184164399200489 0 -0.021546401342206992 0.0023235250422479438 0 -0.022393280589076723 0.0022641206377071108 0 -0.021904301163129278 0.0031184164399200489 0 -0.020936866653182028 0.0031474737831590936 0 -0.021904301163129278 0.0031184164399200489 0 -0.021177987471174785 0.003771726089374624 0 -0.021904301163129278 0.0031184164399200489 0 -0.021781861061659021 0.0040552767960285755 0 -0.021177987471174785 0.003771726089374624 0 -0.021904301163129278 0.0031184164399200489 0 -0.021781861061659021 0.0040552767960285755 0 -0.022821293131106167 0.0035479817185769163 0 -0.016182866019735509 0.0047201423389786465 0 -0.016144921845384953 0.0047356748053693594 0 -0.0161645209830256 0.0047309385745191827 0 -0.021781861061659021 0.0040552767960285755 0 -0.020483109011644879 0.004477085905405364 0 -0.020866420911364231 0.0042596373436926639 0 -0.018843659342031225 0.0046758696246731206 0 -0.016279130846081059 0.0049080243368814294 0 -0.021781861061659021 0.0040552767960285755 0 -0.021177987471174785 0.003771726089374624 0 -0.020866420911364231 0.0042596373436926639 0 -0.021781861061659021 0.0040552767960285755 0 -0.023642241116015612 0.0042240596328095605 0 -0.023713486900363692 0.0046463880313548124 0 -0.018843659342031225 0.0046758696246731206 0 -0.020697628005258675 0.0040420438035130082 0 -0.016182866019735509 0.0047201423389786465 0 -0.016197133200507158 0.0047224176764259157 0 -0.0161645209830256 0.0047309385745191827 0 -0.021781861061659021 0.0040552767960285755 0 -0.022821293131106167 0.0035479817185769163 0 -0.023642241116015612 0.0042240596328095605 0 -0.023225457776944462 0.0028115545333622567 0 -0.021904301163129278 0.0031184164399200489 0 -0.022821293131106167 0.0035479817185769163 0 -0.022821293131106167 0.0035479817185769163 0 -0.023854270758480744 0.003337707116584209 0 -0.023642241116015612 0.0042240596328095605 0 -0.023225457776944462 0.0028115545333622567 0 -0.022821293131106167 0.0035479817185769163 0 -0.023854270758480744 0.003337707116584209 0 -0.023854270758480744 0.003337707116584209 0 -0.024670939092867172 0.0033778302858407765 0 -0.023642241116015612 0.0042240596328095605 0 -0.024670939092867172 0.0033778302858407765 0 -0.023642241116015612 0.0042240596328095605 0 -0.024887279118978745 0.0047666750965823278 0 -0.024938974532454958 0.0038137768373123914 0 -0.023134217468755765 0.0042512932654619777 0 -0.024976136289275332 0.0038521221156686321 0 -0.025277326831765114 0.0055879774807901404 0 -0.026632957456007494 0.004218876533362094 0 -0.02599440207424673 0.0027768585908217046 0 -0.024976136289275332 0.0038521221156686321 0 -0.026632957456007494 0.004218876533362094 0 -0.025277326831765114 0.0055879774807901404 0 -0.026632957456007494 0.004218876533362094 0 -0.027404662636895834 0.0059782557919473697 0 -0.023134217468755765 0.0042512932654619777 0 -0.024374800138415056 0.0045388708598359927 0 -0.020748760335747251 0.0030346130739041595 0 -0.021013688358745491 0.0034633306212322966 0 -0.021369153301627909 0.0030844753825801461 0 -0.023642241116015612 0.0042240596328095605 0 -0.024887279118978745 0.0047666750965823278 0 -0.023699239960551972 0.0045535275063705548 0 -0.020822733356269541 0.0037219068384902365 0 -0.02085314795215587 0.0037300871985621576 0 -0.020827345226335784 0.0036971246225445151 0 -0.023134217468755765 0.0042512932654619777 0 -0.020697628005258675 0.0040420438035130082 0 -0.02130959407971417 0.0043959416459222475 0 -0.020697628005258675 0.0040420438035130082 0 -0.016197133200507158 0.0047224176764259157 0 -0.016143554387841826 0.0047360587215654103 0 -0.0161645209830256 0.0047309385745191827 0 -0.02085314795215587 0.0037300871985621576 0 -0.020827345226335784 0.0036971246225445151 0 -0.020823833694836397 0.0036674341985948001 0 -0.020697628005258675 0.0040420438035130082 0 -0.018203736346483351 0.0042217691924553479 0 -0.020827345226335784 0.0036971246225445151 0 -0.020823833694836397 0.0036674341985948001 0 -0.02081335292348041 0.0036728460998004617 0 -0.020822733356269541 0.0037219068384902365 0 -0.020827345226335784 0.0036971246225445151 0 -0.02081335292348041 0.0036728460998004617 0 -0.023134217468755765 0.0042512932654619777 0 -0.0206289282272995 0.0033569613312532855 0 -0.020748760335747251 0.0030346130739041595 0 -0.020855682569493522 0.0035278330929926307 0 -0.021013688358745491 0.0034633306212322966 0 -0.020855682569493522 0.0035278330929926307 0 -0.021013688358745491 0.0034633306212322966 0 -0.020909218520147911 0.0035841028088092405 0 -0.0206289282272995 0.0033569613312532855 0 -0.020880662013553115 0.0037588312314408207 0 -0.02081335292348041 0.0036728460998004617 0 -0.020822341987169705 0.0036652461172937138 0 -0.020836790633482344 0.0036553909388823695 0 -0.020855682569493522 0.0035278330929926307 0 -0.020909218520147911 0.0035841028088092405 0 -0.020836790633482344 0.0036553909388823695 0 -0.020823833694836397 0.0036674341985948001 0 -0.020822341987169705 0.0036652461172937138 0 -0.02080396170805018 0.0036847887503565443 0 -0.018203736346483351 0.0042217691924553479 0 -0.018435638104566752 0.0041264049636142016 0 -0.016143554387841826 0.0047360587215654103 0 -0.016113645748057903 0.004735820112407643 0 -0.016075692449164042 0.0047249405116514291 0 -0.020823833694836397 0.0036674341985948001 0 -0.02081335292348041 0.0036728460998004617 0 -0.020822341987169705 0.0036652461172937138 0 -0.016143554387841826 0.0047360587215654103 0 -0.016113645748057903 0.004735820112407643 0 -0.016139880941048561 0.0047361422411564373 0 -0.016113645748057903 0.004735820112407643 0 -0.016136237232367324 0.0047387993382720442 0 -0.016139880941048561 0.0047361422411564373 0 -0.016279130846081059 0.0049080243368814294 0 -0.015183500614171145 0.0065714022034077824 0 -0.016113645748057903 0.004735820112407643 0 -0.016136237232367324 0.0047387993382720442 0 -0.016102304659576662 0.0047363773425619891 0 -0.013091241294996447 0.0057259465345898871 0 -0.01267780902627641 0.0070512295183464005 0 -0.012470951190141008 0.0068329894997630558 0 -0.016279130846081059 0.0049080243368814294 0 -0.014328159655632966 0.0058863306274747331 0 -0.016182866019735509 0.0047201423389786465 0 -0.016144921845384953 0.0047356748053693594 0 -0.016137357434208095 0.0047385545841368464 0 -0.016144921845384953 0.0047356748053693594 0 -0.016136237232367324 0.0047387993382720442 0 -0.016139880941048561 0.0047361422411564373 0 -0.020483109011644879 0.004477085905405364 0 -0.019896437427023718 0.0047980748299776711 0 -0.017303132660537519 0.0049175383335733312 0 -0.021781861061659021 0.0040552767960285755 0 -0.020483109011644879 0.004477085905405364 0 -0.019896437427023718 0.0047980748299776711 0 -0.016266181946226525 0.0048372552269503903 0 -0.016279130846081059 0.0049080243368814294 0 -0.016143554387841826 0.0047360587215654103 0 -0.0161645209830256 0.0047309385745191827 0 -0.016139880941048561 0.0047361422411564373 0 -0.016144921845384953 0.0047356748053693594 0 -0.0161645209830256 0.0047309385745191827 0 -0.016139880941048561 0.0047361422411564373 0 -0.031142396546829064 0.0052758490681012139 0 -0.031799544293287657 0.0066904330096236465 0 -0.032520728444141445 0.0053559779426434586 0 -0.031142396546829064 0.0052758490681012139 0 -0.032244372307857254 0.0040201243055279301 0 -0.032520728444141445 0.0053559779426434586 0 -0.031142396546829064 0.0052758490681012139 0 -0.032244372307857254 0.0040201243055279301 0 -0.02995871193403701 0.0038979077513690624 0 -0.031142396546829064 0.0052758490681012139 0 -0.029591429986479404 0.0063514911658319505 0 -0.031799544293287657 0.0066904330096236465 0 -0.031142396546829064 0.0052758490681012139 0 -0.02995871193403701 0.0038979077513690624 0 -0.029591429986479404 0.0063514911658319505 0 -0.025817414961506701 0.0047573261916712605 0 -0.024374800138415056 0.0045388708598359927 0 -0.02995871193403701 0.0038979077513690624 0 -0.029591429986479404 0.0063514911658319505 0 -0.028286175223916878 0.004670553707366209 0 -0.029591429986479404 0.0063514911658319505 0 -0.028286175223916878 0.004670553707366209 0 -0.027404662636895834 0.0059782557919473697 0 -0.02783815510187224 0.0024271699585479752 0 -0.02995871193403701 0.0038979077513690624 0 -0.028286175223916878 0.004670553707366209 0 -0.02783815510187224 0.0024271699585479752 0 -0.028286175223916878 0.004670553707366209 0 -0.026632957456007494 0.004218876533362094 0 -0.028286175223916878 0.004670553707366209 0 -0.026632957456007494 0.004218876533362094 0 -0.027404662636895834 0.0059782557919473697 0 -0.021013688358745491 0.0034633306212322966 0 -0.021448405542045759 0.0039779715989364112 0 -0.021572702038202957 0.0035158562387719934 0 -0.021013688358745491 0.0034633306212322966 0 -0.021369153301627909 0.0030844753825801461 0 -0.021572702038202957 0.0035158562387719934 0 -0.021000071999984282 0.003475518206573984 0 -0.021210629655150429 0.00380143955459959 0 -0.02091510354820926 0.0036175202181442379 0 -0.020909218520147911 0.0035841028088092405 0 -0.020836790633482344 0.0036553909388823695 0 -0.021013688358745491 0.0034633306212322966 0 -0.02091510354820926 0.0036175202181442379 0 -0.020909218520147911 0.0035841028088092405 0 -0.021448405542045759 0.0039779715989364112 0 -0.021921174111056568 0.0038354197629806327 0 -0.021834552651792953 0.0044750109691890014 0 -0.021448405542045759 0.0039779715989364112 0 -0.021921174111056568 0.0038354197629806327 0 -0.021572702038202957 0.0035158562387719934 0 -0.02210013689343357 0.0032009982549360419 0 -0.021921174111056568 0.0038354197629806327 0 -0.021572702038202957 0.0035158562387719934 0 -0.02210013689343357 0.0032009982549360419 0 -0.021369153301627909 0.0030844753825801461 0 -0.021572702038202957 0.0035158562387719934 0 -0.025817414961506701 0.0047573261916712605 0 -0.02737870387895253 0.0051733196245568698 0 -0.02210013689343357 0.0032009982549360419 0 -0.021921174111056568 0.0038354197629806327 0 -0.022357559227131119 0.0036074785609239678 0 -0.02210013689343357 0.0032009982549360419 0 -0.022357559227131119 0.0036074785609239678 0 -0.022725611090159543 0.003333365202463686 0 -0.021921174111056568 0.0038354197629806327 0 -0.022357559227131119 0.0036074785609239678 0 -0.022317554431157745 0.0040715249477172206 0 -0.022533436861306363 0.0039001814943470394 0 -0.0226517765459383 0.003707430909415675 0 -0.022418282161328344 0.003861916942102328 0 -0.022656630044116118 0.0038522186830839068 0 -0.022739376272751913 0.0036382925895578466 0 -0.022357559227131119 0.0036074785609239678 0 -0.022317554431157745 0.0040715249477172206 0 -0.022739376272751913 0.0036382925895578466 0 -0.022656630044116118 0.0038522186830839068 0 -0.022739376272751913 0.0036382925895578466 0 -0.02298834403589875 0.0037790688240482979 0 -0.022357559227131119 0.0036074785609239678 0 -0.022739376272751913 0.0036382925895578466 0 -0.022725611090159543 0.003333365202463686 0 -0.022120876508898751 0.0036393150348727589 0 -0.021891822436606725 0.0036496839666394507 0 -0.021664753976215801 0.0034303549386905424 0 -0.022120876508898751 0.0036393150348727589 0 -0.022417183728813538 0.0035240494826410951 0 -0.021664753976215801 0.0034303549386905424 0 -0.022120876508898751 0.0036393150348727589 0 -0.021891822436606725 0.0036496839666394507 0 -0.022381987364923816 0.0039158706166268591 0 -0.017693657452331802 0.0017110038742579445 0 -0.017890314397819438 0.0016010545188157406 0 -0.021891822436606725 0.0036496839666394507 0 -0.022381987364923816 0.0039158706166268591 0 -0.021753444162647195 0.0039571467631364056 0 -0.022124090149797923 0.0038600383018338688 0 -0.022700577540047003 0.0042044851392724989 0 -0.022656630044116118 0.0038522186830839068 0 -0.022381987364923816 0.0039158706166268591 0 -0.022773047753141134 0.0040436177664301895 0 -0.022219420497923217 0.0039189618894198827 0 -0.022700577540047003 0.0042044851392724989 0 -0.022418282161328344 0.003861916942102328 0 -0.022656630044116118 0.0038522186830839068 0 -0.022381987364923816 0.0039158706166268591 0 -0.021921174111056568 0.0038354197629806327 0 -0.022317554431157745 0.0040715249477172206 0 -0.021834552651792953 0.0044750109691890014 0 -0.022418282161328344 0.003861916942102328 0 -0.022381987364923816 0.0039158706166268591 0 -0.022542088202148463 0.0038944065003962101 0 -0.022533436861306363 0.0039001814943470394 0 -0.021130872863266391 0.0040453262979316396 0 -0.022381987364923816 0.0039158706166268591 0 -0.022417183728813538 0.0035240494826410951 0 -0.022542088202148463 0.0038944065003962101 0 -0.022120876508898751 0.0036393150348727589 0 -0.022381987364923816 0.0039158706166268591 0 -0.022417183728813538 0.0035240494826410951 0 -0.017693657452331802 0.0017110038742579445 0 -0.021130872863266391 0.0040453262979316396 0 -0.018366802772517742 0.0026654027827842882 0 -0.01935336489063923 0.0026466295625230197 0 -0.018941122306514395 0.0031632910752561901 0 -0.017693657452331802 0.0017110038742579445 0 -0.017998576053228878 0.0025107971107059344 0 -0.018366802772517742 0.0026654027827842882 0 -0.018941122306514395 0.0031632910752561901 0 -0.019067949035006207 0.003600679374122227 0 -0.019360532247016969 0.0026568340497993615 0 -0.019067949035006207 0.003600679374122227 0 -0.020243752430353444 0.0026437236174863595 0 -0.019360532247016969 0.0026568340497993615 0 -0.018941122306514395 0.0031632910752561901 0 -0.019067949035006207 0.003600679374122227 0 -0.017998576053228878 0.0025107971107059344 0 -0.01890490501040562 0.0027692795341360986 0 -0.021210629655150429 0.00380143955459959 0 -0.021130872863266391 0.0040453262979316396 0 -0.02091510354820926 0.0036175202181442379 0 -0.020911256647930889 0.0036638651052208026 0 -0.020860812401349578 0.0036571196620837345 0 -0.02091510354820926 0.0036175202181442379 0 -0.020860812401349578 0.0036571196620837345 0 -0.020836790633482344 0.0036553909388823695 0 -0.020911256647930889 0.0036638651052208026 0 -0.020860812401349578 0.0036571196620837345 0 -0.020820187917921232 0.0036817838914727482 0 -0.020860812401349578 0.0036571196620837345 0 -0.020820187917921232 0.0036817838914727482 0 -0.020805264249521855 0.0036609084785390001 0 -0.017998576053228878 0.0025107971107059344 0 -0.020433909256586905 0.0033277622316486826 0 -0.021130872863266391 0.0040453262979316396 0 -0.020433909256586905 0.0033277622316486826 0 -0.020332768384355004 0.0037104405991138763 0 -0.020269371390221228 0.0032570025780504844 0 -0.020465490736059102 0.0036123128784279548 0 -0.0144376569868157 -0.00040400968323091985 0 -0.014444246318649562 -0.00047302311172962456 0 -0.014413257846635582 -0.0004578428318665409 0 -0.017998576053228878 0.0025107971107059344 0 -0.017510696666974277 0.0010637841173278364 0 -0.019869226533167823 0.0037112690053788403 0 -0.020332768384355004 0.0037104405991138763 0 -0.020269371390221228 0.0032570025780504844 0 -0.020433909256586905 0.0033277622316486826 0 -0.020362231023025562 0.0034675600110813882 0 -0.020269371390221228 0.0032570025780504844 0 -0.020465490736059102 0.0036123128784279548 0 -0.020548782850676309 0.0033697308047696251 0 -0.014444246318649562 -0.00047302311172962456 0 -0.014432433165230641 -0.00049394641010106378 0 -0.014418445723120515 -0.0005021269502005351 0 -0.014444246318649562 -0.00047302311172962456 0 -0.014391837578795402 -0.00051881983429646927 0 -0.014418445723120515 -0.0005021269502005351 0 -0.014444246318649562 -0.00047302311172962456 0 -0.014381335096826738 -0.00050198920440787484 0 -0.014413257846635582 -0.0004578428318665409 0 -0.014444246318649562 -0.00047302311172962456 0 -0.014381335096826738 -0.00050198920440787484 0 -0.014391837578795402 -0.00051881983429646927 0 -0.014381335096826738 -0.00050198920440787484 0 -0.014353472293122907 -0.00053787317078200856 0 -0.014391837578795402 -0.00051881983429646927 0 -0.014363696631664676 -0.00039537620514228572 0 -0.0144376569868157 -0.00040400968323091985 0 -0.014375109103542194 -0.00045827264523934141 0 -0.014381335096826738 -0.00050198920440787484 0 -0.014413257846635582 -0.0004578428318665409 0 -0.014375109103542194 -0.00045827264523934141 0 -0.0144376569868157 -0.00040400968323091985 0 -0.014413257846635582 -0.0004578428318665409 0 -0.014375109103542194 -0.00045827264523934141 0 -0.017693657452331802 0.0017110038742579445 0 -0.013964775734695378 -0.0013139732133715838 0 -0.014363696631664676 -0.00039537620514228572 0 -0.014305008799123014 -0.0004600845529692054 0 -0.014375109103542194 -0.00045827264523934141 0 -0.014305008799123014 -0.0004600845529692054 0 -0.014375109103542194 -0.00045827264523934141 0 -0.014330354429530094 -0.00052059210393712568 0 -0.014381335096826738 -0.00050198920440787484 0 -0.014375109103542194 -0.00045827264523934141 0 -0.014330354429530094 -0.00052059210393712568 0 -0.014381335096826738 -0.00050198920440787484 0 -0.014330354429530094 -0.00052059210393712568 0 -0.014353472293122907 -0.00053787317078200856 0 -0.014330354429530094 -0.00052059210393712568 0 -0.014286526503386883 -0.0005782706876637174 0 -0.014353472293122907 -0.00053787317078200856 0 -0.013105896560858411 -0.00059102923287264215 0 -0.012611851002132031 -0.00018756019944179598 0 -0.012276124639168098 -0.00029466423617517586 0 -0.014330354429530094 -0.00052059210393712568 0 -0.014084498810224605 -0.00058268266439550416 0 -0.014286526503386883 -0.0005782706876637174 0 -0.014305008799123014 -0.0004600845529692054 0 -0.014330354429530094 -0.00052059210393712568 0 -0.014084498810224605 -0.00058268266439550416 0 -0.013576475303794642 -0.00056645411343124777 0 -0.013243810550367689 -0.00040540542203974502 0 -0.014434552378116508 -0.00030277643662892891 0 -0.014305008799123014 -0.0004600845529692054 0 -0.014063251104235603 -0.00036717002196708012 0 -0.014305008799123014 -0.0004600845529692054 0 -0.014063251104235603 -0.00036717002196708012 0 -0.014084498810224605 -0.00058268266439550416 0 -0.016072287651592711 0.0047036272084805143 0 -0.016102304659576662 0.0047363773425619891 0 -0.016086824296697659 0.0046984102498200007 0 -0.014328159655632966 0.0058863306274747331 0 -0.013061819482905322 0.0065386199455953432 0 -0.016113645748057903 0.004735820112407643 0 -0.016072287651592711 0.0047036272084805143 0 -0.016075692449164042 0.0047249405116514291 0 -0.016113645748057903 0.004735820112407643 0 -0.016072287651592711 0.0047036272084805143 0 -0.016102304659576662 0.0047363773425619891 0 -0.020822341987169705 0.0036652461172937138 0 -0.02080396170805018 0.0036847887503565443 0 -0.020836790633482344 0.0036553909388823695 0 -0.02080396170805018 0.0036847887503565443 0 -0.020836790633482344 0.0036553909388823695 0 -0.020805264249521855 0.0036609084785390001 0 -0.020860812401349578 0.0036571196620837345 0 -0.020836790633482344 0.0036553909388823695 0 -0.020805264249521855 0.0036609084785390001 0 -0.02080396170805018 0.0036847887503565443 0 -0.020744443766796801 0.0036401039423389816 0 -0.020781858509400546 0.0035587119296677356 0 -0.02080396170805018 0.0036847887503565443 0 -0.020805264249521855 0.0036609084785390001 0 -0.020744443766796801 0.0036401039423389816 0 -0.020820187917921232 0.0036817838914727482 0 -0.020805264249521855 0.0036609084785390001 0 -0.020744443766796801 0.0036401039423389816 0 -0.020433909256586905 0.0033277622316486826 0 -0.020735772446128679 0.0035893233246733713 0 -0.018435638104566752 0.0041264049636142016 0 -0.018660144071054291 0.0044382242807259444 0 -0.016072287651592711 0.0047036272084805143 0 -0.016075692449164042 0.0047249405116514291 0 -0.015998574334944719 0.0046711461944365521 0 -0.016072287651592711 0.0047036272084805143 0 -0.016033416786184064 0.0046585139926808286 0 -0.015998574334944719 0.0046711461944365521 0 -0.020744443766796801 0.0036401039423389816 0 -0.020465490736059102 0.0036123128784279548 0 -0.020642855802344279 0.0035449851338016404 0 -0.020329027251735781 0.00373725697717388 0 -0.020744443766796801 0.0036401039423389816 0 -0.020465490736059102 0.0036123128784279548 0 -0.020465490736059102 0.0036123128784279548 0 -0.020642855802344279 0.0035449851338016404 0 -0.020548782850676309 0.0033697308047696251 0 -0.020744443766796801 0.0036401039423389816 0 -0.020642855802344279 0.0035449851338016404 0 -0.020781858509400546 0.0035587119296677356 0 -0.020642855802344279 0.0035449851338016404 0 -0.020781858509400546 0.0035587119296677356 0 -0.020548782850676309 0.0033697308047696251 0 -0.018660144071054291 0.0044382242807259444 0 -0.016359762231563758 0.002311851208175896 0 -0.017510696666974277 0.0010637841173278364 0 -0.016359762231563758 0.002311851208175896 0 -0.020269371390221228 0.0032570025780504844 0 -0.020548782850676309 0.0033697308047696251 0 -0.020619968579388082 0.0027814218400519994 0 -0.020781858509400546 0.0035587119296677356 0 -0.020548782850676309 0.0033697308047696251 0 -0.020619968579388082 0.0027814218400519994 0 -0.016033416786184064 0.0046585139926808286 0 -0.015998574334944719 0.0046711461944365521 0 -0.015920222921685219 0.0045581803815671782 0 -0.016033416786184064 0.0046585139926808286 0 -0.016010942756780621 0.004586562733268869 0 -0.015920222921685219 0.0045581803815671782 0 -0.012737483525471528 0.0052364791750010012 0 -0.013229688241773856 0.0056131545661024431 0 -0.016033416786184064 0.0046585139926808286 0 -0.016010942756780621 0.004586562733268869 0 -0.016065258645268657 0.0046548377029903415 0 -0.0091048603081030632 0.0056925031921155446 0 -0.010300081018631802 0.0066226098932361446 0 -0.010305020517659236 0.0052838051991199149 0 -0.016072287651592711 0.0047036272084805143 0 -0.016033416786184064 0.0046585139926808286 0 -0.016065258645268657 0.0046548377029903415 0 -0.013229688241773856 0.0056131545661024431 0 -0.013061819482905322 0.0065386199455953432 0 -0.016072287651592711 0.0047036272084805143 0 -0.016065258645268657 0.0046548377029903415 0 -0.016086824296697659 0.0046984102498200007 0 -0.010300081018631802 0.0066226098932361446 0 -0.011657168833463152 0.007264689399526892 0 -0.011626335134276694 0.0074793160634837319 0 -0.011185809066737881 0.0065464668297252979 0 -0.010300081018631802 0.0066226098932361446 0 -0.011657168833463152 0.007264689399526892 0 -0.010828863775565939 0.0060729092226536174 0 -0.011506435926324164 0.0058496942150622379 0 -0.010305020517659236 0.0052838051991199149 0 -0.010300081018631802 0.0066226098932361446 0 -0.010828863775565939 0.0060729092226536174 0 -0.010305020517659236 0.0052838051991199149 0 -0.011185809066737881 0.0065464668297252979 0 -0.010300081018631802 0.0066226098932361446 0 -0.010828863775565939 0.0060729092226536174 0 -0.011185809066737881 0.0065464668297252979 0 -0.010828863775565939 0.0060729092226536174 0 -0.011506435926324164 0.0058496942150622379 0 -0.011506435926324164 0.0058496942150622379 0 -0.01219174022236532 0.0065285104145281414 0 -0.012602041117572599 0.0057776968188260787 0 -0.01219174022236532 0.0065285104145281414 0 -0.013007821915373464 0.0067566426963976516 0 -0.012213387878459131 0.0071972399885338809 0 -0.01219174022236532 0.0065285104145281414 0 -0.011730079722116817 0.0067309989104250775 0 -0.012213387878459131 0.0071972399885338809 0 -0.011506435926324164 0.0058496942150622379 0 -0.01219174022236532 0.0065285104145281414 0 -0.011730079722116817 0.0067309989104250775 0 -0.011185809066737881 0.0065464668297252979 0 -0.011506435926324164 0.0058496942150622379 0 -0.011730079722116817 0.0067309989104250775 0 -0.012602041117572599 0.0057776968188260787 0 -0.013007821915373464 0.0067566426963976516 0 -0.014219027766678874 0.0048007585948665246 0 -0.014115382156155301 0.006292134324911749 0 -0.014311745407340364 0.0048610362001556724 0 -0.01219174022236532 0.0065285104145281414 0 -0.012602041117572599 0.0057776968188260787 0 -0.013007821915373464 0.0067566426963976516 0 -0.015167746343125619 0.0060734020376859241 0 -0.015900594538822862 0.0064993782300876964 0 -0.015769979895009171 0.0064067863451235793 0 -0.014115382156155301 0.006292134324911749 0 -0.01427754724726911 0.0070564930460788071 0 -0.015167746343125619 0.0060734020376859241 0 -0.015769979895009171 0.0064067863451235793 0 -0.015656874722421155 0.0062572714716949479 0 -0.015167746343125619 0.0060734020376859241 0 -0.015900594538822862 0.0064993782300876964 0 -0.016229315495987908 0.0066611318235867039 0 -0.013007821915373464 0.0067566426963976516 0 -0.012213387878459131 0.0071972399885338809 0 -0.012202530140629747 0.0076479735492834293 0 -0.011185809066737881 0.0065464668297252979 0 -0.011730079722116817 0.0067309989104250775 0 -0.011657168833463152 0.007264689399526892 0 -0.011730079722116817 0.0067309989104250775 0 -0.011657168833463152 0.007264689399526892 0 -0.012213387878459131 0.0071972399885338809 0 -0.011657168833463152 0.007264689399526892 0 -0.012213387878459131 0.0071972399885338809 0 -0.011662345061349218 0.007412806384030214 0 -0.012213387878459131 0.0071972399885338809 0 -0.012179335750183335 0.0076114834842522551 0 -0.012202530140629747 0.0076479735492834293 0 -0.012520448866839286 0.0070520591151309407 0 -0.013061819482905322 0.0065386199455953432 0 -0.012213387878459131 0.0071972399885338809 0 -0.012179335750183335 0.0076114834842522551 0 -0.011662345061349218 0.007412806384030214 0 -0.012921384061282315 0.0067868805328170651 0 -0.013061819482905322 0.0065386199455953432 0 -0.01267780902627641 0.0070512295183464005 0 -0.012179335750183335 0.0076114834842522551 0 -0.012202530140629747 0.0076479735492834293 0 -0.01427754724726911 0.0070564930460788071 0 -0.015183500614171145 0.0065714022034077824 0 -0.01267780902627641 0.0070512295183464005 0 -0.012179335750183335 0.0076114834842522551 0 -0.012376478493289954 0.0077590048155053914 0 -0.016229315495987908 0.0066611318235867039 0 -0.016282663788431115 0.0065436437007635618 0 -0.016738456727367894 0.0064639789447438626 0 -0.015900594538822862 0.0064993782300876964 0 -0.015979111272846673 0.0064939780648127351 0 -0.016282663788431115 0.0065436437007635618 0 -0.015900594538822862 0.0064993782300876964 0 -0.016229315495987908 0.0066611318235867039 0 -0.016282663788431115 0.0065436437007635618 0 -0.015900594538822862 0.0064993782300876964 0 -0.015769979895009171 0.0064067863451235793 0 -0.015979111272846673 0.0064939780648127351 0 -0.015979111272846673 0.0064939780648127351 0 -0.016282663788431115 0.0065436437007635618 0 -0.015983035259258385 0.0064070169349370763 0 -0.016484430843718822 0.0063662904023481437 0 -0.017050866529773678 0.0059817817436586124 0 -0.015945716890378995 0.0061796630389246996 0 -0.016282663788431115 0.0065436437007635618 0 -0.016484430843718822 0.0063662904023481437 0 -0.016738456727367894 0.0064639789447438626 0 -0.016484430843718822 0.0063662904023481437 0 -0.015945716890378995 0.0061796630389246996 0 -0.015983035259258385 0.0064070169349370763 0 -0.016282663788431115 0.0065436437007635618 0 -0.016484430843718822 0.0063662904023481437 0 -0.015983035259258385 0.0064070169349370763 0 -0.01267780902627641 0.0070512295183464005 0 -0.012202530140629747 0.0076479735492834293 0 -0.012470951190141008 0.0068329894997630558 0 -0.017050866529773678 0.0059817817436586124 0 -0.017005496563732396 0.0063161430131174036 0 -0.017780153623511864 0.006356344776560636 0 -0.016229315495987908 0.0066611318235867039 0 -0.017780153623511864 0.006356344776560636 0 -0.016738456727367894 0.0064639789447438626 0 -0.016484430843718822 0.0063662904023481437 0 -0.017050866529773678 0.0059817817436586124 0 -0.017005496563732396 0.0063161430131174036 0 -0.016484430843718822 0.0063662904023481437 0 -0.017005496563732396 0.0063161430131174036 0 -0.016738456727367894 0.0064639789447438626 0 -0.017005496563732396 0.0063161430131174036 0 -0.017780153623511864 0.006356344776560636 0 -0.016738456727367894 0.0064639789447438626 0 -0.019691385052940581 0.0051355806676567301 0 -0.01947879983705619 0.0048721928410218555 0 -0.019674391072706604 0.0046521803233970779 0 -0.019691385052940581 0.0051355806676567301 0 -0.019293378095999129 0.005173181305517827 0 -0.01947879983705619 0.0048721928410218555 0 -0.018162761400828238 0.005826929712965616 0 -0.018059024284792995 0.0055058973848508492 0 -0.01656109412817388 0.0066780704003714013 0 -0.015945716890378995 0.0061796630389246996 0 -0.015983035259258385 0.0064070169349370763 0 -0.019691385052940581 0.0051355806676567301 0 -0.020060981153751732 0.0048554386206744998 0 -0.019890244919592046 0.0046678804881377231 0 -0.01656109412817388 0.0066780704003714013 0 -0.015983035259258385 0.0064070169349370763 0 -0.016040781314253731 0.006345402339535392 0 -0.015979111272846673 0.0064939780648127351 0 -0.015983035259258385 0.0064070169349370763 0 -0.01591432329499361 0.006424529124755933 0 -0.015983035259258385 0.0064070169349370763 0 -0.016040781314253731 0.006345402339535392 0 -0.01591432329499361 0.006424529124755933 0 -0.015769979895009171 0.0064067863451235793 0 -0.015979111272846673 0.0064939780648127351 0 -0.01591432329499361 0.006424529124755933 0 -0.016040781314253731 0.006345402339535392 0 -0.01591432329499361 0.006424529124755933 0 -0.015953474332953174 0.0063938124375918799 0 -0.01656109412817388 0.0066780704003714013 0 -0.016040781314253731 0.006345402339535392 0 -0.01729230274878326 0.0049343886234063956 0 -0.016040781314253731 0.006345402339535392 0 -0.016235472830707989 0.006509782841588688 0 -0.015953474332953174 0.0063938124375918799 0 -0.016167274540746585 0.0062326095635418235 0 -0.016701607489414003 0.0058258260766752921 0 -0.01656109412817388 0.0066780704003714013 0 -0.01729230274878326 0.0049343886234063956 0 -0.01888567556489135 0.005340200754502299 0 -0.016235472830707989 0.006509782841588688 0 -0.015998157459755899 0.0061261848390260429 0 -0.017229107616644524 0.0060822310487526629 0 -0.016235472830707989 0.006509782841588688 0 -0.015998157459755899 0.0061261848390260429 0 -0.015953474332953174 0.0063938124375918799 0 -0.015769979895009171 0.0064067863451235793 0 -0.01591432329499361 0.006424529124755933 0 -0.015656874722421155 0.0062572714716949479 0 -0.01591432329499361 0.006424529124755933 0 -0.015953474332953174 0.0063938124375918799 0 -0.015656874722421155 0.0062572714716949479 0 -0.015998157459755899 0.0061261848390260429 0 -0.015953474332953174 0.0063938124375918799 0 -0.015656874722421155 0.0062572714716949479 0 -0.015167746343125619 0.0060734020376859241 0 -0.015656874722421155 0.0062572714716949479 0 -0.01531806000429368 0.0056504144164448529 0 -0.015167746343125619 0.0060734020376859241 0 -0.01531806000429368 0.0056504144164448529 0 -0.014219027766678874 0.0048007585948665246 0 -0.015998157459755899 0.0061261848390260429 0 -0.015656874722421155 0.0062572714716949479 0 -0.01531806000429368 0.0056504144164448529 0 -0.015998157459755899 0.0061261848390260429 0 -0.016272186769239236 0.0053681592446127597 0 -0.017229107616644524 0.0060822310487526629 0 -0.015998157459755899 0.0061261848390260429 0 -0.01531806000429368 0.0056504144164448529 0 -0.016272186769239236 0.0053681592446127597 0 -0.018501854301578295 0.0044833098448311846 0 -0.017768769090067183 0.0045844885649779831 0 -0.016272186769239236 0.0053681592446127597 0 -0.017229107616644524 0.0060822310487526629 0 -0.017487556331830661 0.0049990737513419658 0 -0.018105425533217378 0.0052663017787329541 0 -0.019421862241850094 0.0041266651637450139 0 -0.018036394037772061 0.0039500486440003472 0 -0.019856043989262457 0.0029215234097835739 0 -0.020536015858055843 0.0025192981780231389 0 -0.02057661180989841 0.002927789520213428 0 -0.018501854301578295 0.0044833098448311846 0 -0.020069047786682125 0.0032238203463772564 0 -0.020547711128348189 0.0029613895378401991 0 -0.020416644676021136 0.0035721757694326351 0 -0.019856043989262457 0.0029215234097835739 0 -0.02057661180989841 0.002927789520213428 0 -0.020141841774988834 0.0032338236632403778 0 -0.02057661180989841 0.002927789520213428 0 -0.020141841774988834 0.0032338236632403778 0 -0.020286678081785522 0.0036581079881888999 0 -0.020141841774988834 0.0032338236632403778 0 -0.01997070573432214 0.003319967597832413 0 -0.020035420063224819 0.0035407529136712735 0 -0.019856043989262457 0.0029215234097835739 0 -0.01997070573432214 0.003319967597832413 0 -0.019829459523058701 0.0035668477975519973 0 -0.01729230274878326 0.0049343886234063956 0 -0.018764574298607738 0.0039025396127062412 0 -0.01888567556489135 0.005340200754502299 0 -0.018764574298607738 0.0039025396127062412 0 -0.01888567556489135 0.005340200754502299 0 -0.018958721635134426 0.0054849514997321117 0 -0.018501854301578295 0.0044833098448311846 0 -0.019434103759041348 0.0042885183276447003 0 -0.016701607489414003 0.0058258260766752921 0 -0.018501854301578295 0.0044833098448311846 0 -0.019856043989262457 0.0029215234097835739 0 -0.020141841774988834 0.0032338236632403778 0 -0.01997070573432214 0.003319967597832413 0 -0.021718337961498677 0.0023640023025526167 0 -0.021670133249262813 0.002807665371503476 0 -0.021096293453124013 0.002649029842657588 0 -0.021670133249262813 0.002807665371503476 0 -0.021096293453124013 0.002649029842657588 0 -0.020995989378019751 0.003020305137738561 0 -0.02057661180989841 0.002927789520213428 0 -0.021096293453124013 0.002649029842657588 0 -0.020995989378019751 0.003020305137738561 0 -0.020536015858055843 0.0025192981780231389 0 -0.02057661180989841 0.002927789520213428 0 -0.021096293453124013 0.002649029842657588 0 -0.02057661180989841 0.002927789520213428 0 -0.020995989378019751 0.003020305137738561 0 -0.020545691649000886 0.0035344414800955997 0 -0.020995989378019751 0.003020305137738561 0 -0.021294254576034188 0.0032359250913096289 0 -0.021002726491828546 0.0034906168787143619 0 -0.021670133249262813 0.002807665371503476 0 -0.021747412374738626 0.0032876687572877743 0 -0.021294254576034188 0.0032359250913096289 0 -0.021670133249262813 0.002807665371503476 0 -0.020995989378019751 0.003020305137738561 0 -0.021294254576034188 0.0032359250913096289 0 -0.021294254576034188 0.0032359250913096289 0 -0.021002726491828546 0.0034906168787143619 0 -0.021334429870956462 0.0037987909891067295 0 -0.021747412374738626 0.0032876687572877743 0 -0.021294254576034188 0.0032359250913096289 0 -0.021334429870956462 0.0037987909891067295 0 -0.021002726491828546 0.0034906168787143619 0 -0.020883299988291606 0.0040324548639516832 0 -0.021334429870956462 0.0037987909891067295 0 -0.021002726491828546 0.0034906168787143619 0 -0.020883299988291606 0.0040324548639516832 0 -0.020545691649000886 0.0035344414800955997 0 -0.020995989378019751 0.003020305137738561 0 -0.021002726491828546 0.0034906168787143619 0 -0.020545691649000886 0.0035344414800955997 0 -0.020883299988291606 0.0040324548639516832 0 -0.020545691649000886 0.0035344414800955997 0 -0.020445234738646057 0.004260514919050413 0 -0.020883299988291606 0.0040324548639516832 0 -0.021334429870956462 0.0037987909891067295 0 -0.02132212562289244 0.0044945695192457457 0 -0.021796143386084824 0.0042304306372712075 0 -0.021334429870956462 0.0037987909891067295 0 -0.02132212562289244 0.0044945695192457457 0 -0.019829459523058701 0.0035668477975519973 0 -0.019961463090742215 0.0038057900296026661 0 -0.019751225605113706 0.004041916971699277 0 -0.019691385052940581 0.0051355806676567301 0 -0.019293378095999129 0.005173181305517827 0 -0.01888567556489135 0.005340200754502299 0 -0.019293378095999129 0.005173181305517827 0 -0.018958721635134426 0.0054849514997321117 0 -0.019195036870771003 0.004886798675348766 0 -0.018162761400828238 0.005826929712965616 0 -0.018855642521798364 0.0053780075973119774 0 -0.019434103759041348 0.0042885183276447003 0 -0.019483262803070563 0.004545396116260373 0 -0.01997070573432214 0.003319967597832413 0 -0.019829459523058701 0.0035668477975519973 0 -0.020035420063224819 0.0035407529136712735 0 -0.019293378095999129 0.005173181305517827 0 -0.01888567556489135 0.005340200754502299 0 -0.018958721635134426 0.0054849514997321117 0 -0.019829459523058701 0.0035668477975519973 0 -0.020035420063224819 0.0035407529136712735 0 -0.019961463090742215 0.0038057900296026661 0 -0.020141841774988834 0.0032338236632403778 0 -0.020035420063224819 0.0035407529136712735 0 -0.020286678081785522 0.0036581079881888999 0 -0.020035420063224819 0.0035407529136712735 0 -0.020286678081785522 0.0036581079881888999 0 -0.019961463090742215 0.0038057900296026661 0 -0.019961463090742215 0.0038057900296026661 0 -0.020019223790375351 0.0041589961612810266 0 -0.019751225605113706 0.004041916971699277 0 -0.020286678081785522 0.0036581079881888999 0 -0.019961463090742215 0.0038057900296026661 0 -0.020019223790375351 0.0041589961612810266 0 -0.020416644676021136 0.0035721757694326351 0 -0.020235350840989149 0.0042043947233661519 0 -0.019293378095999129 0.005173181305517827 0 -0.019195036870771003 0.004886798675348766 0 -0.01947879983705619 0.0048721928410218555 0 -0.019195036870771003 0.004886798675348766 0 -0.01947879983705619 0.0048721928410218555 0 -0.019515470784889032 0.0046289570898514253 0 -0.019195036870771003 0.004886798675348766 0 -0.019515470784889032 0.0046289570898514253 0 -0.019606834598872334 0.0044231243349586542 0 -0.019483262803070563 0.004545396116260373 0 -0.019571533352408736 0.0044470716789608662 0 -0.019515470784889032 0.0046289570898514253 0 -0.019606834598872334 0.0044231243349586542 0 -0.019588912656056705 0.0044755157345460414 0 -0.020019223790375351 0.0041589961612810266 0 -0.019751225605113706 0.004041916971699277 0 -0.019606834598872334 0.0044231243349586542 0 -0.020235350840989149 0.0042043947233661519 0 -0.0200948692522144 0.0047431195850100114 0 -0.020019223790375351 0.0041589961612810266 0 -0.019606834598872334 0.0044231243349586542 0 -0.019842247694053364 0.0044482190580498512 0 -0.019606834598872334 0.0044231243349586542 0 -0.019842247694053364 0.0044482190580498512 0 -0.019674049571049727 0.004429721932597953 0 -0.019674049571049727 0.004429721932597953 0 -0.019606094408648654 0.0044031628356030498 0 -0.019681719204808854 0.0044660607841404487 0 -0.019674049571049727 0.004429721932597953 0 -0.019606094408648654 0.0044031628356030498 0 -0.019588912656056705 0.0044755157345460414 0 -0.019606834598872334 0.0044231243349586542 0 -0.019674049571049727 0.004429721932597953 0 -0.019588912656056705 0.0044755157345460414 0 -0.02132212562289244 0.0044945695192457457 0 -0.020777319981003226 0.0046155189628961091 0 -0.021250842960610087 0.0050190890335531811 0 -0.021722945395712585 0.0050445320721828552 0 -0.021948914994014131 0.0047623790561334483 0 -0.02132212562289244 0.0044945695192457457 0 -0.021722945395712585 0.0050445320721828552 0 -0.02132212562289244 0.0044945695192457457 0 -0.021250842960610087 0.0050190890335531811 0 -0.020883299988291606 0.0040324548639516832 0 -0.02132212562289244 0.0044945695192457457 0 -0.020777319981003226 0.0046155189628961091 0 -0.020445234738646057 0.004260514919050413 0 -0.020326950066513909 0.0050581098446220727 0 -0.020777319981003226 0.0046155189628961091 0 -0.020883299988291606 0.0040324548639516832 0 -0.020445234738646057 0.004260514919050413 0 -0.020777319981003226 0.0046155189628961091 0 -0.020326950066513909 0.0050581098446220727 0 -0.020777319981003226 0.0046155189628961091 0 -0.020656099265412089 0.0049981950380114321 0 -0.020229384058138403 0.0050442115798048481 0 -0.020656099265412089 0.0049981950380114321 0 -0.021028261064987404 0.0054746815196875537 0 -0.020326950066513909 0.0050581098446220727 0 -0.020229384058138403 0.0050442115798048481 0 -0.020656099265412089 0.0049981950380114321 0 -0.020656099265412089 0.0049981950380114321 0 -0.021250842960610087 0.0050190890335531811 0 -0.021028261064987404 0.0054746815196875537 0 -0.020777319981003226 0.0046155189628961091 0 -0.020656099265412089 0.0049981950380114321 0 -0.021250842960610087 0.0050190890335531811 0 -0.02277084253132804 0.0070540399152509902 0 -0.022149800066032614 0.0060528577220510631 0 -0.021135024081803684 0.0066904763246128452 0 -0.021250842960610087 0.0050190890335531811 0 -0.022149800066032614 0.0060528577220510631 0 -0.021028261064987404 0.0054746815196875537 0 -0.022718436946272992 0.0056057003134503767 0 -0.021250842960610087 0.0050190890335531811 0 -0.022149800066032614 0.0060528577220510631 0 -0.022149800066032614 0.0060528577220510631 0 -0.021028261064987404 0.0054746815196875537 0 -0.021135024081803684 0.0066904763246128452 0 -0.020229384058138403 0.0050442115798048481 0 -0.021028261064987404 0.0054746815196875537 0 -0.021135024081803684 0.0066904763246128452 0 -0.020229384058138403 0.0050442115798048481 0 -0.020123868865444941 0.0047618883001523792 0 -0.020144346456832916 0.0047759316089134324 0 -0.020347425690265878 0.0051765887192028156 0 -0.020349705920971174 0.0057219507949307332 0 -0.020175795688408556 0.0048619822811667452 0 -0.020123868865444941 0.0047618883001523792 0 -0.020004066143050652 0.0048456918140365769 0 -0.024273544633987749 0.003336265389217212 0 -0.024098304786563291 0.0033937986932158454 0 -0.020175795688408556 0.0048619822811667452 0 -0.020123868865444941 0.0047618883001523792 0 -0.020144346456832916 0.0047759316089134324 0 -0.024144463702277474 0.005436788669682076 0 -0.020349705920971174 0.0057219507949307332 0 -0.020175795688408556 0.0048619822811667452 0 -0.020372816713053646 0.0048997940633273389 0 -0.020144346456832916 0.0047759316089134324 0 -0.02277084253132804 0.0070540399152509902 0 -0.022454073184650473 0.0081797129273686892 0 -0.021135024081803684 0.0066904763246128452 0 -0.019584321194244567 0.0043968084150089633 0 -0.019681719204808854 0.0044660607841404487 0 -0.019778721674545842 0.0045682616569291947 0 -0.019584321194244567 0.0043968084150089633 0 -0.019581353016617214 0.0043641774255205358 0 -0.019681719204808854 0.0044660607841404487 0 -0.019584321194244567 0.0043968084150089633 0 -0.019437559450019556 0.0043332005409512748 0 -0.01954491081524962 0.0043108544746611526 0 -0.019584321194244567 0.0043968084150089633 0 -0.019581353016617214 0.0043641774255205358 0 -0.01954491081524962 0.0043108544746611526 0 -0.019606094408648654 0.0044031628356030498 0 -0.019581353016617214 0.0043641774255205358 0 -0.019681719204808854 0.0044660607841404487 0 -0.019674049571049727 0.004429721932597953 0 -0.019681719204808854 0.0044660607841404487 0 -0.020061753666569468 0.0047264784440168937 0 -0.020229384058138403 0.0050442115798048481 0 -0.020123868865444941 0.0047618883001523792 0 -0.020061753666569468 0.0047264784440168937 0 -0.019842247694053364 0.0044482190580498512 0 -0.019674049571049727 0.004429721932597953 0 -0.020061753666569468 0.0047264784440168937 0 -0.0200948692522144 0.0047431195850100114 0 -0.020062950830045431 0.0047718877220603905 0 -0.020326950066513909 0.0050581098446220727 0 -0.020229384058138403 0.0050442115798048481 0 -0.020061753666569468 0.0047264784440168937 0 -0.019681719204808854 0.0044660607841404487 0 -0.020061753666569468 0.0047264784440168937 0 -0.019778721674545842 0.0045682616569291947 0 -0.020123868865444941 0.0047618883001523792 0 -0.020061753666569468 0.0047264784440168937 0 -0.020004066143050652 0.0048456918140365769 0 -0.020061753666569468 0.0047264784440168937 0 -0.020004066143050652 0.0048456918140365769 0 -0.019778721674545842 0.0045682616569291947 0 -0.024098304786563291 0.0033937986932158454 0 -0.022018048268445077 0.0027707430323448919 0 -0.020004066143050652 0.0048456918140365769 0 -0.019778721674545842 0.0045682616569291947 0 -0.019471065915648903 0.0047341694375202716 0 -0.019778721674545842 0.0045682616569291947 0 -0.019437559450019556 0.0043332005409512748 0 -0.019471065915648903 0.0047341694375202716 0 -0.020317027740547822 0.0045055399252904851 0 -0.022018048268445077 0.0027707430323448919 0 -0.019437559450019556 0.0043332005409512748 0 -0.01929182851341335 0.0034986456759455078 0 -0.01959312190716846 0.0041614604967500279 0 -0.019584321194244567 0.0043968084150089633 0 -0.019778721674545842 0.0045682616569291947 0 -0.019437559450019556 0.0043332005409512748 0 -0.01929182851341335 0.0034986456759455078 0 -0.019591367912352723 0.0034298141571900954 0 -0.01959312190716846 0.0041614604967500279 0 -0.020288094596452765 0.0028938209773961853 0 -0.019597307293366412 0.0040450705456085189 0 -0.01959312190716846 0.0041614604967500279 0 -0.019637600751739523 0.0042386448747644819 0 -0.019770332606611082 0.0039343671157183293 0 -0.020837246669984537 0.0025706221723680962 0 -0.019591367912352723 0.0034298141571900954 0 -0.01959312190716846 0.0041614604967500279 0 -0.022018048268445077 0.0027707430323448919 0 -0.020224678443462478 0.0028671291834841007 0 -0.019437559450019556 0.0043332005409512748 0 -0.01959312190716846 0.0041614604967500279 0 -0.01954491081524962 0.0043108544746611526 0 -0.01959312190716846 0.0041614604967500279 0 -0.01954491081524962 0.0043108544746611526 0 -0.019637600751739523 0.0042386448747644819 0 -0.019581353016617214 0.0043641774255205358 0 -0.01954491081524962 0.0043108544746611526 0 -0.019637600751739523 0.0042386448747644819 0 -0.019637600751739523 0.0042386448747644819 0 -0.019754925712549755 0.0043019936181869101 0 -0.019770332606611082 0.0039343671157183293 0 -0.019637600751739523 0.0042386448747644819 0 -0.019754925712549755 0.0043019936181869101 0 -0.019647581782781441 0.0043536113432339962 0 -0.019581353016617214 0.0043641774255205358 0 -0.019637600751739523 0.0042386448747644819 0 -0.019647581782781441 0.0043536113432339962 0 -0.019606094408648654 0.0044031628356030498 0 -0.019581353016617214 0.0043641774255205358 0 -0.019647581782781441 0.0043536113432339962 0 -0.020000751668418901 0.0042459218865643373 0 -0.019770332606611082 0.0039343671157183293 0 -0.020197175399220772 0.0037974088648039901 0 -0.019754925712549755 0.0043019936181869101 0 -0.020000751668418901 0.0042459218865643373 0 -0.019897610130710192 0.0044391046873043473 0 -0.019754925712549755 0.0043019936181869101 0 -0.020000751668418901 0.0042459218865643373 0 -0.019770332606611082 0.0039343671157183293 0 -0.019732255908025714 0.0031872579484284722 0 -0.019770332606611082 0.0039343671157183293 0 -0.020197175399220772 0.0037974088648039901 0 -0.019732255908025714 0.0031872579484284722 0 -0.01959312190716846 0.0041614604967500279 0 -0.019770332606611082 0.0039343671157183293 0 -0.020936866653182028 0.0031474737831590936 0 -0.020336097605708498 0.0030252717796553593 0 -0.020197175399220772 0.0037974088648039901 0 -0.020336097605708498 0.0030252717796553593 0 -0.019732255908025714 0.0031872579484284722 0 -0.020197175399220772 0.0037974088648039901 0 -0.020936866653182028 0.0031474737831590936 0 -0.020197175399220772 0.0037974088648039901 0 -0.020630338005970097 0.0041191249548702472 0 -0.020936866653182028 0.0031474737831590936 0 -0.021177987471174785 0.003771726089374624 0 -0.020630338005970097 0.0041191249548702472 0 -0.020483109011644879 0.004477085905405364 0 -0.020866420911364231 0.0042596373436926639 0 -0.020554498912269101 0.0044486427674856758 0 -0.021177987471174785 0.003771726089374624 0 -0.020866420911364231 0.0042596373436926639 0 -0.020630338005970097 0.0041191249548702472 0 -0.020630338005970097 0.0041191249548702472 0 -0.020313839924746946 0.004264885075734819 0 -0.020554498912269101 0.0044486427674856758 0 -0.020866420911364231 0.0042596373436926639 0 -0.020630338005970097 0.0041191249548702472 0 -0.020554498912269101 0.0044486427674856758 0 -0.020000751668418901 0.0042459218865643373 0 -0.020197175399220772 0.0037974088648039901 0 -0.020313839924746946 0.004264885075734819 0 -0.020197175399220772 0.0037974088648039901 0 -0.020630338005970097 0.0041191249548702472 0 -0.020313839924746946 0.004264885075734819 0 -0.020000751668418901 0.0042459218865643373 0 -0.020313839924746946 0.004264885075734819 0 -0.020181077043506142 0.0045078576317454256 0 -0.020181077043506142 0.0045078576317454256 0 -0.020554498912269101 0.0044486427674856758 0 -0.020470674710663196 0.0046022654810234792 0 -0.020313839924746946 0.004264885075734819 0 -0.020181077043506142 0.0045078576317454256 0 -0.020554498912269101 0.0044486427674856758 0 -0.020236023957055246 0.0044625407580659018 0 -0.01893326566144304 0.0048398203255605038 0 -0.020483109011644879 0.004477085905405364 0 -0.020554498912269101 0.0044486427674856758 0 -0.020470674710663196 0.0046022654810234792 0 -0.019896437427023718 0.0047980748299776711 0 -0.017303132660537519 0.0049175383335733312 0 -0.017965977216820875 0.0055536200823356283 0 -0.019896437427023718 0.0047980748299776711 0 -0.017780153623511864 0.006356344776560636 0 -0.017965977216820875 0.0055536200823356283 0 -0.017050866529773678 0.0059817817436586124 0 -0.017303132660537519 0.0049175383335733312 0 -0.017965977216820875 0.0055536200823356283 0 -0.017050866529773678 0.0059817817436586124 0 -0.017780153623511864 0.006356344776560636 0 -0.017965977216820875 0.0055536200823356283 0 -0.018059024284792995 0.0055058973848508492 0 -0.01893326566144304 0.0048398203255605038 0 -0.017050866529773678 0.0059817817436586124 0 -0.015945716890378995 0.0061796630389246996 0 -0.017303132660537519 0.0049175383335733312 0 -0.020060981153751732 0.0048554386206744998 0 -0.020181077043506142 0.0045078576317454256 0 -0.020470674710663196 0.0046022654810234792 0 -0.020060981153751732 0.0048554386206744998 0 -0.020181077043506142 0.0045078576317454256 0 -0.019890244919592046 0.0046678804881377231 0 -0.019691385052940581 0.0051355806676567301 0 -0.019890244919592046 0.0046678804881377231 0 -0.019674391072706604 0.0046521803233970779 0 -0.01947879983705619 0.0048721928410218555 0 -0.019515470784889032 0.0046289570898514253 0 -0.019674391072706604 0.0046521803233970779 0 -0.019515470784889032 0.0046289570898514253 0 -0.019588912656056705 0.0044755157345460414 0 -0.019674391072706604 0.0046521803233970779 0 -0.019588912656056705 0.0044755157345460414 0 -0.019674391072706604 0.0046521803233970779 0 -0.01970481158769033 0.0044552854032868343 0 -0.019890244919592046 0.0046678804881377231 0 -0.019674391072706604 0.0046521803233970779 0 -0.01970481158769033 0.0044552854032868343 0 -0.019606094408648654 0.0044031628356030498 0 -0.019588912656056705 0.0044755157345460414 0 -0.01970481158769033 0.0044552854032868343 0 -0.019606094408648654 0.0044031628356030498 0 -0.019647581782781441 0.0043536113432339962 0 -0.01970481158769033 0.0044552854032868343 0 -0.019754925712549755 0.0043019936181869101 0 -0.01970481158769033 0.0044552854032868343 0 -0.019897610130710192 0.0044391046873043473 0 -0.019754925712549755 0.0043019936181869101 0 -0.019647581782781441 0.0043536113432339962 0 -0.01970481158769033 0.0044552854032868343 0 -0.019890244919592046 0.0046678804881377231 0 -0.01970481158769033 0.0044552854032868343 0 -0.019897610130710192 0.0044391046873043473 0 -0.020181077043506142 0.0045078576317454256 0 -0.019890244919592046 0.0046678804881377231 0 -0.019897610130710192 0.0044391046873043473 0 -0.020000751668418901 0.0042459218865643373 0 -0.020181077043506142 0.0045078576317454256 0 -0.019897610130710192 0.0044391046873043473 0 -0.029147913934279901 -0.0003059321606607992 0 -0.027365458734145105 -0.00049412891332551812 0 -0.030847189416791352 -0.00083096184376264283 0 -0.029147913934279901 -0.0003059321606607992 0 -0.028310051917063216 -7.1702635781916321e-07 0 -0.027365458734145105 -0.00049412891332551812 0 -0.026355762766550158 -1.9853820906435242e-07 0 -0.027365458734145105 -0.00049412891332551812 0 -0.025736433260938676 0.00017631190734587821 0 -0.028310051917063216 -7.1702635781916321e-07 0 -0.026355762766550158 -1.9853820906435242e-07 0 -0.027365458734145105 -0.00049412891332551812 0 -0.027365458734145105 -0.00049412891332551812 0 -0.025880554315923572 -0.00020183716272251562 0 -0.025736433260938676 0.00017631190734587821 0 -0.025880554315923572 -0.00020183716272251562 0 -0.025373833886304726 -0.00041795816067014132 0 -0.025369127574375896 -2.5237468617437697e-05 0 -0.025373833886304726 -0.00041795816067014132 0 -0.02521291866424059 -0.00012651104452435119 0 -0.025369127574375896 -2.5237468617437697e-05 0 -0.025823600514422573 -0.00078470562199377042 0 -0.025445520517859938 -0.00065243396767181649 0 -0.025373833886304726 -0.00041795816067014132 0 -0.025880554315923572 -0.00020183716272251562 0 -0.025823600514422573 -0.00078470562199377042 0 -0.025373833886304726 -0.00041795816067014132 0 -0.027365458734145105 -0.00049412891332551812 0 -0.025880554315923572 -0.00020183716272251562 0 -0.025823600514422573 -0.00078470562199377042 0 -0.027646344727364811 -0.00050207701085193694 0 -0.028357979986786207 -0.00069127495850211033 0 -0.030847189416791352 -0.00083096184376264283 0 -0.030730926682126163 -0.00015870121052914929 0 -0.032024892382903306 -0.00012741091015853383 0 -0.029147913934279901 -0.0003059321606607992 0 -0.030847189416791352 -0.00083096184376264283 0 -0.030730926682126163 -0.00015870121052914929 0 -0.030847189416791352 -0.00083096184376264283 0 -0.032563318941624148 -0.00041846515505345708 0 -0.032024892382903306 -0.00012741091015853383 0 -0.028357979986786207 -0.00069127495850211033 0 -0.029050205227756865 -0.00045787988279981422 0 -0.032184728783823273 -0.00010280906155693533 0 -0.033339231085354984 0.00048476552250162607 0 -0.032024892382903306 -0.00012741091015853383 0 -0.033128607811396101 0.0010165184185676115 0 -0.032831807606094617 0.00024021516630814711 0 -0.032563318941624148 -0.00041846515505345708 0 -0.032024892382903306 -0.00012741091015853383 0 -0.032831807606094617 0.00024021516630814711 0 -0.030730926682126163 -0.00015870121052914929 0 -0.032024892382903306 -0.00012741091015853383 0 -0.031541470492044671 2.7257107131814972e-05 0 -0.032024892382903306 -0.00012741091015853383 0 -0.031541470492044671 2.7257107131814972e-05 0 -0.032585357288970065 1.3472202688787406e-05 0 -0.031541470492044671 2.7257107131814972e-05 0 -0.030171032366447356 -6.2395531740956701e-05 0 -0.031269549889449473 6.7439449694077443e-05 0 -0.030730926682126163 -0.00015870121052914929 0 -0.031541470492044671 2.7257107131814972e-05 0 -0.030171032366447356 -6.2395531740956701e-05 0 -0.029147913934279901 -0.0003059321606607992 0 -0.030730926682126163 -0.00015870121052914929 0 -0.030171032366447356 -6.2395531740956701e-05 0 -0.028310051917063216 -7.1702635781916321e-07 0 -0.030171032366447356 -6.2395531740956701e-05 0 -0.03026456588631686 1.3224579840348191e-07 0 -0.029147913934279901 -0.0003059321606607992 0 -0.028310051917063216 -7.1702635781916321e-07 0 -0.030171032366447356 -6.2395531740956701e-05 0 -0.030171032366447356 -6.2395531740956701e-05 0 -0.03026456588631686 1.3224579840348191e-07 0 -0.031269549889449473 6.7439449694077443e-05 0 -0.031269549889449473 6.7439449694077443e-05 0 -0.032387098604743016 9.2892285495786738e-05 0 -0.032219357724577007 4.7099058576386513e-07 0 -0.03026456588631686 1.3224579840348191e-07 0 -0.031269549889449473 6.7439449694077443e-05 0 -0.032219357724577007 4.7099058576386513e-07 0 -0.031541470492044671 2.7257107131814972e-05 0 -0.031269549889449473 6.7439449694077443e-05 0 -0.032387098604743016 9.2892285495786738e-05 0 -0.032387098604743016 9.2892285495786738e-05 0 -0.032219357724577007 4.7099058576386513e-07 0 -0.033048347722330874 0.00012084555287684719 0 -0.034982704924374761 -4.1585605355362295e-07 0 -0.034997802657805339 2.9539403968393923e-07 0 -0.035001005886198318 -1.4706671745489926e-07 0 -0.032219357724577007 4.7099058576386513e-07 0 -0.033048347722330874 0.00012084555287684719 0 -0.034170125877714966 -2.3158959557135171e-07 0 -0.032387098604743016 9.2892285495786738e-05 0 -0.033048347722330874 0.00012084555287684719 0 -0.033585632111277075 3.5298159157974058e-05 0 -0.033048347722330874 0.00012084555287684719 0 -0.03342031298858638 5.4706271695649649e-05 0 -0.033585632111277075 3.5298159157974058e-05 0 -0.034982704924374761 -4.1585605355362295e-07 0 -0.034997802657805339 2.9539403968393923e-07 0 -0.034176495247926132 -4.4384627865314339e-07 0 -0.034235054290438917 4.4389184448188551e-06 0 -0.034173206476339348 4.1288183012590279e-08 0 -0.033048347722330874 0.00012084555287684719 0 -0.03342031298858638 5.4706271695649649e-05 0 -0.034170125877714966 -2.3158959557135171e-07 0 -0.034995718595500512 1.3187477866557461e-06 0 -0.034115565296151229 0.00012787522196412563 0 -0.034999982418850016 -4.7534625087537035e-08 0 -0.034235054290438917 4.4389184448188551e-06 0 -0.034999651060195529 2.6915208901887707e-08 0 -0.034995718595500512 1.3187477866557461e-06 0 -0.033585632111277075 3.5298159157974058e-05 0 -0.034115565296151229 0.00012787522196412563 0 -0.03342031298858638 5.4706271695649649e-05 0 -0.034995718595500512 1.3187477866557461e-06 0 -0.033585632111277075 3.5298159157974058e-05 0 -0.033585632111277075 3.5298159157974058e-05 0 -0.034115565296151229 0.00012787522196412563 0 -0.033213339488649962 7.3947481632577111e-05 0 -0.034115565296151229 0.00012787522196412563 0 -0.033213339488649962 7.3947481632577111e-05 0 -0.03357843518763181 -7.3376035974160632e-05 0 -0.032387098604743016 9.2892285495786738e-05 0 -0.033213339488649962 7.3947481632577111e-05 0 -0.032585357288970065 1.3472202688787406e-05 0 -0.032387098604743016 9.2892285495786738e-05 0 -0.033585632111277075 3.5298159157974058e-05 0 -0.033213339488649962 7.3947481632577111e-05 0 -0.031541470492044671 2.7257107131814972e-05 0 -0.032387098604743016 9.2892285495786738e-05 0 -0.032585357288970065 1.3472202688787406e-05 0 -0.033213339488649962 7.3947481632577111e-05 0 -0.032585357288970065 1.3472202688787406e-05 0 -0.03357843518763181 -7.3376035974160632e-05 0 -0.032024892382903306 -0.00012741091015853383 0 -0.032585357288970065 1.3472202688787406e-05 0 -0.03357843518763181 -7.3376035974160632e-05 0 -0.033128607811396101 0.0010165184185676115 0 -0.033557072944630943 0.00045054685846184314 0 -0.032831807606094617 0.00024021516630814711 0 -0.033128607811396101 0.0010165184185676115 0 -0.033654163981788561 0.0010369738402472119 0 -0.033557072944630943 0.00045054685846184314 0 -0.03017984513778026 0.0018920936220519836 0 -0.02929343761045557 -0.00027012286713382896 0 -0.033654163981788561 0.0010369738402472119 0 -0.033839337790962057 0.0010488259939647482 0 -0.033557072944630943 0.00045054685846184314 0 -0.033747296712518894 0.0011403378206766446 0 -0.033654163981788561 0.0010369738402472119 0 -0.033839337790962057 0.0010488259939647482 0 -0.033128607811396101 0.0010165184185676115 0 -0.033654163981788561 0.0010369738402472119 0 -0.034071665468956645 0.0010429743758841102 0 -0.033747296712518894 0.0011403378206766446 0 -0.033654163981788561 0.0010369738402472119 0 -0.034071665468956645 0.0010429743758841102 0 -0.034115565296151229 0.00012787522196412563 0 -0.03357843518763181 -7.3376035974160632e-05 0 -0.034614910495452941 6.6032979017907563e-05 0 -0.033339231085354984 0.00048476552250162607 0 -0.034325420544668632 0.00051336397430597528 0 -0.034115565296151229 0.00012787522196412563 0 -0.034614910495452941 6.6032979017907563e-05 0 -0.034999982418850016 -4.7534625087537035e-08 0 -0.034614910495452941 6.6032979017907563e-05 0 -0.034999982418850016 -4.7534625087537035e-08 0 -0.03499966848533656 5.0293916189441215e-08 0 -0.034325420544668632 0.00051336397430597528 0 -0.034999677206346128 3.3262098099294352e-08 0 -0.034996275278199061 -8.1931559672669505e-07 0 -0.034036000306016452 0.0004319459270762345 0 -0.03195384968896562 0.00078760469877073281 0 -0.035000062713657083 1.2600827425387516e-08 0 -0.035018855500202971 6.3478169373793044e-05 0 -0.034999985559538753 2.4841783182276043e-08 0 -0.034999161828524444 4.3891502871852744e-07 0 -0.033517972830349366 0.0006014153424737733 0 -0.034996275278199061 -8.1931559672669505e-07 0 -0.034999405503215307 6.694167143751878e-07 0 -0.034036000306016452 0.0004319459270762345 0 -0.034071665468956645 0.0010429743758841102 0 -0.034999405503215307 6.694167143751878e-07 0 -0.034036000306016452 0.0004319459270762345 0 -0.034071665468956645 0.0010429743758841102 0 -0.034036000306016452 0.0004319459270762345 0 -0.033422786523489477 0.0011875779990887638 0 -0.033747296712518894 0.0011403378206766446 0 -0.034071665468956645 0.0010429743758841102 0 -0.033422786523489477 0.0011875779990887638 0 -0.034036000306016452 0.0004319459270762345 0 -0.033422786523489477 0.0011875779990887638 0 -0.031882903687470959 0.0015573868376595587 0 -0.03195384968896562 0.00078760469877073281 0 -0.031882903687470959 0.0015573868376595587 0 -0.030116424272878604 0.0025251382630519766 0 -0.034036000306016452 0.0004319459270762345 0 -0.03195384968896562 0.00078760469877073281 0 -0.031882903687470959 0.0015573868376595587 0 -0.031882903687470959 0.0015573868376595587 0 -0.031129843058245388 0.0029186998990459036 0 -0.030116424272878604 0.0025251382630519766 0 -0.031129843058245388 0.0029186998990459036 0 -0.030125643124788576 0.002705422407701582 0 -0.030116424272878604 0.0025251382630519766 0 -0.033422786523489477 0.0011875779990887638 0 -0.031882903687470959 0.0015573868376595587 0 -0.031129843058245388 0.0029186998990459036 0 -0.033422786523489477 0.0011875779990887638 0 -0.031129843058245388 0.0029186998990459036 0 -0.033763750447930861 0.0049755588897457065 0 -0.033747296712518894 0.0011403378206766446 0 -0.033422786523489477 0.0011875779990887638 0 -0.033839337790962057 0.0010488259939647482 0 -0.034082903285366707 0.0018765763997392365 0 -0.03017984513778026 0.0018920936220519836 0 -0.031435171737870797 0.0034610922287255353 0 -0.03017984513778026 0.0018920936220519836 0 -0.03017984513778026 0.0018920936220519836 0 -0.025980236885431815 0.0002653298555464821 0 -0.02852245860612726 0.0027221042611322429 0 -0.029450457164480564 0.0024261915812769049 0 -0.028277341147940994 0.0018551623633802476 0 -0.031129843058245388 0.0029186998990459036 0 -0.030125643124788576 0.002705422407701582 0 -0.029450457164480564 0.0024261915812769049 0 -0.031129843058245388 0.0029186998990459036 0 -0.02852245860612726 0.0027221042611322429 0 -0.029450457164480564 0.0024261915812769049 0 -0.030125643124788576 0.002705422407701582 0 -0.029450457164480564 0.0024261915812769049 0 -0.029661080257619956 0.0024452680647745308 0 -0.029450457164480564 0.0024261915812769049 0 -0.029166925088922008 0.0020841505004265525 0 -0.028277341147940994 0.0018551623633802476 0 -0.029450457164480564 0.0024261915812769049 0 -0.029661080257619956 0.0024452680647745308 0 -0.029166925088922008 0.0020841505004265525 0 -0.029166925088922008 0.0020841505004265525 0 -0.028391157425772445 0.0015293462582513177 0 -0.028277341147940994 0.0018551623633802476 0 -0.028391157425772445 0.0015293462582513177 0 -0.027114990024061709 0.00094444827276364942 0 -0.028277341147940994 0.0018551623633802476 0 -0.029166925088922008 0.0020841505004265525 0 -0.028391157425772445 0.0015293462582513177 0 -0.028997236967022774 0.0018485251822546558 0 -0.028165940932677259 0.0014906137741657953 0 -0.027169587850421631 0.00063629705157223137 0 -0.028391157425772445 0.0015293462582513177 0 -0.027114990024061709 0.00094444827276364942 0 -0.026903393302779254 0.00031594582382041752 0 -0.027114990024061709 0.00094444827276364942 0 -0.027102433453259724 0.0016067176565780418 0 -0.026011351406731362 0.00065002793485561844 0 -0.02852245860612726 0.0027221042611322429 0 -0.027102433453259724 0.0016067176565780418 0 -0.028277341147940994 0.0018551623633802476 0 -0.027114990024061709 0.00094444827276364942 0 -0.027102433453259724 0.0016067176565780418 0 -0.028277341147940994 0.0018551623633802476 0 -0.025616109169196041 -0.00025155107732937519 0 -0.025466142406148251 -0.00052089775671469729 0 -0.025377650116828594 -0.00047948339534975256 0 -0.025466142406148251 -0.00052089775671469729 0 -0.025377650116828594 -0.00047948339534975256 0 -0.025366390919224033 -0.00055672027681463981 0 -0.032563318941624148 -0.00041846515505345708 0 -0.033557072944630943 0.00045054685846184314 0 -0.032831807606094617 0.00024021516630814711 0 -0.029050205227756865 -0.00045787988279981422 0 -0.02929343761045557 -0.00027012286713382896 0 -0.025445520517859938 -0.00065243396767181649 0 -0.025377650116828594 -0.00047948339534975256 0 -0.025366390919224033 -0.00055672027681463981 0 -0.025445520517859938 -0.00065243396767181649 0 -0.025366390919224033 -0.00055672027681463981 0 -0.025351334382259862 -0.00047439608248889839 0 -0.025466142406148251 -0.00052089775671469729 0 -0.025366390919224033 -0.00055672027681463981 0 -0.02527683508901379 -0.00049285197548631714 0 -0.025980236885431815 0.0002653298555464821 0 -0.025688894641247993 0.00011375141909445275 0 -0.025366390919224033 -0.00055672027681463981 0 -0.02527683508901379 -0.00049285197548631714 0 -0.025351334382259862 -0.00047439608248889839 0 -0.026011351406731362 0.00065002793485561844 0 -0.025269750599058963 -0.00012104824762961824 0 -0.026070750122965697 0.00017887072690524151 0 -0.025688894641247993 0.00011375141909445275 0 -0.025324604678180408 -0.00016768802815233283 0 -0.02527683508901379 -0.00049285197548631714 0 -0.025351334382259862 -0.00047439608248889839 0 -0.025269750599058963 -0.00012104824762961824 0 -0.025373833886304726 -0.00041795816067014132 0 -0.025351334382259862 -0.00047439608248889839 0 -0.025269750599058963 -0.00012104824762961824 0 -0.025445520517859938 -0.00065243396767181649 0 -0.025373833886304726 -0.00041795816067014132 0 -0.025351334382259862 -0.00047439608248889839 0 -0.025373833886304726 -0.00041795816067014132 0 -0.02521291866424059 -0.00012651104452435119 0 -0.025269750599058963 -0.00012104824762961824 0 -0.02521291866424059 -0.00012651104452435119 0 -0.025269750599058963 -0.00012104824762961824 0 -0.025155055027167913 -0.00013424309887065405 0 -0.025269750599058963 -0.00012104824762961824 0 -0.025568341446013155 -0.00010627631836748206 0 -0.025155055027167913 -0.00013424309887065405 0 -0.025568341446013155 -0.00010627631836748206 0 -0.025923523853249735 -2.3400262498666873e-05 0 -0.026070750122965697 0.00017887072690524151 0 -0.025269750599058963 -0.00012104824762961824 0 -0.025568341446013155 -0.00010627631836748206 0 -0.026070750122965697 0.00017887072690524151 0 -0.025923523853249735 -2.3400262498666873e-05 0 -0.026903393302779254 0.00031594582382041752 0 -0.026070750122965697 0.00017887072690524151 0 -0.025923523853249735 -2.3400262498666873e-05 0 -0.026903393302779254 0.00031594582382041752 0 -0.025573276468287113 -0.00014560657584036026 0 -0.027169587850421631 0.00063629705157223137 0 -0.025855982054562736 3.9028791395566992e-05 0 -0.027114990024061709 0.00094444827276364942 0 -0.026903393302779254 0.00031594582382041752 0 -0.026070750122965697 0.00017887072690524151 0 -0.027114990024061709 0.00094444827276364942 0 -0.026011351406731362 0.00065002793485561844 0 -0.026070750122965697 0.00017887072690524151 0 -0.030334758938199313 0.0010284791914376488 0 -0.030269767876736634 0.00099752628492143051 0 -0.030315883552796494 0.0010536431105263491 0 -0.029023165417759185 0.00091034447214978921 0 -0.029378405500745611 0.0012556659018753203 0 -0.027373671255004919 0.00088104798118280702 0 -0.027255836353952335 0.0006846593593144017 0 -0.02847620687607879 0.0013133575168594201 0 -0.030269767876736634 0.00099752628492143051 0 -0.030315883552796494 0.0010536431105263491 0 -0.030302731882650646 0.0010822916917837509 0 -0.027373671255004919 0.00088104798118280702 0 -0.027255836353952335 0.0006846593593144017 0 -0.026189526215467857 0.00023596954208512469 0 -0.030334758938199313 0.0010284791914376488 0 -0.030269767876736634 0.00099752628492143051 0 -0.030336423525507281 0.00096454409587338498 0 -0.032586237380372515 0.0011727635810244135 0 -0.032772308054315885 0.0012957554413727899 0 -0.034705930680408136 0.0017269546781298927 0 -0.034358863903923328 0.0016526417393204669 0 -0.034535996165190666 0.0012661427001362969 0 -0.034358863903923328 0.0016526417393204669 0 -0.034535996165190666 0.0012661427001362969 0 -0.034158283781460019 0.0014214252772368876 0 -0.034358863903923328 0.0016526417393204669 0 -0.034158283781460019 0.0014214252772368876 0 -0.034057712999053961 0.0018909582187773052 0 -0.034535996165190666 0.0012661427001362969 0 -0.034356921610001673 0.0010228500525400997 0 -0.034158283781460019 0.0014214252772368876 0 -0.034337382466734519 0.0010678585875293575 0 -0.034183203818519942 0.0015132217031185631 0 -0.034903257370167855 0.0012519234290847114 0 -0.034535996165190666 0.0012661427001362969 0 -0.034740963924771356 0.00093230775274221085 0 -0.034903257370167855 0.0012519234290847114 0 -0.034705930680408136 0.0017269546781298927 0 -0.034535996165190666 0.0012661427001362969 0 -0.034535996165190666 0.0012661427001362969 0 -0.034740963924771356 0.00093230775274221085 0 -0.034533069677156386 0.0009296501981418152 0 -0.034740963924771356 0.00093230775274221085 0 -0.034847647922888678 0.00064829257643349628 0 -0.035058197556019063 0.0008123363286730626 0 -0.034740963924771356 0.00093230775274221085 0 -0.034533069677156386 0.0009296501981418152 0 -0.03458429845721412 0.00071138821756076549 0 -0.034535996165190666 0.0012661427001362969 0 -0.034356921610001673 0.0010228500525400997 0 -0.034533069677156386 0.0009296501981418152 0 -0.034533069677156386 0.0009296501981418152 0 -0.034376727277233399 0.0008235062591895625 0 -0.03458429845721412 0.00071138821756076549 0 -0.034356921610001673 0.0010228500525400997 0 -0.034376727277233399 0.0008235062591895625 0 -0.03412157667650411 0.00094075024641026889 0 -0.034356921610001673 0.0010228500525400997 0 -0.034533069677156386 0.0009296501981418152 0 -0.034376727277233399 0.0008235062591895625 0 -0.034431383259233214 0.00064556628381081988 0 -0.034475145678687244 0.00041068691468192607 0 -0.034186991359118478 0.00076677279543303192 0 -0.034376727277233399 0.0008235062591895625 0 -0.034431383259233214 0.00064556628381081988 0 -0.034186991359118478 0.00076677279543303192 0 -0.034376727277233399 0.0008235062591895625 0 -0.034431383259233214 0.00064556628381081988 0 -0.03458429845721412 0.00071138821756076549 0 -0.034431383259233214 0.00064556628381081988 0 -0.03458429845721412 0.00071138821756076549 0 -0.034532768359404165 0.00053375799473691192 0 -0.03458429845721412 0.00071138821756076549 0 -0.034532768359404165 0.00053375799473691192 0 -0.034674832810432855 0.00049414400533519557 0 -0.034431383259233214 0.00064556628381081988 0 -0.034532768359404165 0.00053375799473691192 0 -0.034475145678687244 0.00041068691468192607 0 -0.034740963924771356 0.00093230775274221085 0 -0.03458429845721412 0.00071138821756076549 0 -0.034847647922888678 0.00064829257643349628 0 -0.03458429845721412 0.00071138821756076549 0 -0.034847647922888678 0.00064829257643349628 0 -0.034674832810432855 0.00049414400533519557 0 -0.034847647922888678 0.00064829257643349628 0 -0.034674832810432855 0.00049414400533519557 0 -0.034854129657759338 0.00041871336459767814 0 -0.034847647922888678 0.00064829257643349628 0 -0.035058197556019063 0.0008123363286730626 0 -0.035163231726772819 0.00043697284458774999 0 -0.032715084264591285 0.00088823970094076819 0 -0.032724275465958103 0.0011093317537090132 0 -0.030334758938199313 0.0010284791914376488 0 -0.030339144600230999 0.0010900265876831073 0 -0.030315883552796494 0.0010536431105263491 0 -0.032586237380372515 0.0011727635810244135 0 -0.032715084264591285 0.00088823970094076819 0 -0.034903257370167855 0.0012519234290847114 0 -0.034740963924771356 0.00093230775274221085 0 -0.035058197556019063 0.0008123363286730626 0 -0.030339144600230999 0.0010900265876831073 0 -0.030315883552796494 0.0010536431105263491 0 -0.030302731882650646 0.0010822916917837509 0 -0.028391157425772445 0.0015293462582513177 0 -0.027373671255004919 0.00088104798118280702 0 -0.02847620687607879 0.0013133575168594201 0 -0.029378405500745611 0.0012556659018753203 0 -0.029730112304612179 0.0018402025794443456 0 -0.030339144600230999 0.0010900265876831073 0 -0.030302731882650646 0.0010822916917837509 0 -0.030311927329287836 0.0011109079461344674 0 -0.028959521871135849 0.0016683288039742478 0 -0.028997236967022774 0.0018485251822546558 0 -0.029876776287643802 0.002530153850371389 0 -0.029730112304612179 0.0018402025794443456 0 -0.029691416411110949 0.0026752007121460162 0 -0.028391157425772445 0.0015293462582513177 0 -0.02847620687607879 0.0013133575168594201 0 -0.028997236967022774 0.0018485251822546558 0 -0.030339144600230999 0.0010900265876831073 0 -0.030311927329287836 0.0011109079461344674 0 -0.030345165386606015 0.0011550715587282676 0 -0.02847620687607879 0.0013133575168594201 0 -0.028959521871135849 0.0016683288039742478 0 -0.028997236967022774 0.0018485251822546558 0 -0.029730112304612179 0.0018402025794443456 0 -0.032724275465958103 0.0011093317537090132 0 -0.029166925088922008 0.0020841505004265525 0 -0.028997236967022774 0.0018485251822546558 0 -0.029876776287643802 0.002530153850371389 0 -0.032724275465958103 0.0011093317537090132 0 -0.032559060142269385 0.001442829956784837 0 -0.029661080257619956 0.0024452680647745308 0 -0.029166925088922008 0.0020841505004265525 0 -0.029876776287643802 0.002530153850371389 0 -0.029841140517864937 0.0025302127355754434 0 -0.029876776287643802 0.002530153850371389 0 -0.030116424272878604 0.0025251382630519766 0 -0.02984828093807947 0.0025556473566613696 0 -0.029841140517864937 0.0025302127355754434 0 -0.029876776287643802 0.002530153850371389 0 -0.030125643124788576 0.002705422407701582 0 -0.029876776287643802 0.002530153850371389 0 -0.030116424272878604 0.0025251382630519766 0 -0.030125643124788576 0.002705422407701582 0 -0.029661080257619956 0.0024452680647745308 0 -0.029876776287643802 0.002530153850371389 0 -0.034847647922888678 0.00064829257643349628 0 -0.035163231726772819 0.00043697284458774999 0 -0.034854129657759338 0.00041871336459767814 0 -0.035163231726772819 0.00043697284458774999 0 -0.034918046147314634 0.00024050497158486681 0 -0.034854129657759338 0.00041871336459767814 0 -0.035056691681215016 9.2154509595825023e-05 0 -0.034921579466899048 0.00010170249239313211 0 -0.034918046147314634 0.00024050497158486681 0 -0.032724275465958103 0.0011093317537090132 0 -0.035309466498645373 -2.1117374143709772e-06 0 -0.035163231726772819 0.00043697284458774999 0 -0.035056691681215016 9.2154509595825023e-05 0 -0.034918046147314634 0.00024050497158486681 0 -0.034889810437664259 0.00038025352282740614 0 -0.034983085053801447 0.0002034808797963332 0 -0.034913468674799497 0.00011751216917228139 0 -0.033517972830349366 0.0006014153424737733 0 -0.032559060142269385 0.001442829956784837 0 -0.035018855500202971 6.3478169373793044e-05 0 -0.034913468674799497 0.00011751216917228139 0 -0.034979876396595722 4.0369863441339016e-05 0 -0.035018855500202971 6.3478169373793044e-05 0 -0.034983085053801447 0.0002034808797963332 0 -0.034913468674799497 0.00011751216917228139 0 -0.035056691681215016 9.2154509595825023e-05 0 -0.03497492808755439 2.8023197581889058e-05 0 -0.034921579466899048 0.00010170249239313211 0 -0.035056691681215016 9.2154509595825023e-05 0 -0.035000049498941546 -2.7368941659296594e-08 0 -0.03497492808755439 2.8023197581889058e-05 0 -0.035309466498645373 -2.1117374143709772e-06 0 -0.034999796711429366 1.7370529175120081e-07 0 -0.034913468674799497 0.00011751216917228139 0 -0.034999903799797755 -1.2679483665317046e-08 0 -0.034979876396595722 4.0369863441339016e-05 0 -0.035018855500202971 6.3478169373793044e-05 0 -0.034979876396595722 4.0369863441339016e-05 0 -0.034999985559538753 2.4841783182276043e-08 0 -0.034999903799797755 -1.2679483665317046e-08 0 -0.034979876396595722 4.0369863441339016e-05 0 -0.034999985559538753 2.4841783182276043e-08 0 -0.034979654350382271 9.7863492909207846e-06 0 -0.034999907713697549 2.2973537526472884e-08 0 -0.034926247210506023 4.5428484134100301e-05 0 -0.034999907713697549 2.2973537526472884e-08 0 -0.034936504661294797 4.7993626868857678e-05 0 -0.034926247210506023 4.5428484134100301e-05 0 -0.034979654350382271 9.7863492909207846e-06 0 -0.034999907713697549 2.2973537526472884e-08 0 -0.034999888489952127 1.3944944170490681e-08 0 -0.035000049498941546 -2.7368941659296594e-08 0 -0.034999907713697549 2.2973537526472884e-08 0 -0.03497492808755439 2.8023197581889058e-05 0 -0.034999907713697549 2.2973537526472884e-08 0 -0.03497492808755439 2.8023197581889058e-05 0 -0.034936504661294797 4.7993626868857678e-05 0 -0.03497492808755439 2.8023197581889058e-05 0 -0.034936504661294797 4.7993626868857678e-05 0 -0.034921579466899048 0.00010170249239313211 0 -0.034936504661294797 4.7993626868857678e-05 0 -0.034921579466899048 0.00010170249239313211 0 -0.034866583967397759 9.5328453433189575e-05 0 -0.034921579466899048 0.00010170249239313211 0 -0.034866583967397759 9.5328453433189575e-05 0 -0.034811368588525418 0.00015067526151584741 0 -0.034979654350382271 9.7863492909207846e-06 0 -0.034926247210506023 4.5428484134100301e-05 0 -0.034809348482904075 0.00011671977463125305 0 -0.034964311162182918 2.2824640838757511e-05 0 -0.034908871181531534 0.0001188541397268341 0 -0.034936504661294797 4.7993626868857678e-05 0 -0.034866583967397759 9.5328453433189575e-05 0 -0.034926247210506023 4.5428484134100301e-05 0 -0.034866583967397759 9.5328453433189575e-05 0 -0.034926247210506023 4.5428484134100301e-05 0 -0.034809348482904075 0.00011671977463125305 0 -0.034809348482904075 0.00011671977463125305 0 -0.034811368588525418 0.00015067526151584741 0 -0.034775797166759097 0.00019251436959272643 0 -0.034866583967397759 9.5328453433189575e-05 0 -0.034809348482904075 0.00011671977463125305 0 -0.034811368588525418 0.00015067526151584741 0 -0.034921579466899048 0.00010170249239313211 0 -0.034811368588525418 0.00015067526151584741 0 -0.034918046147314634 0.00024050497158486681 0 -0.034811368588525418 0.00015067526151584741 0 -0.034918046147314634 0.00024050497158486681 0 -0.034747084680837911 0.00033147171879070107 0 -0.034918046147314634 0.00024050497158486681 0 -0.034747084680837911 0.00033147171879070107 0 -0.034854129657759338 0.00041871336459767814 0 -0.034747084680837911 0.00033147171879070107 0 -0.034674832810432855 0.00049414400533519557 0 -0.034854129657759338 0.00041871336459767814 0 -0.034778668676297884 0.00016964872004567434 0 -0.034634511047359803 0.00031089467577629081 0 -0.034811368588525418 0.00015067526151584741 0 -0.034797215697729367 0.00020743027682243274 0 -0.034775797166759097 0.00019251436959272643 0 -0.034811368588525418 0.00015067526151584741 0 -0.034747084680837911 0.00033147171879070107 0 -0.034475145678687244 0.00041068691468192607 0 -0.034532768359404165 0.00053375799473691192 0 -0.034674832810432855 0.00049414400533519557 0 -0.034475145678687244 0.00041068691468192607 0 -0.034747084680837911 0.00033147171879070107 0 -0.034674832810432855 0.00049414400533519557 0 -0.034475145678687244 0.00041068691468192607 0 -0.034871080829189272 0.00030815666514348339 0 -0.034992837854172364 0.00031031872581186885 0 -0.034919653460054885 0.00047824639089166673 0 -0.035242050372664056 0.00020677776615060818 0 -0.034974758266096778 9.3234644391063752e-05 0 -0.03504842847483633 0.0003607929655799287 0 -0.035242050372664056 0.00020677776615060818 0 -0.035104084181743357 2.6950190298895746e-05 0 -0.034974758266096778 9.3234644391063752e-05 0 -0.034908871181531534 0.0001188541397268341 0 -0.034917663977385459 0.00022288379829840207 0 -0.035002740091484741 9.3193769545510405e-05 0 -0.034871080829189272 0.00030815666514348339 0 -0.034992837854172364 0.00031031872581186885 0 -0.035002740091484741 9.3193769545510405e-05 0 -0.034871080829189272 0.00030815666514348339 0 -0.034932142350977378 7.1603794175076368e-05 0 -0.035049053869383062 0.00027719407924389549 0 -0.035020701451904689 6.075083289601536e-05 0 -0.034979654350382271 9.7863492909207846e-06 0 -0.035002740091484741 9.3193769545510405e-05 0 -0.034932142350977378 7.1603794175076368e-05 0 -0.035104084181743357 2.6950190298895746e-05 0 -0.035014542672577267 6.511659276957176e-06 0 -0.034974758266096778 9.3234644391063752e-05 0 -0.035014542672577267 6.511659276957176e-06 0 -0.035000115828288658 -2.533108143512822e-08 0 -0.03499998197672706 -1.3269081874328035e-08 0 -0.035020701451904689 6.075083289601536e-05 0 -0.035000003105977499 3.2511733899608525e-08 0 -0.035104084181743357 2.6950190298895746e-05 0 -0.035014542672577267 6.511659276957176e-06 0 -0.035000115828288658 -2.533108143512822e-08 0 -0.034979654350382271 9.7863492909207846e-06 0 -0.034932142350977378 7.1603794175076368e-05 0 -0.034999888489952127 1.3944944170490681e-08 0 -0.034999857365672973 -1.1887218006335923e-08 0 -0.03499998197672706 -1.3269081874328035e-08 0 -0.034940166065319876 1.6963957275419038e-06 0 -0.034911588625556988 1.7033087333797418e-05 0 -0.034999857365672973 -1.1887218006335923e-08 0 -0.034940166065319876 1.6963957275419038e-06 0 -0.035014542672577267 6.511659276957176e-06 0 -0.03499998197672706 -1.3269081874328035e-08 0 -0.034940166065319876 1.6963957275419038e-06 0 -0.035014542672577267 6.511659276957176e-06 0 -0.034940166065319876 1.6963957275419038e-06 0 -0.034974758266096778 9.3234644391063752e-05 0 -0.034745894558128487 6.5650639159696561e-05 0 -0.034974758266096778 9.3234644391063752e-05 0 -0.034707401839312306 0.00033164360959864588 0 -0.034745894558128487 6.5650639159696561e-05 0 -0.034940166065319876 1.6963957275419038e-06 0 -0.034974758266096778 9.3234644391063752e-05 0 -0.034974758266096778 9.3234644391063752e-05 0 -0.034707401839312306 0.00033164360959864588 0 -0.03504842847483633 0.0003607929655799287 0 -0.034707401839312306 0.00033164360959864588 0 -0.034421513078703059 0.00068253754762782946 0 -0.03481484692587599 0.00076376223967298607 0 -0.034471691080286276 0.00036178516091539016 0 -0.034707401839312306 0.00033164360959864588 0 -0.034421513078703059 0.00068253754762782946 0 -0.034291203439277718 0.00074126214950837586 0 -0.034421513078703059 0.00068253754762782946 0 -0.034074475172267672 0.0014942330621212974 0 -0.034421513078703059 0.00068253754762782946 0 -0.03481484692587599 0.00076376223967298607 0 -0.034074475172267672 0.0014942330621212974 0 -0.034707401839312306 0.00033164360959864588 0 -0.03481484692587599 0.00076376223967298607 0 -0.03504842847483633 0.0003607929655799287 0 -0.035242050372664056 0.00020677776615060818 0 -0.03504842847483633 0.0003607929655799287 0 -0.035536876811903387 0.00069882662961460638 0 -0.03481484692587599 0.00076376223967298607 0 -0.03504842847483633 0.0003607929655799287 0 -0.035536876811903387 0.00069882662961460638 0 -0.034992837854172364 0.00031031872581186885 0 -0.034919653460054885 0.00047824639089166673 0 -0.034977302727805103 0.00063743258135618851 0 -0.034917663977385459 0.00022288379829840207 0 -0.034537906816819196 0.00060113380783611832 0 -0.034871080829189272 0.00030815666514348339 0 -0.034919653460054885 0.00047824639089166673 0 -0.034794812569332603 0.00069430017868226833 0 -0.035049053869383062 0.00027719407924389549 0 -0.035269155784999083 0.0007136893475648121 0 -0.034634511047359803 0.00031089467577629081 0 -0.034537906816819196 0.00060113380783611832 0 -0.034797215697729367 0.00020743027682243274 0 -0.034775797166759097 0.00019251436959272643 0 -0.034751536842884977 0.00030283543673592683 0 -0.034919653460054885 0.00047824639089166673 0 -0.034977302727805103 0.00063743258135618851 0 -0.034794812569332603 0.00069430017868226833 0 -0.034169906174418868 0.00070612165751190428 0 -0.033929450174998786 0.0011128890103049818 0 -0.03412157667650411 0.00094075024641026889 0 -0.034537906816819196 0.00060113380783611832 0 -0.034316426517198531 0.00090029370186954668 0 -0.034376727277233399 0.0008235062591895625 0 -0.034186991359118478 0.00076677279543303192 0 -0.03412157667650411 0.00094075024641026889 0 -0.034977302727805103 0.00063743258135618851 0 -0.034866326516856568 0.00090755411060178465 0 -0.034794812569332603 0.00069430017868226833 0 -0.034537906816819196 0.00060113380783611832 0 -0.034398198729262003 0.0010115764605633226 0 -0.033929450174998786 0.0011128890103049818 0 -0.03412157667650411 0.00094075024641026889 0 -0.034121291887033653 0.0012084833573214365 0 -0.034356921610001673 0.0010228500525400997 0 -0.03412157667650411 0.00094075024641026889 0 -0.034121291887033653 0.0012084833573214365 0 -0.03481484692587599 0.00076376223967298607 0 -0.035536876811903387 0.00069882662961460638 0 -0.0358283305020895 0.0019038723629845281 0 -0.035269155784999083 0.0007136893475648121 0 -0.034461170357048078 0.0015829587727970815 0 -0.034866326516856568 0.00090755411060178465 0 -0.034794812569332603 0.00069430017868226833 0 -0.034728556825725128 0.001190481765095187 0 -0.034356921610001673 0.0010228500525400997 0 -0.034121291887033653 0.0012084833573214365 0 -0.034229452848497051 0.0015945849288664866 0 -0.033929450174998786 0.0011128890103049818 0 -0.034121291887033653 0.0012084833573214365 0 -0.033975309364605959 0.0014070525589161668 0 -0.034398198729262003 0.0010115764605633226 0 -0.034461170357048078 0.0015829587727970815 0 -0.033929450174998786 0.0011128890103049818 0 -0.033676275110571668 0.0015531050789701114 0 -0.033975309364605959 0.0014070525589161668 0 -0.034121291887033653 0.0012084833573214365 0 -0.033975309364605959 0.0014070525589161668 0 -0.034229452848497051 0.0015945849288664866 0 -0.033975309364605959 0.0014070525589161668 0 -0.034229452848497051 0.0015945849288664866 0 -0.033841329063457791 0.0018897242518513446 0 -0.034183203818519942 0.0015132217031185631 0 -0.034174228943522511 0.0020505818623331781 0 -0.034229452848497051 0.0015945849288664866 0 -0.033841329063457791 0.0018897242518513446 0 -0.034048830359268721 0.0022258604543282435 0 -0.034158283781460019 0.0014214252772368876 0 -0.034057712999053961 0.0018909582187773052 0 -0.033969595639735575 0.0018679564519292074 0 -0.033676275110571668 0.0015531050789701114 0 -0.033975309364605959 0.0014070525589161668 0 -0.033841329063457791 0.0018897242518513446 0 -0.033683629133615993 0.001533830136139904 0 -0.033018257573434726 0.0029190851787039176 0 -0.033526012794227206 0.0028462753324582138 0 -0.0358283305020895 0.0019038723629845281 0 -0.034386498691563482 0.002859327875040135 0 -0.035394714975086276 0.0037696651779063079 0 -0.033676275110571668 0.0015531050789701114 0 -0.033841329063457791 0.0018897242518513446 0 -0.033557558141045392 0.0022305814010212996 0 -0.034461170357048078 0.0015829587727970815 0 -0.034320787378402523 0.0033986605347693329 0 -0.034461170357048078 0.0015829587727970815 0 -0.033650027865720272 0.0025909526589892309 0 -0.0358283305020895 0.0019038723629845281 0 -0.034386498691563482 0.002859327875040135 0 -0.034074475172267672 0.0014942330621212974 0 -0.032020255629915895 0.0024802546949759625 0 -0.032244372307857254 0.0040201243055279301 0 -0.034386498691563482 0.002859327875040135 0 -0.032020255629915895 0.0024802546949759625 0 -0.034386498691563482 0.002859327875040135 0 -0.034074475172267672 0.0014942330621212974 0 -0.032944064505406184 0.00064148639761508303 0 -0.034068706699887284 0.0014260360777214392 0 -0.03481484692587599 0.00076376223967298607 0 -0.0358283305020895 0.0019038723629845281 0 -0.034074475172267672 0.0014942330621212974 0 -0.034494436632920712 0.0059945587619014157 0 -0.033840315560326788 0.0046523335800835166 0 -0.035394714975086276 0.0037696651779063079 0 -0.032444194638156426 0.0048241985503755802 0 -0.034320787378402523 0.0033986605347693329 0 -0.032444194638156426 0.0048241985503755802 0 -0.030937454206919748 0.0031339005647443444 0 -0.034494436632920712 0.0059945587619014157 0 -0.033782691683484418 0.0061147466038145096 0 -0.033840315560326788 0.0046523335800835166 0 -0.032444194638156426 0.0048241985503755802 0 -0.033737049908701321 0.0052343156265244346 0 -0.031799544293287657 0.0066904330096236465 0 -0.033782691683484418 0.0061147466038145096 0 -0.032520728444141445 0.0053559779426434586 0 -0.033782691683484418 0.0061147466038145096 0 -0.032520728444141445 0.0053559779426434586 0 -0.033840315560326788 0.0046523335800835166 0 -0.032244372307857254 0.0040201243055279301 0 -0.034386498691563482 0.002859327875040135 0 -0.033840315560326788 0.0046523335800835166 0 -0.032244372307857254 0.0040201243055279301 0 -0.032520728444141445 0.0053559779426434586 0 -0.033840315560326788 0.0046523335800835166 0 -0.034386498691563482 0.002859327875040135 0 -0.033840315560326788 0.0046523335800835166 0 -0.035394714975086276 0.0037696651779063079 0 -0.033018257573434726 0.0029190851787039176 0 -0.033526012794227206 0.0028462753324582138 0 -0.033371101758050123 0.004151824555599485 0 -0.033557558141045392 0.0022305814010212996 0 -0.033792732742851467 0.0025154591661282035 0 -0.033443867575092233 0.0029476492050947906 0 -0.033650027865720272 0.0025909526589892309 0 -0.030937454206919748 0.0031339005647443444 0 -0.033557558141045392 0.0022305814010212996 0 -0.033812804650774145 0.0021610134540892977 0 -0.033824942428667508 0.0022979232004505211 0 -0.033841329063457791 0.0018897242518513446 0 -0.033557558141045392 0.0022305814010212996 0 -0.033812804650774145 0.0021610134540892977 0 -0.033557558141045392 0.0022305814010212996 0 -0.033824942428667508 0.0022979232004505211 0 -0.033792732742851467 0.0025154591661282035 0 -0.034048830359268721 0.0022258604543282435 0 -0.033792732742851467 0.0025154591661282035 0 -0.03384473979997988 0.0028900185142736838 0 -0.034174228943522511 0.0020505818623331781 0 -0.03083798897805912 0.0020239616547505592 0 -0.033969595639735575 0.0018679564519292074 0 -0.033973457502339745 0.0021125075165284103 0 -0.033804498302541307 0.0023154127524451624 0 -0.034057712999053961 0.0018909582187773052 0 -0.033973457502339745 0.0021125075165284103 0 -0.034141184049708583 0.0022665301805374523 0 -0.033841329063457791 0.0018897242518513446 0 -0.034048830359268721 0.0022258604543282435 0 -0.033812804650774145 0.0021610134540892977 0 -0.034048830359268721 0.0022258604543282435 0 -0.033812804650774145 0.0021610134540892977 0 -0.033824942428667508 0.0022979232004505211 0 -0.034048830359268721 0.0022258604543282435 0 -0.033824942428667508 0.0022979232004505211 0 -0.033792732742851467 0.0025154591661282035 0 -0.034057712999053961 0.0018909582187773052 0 -0.033969595639735575 0.0018679564519292074 0 -0.033973457502339745 0.0021125075165284103 0 -0.033973457502339745 0.0021125075165284103 0 -0.033804498302541307 0.0023154127524451624 0 -0.034141184049708583 0.0022665301805374523 0 -0.03083798897805912 0.0020239616547505592 0 -0.031735332747532805 0.0018420122570898566 0 -0.028301497598333857 0.0017612835881050982 0 -0.028381239946966192 0.0018647079304700324 0 -0.028454642661997515 0.0017408087422329842 0 -0.032365054465746404 0.0042987466593443378 0 -0.033018257573434726 0.0029190851787039176 0 -0.033371101758050123 0.004151824555599485 0 -0.033792732742851467 0.0025154591661282035 0 -0.03384473979997988 0.0028900185142736838 0 -0.033443867575092233 0.0029476492050947906 0 -0.03083798897805912 0.0020239616547505592 0 -0.030937454206919748 0.0031339005647443444 0 -0.030937454206919748 0.0031339005647443444 0 -0.02774801365596621 0.0023830889696377687 0 -0.027972691878853439 0.0012687138112514997 0 -0.02721887030704705 0.0013806746042816507 0 -0.027483927565022191 0.0025174256000396853 0 -0.02721887030704705 0.0013806746042816507 0 -0.027483927565022191 0.0025174256000396853 0 -0.027076914384178551 0.0024409960583454847 0 -0.029716333213103633 0.0032604105860682166 0 -0.029615248196750293 0.0032706443310882394 0 -0.029612721595058795 0.0031637452451179012 0 -0.027972691878853439 0.0012687138112514997 0 -0.027483927565022191 0.0025174256000396853 0 -0.027444009107248639 0.002940034812169911 0 -0.027415970691962208 0.0023855141853122239 0 -0.02774801365596621 0.0023830889696377687 0 -0.027483927565022191 0.0025174256000396853 0 -0.026988145429151685 0.0023993066405637743 0 -0.027175000715987614 0.0027470422978052842 0 -0.026961075741355905 0.002354489002674673 0 -0.02657836733279521 0.0028232453733207409 0 -0.026124090265835051 0.0026978618037633104 0 -0.02774801365596621 0.0023830889696377687 0 -0.027397561878163425 0.0027469735076330565 0 -0.026988145429151685 0.0023993066405637743 0 -0.026903980691725077 0.0029262789734735544 0 -0.027175000715987614 0.0027470422978052842 0 -0.03083798897805912 0.0020239616547505592 0 -0.026523258229762228 0.0026008775898152072 0 -0.028381239946966192 0.0018647079304700324 0 -0.028198198072266697 0.0020323474436496009 0 -0.028401094677712221 0.0019523876202931657 0 -0.028301497598333857 0.0017612835881050982 0 -0.028381239946966192 0.0018647079304700324 0 -0.028198198072266697 0.0020323474436496009 0 -0.023828218304177785 0.0017073933087232824 0 -0.023889691633130802 0.0017465983676338689 0 -0.023809169741701282 0.0017127269969335181 0 -0.026523258229762228 0.0026008775898152072 0 -0.02570640077191802 0.0013094953450044616 0 -0.028198198072266697 0.0020323474436496009 0 -0.028446562127834994 0.0020281195292823923 0 -0.028401094677712221 0.0019523876202931657 0 -0.023828218304177785 0.0017073933087232824 0 -0.023889691633130802 0.0017465983676338689 0 -0.023841639919685624 0.0016997098048986382 0 -0.023828218304177785 0.0017073933087232824 0 -0.023841639919685624 0.0016997098048986382 0 -0.023807613240813239 0.0016928159226240475 0 -0.026523258229762228 0.0026008775898152072 0 -0.023725277124202315 0.0025566837962708606 0 -0.023889691633130802 0.0017465983676338689 0 -0.023908236875844757 0.0016615262701481514 0 -0.023841639919685624 0.0016997098048986382 0 -0.027434497593530914 0.0029583411126354133 0 -0.026731649556788251 0.0038232363529678869 0 -0.02692719900824686 0.0047072261720282867 0 -0.026876697274178442 0.003262019493400113 0 -0.026694051076941644 0.0030914673737124474 0 -0.02702940395707348 0.0029566453468574442 0 -0.026694051076941644 0.0030914673737124474 0 -0.026903980691725077 0.0029262789734735544 0 -0.02702940395707348 0.0029566453468574442 0 -0.026694051076941644 0.0030914673737124474 0 -0.026496886748949896 0.0034364417007550826 0 -0.0263204627222932 0.003056169197589238 0 -0.026694051076941644 0.0030914673737124474 0 -0.02657836733279521 0.0028232453733207409 0 -0.0263204627222932 0.003056169197589238 0 -0.026876697274178442 0.003262019493400113 0 -0.026694051076941644 0.0030914673737124474 0 -0.026496886748949896 0.0034364417007550826 0 -0.026694051076941644 0.0030914673737124474 0 -0.02657836733279521 0.0028232453733207409 0 -0.026903980691725077 0.0029262789734735544 0 -0.026961075741355905 0.002354489002674673 0 -0.02657836733279521 0.0028232453733207409 0 -0.026903980691725077 0.0029262789734735544 0 -0.026903980691725077 0.0029262789734735544 0 -0.02702940395707348 0.0029566453468574442 0 -0.027175000715987614 0.0027470422978052842 0 -0.02702940395707348 0.0029566453468574442 0 -0.027175000715987614 0.0027470422978052842 0 -0.027444009107248639 0.002940034812169911 0 -0.027483927565022191 0.0025174256000396853 0 -0.027175000715987614 0.0027470422978052842 0 -0.027444009107248639 0.002940034812169911 0 -0.026949257645894256 0.002692556735115135 0 -0.026523258229762228 0.0026008775898152072 0 -0.026876697274178442 0.003262019493400113 0 -0.02702940395707348 0.0029566453468574442 0 -0.027434497593530914 0.0029583411126354133 0 -0.026876697274178442 0.003262019493400113 0 -0.027434497593530914 0.0029583411126354133 0 -0.026731649556788251 0.0038232363529678869 0 -0.026876697274178442 0.003262019493400113 0 -0.026496886748949896 0.0034364417007550826 0 -0.026731649556788251 0.0038232363529678869 0 -0.025843393657285045 0.0032169510143549816 0 -0.025433117155881067 0.0020850449358470742 0 -0.024772968266053789 0.0034456557920614613 0 -0.025843393657285045 0.0032169510143549816 0 -0.024772968266053789 0.0034456557920614613 0 -0.025992095172448916 0.0039665731267172688 0 -0.026496886748949896 0.0034364417007550826 0 -0.025843393657285045 0.0032169510143549816 0 -0.025992095172448916 0.0039665731267172688 0 -0.026496886748949896 0.0034364417007550826 0 -0.026731649556788251 0.0038232363529678869 0 -0.025992095172448916 0.0039665731267172688 0 -0.026496886748949896 0.0034364417007550826 0 -0.025843393657285045 0.0032169510143549816 0 -0.0263204627222932 0.003056169197589238 0 -0.025843393657285045 0.0032169510143549816 0 -0.0263204627222932 0.003056169197589238 0 -0.026124090265835051 0.0026978618037633104 0 -0.02657836733279521 0.0028232453733207409 0 -0.0263204627222932 0.003056169197589238 0 -0.026124090265835051 0.0026978618037633104 0 -0.029716333213103633 0.0032604105860682166 0 -0.029612721595058795 0.0031637452451179012 0 -0.029738412217010037 0.0031926998874780175 0 -0.026961075741355905 0.002354489002674673 0 -0.026124090265835051 0.0026978618037633104 0 -0.025433117155881067 0.0020850449358470742 0 -0.02774801365596621 0.0023830889696377687 0 -0.028167362672048221 0.0035965782855434526 0 -0.025843393657285045 0.0032169510143549816 0 -0.026124090265835051 0.0026978618037633104 0 -0.025433117155881067 0.0020850449358470742 0 -0.032444194638156426 0.0048241985503755802 0 -0.028167362672048221 0.0035965782855434526 0 -0.034431174242273647 0.0060165329472038316 0 -0.033782691683484418 0.0061147466038145096 0 -0.033967899328979825 0.0070145920478181393 0 -0.031799544293287657 0.0066904330096236465 0 -0.033782691683484418 0.0061147466038145096 0 -0.033967899328979825 0.0070145920478181393 0 -0.022739376272751913 0.0036382925895578466 0 -0.022725611090159543 0.003333365202463686 0 -0.02323184700611779 0.0034291244934916958 0 -0.02737870387895253 0.0051733196245568698 0 -0.028167362672048221 0.0035965782855434526 0 -0.028167362672048221 0.0035965782855434526 0 -0.02371657035325556 0.0036790469951839123 0 -0.022739376272751913 0.0036382925895578466 0 -0.02323184700611779 0.0034291244934916958 0 -0.02298834403589875 0.0037790688240482979 0 -0.022656630044116118 0.0038522186830839068 0 -0.02298834403589875 0.0037790688240482979 0 -0.022773047753141134 0.0040436177664301895 0 -0.024772968266053789 0.0034456557920614613 0 -0.024115219410220615 0.0048098678784186197 0 -0.025530588009327882 0.00476390386689931 0 -0.021761198071054807 0.0039043549009481699 0 -0.021265596731597593 0.0038901180938446232 0 -0.021658550985678898 0.0036913781528889133 0 -0.022700577540047003 0.0042044851392724989 0 -0.023471823609246684 0.0043543370158111907 0 -0.02371657035325556 0.0036790469951839123 0 -0.022700577540047003 0.0042044851392724989 0 -0.021265596731597593 0.0038901180938446232 0 -0.021168202161952022 0.003783625942673498 0 -0.020930762963113806 0.0038566941099474092 0 -0.023471823609246684 0.0043543370158111907 0 -0.023725277124202315 0.0025566837962708606 0 -0.025992095172448916 0.0039665731267172688 0 -0.025530588009327882 0.00476390386689931 0 -0.02692719900824686 0.0047072261720282867 0 -0.024772968266053789 0.0034456557920614613 0 -0.025992095172448916 0.0039665731267172688 0 -0.025530588009327882 0.00476390386689931 0 -0.017890314397819438 0.0016010545188157406 0 -0.017865069055171212 0.00080617083017576292 0 -0.021238251120313793 0.0036223188597882539 0 -0.021664753976215801 0.0034303549386905424 0 -0.020884660670544335 0.0034116964359765379 0 -0.014063251104235603 -0.00036717002196708012 0 -0.013716840363899004 -0.00055508814586673646 0 -0.013616355592892638 -0.00052662919538966119 0 -0.021282127379123963 0.0035821606006597915 0 -0.020909720282655034 0.0026588833055395497 0 -0.021030138163880462 0.0036131099075975971 0 -0.021168202161952022 0.003783625942673498 0 -0.020821986158312499 0.0036380826122699855 0 -0.021030138163880462 0.0036131099075975971 0 -0.021168202161952022 0.003783625942673498 0 -0.021238251120313793 0.0036223188597882539 0 -0.021265596731597593 0.0038901180938446232 0 -0.021168202161952022 0.003783625942673498 0 -0.021238251120313793 0.0036223188597882539 0 -0.021265596731597593 0.0038901180938446232 0 -0.021238251120313793 0.0036223188597882539 0 -0.021456168177192418 0.0036613946389695068 0 -0.021030138163880462 0.0036131099075975971 0 -0.021238251120313793 0.0036223188597882539 0 -0.020884660670544335 0.0034116964359765379 0 -0.021238251120313793 0.0036223188597882539 0 -0.021456168177192418 0.0036613946389695068 0 -0.021664753976215801 0.0034303549386905424 0 -0.021658550985678898 0.0036913781528889133 0 -0.021456168177192418 0.0036613946389695068 0 -0.021664753976215801 0.0034303549386905424 0 -0.021891822436606725 0.0036496839666394507 0 -0.021761198071054807 0.0039043549009481699 0 -0.021658550985678898 0.0036913781528889133 0 -0.021265596731597593 0.0038901180938446232 0 -0.021658550985678898 0.0036913781528889133 0 -0.021456168177192418 0.0036613946389695068 0 -0.021891822436606725 0.0036496839666394507 0 -0.021658550985678898 0.0036913781528889133 0 -0.021664753976215801 0.0034303549386905424 0 -0.014063251104235603 -0.00036717002196708012 0 -0.013716840363899004 -0.00055508814586673646 0 -0.014084498810224605 -0.00058268266439550416 0 -0.013674118845413342 -0.000547978330443773 0 -0.013576475303794642 -0.00056645411343124777 0 -0.013716840363899004 -0.00055508814586673646 0 -0.013685938279525528 -0.00051443040188323694 0 -0.013105896560858411 -0.00059102923287264215 0 -0.013716840363899004 -0.00055508814586673646 0 -0.013685938279525528 -0.00051443040188323694 0 -0.013616355592892638 -0.00052662919538966119 0 -0.01557335193527324 0.00039306898429233888 0 -0.017865069055171212 0.00080617083017576292 0 -0.01557335193527324 0.00039306898429233888 0 -0.014499558600109333 0.00066504361299893789 0 -0.013685938279525528 -0.00051443040188323694 0 -0.013386163467554335 -0.00036500918910123393 0 -0.013105896560858411 -0.00059102923287264215 0 -0.013685938279525528 -0.00051443040188323694 0 -0.013386163467554335 -0.00036500918910123393 0 -0.013581963583931709 2.8621051466736355e-06 0 -0.017602856423441449 0.0013341602304597381 0 -0.018128418717568533 0.0016800369987138243 0 -0.01736032636196292 0.0021262917118594167 0 -0.013386163467554335 -0.00036500918910123393 0 -0.013167296786566385 -0.00029699769168915502 0 -0.013581963583931709 2.8621051466736355e-06 0 -0.013386163467554335 -0.00036500918910123393 0 -0.013167296786566385 -0.00029699769168915502 0 -0.013105896560858411 -0.00059102923287264215 0 -0.013167296786566385 -0.00029699769168915502 0 -0.013105896560858411 -0.00059102923287264215 0 -0.012611851002132031 -0.00018756019944179598 0 -0.018734724227628771 0.0014078227394521915 0 -0.018809480618200362 0.0018458707261601122 0 -0.018128418717568533 0.0016800369987138243 0 -0.018734724227628771 0.0014078227394521915 0 -0.018999311264415779 0.0011332944768207758 0 -0.019291249070571219 0.001618079626219608 0 -0.018734724227628771 0.0014078227394521915 0 -0.018809480618200362 0.0018458707261601122 0 -0.019291249070571219 0.001618079626219608 0 -0.017602856423441449 0.0013341602304597381 0 -0.018128418717568533 0.0016800369987138243 0 -0.018203706985949926 0.0010724013199129197 0 -0.018734724227628771 0.0014078227394521915 0 -0.018128418717568533 0.0016800369987138243 0 -0.018203706985949926 0.0010724013199129197 0 -0.018203706985949926 0.0010724013199129197 0 -0.018563405314908483 0.00053894408927497443 0 -0.017833875832294916 0.00054735381889326861 0 -0.017602856423441449 0.0013341602304597381 0 -0.018203706985949926 0.0010724013199129197 0 -0.017833875832294916 0.00054735381889326861 0 -0.018203706985949926 0.0010724013199129197 0 -0.018651277607822057 0.0010366880912088762 0 -0.018563405314908483 0.00053894408927497443 0 -0.018734724227628771 0.0014078227394521915 0 -0.018203706985949926 0.0010724013199129197 0 -0.018651277607822057 0.0010366880912088762 0 -0.018734724227628771 0.0014078227394521915 0 -0.018651277607822057 0.0010366880912088762 0 -0.018999311264415779 0.0011332944768207758 0 -0.018651277607822057 0.0010366880912088762 0 -0.018999311264415779 0.0011332944768207758 0 -0.018563405314908483 0.00053894408927497443 0 -0.0228688942518296 0.0013030680329408724 0 -0.021332714738365097 0.0015816502480137009 0 -0.021245411935595697 0.0010986294981151499 0 -0.021380804711023674 0.00094514375583314224 0 -0.021113866611610736 0.001041417372829661 0 -0.023721643562228376 0.0017503858520103452 0 -0.023384708572441508 0.0018730895129207943 0 -0.023564979024198466 0.0017391453370736133 0 -0.02008076232016304 0.00095792917189984185 0 -0.017865069055171212 0.00080617083017576292 0 -0.020118927091350845 0.0012053360554891456 0 -0.019909354266919234 0.0012186404694335339 0 -0.019997748101780181 0.0011556030235271529 0 -0.019909354266919234 0.0012186404694335339 0 -0.019949237536022721 0.001173850164724129 0 -0.019937432079935574 0.0011293768213515647 0 -0.017865069055171212 0.00080617083017576292 0 -0.020909720282655034 0.0026588833055395497 0 -0.021030138163880462 0.0036131099075975971 0 -0.020884660670544335 0.0034116964359765379 0 -0.020821986158312499 0.0036380826122699855 0 -0.020721887559814304 0.0016356236803035345 0 -0.021332714738365097 0.0015816502480137009 0 -0.019909354266919234 0.0012186404694335339 0 -0.019949237536022721 0.001173850164724129 0 -0.019997748101780181 0.0011556030235271529 0 -0.02008076232016304 0.00095792917189984185 0 -0.021332714738365097 0.0015816502480137009 0 -0.023384708572441508 0.0018730895129207943 0 -0.023361209137478137 0.0016727859671653016 0 -0.023564979024198466 0.0017391453370736133 0 -0.021168202161952022 0.003783625942673498 0 -0.020978041335573561 0.0036833323266176926 0 -0.020930762963113806 0.0038566941099474092 0 -0.020909720282655034 0.0026588833055395497 0 -0.023725277124202315 0.0025566837962708606 0 -0.023384708572441508 0.0018730895129207943 0 -0.023300696447858222 0.0018362691694153235 0 -0.023361209137478137 0.0016727859671653016 0 -0.019949237536022721 0.001173850164724129 0 -0.020007209335354374 0.001157648547846647 0 -0.019937432079935574 0.0011293768213515647 0 -0.021332714738365097 0.0015816502480137009 0 -0.020909720282655034 0.0026588833055395497 0 -0.026731649556788251 0.0038232363529678869 0 -0.025992095172448916 0.0039665731267172688 0 -0.02692719900824686 0.0047072261720282867 0 -0.023725277124202315 0.0025566837962708606 0 -0.023734952250019696 0.0014434502078147322 0 -0.023361209137478137 0.0016727859671653016 0 -0.023564979024198466 0.0017391453370736133 0 -0.02377628964977636 0.001685889963752019 0 -0.023908236875844757 0.0016615262701481514 0 -0.023841639919685624 0.0016997098048986382 0 -0.02377628964977636 0.001685889963752019 0 -0.023721643562228376 0.0017503858520103452 0 -0.023564979024198466 0.0017391453370736133 0 -0.02377628964977636 0.001685889963752019 0 -0.023841639919685624 0.0016997098048986382 0 -0.023807613240813239 0.0016928159226240475 0 -0.02377628964977636 0.001685889963752019 0 -0.0228688942518296 0.0013030680329408724 0 -0.021863424192146028 0.00089705027864800944 0 -0.023796750450559623 0.0016831803613022588 0 -0.02377628964977636 0.001685889963752019 0 -0.023835998754940864 0.0016767570898053076 0 -0.023721643562228376 0.0017503858520103452 0 -0.02377628964977636 0.001685889963752019 0 -0.023835998754940864 0.0016767570898053076 0 -0.023807613240813239 0.0016928159226240475 0 -0.023796750450559623 0.0016831803613022588 0 -0.02377628964977636 0.001685889963752019 0 -0.023807613240813239 0.0016928159226240475 0 -0.023796750450559623 0.0016831803613022588 0 -0.023806097382089556 0.0016904015053596563 0 -0.023796750450559623 0.0016831803613022588 0 -0.02380866893865452 0.0016827630716882962 0 -0.023835998754940864 0.0016767570898053076 0 -0.023796750450559623 0.0016831803613022588 0 -0.02380866893865452 0.0016827630716882962 0 -0.023806097382089556 0.0016904015053596563 0 -0.021089253636421151 0.00081504224670553868 0 -0.022545175109413073 0.00039536309033509767 0 -0.021441220103911092 0.00011527281731301057 0 -0.02152692507924283 0.00068882655040735145 0 -0.021692354191277633 0.0009751992920485345 0 -0.022072716416688336 0.00084353733148915936 0 -0.021863424192146028 0.00089705027864800944 0 -0.021721625038487125 0.00086837051400783026 0 -0.021621990442224698 0.001087719897849098 0 -0.021692354191277633 0.0009751992920485345 0 -0.022044227223336783 0.0011706576620235615 0 -0.021651160546712459 0.00084714502956148249 0 -0.021621990442224698 0.001087719897849098 0 -0.021692354191277633 0.0009751992920485345 0 -0.021380804711023674 0.00094514375583314224 0 -0.021651160546712459 0.00084714502956148249 0 -0.021621990442224698 0.001087719897849098 0 -0.02008076232016304 0.00095792917189984185 0 -0.021542447479105244 0.0011280142032673995 0 -0.021245411935595697 0.0010986294981151499 0 -0.021380804711023674 0.00094514375583314224 0 -0.021621990442224698 0.001087719897849098 0 -0.018999311264415779 0.0011332944768207758 0 -0.018563405314908483 0.00053894408927497443 0 -0.019544541907249927 0.0010568227275191174 0 -0.020283115993739623 0.0011255343660478423 0 -0.02111476876613911 0.0011093722997965352 0 -0.020999812977172069 0.0014538423035688902 0 -0.02008076232016304 0.00095792917189984185 0 -0.020124366873291426 0.0012064096179593062 0 -0.018999311264415779 0.0011332944768207758 0 -0.019544541907249927 0.0010568227275191174 0 -0.019291249070571219 0.001618079626219608 0 -0.020124366873291426 0.0012064096179593062 0 -0.020967115181786081 0.0017031279322086154 0 -0.020999812977172069 0.0014538423035688902 0 -0.021418557303872553 0.0014147226992501328 0 -0.021594886929323053 0.0017133046531472853 0 -0.02111476876613911 0.0011093722997965352 0 -0.020999812977172069 0.0014538423035688902 0 -0.021418557303872553 0.0014147226992501328 0 -0.019544541907249927 0.0010568227275191174 0 -0.020342520382015009 0.0015880922485644678 0 -0.019962039481501048 0.001910468914088987 0 -0.019544541907249927 0.0010568227275191174 0 -0.019291249070571219 0.001618079626219608 0 -0.019962039481501048 0.001910468914088987 0 -0.020967115181786081 0.0017031279322086154 0 -0.020850738998185389 0.0020689646165239152 0 -0.021441599441452144 0.0017683296244280814 0 -0.021594886929323053 0.0017133046531472853 0 -0.020795302796373143 0.0021526029579903849 0 -0.020342520382015009 0.0015880922485644678 0 -0.020795302796373143 0.0021526029579903849 0 -0.020553182280328576 0.002110799085185697 0 -0.021441599441452144 0.0017683296244280814 0 -0.021124114261830904 0.0020170667852836086 0 -0.020795302796373143 0.0021526029579903849 0 -0.020342520382015009 0.0015880922485644678 0 -0.020308842617620199 0.0019541259375805342 0 -0.020475704452431943 0.0020721971100223636 0 -0.020342520382015009 0.0015880922485644678 0 -0.020475704452431943 0.0020721971100223636 0 -0.020553182280328576 0.002110799085185697 0 -0.020342520382015009 0.0015880922485644678 0 -0.020308842617620199 0.0019541259375805342 0 -0.019962039481501048 0.001910468914088987 0 -0.021418557303872553 0.0014147226992501328 0 -0.021594886929323053 0.0017133046531472853 0 -0.022044227223336783 0.0011706576620235615 0 -0.021441599441452144 0.0017683296244280814 0 -0.021594886929323053 0.0017133046531472853 0 -0.022044227223336783 0.0011706576620235615 0 -0.021441599441452144 0.0017683296244280814 0 -0.021990444764638989 0.0014107209349729034 0 -0.022044227223336783 0.0011706576620235615 0 -0.021441599441452144 0.0017683296244280814 0 -0.021990444764638989 0.0014107209349729034 0 -0.021667296468415215 0.0016873100035280258 0 -0.022044227223336783 0.0011706576620235615 0 -0.022587133088262459 0.00077762510399497463 0 -0.022489706138078134 0.0010472312089474551 0 -0.021990444764638989 0.0014107209349729034 0 -0.022044227223336783 0.0011706576620235615 0 -0.022489706138078134 0.0010472312089474551 0 -0.02111476876613911 0.0011093722997965352 0 -0.021418557303872553 0.0014147226992501328 0 -0.022044227223336783 0.0011706576620235615 0 -0.021692354191277633 0.0009751992920485345 0 -0.022044227223336783 0.0011706576620235615 0 -0.022072716416688336 0.00084353733148915936 0 -0.022044227223336783 0.0011706576620235615 0 -0.022072716416688336 0.00084353733148915936 0 -0.022587133088262459 0.00077762510399497463 0 -0.021542447479105244 0.0011280142032673995 0 -0.02194083220985529 0.0011508964373157797 0 -0.021863424192146028 0.00089705027864800944 0 -0.022265190608751453 0.00039622175127017784 0 -0.02152692507924283 0.00068882655040735145 0 -0.022072716416688336 0.00084353733148915936 0 -0.022545175109413073 0.00039536309033509767 0 -0.022072716416688336 0.00084353733148915936 0 -0.022545175109413073 0.00039536309033509767 0 -0.022587133088262459 0.00077762510399497463 0 -0.022587133088262459 0.00077762510399497463 0 -0.023207210694059698 0.00036215538302307134 0 -0.023157496452884375 0.00059516881382224481 0 -0.022545175109413073 0.00039536309033509767 0 -0.022587133088262459 0.00077762510399497463 0 -0.023207210694059698 0.00036215538302307134 0 -0.022545175109413073 0.00039536309033509767 0 -0.023207210694059698 0.00036215538302307134 0 -0.023773733259959403 -0.00018161906112100195 0 -0.023773733259959403 -0.00018161906112100195 0 -0.024647471871149448 -2.9185107238410185e-05 0 -0.024682533252503514 0.00013426426844984719 0 -0.024647471871149448 -2.9185107238410185e-05 0 -0.024682533252503514 0.00013426426844984719 0 -0.02505435173750116 8.9976352342614307e-05 0 -0.024682533252503514 0.00013426426844984719 0 -0.025005235841134177 -0.00042155843879466688 0 -0.025433825097034131 0.00019465980091779193 0 -0.024682533252503514 0.00013426426844984719 0 -0.025433825097034131 0.00019465980091779193 0 -0.025144617968448954 0.00058379532499366774 0 -0.023773733259959403 -0.00018161906112100195 0 -0.024682533252503514 0.00013426426844984719 0 -0.025005235841134177 -0.00042155843879466688 0 -0.022545175109413073 0.00039536309033509767 0 -0.023773733259959403 -0.00018161906112100195 0 -0.021929415884997593 -0.00034525046383812868 0 -0.022545175109413073 0.00039536309033509767 0 -0.021929415884997593 -0.00034525046383812868 0 -0.021441220103911092 0.00011527281731301057 0 -0.023820446248313636 -0.00021693845211257919 0 -0.023322680483362279 -0.00043897803031491504 0 -0.025005235841134177 -0.00042155843879466688 0 -0.02600204518101383 -0.0004059791285221371 0 -0.025745192496590616 -7.7563802802364993e-05 0 -0.023322680483362279 -0.00043897803031491504 0 -0.024110894595945963 0.00066567151398455842 0 -0.021089253636421151 0.00081504224670553868 0 -0.021441220103911092 0.00011527281731301057 0 -0.020740552107468321 -0.00031225601145206896 0 -0.021929415884997593 -0.00034525046383812868 0 -0.021441220103911092 0.00011527281731301057 0 -0.020740552107468321 -0.00031225601145206896 0 -0.021863424192146028 0.00089705027864800944 0 -0.024110894595945963 0.00066567151398455842 0 -0.02380866893865452 0.0016827630716882962 0 -0.023835998754940864 0.0016767570898053076 0 -0.023801105168819642 0.0016862162075914258 0 -0.023806097382089556 0.0016904015053596563 0 -0.023801105168819642 0.0016862162075914258 0 -0.023810320579397148 0.0017011995318575209 0 -0.023828218304177785 0.0017073933087232824 0 -0.023812487199654939 0.0016973942599674066 0 -0.023810320579397148 0.0017011995318575209 0 -0.023807613240813239 0.0016928159226240475 0 -0.023812487199654939 0.0016973942599674066 0 -0.023806097382089556 0.0016904015053596563 0 -0.023828218304177785 0.0017073933087232824 0 -0.023807613240813239 0.0016928159226240475 0 -0.023812487199654939 0.0016973942599674066 0 -0.023812487199654939 0.0016973942599674066 0 -0.023806097382089556 0.0016904015053596563 0 -0.023810320579397148 0.0017011995318575209 0 -0.02380866893865452 0.0016827630716882962 0 -0.023806097382089556 0.0016904015053596563 0 -0.023801105168819642 0.0016862162075914258 0 -0.0258439166981526 0.0010963876179949778 0 -0.025834682890359395 0.0010972663048224504 0 -0.025845913694914593 0.0010801078871221315 0 -0.024110894595945963 0.00066567151398455842 0 -0.02570640077191802 0.0013094953450044616 0 -0.023801105168819642 0.0016862162075914258 0 -0.023810320579397148 0.0017011995318575209 0 -0.023809829228842186 0.0016969100301282847 0 -0.023828218304177785 0.0017073933087232824 0 -0.023810320579397148 0.0017011995318575209 0 -0.023809169741701282 0.0017127269969335181 0 -0.025388587473659581 0.0016095121590953675 0 -0.02570640077191802 0.0013094953450044616 0 -0.028381239946966192 0.0018647079304700324 0 -0.028491619570819044 0.0019264147316327793 0 -0.028454642661997515 0.0017408087422329842 0 -0.027151076105429925 0.0010022759469062346 0 -0.031735332747532805 0.0018420122570898566 0 -0.02570640077191802 0.0013094953450044616 0 -0.027151076105429925 0.0010022759469062346 0 -0.028446562127834994 0.0020281195292823923 0 -0.028401094677712221 0.0019523876202931657 0 -0.028491619570819044 0.0019264147316327793 0 -0.028381239946966192 0.0018647079304700324 0 -0.028401094677712221 0.0019523876202931657 0 -0.028491619570819044 0.0019264147316327793 0 -0.02600204518101383 -0.0004059791285221371 0 -0.026155262331269219 3.2063761411511201e-05 0 -0.025745192496590616 -7.7563802802364993e-05 0 -0.024110894595945963 0.00066567151398455842 0 -0.027151076105429925 0.0010022759469062346 0 -0.026155262331269219 3.2063761411511201e-05 0 -0.025433825097034131 0.00019465980091779193 0 -0.025845408122400843 0.0009177968970499697 0 -0.026155262331269219 3.2063761411511201e-05 0 -0.025433825097034131 0.00019465980091779193 0 -0.025745192496590616 -7.7563802802364993e-05 0 -0.025005235841134177 -0.00042155843879466688 0 -0.025433825097034131 0.00019465980091779193 0 -0.025745192496590616 -7.7563802802364993e-05 0 -0.029834454999492572 0.0012710419854724975 0 -0.026478358869089672 0.00030958526443488629 0 -0.025433825097034131 0.00019465980091779193 0 -0.025845408122400843 0.0009177968970499697 0 -0.025144617968448954 0.00058379532499366774 0 -0.02945084747497094 0.001033567563538995 0 -0.029301496016798021 0.0014812124629578012 0 -0.029604420026703063 0.0014403860762298626 0 -0.027151076105429925 0.0010022759469062346 0 -0.029834454999492572 0.0012710419854724975 0 -0.029834454999492572 0.0012710419854724975 0 -0.031735332747532805 0.0018420122570898566 0 -0.034487585914606649 0.0022276638463893115 0 -0.034170067120815738 0.0022747601725984644 0 -0.034357888740169443 0.0019588033475416797 0 -0.034057712999053961 0.0018909582187773052 0 -0.034170067120815738 0.0022747601725984644 0 -0.034357888740169443 0.0019588033475416797 0 -0.034705930680408136 0.0017269546781298927 0 -0.034358863903923328 0.0016526417393204669 0 -0.034357888740169443 0.0019588033475416797 0 -0.034207835113943215 0.0022999644145096196 0 -0.031735332747532805 0.0018420122570898566 0 -0.034358863903923328 0.0016526417393204669 0 -0.034057712999053961 0.0018909582187773052 0 -0.034357888740169443 0.0019588033475416797 0 -0.034705930680408136 0.0017269546781298927 0 -0.034487585914606649 0.0022276638463893115 0 -0.034357888740169443 0.0019588033475416797 0 -0.030336423525507281 0.00096454409587338498 0 -0.030346030928726866 0.0008947253565614109 0 -0.030241945252907979 0.00090447978421325859 0 -0.032772308054315885 0.0012957554413727899 0 -0.029834454999492572 0.0012710419854724975 0 -0.030269767876736634 0.00099752628492143051 0 -0.030336423525507281 0.00096454409587338498 0 -0.030241945252907979 0.00090447978421325859 0 -0.027255836353952335 0.0006846593593144017 0 -0.026392044539241221 1.0693351263670029e-05 0 -0.026189526215467857 0.00023596954208512469 0 -0.025761124530487348 7.6768881725705409e-05 0 -0.026392044539241221 1.0693351263670029e-05 0 -0.026189526215467857 0.00023596954208512469 0 -0.029023165417759185 0.00091034447214978921 0 -0.026478358869089672 0.00030958526443488629 0 -0.025510392951388482 0.00011941539606371945 0 -0.026478358869089672 0.00030958526443488629 0 -0.025761124530487348 7.6768881725705409e-05 0 -0.02505435173750116 8.9976352342614307e-05 0 -0.02492091612017901 -4.9193282002563955e-05 0 -0.024682533252503514 0.00013426426844984719 0 -0.02505435173750116 8.9976352342614307e-05 0 -0.02492091612017901 -4.9193282002563955e-05 0 -0.024647471871149448 -2.9185107238410185e-05 0 -0.025761124530487348 7.6768881725705409e-05 0 -0.026189526215467857 0.00023596954208512469 0 -0.024647471871149448 -2.9185107238410185e-05 0 -0.025761124530487348 7.6768881725705409e-05 0 -0.02505435173750116 8.9976352342614307e-05 0 -0.024440896763334746 0.00030463702605833747 0 -0.026478358869089672 0.00030958526443488629 0 -0.024682533252503514 0.00013426426844984719 0 -0.025144617968448954 0.00058379532499366774 0 -0.024613661743895936 0.0010848412898912122 0 -0.025845408122400843 0.0009177968970499697 0 -0.025144617968448954 0.00058379532499366774 0 -0.024613661743895936 0.0010848412898912122 0 -0.024926623501773718 -0.0001148895247314955 0 -0.024638064249990398 -2.4407314876114493e-05 0 -0.024581162233873691 -8.0258182415853042e-05 0 -0.024926623501773718 -0.0001148895247314955 0 -0.025067984484668369 -0.00010898764914694783 0 -0.02525047651129151 -0.00013413192525842254 0 -0.024926623501773718 -0.0001148895247314955 0 -0.025067984484668369 -0.00010898764914694783 0 -0.024581162233873691 -8.0258182415853042e-05 0 -0.024647471871149448 -2.9185107238410185e-05 0 -0.025067984484668369 -0.00010898764914694783 0 -0.025573276468287113 -0.00014560657584036026 0 -0.024647471871149448 -2.9185107238410185e-05 0 -0.025067984484668369 -0.00010898764914694783 0 -0.024581162233873691 -8.0258182415853042e-05 0 -0.024861415795815054 -5.3747537840497473e-05 0 -0.025855982054562736 3.9028791395566992e-05 0 -0.025067984484668369 -0.00010898764914694783 0 -0.025573276468287113 -0.00014560657584036026 0 -0.025464754916951191 -0.00012794463455943907 0 -0.025923523853249735 -2.3400262498666873e-05 0 -0.025573276468287113 -0.00014560657584036026 0 -0.025464754916951191 -0.00012794463455943907 0 -0.025568341446013155 -0.00010627631836748206 0 -0.025464754916951191 -0.00012794463455943907 0 -0.02525047651129151 -0.00013413192525842254 0 -0.025568341446013155 -0.00010627631836748206 0 -0.025923523853249735 -2.3400262498666873e-05 0 -0.025464754916951191 -0.00012794463455943907 0 -0.025067984484668369 -0.00010898764914694783 0 -0.025464754916951191 -0.00012794463455943907 0 -0.02525047651129151 -0.00013413192525842254 0 -0.024926623501773718 -0.0001148895247314955 0 -0.02525047651129151 -0.00013413192525842254 0 -0.025155055027167913 -0.00013424309887065405 0 -0.025568341446013155 -0.00010627631836748206 0 -0.02525047651129151 -0.00013413192525842254 0 -0.025155055027167913 -0.00013424309887065405 0 -0.025155055027167913 -0.00013424309887065405 0 -0.025037049252486294 -3.0910989786760393e-05 0 -0.024891535931138659 -5.7509472931006688e-05 0 -0.02521291866424059 -0.00012651104452435119 0 -0.025155055027167913 -0.00013424309887065405 0 -0.025037049252486294 -3.0910989786760393e-05 0 -0.02521291866424059 -0.00012651104452435119 0 -0.025037049252486294 -3.0910989786760393e-05 0 -0.025369127574375896 -2.5237468617437697e-05 0 -0.025037049252486294 -3.0910989786760393e-05 0 -0.02477365600501014 5.7854048433293595e-05 0 -0.025040616126765874 0.00012767580617268213 0 -0.025037049252486294 -3.0910989786760393e-05 0 -0.024891535931138659 -5.7509472931006688e-05 0 -0.02477365600501014 5.7854048433293595e-05 0 -0.024926623501773718 -0.0001148895247314955 0 -0.025155055027167913 -0.00013424309887065405 0 -0.024891535931138659 -5.7509472931006688e-05 0 -0.024926623501773718 -0.0001148895247314955 0 -0.024891535931138659 -5.7509472931006688e-05 0 -0.024638064249990398 -2.4407314876114493e-05 0 -0.024891535931138659 -5.7509472931006688e-05 0 -0.024638064249990398 -2.4407314876114493e-05 0 -0.02477365600501014 5.7854048433293595e-05 0 -0.024638064249990398 -2.4407314876114493e-05 0 -0.02477365600501014 5.7854048433293595e-05 0 -0.024453957591745294 9.8180369324175665e-05 0 -0.024638064249990398 -2.4407314876114493e-05 0 -0.024453957591745294 9.8180369324175665e-05 0 -0.024220007356182988 6.8005601193703731e-05 0 -0.02477365600501014 5.7854048433293595e-05 0 -0.024534695743040718 0.00017213228579454856 0 -0.024756066279142914 0.00018886784349698955 0 -0.02477365600501014 5.7854048433293595e-05 0 -0.024534695743040718 0.00017213228579454856 0 -0.024453957591745294 9.8180369324175665e-05 0 -0.024534695743040718 0.00017213228579454856 0 -0.024206374661848905 0.00028382345701210269 0 -0.024477133304515737 0.00031553089782258452 0 -0.024453957591745294 9.8180369324175665e-05 0 -0.024220007356182988 6.8005601193703731e-05 0 -0.024206374661848905 0.00028382345701210269 0 -0.024534695743040718 0.00017213228579454856 0 -0.024453957591745294 9.8180369324175665e-05 0 -0.024206374661848905 0.00028382345701210269 0 -0.024220007356182988 6.8005601193703731e-05 0 -0.023729649628458319 0.00017167918800789581 0 -0.023700527514883898 0.00043038295759714512 0 -0.024220007356182988 6.8005601193703731e-05 0 -0.023700527514883898 0.00043038295759714512 0 -0.024206374661848905 0.00028382345701210269 0 -0.024638064249990398 -2.4407314876114493e-05 0 -0.024220007356182988 6.8005601193703731e-05 0 -0.024581162233873691 -8.0258182415853042e-05 0 -0.024220007356182988 6.8005601193703731e-05 0 -0.024581162233873691 -8.0258182415853042e-05 0 -0.024167346948518912 -7.1320932876073375e-05 0 -0.023773733259959403 -0.00018161906112100195 0 -0.024647471871149448 -2.9185107238410185e-05 0 -0.024167346948518912 -7.1320932876073375e-05 0 -0.024647471871149448 -2.9185107238410185e-05 0 -0.024581162233873691 -8.0258182415853042e-05 0 -0.024167346948518912 -7.1320932876073375e-05 0 -0.024220007356182988 6.8005601193703731e-05 0 -0.024167346948518912 -7.1320932876073375e-05 0 -0.023729649628458319 0.00017167918800789581 0 -0.023773733259959403 -0.00018161906112100195 0 -0.024167346948518912 -7.1320932876073375e-05 0 -0.023729649628458319 0.00017167918800789581 0 -0.023207210694059698 0.00036215538302307134 0 -0.023773733259959403 -0.00018161906112100195 0 -0.023729649628458319 0.00017167918800789581 0 -0.023207210694059698 0.00036215538302307134 0 -0.023729649628458319 0.00017167918800789581 0 -0.023157496452884375 0.00059516881382224481 0 -0.023729649628458319 0.00017167918800789581 0 -0.023157496452884375 0.00059516881382224481 0 -0.023700527514883898 0.00043038295759714512 0 -0.023157496452884375 0.00059516881382224481 0 -0.023700527514883898 0.00043038295759714512 0 -0.023039730317969822 0.00086993184902923852 0 -0.023039730317969822 0.00086993184902923852 0 -0.022946527500863016 0.0012327431838037172 0 -0.023680961412502047 0.00072930749412403358 0 -0.023700527514883898 0.00043038295759714512 0 -0.023039730317969822 0.00086993184902923852 0 -0.023680961412502047 0.00072930749412403358 0 -0.022587133088262459 0.00077762510399497463 0 -0.023157496452884375 0.00059516881382224481 0 -0.022489706138078134 0.0010472312089474551 0 -0.023157496452884375 0.00059516881382224481 0 -0.023039730317969822 0.00086993184902923852 0 -0.022489706138078134 0.0010472312089474551 0 -0.023039730317969822 0.00086993184902923852 0 -0.022489706138078134 0.0010472312089474551 0 -0.02234639886175644 0.0013147348526345456 0 -0.021990444764638989 0.0014107209349729034 0 -0.022489706138078134 0.0010472312089474551 0 -0.02234639886175644 0.0013147348526345456 0 -0.021990444764638989 0.0014107209349729034 0 -0.02234639886175644 0.0013147348526345456 0 -0.021667296468415215 0.0016873100035280258 0 -0.02234639886175644 0.0013147348526345456 0 -0.022314941640440556 0.0015661131039146799 0 -0.021667296468415215 0.0016873100035280258 0 -0.023039730317969822 0.00086993184902923852 0 -0.02234639886175644 0.0013147348526345456 0 -0.022946527500863016 0.0012327431838037172 0 -0.022946527500863016 0.0012327431838037172 0 -0.022314941640440556 0.0015661131039146799 0 -0.022949397462385019 0.0017609772849567207 0 -0.02234639886175644 0.0013147348526345456 0 -0.022946527500863016 0.0012327431838037172 0 -0.022314941640440556 0.0015661131039146799 0 -0.022949397462385019 0.0017609772849567207 0 -0.021818990105066216 0.0019763540508486049 0 -0.023004037256686882 0.0028938342946143673 0 -0.022314941640440556 0.0015661131039146799 0 -0.022949397462385019 0.0017609772849567207 0 -0.021818990105066216 0.0019763540508486049 0 -0.021818990105066216 0.0019763540508486049 0 -0.021124114261830904 0.0020170667852836086 0 -0.020530587650712286 0.0025559672339300695 0 -0.021124114261830904 0.0020170667852836086 0 -0.020795302796373143 0.0021526029579903849 0 -0.020530587650712286 0.0025559672339300695 0 -0.021441599441452144 0.0017683296244280814 0 -0.021124114261830904 0.0020170667852836086 0 -0.021667296468415215 0.0016873100035280258 0 -0.022314941640440556 0.0015661131039146799 0 -0.021818990105066216 0.0019763540508486049 0 -0.021667296468415215 0.0016873100035280258 0 -0.021818990105066216 0.0019763540508486049 0 -0.021124114261830904 0.0020170667852836086 0 -0.021667296468415215 0.0016873100035280258 0 -0.023830621091028865 0.0020316195981929844 0 -0.023695852947572048 0.0012619916432439133 0 -0.02430238142420155 0.0016052221485310556 0 -0.022949397462385019 0.0017609772849567207 0 -0.023830621091028865 0.0020316195981929844 0 -0.023004037256686882 0.0028938342946143673 0 -0.022949397462385019 0.0017609772849567207 0 -0.023830621091028865 0.0020316195981929844 0 -0.023695852947572048 0.0012619916432439133 0 -0.022946527500863016 0.0012327431838037172 0 -0.022949397462385019 0.0017609772849567207 0 -0.023695852947572048 0.0012619916432439133 0 -0.022946527500863016 0.0012327431838037172 0 -0.023695852947572048 0.0012619916432439133 0 -0.023680961412502047 0.00072930749412403358 0 -0.023695852947572048 0.0012619916432439133 0 -0.024352041126387031 0.0010030416248516571 0 -0.02430238142420155 0.0016052221485310556 0 -0.023695852947572048 0.0012619916432439133 0 -0.024193100920694495 0.00062605084358018646 0 -0.024352041126387031 0.0010030416248516571 0 -0.023695852947572048 0.0012619916432439133 0 -0.024193100920694495 0.00062605084358018646 0 -0.023680961412502047 0.00072930749412403358 0 -0.023700527514883898 0.00043038295759714512 0 -0.023680961412502047 0.00072930749412403358 0 -0.024206374661848905 0.00028382345701210269 0 -0.024193100920694495 0.00062605084358018646 0 -0.023680961412502047 0.00072930749412403358 0 -0.024206374661848905 0.00028382345701210269 0 -0.024193100920694495 0.00062605084358018646 0 -0.024206374661848905 0.00028382345701210269 0 -0.024477133304515737 0.00031553089782258452 0 -0.024477133304515737 0.00031553089782258452 0 -0.024536066279916644 0.00033926646250520201 0 -0.024756066279142914 0.00018886784349698955 0 -0.024193100920694495 0.00062605084358018646 0 -0.024477133304515737 0.00031553089782258452 0 -0.024536066279916644 0.00033926646250520201 0 -0.024536066279916644 0.00033926646250520201 0 -0.024478054341374674 9.0615429474625621e-05 0 -0.02464566192309502 0.00069316491115750992 0 -0.024478054341374674 9.0615429474625621e-05 0 -0.02464566192309502 0.00069316491115750992 0 -0.025077531640279833 0.00049705686133360248 0 -0.024536066279916644 0.00033926646250520201 0 -0.024478054341374674 9.0615429474625621e-05 0 -0.024756066279142914 0.00018886784349698955 0 -0.024193100920694495 0.00062605084358018646 0 -0.024536066279916644 0.00033926646250520201 0 -0.024352041126387031 0.0010030416248516571 0 -0.024536066279916644 0.00033926646250520201 0 -0.02464566192309502 0.00069316491115750992 0 -0.024352041126387031 0.0010030416248516571 0 -0.024352041126387031 0.0010030416248516571 0 -0.024655534389473998 0.0012545382051212821 0 -0.02430238142420155 0.0016052221485310556 0 -0.02464566192309502 0.00069316491115750992 0 -0.024352041126387031 0.0010030416248516571 0 -0.024655534389473998 0.0012545382051212821 0 -0.024655534389473998 0.0012545382051212821 0 -0.025008912552279234 0.0013625845693829358 0 -0.024962625960105633 0.00091014593631085373 0 -0.02464566192309502 0.00069316491115750992 0 -0.024655534389473998 0.0012545382051212821 0 -0.024962625960105633 0.00091014593631085373 0 -0.024655534389473998 0.0012545382051212821 0 -0.025008912552279234 0.0013625845693829358 0 -0.024609132834903742 0.002105160489999802 0 -0.020803910003747594 0.00056261816781668153 0 -0.020314404771715384 0.0011619402094047487 0 -0.016478273514161972 -0.00027620574155031368 0 -0.016360839790751914 0.00021066161043972883 0 -0.015551316242354739 0.00016691796040928857 0 -0.023830621091028865 0.0020316195981929844 0 -0.02430238142420155 0.0016052221485310556 0 -0.024609132834903742 0.002105160489999802 0 -0.024655534389473998 0.0012545382051212821 0 -0.02430238142420155 0.0016052221485310556 0 -0.024609132834903742 0.002105160489999802 0 -0.017542609843993116 3.6238609321184364e-05 0 -0.016360839790751914 0.00021066161043972883 0 -0.01718536602125241 1.4945052698997053e-06 0 -0.017542609843993116 3.6238609321184364e-05 0 -0.019262616828222116 -2.8112897630129883e-06 0 -0.01718536602125241 1.4945052698997053e-06 0 -0.017542609843993116 3.6238609321184364e-05 0 -0.016478273514161972 -0.00027620574155031368 0 -0.016360839790751914 0.00021066161043972883 0 -0.017542609843993116 3.6238609321184364e-05 0 -0.016478273514161972 -0.00027620574155031368 0 -0.018181592880829132 -0.00095682801565572916 0 -0.020803910003747594 0.00056261816781668153 0 -0.021133832707510427 -8.0329656523867805e-05 0 -0.025008912552279234 0.0013625845693829358 0 -0.02540737682647938 0.00081713049750757128 0 -0.024962625960105633 0.00091014593631085373 0 -0.017542609843993116 3.6238609321184364e-05 0 -0.019262616828222116 -2.8112897630129883e-06 0 -0.018181592880829132 -0.00095682801565572916 0 -0.01926574774156942 -1.0227190734103159e-06 0 -0.021133832707510427 -8.0329656523867805e-05 0 -0.021133832707510427 -8.0329656523867805e-05 0 -0.020492498769402907 -2.6963803339654714e-07 0 -0.0192679309129196 -4.3264442254211473e-09 0 -0.019898430357753658 8.1977661888674062e-08 0 -0.020490257402677212 4.8221116386548011e-09 0 -0.021920167216656461 -0.0015696568220324315 0 -0.022124678140096801 -0.00041984760995515967 0 -0.023256524196548677 -0.00052435160771602122 0 -0.021133832707510427 -8.0329656523867805e-05 0 -0.02437590161135389 0.00019277076631977805 0 -0.021920167216656461 -0.0015696568220324315 0 -0.022124678140096801 -0.00041984760995515967 0 -0.020495310613078251 -3.2148629690229348e-06 0 -0.02464566192309502 0.00069316491115750992 0 -0.024962625960105633 0.00091014593631085373 0 -0.025077531640279833 0.00049705686133360248 0 -0.02540737682647938 0.00081713049750757128 0 -0.024962625960105633 0.00091014593631085373 0 -0.025077531640279833 0.00049705686133360248 0 -0.024478054341374674 9.0615429474625621e-05 0 -0.023256524196548677 -0.00052435160771602122 0 -0.022529804790931893 1.4558546404687022e-06 0 -0.024388490905575658 7.1057605254547444e-05 0 -0.02437590161135389 0.00019277076631977805 0 -0.020495310613078251 -3.2148629690229348e-06 0 -0.022529804790931893 1.4558546404687022e-06 0 -0.022447188694267192 1.3123932331404616e-06 0 -0.022124678140096801 -0.00041984760995515967 0 -0.020495310613078251 -3.2148629690229348e-06 0 -0.022529804790931893 1.4558546404687022e-06 0 -0.022124678140096801 -0.00041984760995515967 0 -0.023256524196548677 -0.00052435160771602122 0 -0.022529804790931893 1.4558546404687022e-06 0 -0.022529804790931893 1.4558546404687022e-06 0 -0.022447188694267192 1.3123932331404616e-06 0 -0.024144590428296586 0.00025747979414790989 0 -0.022447188694267192 1.3123932331404616e-06 0 -0.024452267624070295 0.00021367407881436477 0 -0.024401494833771648 3.777125116321326e-07 0 -0.022447188694267192 1.3123932331404616e-06 0 -0.024452267624070295 0.00021367407881436477 0 -0.024144590428296586 0.00025747979414790989 0 -0.024452267624070295 0.00021367407881436477 0 -0.024144590428296586 0.00025747979414790989 0 -0.024919454042722826 0.00027416584241259816 0 -0.024478054341374674 9.0615429474625621e-05 0 -0.022529804790931893 1.4558546404687022e-06 0 -0.024144590428296586 0.00025747979414790989 0 -0.024478054341374674 9.0615429474625621e-05 0 -0.024144590428296586 0.00025747979414790989 0 -0.024756066279142914 0.00018886784349698955 0 -0.024534695743040718 0.00017213228579454856 0 -0.024477133304515737 0.00031553089782258452 0 -0.024756066279142914 0.00018886784349698955 0 -0.02477365600501014 5.7854048433293595e-05 0 -0.024756066279142914 0.00018886784349698955 0 -0.025040616126765874 0.00012767580617268213 0 -0.024144590428296586 0.00025747979414790989 0 -0.024756066279142914 0.00018886784349698955 0 -0.024919454042722826 0.00027416584241259816 0 -0.024756066279142914 0.00018886784349698955 0 -0.024919454042722826 0.00027416584241259816 0 -0.025040616126765874 0.00012767580617268213 0 -0.024919454042722826 0.00027416584241259816 0 -0.025363060107218612 0.00012141099010579369 0 -0.025736433260938676 0.00017631190734587821 0 -0.024919454042722826 0.00027416584241259816 0 -0.025040616126765874 0.00012767580617268213 0 -0.025363060107218612 0.00012141099010579369 0 -0.025040616126765874 0.00012767580617268213 0 -0.025369127574375896 -2.5237468617437697e-05 0 -0.025363060107218612 0.00012141099010579369 0 -0.025037049252486294 -3.0910989786760393e-05 0 -0.025040616126765874 0.00012767580617268213 0 -0.025369127574375896 -2.5237468617437697e-05 0 -0.025880554315923572 -0.00020183716272251562 0 -0.025369127574375896 -2.5237468617437697e-05 0 -0.025363060107218612 0.00012141099010579369 0 -0.025880554315923572 -0.00020183716272251562 0 -0.025363060107218612 0.00012141099010579369 0 -0.025736433260938676 0.00017631190734587821 0 -0.026355762766550158 -1.9853820906435242e-07 0 -0.025736433260938676 0.00017631190734587821 0 -0.024401494833771648 3.777125116321326e-07 0 -0.024452267624070295 0.00021367407881436477 0 -0.025736433260938676 0.00017631190734587821 0 -0.024401494833771648 3.777125116321326e-07 0 -0.024452267624070295 0.00021367407881436477 0 -0.024919454042722826 0.00027416584241259816 0 -0.025736433260938676 0.00017631190734587821 0 -0.012967996650074027 0.0010512442581390175 0 -0.013571347228823246 0.00093521854088190245 0 -0.013739384186773491 0.001115651459758047 0 -0.012967996650074027 0.0010512442581390175 0 -0.012887439919758966 0.00029787782644423802 0 -0.013571347228823246 0.00093521854088190245 0 -0.010591092036517537 0.0002654288141690738 0 -0.0088632690704304479 -1.2363319520445912e-06 0 -0.010942952742770202 1.0971164661560504e-06 0 -0.010591092036517537 0.0002654288141690738 0 -0.0088632690704304479 -1.2363319520445912e-06 0 -0.010779662136977715 -0.00018597858315194435 0 -0.012967996650074027 0.0010512442581390175 0 -0.012887439919758966 0.00029787782644423802 0 -0.010779662136977715 -0.00018597858315194435 0 -0.011791868082567795 0.00055473590125055877 0 -0.011001824704142524 -0.00024916899402149242 0 -0.012887439919758966 0.00029787782644423802 0 -0.014023133731271059 8.3202418680873642e-05 0 -0.012777283041912592 -0.0014889627045685814 0 -0.014635370786918485 2.9864017201092737e-05 0 -0.013409304207789945 0.0010911769636895254 0 -0.012887439919758966 0.00029787782644423802 0 -0.014023133731271059 8.3202418680873642e-05 0 -0.013571347228823246 0.00093521854088190245 0 -0.014190141439555022 0.00063778861114667604 0 -0.014246646794274309 0.00082481388364279021 0 -0.014183851679172485 0.00070262209332386564 0 -0.014246646794274309 0.00082481388364279021 0 -0.014330639001875988 0.0007849627980394538 0 -0.014183851679172485 0.00070262209332386564 0 -0.014246646794274309 0.00082481388364279021 0 -0.014486325927076623 0.00087796927623752681 0 -0.014330639001875988 0.0007849627980394538 0 -0.014246646794274309 0.00082481388364279021 0 -0.014065104949360478 0.0010453814001486967 0 -0.014373634349953644 0.00096263305179623208 0 -0.014246646794274309 0.00082481388364279021 0 -0.014373634349953644 0.00096263305179623208 0 -0.014486325927076623 0.00087796927623752681 0 -0.014246646794274309 0.00082481388364279021 0 -0.013571347228823246 0.00093521854088190245 0 -0.014065104949360478 0.0010453814001486967 0 -0.014190141439555022 0.00063778861114667604 0 -0.014246646794274309 0.00082481388364279021 0 -0.013571347228823246 0.00093521854088190245 0 -0.013571347228823246 0.00093521854088190245 0 -0.014065104949360478 0.0010453814001486967 0 -0.013739384186773491 0.001115651459758047 0 -0.014065104949360478 0.0010453814001486967 0 -0.014172878051511911 0.001105050725551876 0 -0.013739384186773491 0.001115651459758047 0 -0.014065104949360478 0.0010453814001486967 0 -0.014380788178304547 0.0010342946641830031 0 -0.014373634349953644 0.00096263305179623208 0 -0.014065104949360478 0.0010453814001486967 0 -0.014380788178304547 0.0010342946641830031 0 -0.014172878051511911 0.001105050725551876 0 -0.014380788178304547 0.0010342946641830031 0 -0.014373634349953644 0.00096263305179623208 0 -0.014660605950060919 0.00095104514228255659 0 -0.014373634349953644 0.00096263305179623208 0 -0.014660605950060919 0.00095104514228255659 0 -0.014486325927076623 0.00087796927623752681 0 -0.014660605950060919 0.00095104514228255659 0 -0.014588658496813697 0.0010048480500662147 0 -0.014775261707516509 0.00093193086481566849 0 -0.014380788178304547 0.0010342946641830031 0 -0.014660605950060919 0.00095104514228255659 0 -0.014588658496813697 0.0010048480500662147 0 -0.014588658496813697 0.0010048480500662147 0 -0.014512673869732939 0.0010417597716900957 0 -0.0147933738876097 0.00093469437209572806 0 -0.014588658496813697 0.0010048480500662147 0 -0.014512673869732939 0.0010417597716900957 0 -0.014172878051511911 0.001105050725551876 0 -0.014380788178304547 0.0010342946641830031 0 -0.014588658496813697 0.0010048480500662147 0 -0.014172878051511911 0.001105050725551876 0 -0.014512673869732939 0.0010417597716900957 0 -0.014172878051511911 0.001105050725551876 0 -0.014312281740815067 0.0011468097138545702 0 -0.014512673869732939 0.0010417597716900957 0 -0.014312281740815067 0.0011468097138545702 0 -0.014794348231332044 0.00096716772336589215 0 -0.014512673869732939 0.0010417597716900957 0 -0.0147933738876097 0.00093469437209572806 0 -0.014794348231332044 0.00096716772336589215 0 -0.014172878051511911 0.001105050725551876 0 -0.013739384186773491 0.001115651459758047 0 -0.014312281740815067 0.0011468097138545702 0 -0.012967996650074027 0.0010512442581390175 0 -0.013739384186773491 0.001115651459758047 0 -0.014312281740815067 0.0011468097138545702 0 -0.011791868082567795 0.00055473590125055877 0 -0.013109153205404581 0.00062181405734046034 0 -0.010942952742770202 1.0971164661560504e-06 0 -0.013023325175615342 -3.806817798784812e-07 0 -0.011919498083382923 2.9152987411803276e-05 0 -0.010591092036517537 0.0002654288141690738 0 -0.010942952742770202 1.0971164661560504e-06 0 -0.011919498083382923 2.9152987411803276e-05 0 -0.013023325175615342 -3.806817798784812e-07 0 -0.011919498083382923 2.9152987411803276e-05 0 -0.013665077066815051 -4.2145678352466346e-05 0 -0.013109153205404581 0.00062181405734046034 0 -0.014462516006741644 0.0004556072747913473 0 -0.014312281740815067 0.0011468097138545702 0 -0.015245795097118594 0.00084037453959844857 0 -0.014794348231332044 0.00096716772336589215 0 -0.013023325175615342 -3.806817798784812e-07 0 -0.013665077066815051 -4.2145678352466346e-05 0 -0.015104748316101136 2.4796263202675949e-07 0 -0.0147933738876097 0.00093469437209572806 0 -0.014794348231332044 0.00096716772336589215 0 -0.015027774488634958 0.00082284332022688686 0 -0.015245795097118594 0.00084037453959844857 0 -0.014794348231332044 0.00096716772336589215 0 -0.015027774488634958 0.00082284332022688686 0 -0.015245795097118594 0.00084037453959844857 0 -0.015027774488634958 0.00082284332022688686 0 -0.015330242270510748 0.00056311234031346995 0 -0.0147933738876097 0.00093469437209572806 0 -0.015027774488634958 0.00082284332022688686 0 -0.015062562207311224 0.00076167869946825936 0 -0.015330242270510748 0.00056311234031346995 0 -0.015488107991412002 0.00041897112365283116 0 -0.015841739270992354 0.00037921475535931248 0 -0.015330242270510748 0.00056311234031346995 0 -0.015294627665464413 0.0006386207706928354 0 -0.015062562207311224 0.00076167869946825936 0 -0.015330242270510748 0.00056311234031346995 0 -0.015841739270992354 0.00037921475535931248 0 -0.015294627665464413 0.0006386207706928354 0 -0.015027774488634958 0.00082284332022688686 0 -0.015330242270510748 0.00056311234031346995 0 -0.015062562207311224 0.00076167869946825936 0 -0.014462516006741644 0.0004556072747913473 0 -0.015444863618108158 0.00022212436104565296 0 -0.015245795097118594 0.00084037453959844857 0 -0.015488107991412002 0.00041897112365283116 0 -0.015692360099977803 0.00013238378212038923 0 -0.013665077066815051 -4.2145678352466346e-05 0 -0.015104748316101136 2.4796263202675949e-07 0 -0.015692360099977803 0.00013238378212038923 0 -0.015245795097118594 0.00084037453959844857 0 -0.015330242270510748 0.00056311234031346995 0 -0.015488107991412002 0.00041897112365283116 0 -0.015692360099977803 0.00013238378212038923 0 -0.015841739270992354 0.00037921475535931248 0 -0.01718536602125241 1.4945052698997053e-06 0 -0.015104748316101136 2.4796263202675949e-07 0 -0.015692360099977803 0.00013238378212038923 0 -0.01718536602125241 1.4945052698997053e-06 0 -0.015488107991412002 0.00041897112365283116 0 -0.015692360099977803 0.00013238378212038923 0 -0.015841739270992354 0.00037921475535931248 0 -0.015841739270992354 0.00037921475535931248 0 -0.016360839790751914 0.00021066161043972883 0 -0.015673801439690101 0.00044721271138622602 0 -0.015841739270992354 0.00037921475535931248 0 -0.016360839790751914 0.00021066161043972883 0 -0.01718536602125241 1.4945052698997053e-06 0 -0.020314404771715384 0.0011619402094047487 0 -0.017972429349795593 0.0012575115442468449 0 -0.016360839790751914 0.00021066161043972883 0 -0.015551316242354739 0.00016691796040928857 0 -0.015673801439690101 0.00044721271138622602 0 -0.015551316242354739 0.00016691796040928857 0 -0.015673801439690101 0.00044721271138622602 0 -0.015418850820152302 0.00057061313068621064 0 -0.015841739270992354 0.00037921475535931248 0 -0.015673801439690101 0.00044721271138622602 0 -0.015294627665464413 0.0006386207706928354 0 -0.015673801439690101 0.00044721271138622602 0 -0.015418850820152302 0.00057061313068621064 0 -0.015294627665464413 0.0006386207706928354 0 -0.014783347250011016 0.00052338678382834796 0 -0.015449070506232832 0.00072755824808322259 0 -0.014988548942532367 0.00081162176700565506 0 -0.015029495047504039 0.00088216232641352894 0 -0.015117913633407913 0.0010257126336007715 0 -0.015551316242354739 0.00016691796040928857 0 -0.015418850820152302 0.00057061313068621064 0 -0.015209760093637545 0.0004782639905687963 0 -0.014783347250011016 0.00052338678382834796 0 -0.017972429349795593 0.0012575115442468449 0 -0.014988548942532367 0.00081162176700565506 0 -0.014877121841853712 0.00088761749486229074 0 -0.015029495047504039 0.00088216232641352894 0 -0.014988548942532367 0.00081162176700565506 0 -0.015294627665464413 0.0006386207706928354 0 -0.014877121841853712 0.00088761749486229074 0 -0.015294627665464413 0.0006386207706928354 0 -0.015062562207311224 0.00076167869946825936 0 -0.014877121841853712 0.00088761749486229074 0 -0.015062562207311224 0.00076167869946825936 0 -0.014808786672559332 0.00091653199263089301 0 -0.014877121841853712 0.00088761749486229074 0 -0.0147933738876097 0.00093469437209572806 0 -0.015062562207311224 0.00076167869946825936 0 -0.014808786672559332 0.00091653199263089301 0 -0.014588658496813697 0.0010048480500662147 0 -0.014808786672559332 0.00091653199263089301 0 -0.014775261707516509 0.00093193086481566849 0 -0.014588658496813697 0.0010048480500662147 0 -0.0147933738876097 0.00093469437209572806 0 -0.014808786672559332 0.00091653199263089301 0 -0.014660605950060919 0.00095104514228255659 0 -0.014775261707516509 0.00093193086481566849 0 -0.01492931976699521 0.00089406572903186329 0 -0.014877121841853712 0.00088761749486229074 0 -0.01492931976699521 0.00089406572903186329 0 -0.015029495047504039 0.00088216232641352894 0 -0.014877121841853712 0.00088761749486229074 0 -0.014775261707516509 0.00093193086481566849 0 -0.01492931976699521 0.00089406572903186329 0 -0.014808786672559332 0.00091653199263089301 0 -0.014877121841853712 0.00088761749486229074 0 -0.014775261707516509 0.00093193086481566849 0 -0.01492931976699521 0.00089406572903186329 0 -0.01519143641559843 0.00086355742330819767 0 -0.015182478791960096 0.00086447759082649775 0 -0.01492931976699521 0.00089406572903186329 0 -0.01519143641559843 0.00086355742330819767 0 -0.014861278424538328 0.0008956530867349281 0 -0.01519143641559843 0.00086355742330819767 0 -0.015501445439123785 0.00081999015096093824 0 -0.015549701103707691 0.00090828782311112703 0 -0.01519143641559843 0.00086355742330819767 0 -0.015501445439123785 0.00081999015096093824 0 -0.015182478791960096 0.00086447759082649775 0 -0.015501445439123785 0.00081999015096093824 0 -0.015381291520715218 0.00095860551459106286 0 -0.015182478791960096 0.00086447759082649775 0 -0.015501445439123785 0.00081999015096093824 0 -0.015381291520715218 0.00095860551459106286 0 -0.016183710887707654 0.00078494194935018434 0 -0.01492931976699521 0.00089406572903186329 0 -0.015182478791960096 0.00086447759082649775 0 -0.015029495047504039 0.00088216232641352894 0 -0.015381291520715218 0.00095860551459106286 0 -0.015182478791960096 0.00086447759082649775 0 -0.015029495047504039 0.00088216232641352894 0 -0.015381291520715218 0.00095860551459106286 0 -0.015029495047504039 0.00088216232641352894 0 -0.015117913633407913 0.0010257126336007715 0 -0.014816808905012186 0.0015226224462266064 0 -0.017972429349795593 0.0012575115442468449 0 -0.015381291520715218 0.00095860551459106286 0 -0.014691616122075556 0.0016372242775422516 0 -0.016220041101111981 0.0021855876442789432 0 -0.015381291520715218 0.00095860551459106286 0 -0.016220041101111981 0.0021855876442789432 0 -0.016183710887707654 0.00078494194935018434 0 -0.017972429349795593 0.0012575115442468449 0 -0.019939882600230899 0.0026797402319040449 0 -0.023830621091028865 0.0020316195981929844 0 -0.023954569826466831 0.0029773979815303467 0 -0.023004037256686882 0.0028938342946143673 0 -0.023830621091028865 0.0020316195981929844 0 -0.024609132834903742 0.002105160489999802 0 -0.023954569826466831 0.0029773979815303467 0 -0.018756088499066736 0.00174578400088824 0 -0.020340470091242853 0.0021062646017970988 0 -0.020530587650712286 0.0025559672339300695 0 -0.018756088499066736 0.00174578400088824 0 -0.020340470091242853 0.0021062646017970988 0 -0.020176283920978751 0.0016471863594780636 0 -0.020340470091242853 0.0021062646017970988 0 -0.020795302796373143 0.0021526029579903849 0 -0.020530587650712286 0.0025559672339300695 0 -0.019939882600230899 0.0026797402319040449 0 -0.020218956080431002 0.0024931929641824327 0 -0.021818990105066216 0.0019763540508486049 0 -0.023004037256686882 0.0028938342946143673 0 -0.020530587650712286 0.0025559672339300695 0 -0.016220041101111981 0.0021855876442789432 0 -0.018756088499066736 0.00174578400088824 0 -0.020530587650712286 0.0025559672339300695 0 -0.016220041101111981 0.0021855876442789432 0 -0.017268296108099941 0.0007110683398091303 0 -0.016183710887707654 0.00078494194935018434 0 -0.016220041101111981 0.0021855876442789432 0 -0.018756088499066736 0.00174578400088824 0 -0.017268296108099941 0.0007110683398091303 0 -0.017268296108099941 0.0007110683398091303 0 -0.020176283920978751 0.0016471863594780636 0 -0.020437128686618573 0.0011676524519616377 0 -0.017268296108099941 0.0007110683398091303 0 -0.016057413929891046 0.00091986747052658286 0 -0.015508877620985318 0.00051291781852197307 0 -0.01729822180173567 0.00072586431065154897 0 -0.017905268350405332 0.00085389383914673028 0 -0.018756088499066736 0.00174578400088824 0 -0.017268296108099941 0.0007110683398091303 0 -0.020176283920978751 0.0016471863594780636 0 -0.017268296108099941 0.0007110683398091303 0 -0.016057413929891046 0.00091986747052658286 0 -0.016142215774282386 0.00089732515148932296 0 -0.016057413929891046 0.00091986747052658286 0 -0.016142215774282386 0.00089732515148932296 0 -0.015678759236236788 0.001036320911545263 0 -0.017268296108099941 0.0007110683398091303 0 -0.016183710887707654 0.00078494194935018434 0 -0.016142215774282386 0.00089732515148932296 0 -0.015501445439123785 0.00081999015096093824 0 -0.016183710887707654 0.00078494194935018434 0 -0.016142215774282386 0.00089732515148932296 0 -0.015501445439123785 0.00081999015096093824 0 -0.016142215774282386 0.00089732515148932296 0 -0.015549701103707691 0.00090828782311112703 0 -0.016142215774282386 0.00089732515148932296 0 -0.015549701103707691 0.00090828782311112703 0 -0.015715574484052853 0.00099583713323597462 0 -0.016142215774282386 0.00089732515148932296 0 -0.015678759236236788 0.001036320911545263 0 -0.015715574484052853 0.00099583713323597462 0 -0.015678759236236788 0.001036320911545263 0 -0.015715574484052853 0.00099583713323597462 0 -0.015391992717778897 0.0010518852370411313 0 -0.015678759236236788 0.001036320911545263 0 -0.015391992717778897 0.0010518852370411313 0 -0.015344996437889551 0.0011221137654424821 0 -0.015549701103707691 0.00090828782311112703 0 -0.015715574484052853 0.00099583713323597462 0 -0.015391992717778897 0.0010518852370411313 0 -0.015391992717778897 0.0010518852370411313 0 -0.015065195632547995 0.0010704004723366561 0 -0.015192016083425032 0.0011245594009523553 0 -0.015391992717778897 0.0010518852370411313 0 -0.015124648626867463 0.0010122097086882214 0 -0.015065195632547995 0.0010704004723366561 0 -0.015124648626867463 0.0010122097086882214 0 -0.015065195632547995 0.0010704004723366561 0 -0.014819338999512714 0.00099194657575992656 0 -0.015065195632547995 0.0010704004723366561 0 -0.014819338999512714 0.00099194657575992656 0 -0.014874006295826409 0.0010377518742699975 0 -0.014819338999512714 0.00099194657575992656 0 -0.014931345199544274 0.00094816005976973503 0 -0.014409496358591491 0.00088473689927169596 0 -0.015124648626867463 0.0010122097086882214 0 -0.014819338999512714 0.00099194657575992656 0 -0.014931345199544274 0.00094816005976973503 0 -0.015391992717778897 0.0010518852370411313 0 -0.015124648626867463 0.0010122097086882214 0 -0.015220007967180359 0.00094034033138732536 0 -0.01519143641559843 0.00086355742330819767 0 -0.015549701103707691 0.00090828782311112703 0 -0.015220007967180359 0.00094034033138732536 0 -0.014931345199544274 0.00094816005976973503 0 -0.015220007967180359 0.00094034033138732536 0 -0.014930164424933142 0.00090587650348834955 0 -0.015549701103707691 0.00090828782311112703 0 -0.015391992717778897 0.0010518852370411313 0 -0.015220007967180359 0.00094034033138732536 0 -0.015124648626867463 0.0010122097086882214 0 -0.014931345199544274 0.00094816005976973503 0 -0.015220007967180359 0.00094034033138732536 0 -0.01519143641559843 0.00086355742330819767 0 -0.015220007967180359 0.00094034033138732536 0 -0.014930164424933142 0.00090587650348834955 0 -0.01519143641559843 0.00086355742330819767 0 -0.014930164424933142 0.00090587650348834955 0 -0.014861278424538328 0.0008956530867349281 0 -0.014660605950060919 0.00095104514228255659 0 -0.01492931976699521 0.00089406572903186329 0 -0.014861278424538328 0.0008956530867349281 0 -0.014930164424933142 0.00090587650348834955 0 -0.014861278424538328 0.0008956530867349281 0 -0.014725618738795651 0.00089199565888258979 0 -0.014660605950060919 0.00095104514228255659 0 -0.014861278424538328 0.0008956530867349281 0 -0.014725618738795651 0.00089199565888258979 0 -0.014725618738795651 0.00089199565888258979 0 -0.014486325927076623 0.00087796927623752681 0 -0.014586791039658245 0.000867206525193726 0 -0.014660605950060919 0.00095104514228255659 0 -0.014725618738795651 0.00089199565888258979 0 -0.014486325927076623 0.00087796927623752681 0 -0.014931345199544274 0.00094816005976973503 0 -0.014930164424933142 0.00090587650348834955 0 -0.014586791039658245 0.000867206525193726 0 -0.014930164424933142 0.00090587650348834955 0 -0.014725618738795651 0.00089199565888258979 0 -0.014586791039658245 0.000867206525193726 0 -0.014931345199544274 0.00094816005976973503 0 -0.014586791039658245 0.000867206525193726 0 -0.014409496358591491 0.00088473689927169596 0 -0.014586791039658245 0.000867206525193726 0 -0.014332219484579703 0.00082861683775429509 0 -0.014409496358591491 0.00088473689927169596 0 -0.014586791039658245 0.000867206525193726 0 -0.014332219484579703 0.00082861683775429509 0 -0.014330639001875988 0.0007849627980394538 0 -0.014486325927076623 0.00087796927623752681 0 -0.014586791039658245 0.000867206525193726 0 -0.014330639001875988 0.0007849627980394538 0 -0.014330639001875988 0.0007849627980394538 0 -0.014183851679172485 0.00070262209332386564 0 -0.014053127352491363 0.00076620650447505804 0 -0.014053127352491363 0.00076620650447505804 0 -0.014409496358591491 0.00088473689927169596 0 -0.013863203726875774 0.00081723911330081175 0 -0.014332219484579703 0.00082861683775429509 0 -0.014053127352491363 0.00076620650447505804 0 -0.014409496358591491 0.00088473689927169596 0 -0.014332219484579703 0.00082861683775429509 0 -0.014330639001875988 0.0007849627980394538 0 -0.014053127352491363 0.00076620650447505804 0 -0.014222813685761308 0.00086520039561319151 0 -0.014639808399824114 0.00096581850655867555 0 -0.014409496358591491 0.00088473689927169596 0 -0.014222813685761308 0.00086520039561319151 0 -0.014409496358591491 0.00088473689927169596 0 -0.013863203726875774 0.00081723911330081175 0 -0.014523600649202578 0.00089537519060184075 0 -0.014722222341924416 0.00087561942289966224 0 -0.014355492970143042 0.00068304303482357863 0 -0.014222813685761308 0.00086520039561319151 0 -0.014523600649202578 0.00089537519060184075 0 -0.014355492970143042 0.00068304303482357863 0 -0.014523600649202578 0.00089537519060184075 0 -0.014639808399824114 0.00096581850655867555 0 -0.014781554727699304 0.00099219475869787477 0 -0.014222813685761308 0.00086520039561319151 0 -0.014523600649202578 0.00089537519060184075 0 -0.014639808399824114 0.00096581850655867555 0 -0.014639808399824114 0.00096581850655867555 0 -0.014874006295826409 0.0010377518742699975 0 -0.014781554727699304 0.00099219475869787477 0 -0.014819338999512714 0.00099194657575992656 0 -0.014639808399824114 0.00096581850655867555 0 -0.014874006295826409 0.0010377518742699975 0 -0.014819338999512714 0.00099194657575992656 0 -0.014639808399824114 0.00096581850655867555 0 -0.014409496358591491 0.00088473689927169596 0 -0.015042487049567508 0.001051748008166243 0 -0.015050699561780602 0.0011204216035661679 0 -0.015110836658425315 0.001184923975831702 0 -0.01492300368194012 0.00099822940957565638 0 -0.015050699561780602 0.0011204216035661679 0 -0.014995243890806181 0.0011003198891887786 0 -0.01492300368194012 0.00099822940957565638 0 -0.015042487049567508 0.001051748008166243 0 -0.015050699561780602 0.0011204216035661679 0 -0.01492300368194012 0.00099822940957565638 0 -0.015042487049567508 0.001051748008166243 0 -0.015068590231365911 0.00094920075373413162 0 -0.015042487049567508 0.001051748008166243 0 -0.015068590231365911 0.00094920075373413162 0 -0.015094093037177405 0.0010261716286787078 0 -0.01492300368194012 0.00099822940957565638 0 -0.014781554727699304 0.00099219475869787477 0 -0.014995243890806181 0.0011003198891887786 0 -0.014874006295826409 0.0010377518742699975 0 -0.014781554727699304 0.00099219475869787477 0 -0.014995243890806181 0.0011003198891887786 0 -0.01492300368194012 0.00099822940957565638 0 -0.014781554727699304 0.00099219475869787477 0 -0.014722222341924416 0.00087561942289966224 0 -0.01492300368194012 0.00099822940957565638 0 -0.014722222341924416 0.00087561942289966224 0 -0.014896035835342445 0.00083771840594653083 0 -0.014523600649202578 0.00089537519060184075 0 -0.014781554727699304 0.00099219475869787477 0 -0.014722222341924416 0.00087561942289966224 0 -0.014722222341924416 0.00087561942289966224 0 -0.014896035835342445 0.00083771840594653083 0 -0.014720676703443297 0.00072008044669326517 0 -0.01492300368194012 0.00099822940957565638 0 -0.014896035835342445 0.00083771840594653083 0 -0.015068590231365911 0.00094920075373413162 0 -0.014896035835342445 0.00083771840594653083 0 -0.015068590231365911 0.00094920075373413162 0 -0.015039355920122777 0.00076049974135352087 0 -0.015160713581918008 0.00088699754505699752 0 -0.015223469242199528 0.0010416645492385824 0 -0.015216439339704775 0.00074429783637986152 0 -0.011234081099980111 0.0012541904485435687 0 -0.010626511819053098 0.00073933350139428037 0 -0.015160713581918008 0.00088699754505699752 0 -0.015216439339704775 0.00074429783637986152 0 -0.015039355920122777 0.00076049974135352087 0 -0.015160713581918008 0.00088699754505699752 0 -0.015068590231365911 0.00094920075373413162 0 -0.015039355920122777 0.00076049974135352087 0 -0.015160713581918008 0.00088699754505699752 0 -0.015223469242199528 0.0010416645492385824 0 -0.01518468208687419 0.0010186533131225019 0 -0.015160713581918008 0.00088699754505699752 0 -0.015140016217849885 0.0010076787381103202 0 -0.01518468208687419 0.0010186533131225019 0 -0.015160713581918008 0.00088699754505699752 0 -0.015068590231365911 0.00094920075373413162 0 -0.015140016217849885 0.0010076787381103202 0 -0.015068590231365911 0.00094920075373413162 0 -0.015094093037177405 0.0010261716286787078 0 -0.015140016217849885 0.0010076787381103202 0 -0.0054431167720367275 0.00066283402784386161 0 -0.00563733147039348 0.00026676767193120377 0 -0.0058448432566932888 0.00088989542307878048 0 -0.0054431167720367275 0.00066283402784386161 0 -0.0051289076520247435 0.00054485806601213473 0 -0.0051057387667133589 0.00077731634873752845 0 -0.0054431167720367275 0.00066283402784386161 0 -0.0051057387667133589 0.00077731634873752845 0 -0.0053388907502124423 0.00090323108720187289 0 -0.0054431167720367275 0.00066283402784386161 0 -0.0053388907502124423 0.00090323108720187289 0 -0.0058448432566932888 0.00088989542307878048 0 -0.0054431167720367275 0.00066283402784386161 0 -0.00563733147039348 0.00026676767193120377 0 -0.0051289076520247435 0.00054485806601213473 0 -0.011234081099980111 0.0012541904485435687 0 -0.0098982776227447677 0.001987155365106475 0 -0.011234081099980111 0.0012541904485435687 0 -0.015487014836060358 0.0021230892214670603 0 -0.015277858479548316 0.0031387295696729788 0 -0.015119583089701459 0.0023900690756220792 0 -0.014763505441799591 0.0029454678587927888 0 -0.015223469242199528 0.0010416645492385824 0 -0.015146569428738538 0.001160587592829807 0 -0.01515402331023177 0.0012553161084149821 0 -0.015277858479548316 0.0031387295696729788 0 -0.014763505441799591 0.0029454678587927888 0 -0.014724264655380539 0.0033989442059100712 0 -0.015042487049567508 0.001051748008166243 0 -0.015117267406546293 0.0010967282988690894 0 -0.015110836658425315 0.001184923975831702 0 -0.015094093037177405 0.0010261716286787078 0 -0.015140016217849885 0.0010076787381103202 0 -0.015117267406546293 0.0010967282988690894 0 -0.015042487049567508 0.001051748008166243 0 -0.015094093037177405 0.0010261716286787078 0 -0.015117267406546293 0.0010967282988690894 0 -0.015140016217849885 0.0010076787381103202 0 -0.01518468208687419 0.0010186533131225019 0 -0.015162382528179965 0.00107459089556157 0 -0.015140016217849885 0.0010076787381103202 0 -0.015162382528179965 0.00107459089556157 0 -0.015117267406546293 0.0010967282988690894 0 -0.015223469242199528 0.0010416645492385824 0 -0.015162382528179965 0.00107459089556157 0 -0.015146569428738538 0.001160587592829807 0 -0.015223469242199528 0.0010416645492385824 0 -0.01518468208687419 0.0010186533131225019 0 -0.015162382528179965 0.00107459089556157 0 -0.015162382528179965 0.00107459089556157 0 -0.015146569428738538 0.001160587592829807 0 -0.015117267406546293 0.0010967282988690894 0 -0.015146569428738538 0.001160587592829807 0 -0.015117267406546293 0.0010967282988690894 0 -0.015110836658425315 0.001184923975831702 0 -0.015146569428738538 0.001160587592829807 0 -0.015119434560330674 0.001292502021435761 0 -0.015110836658425315 0.001184923975831702 0 -0.015146569428738538 0.001160587592829807 0 -0.01515402331023177 0.0012553161084149821 0 -0.015119434560330674 0.001292502021435761 0 -0.01515402331023177 0.0012553161084149821 0 -0.014941929513004071 0.0014673662015360224 0 -0.015119434560330674 0.001292502021435761 0 -0.015487014836060358 0.0021230892214670603 0 -0.014882656627220839 0.0013259486655598433 0 -0.014941929513004071 0.0014673662015360224 0 -0.015119434560330674 0.001292502021435761 0 -0.01513660113117671 0.0011128797411947349 0 -0.015119434560330674 0.001292502021435761 0 -0.015173341921393727 0.0012084858987600935 0 -0.015110836658425315 0.001184923975831702 0 -0.015119434560330674 0.001292502021435761 0 -0.015173341921393727 0.0012084858987600935 0 -0.015186001742080355 0.0011665375372929127 0 -0.015173341921393727 0.0012084858987600935 0 -0.015261591150824412 0.0011467568500971828 0 -0.015186001742080355 0.0011665375372929127 0 -0.015156456821338045 0.001173133260787985 0 -0.015173341921393727 0.0012084858987600935 0 -0.015261591150824412 0.0011467568500971828 0 -0.015050699561780602 0.0011204216035661679 0 -0.015156456821338045 0.001173133260787985 0 -0.014995243890806181 0.0011003198891887786 0 -0.015050699561780602 0.0011204216035661679 0 -0.015156456821338045 0.001173133260787985 0 -0.015110836658425315 0.001184923975831702 0 -0.015156456821338045 0.001173133260787985 0 -0.015173341921393727 0.0012084858987600935 0 -0.015110836658425315 0.001184923975831702 0 -0.015065195632547995 0.0010704004723366561 0 -0.014995243890806181 0.0011003198891887786 0 -0.015192016083425032 0.0011245594009523553 0 -0.015156456821338045 0.001173133260787985 0 -0.014995243890806181 0.0011003198891887786 0 -0.015192016083425032 0.0011245594009523553 0 -0.015065195632547995 0.0010704004723366561 0 -0.014874006295826409 0.0010377518742699975 0 -0.014995243890806181 0.0011003198891887786 0 -0.015391992717778897 0.0010518852370411313 0 -0.015192016083425032 0.0011245594009523553 0 -0.015344996437889551 0.0011221137654424821 0 -0.015156456821338045 0.001173133260787985 0 -0.015344996437889551 0.0011221137654424821 0 -0.015261591150824412 0.0011467568500971828 0 -0.015156456821338045 0.001173133260787985 0 -0.015192016083425032 0.0011245594009523553 0 -0.015344996437889551 0.0011221137654424821 0 -0.015678759236236788 0.001036320911545263 0 -0.015344996437889551 0.0011221137654424821 0 -0.015401280970614561 0.0010492359666424609 0 -0.015344996437889551 0.0011221137654424821 0 -0.015401280970614561 0.0010492359666424609 0 -0.015261591150824412 0.0011467568500971828 0 -0.015678759236236788 0.001036320911545263 0 -0.015401280970614561 0.0010492359666424609 0 -0.015553159036129627 0.00091269542696035589 0 -0.015401280970614561 0.0010492359666424609 0 -0.015261591150824412 0.0011467568500971828 0 -0.01523892147039077 0.001040979611998612 0 -0.015261591150824412 0.0011467568500971828 0 -0.01523892147039077 0.001040979611998612 0 -0.015186001742080355 0.0011665375372929127 0 -0.015401280970614561 0.0010492359666424609 0 -0.01523892147039077 0.001040979611998612 0 -0.015327376304675044 0.00087232951880530745 0 -0.01523892147039077 0.001040979611998612 0 -0.015327376304675044 0.00087232951880530745 0 -0.015204774242786002 0.00090751660524732972 0 -0.016057413929891046 0.00091986747052658286 0 -0.015678759236236788 0.001036320911545263 0 -0.015553159036129627 0.00091269542696035589 0 -0.015401280970614561 0.0010492359666424609 0 -0.015327376304675044 0.00087232951880530745 0 -0.015553159036129627 0.00091269542696035589 0 -0.015327376304675044 0.00087232951880530745 0 -0.015553159036129627 0.00091269542696035589 0 -0.015508877620985318 0.00051291781852197307 0 -0.016057413929891046 0.00091986747052658286 0 -0.015553159036129627 0.00091269542696035589 0 -0.015508877620985318 0.00051291781852197307 0 -0.020176283920978751 0.0016471863594780636 0 -0.020437128686618573 0.0011676524519616377 0 -0.019326331263432125 0.0003351372044160351 0 -0.015327376304675044 0.00087232951880530745 0 -0.015508877620985318 0.00051291781852197307 0 -0.015194781934113393 0.00076765544125954768 0 -0.020437128686618573 0.0011676524519616377 0 -0.019326331263432125 0.0003351372044160351 0 -0.018242010010879408 0.0013020229065486939 0 -0.017905268350405332 0.00085389383914673028 0 -0.016719307892352833 0.0009807392765139541 0 -0.020411497494867061 0.0021685211888986234 0 -0.020308842617620199 0.0019541259375805342 0 -0.019962039481501048 0.001910468914088987 0 -0.020411497494867061 0.0021685211888986234 0 -0.020308842617620199 0.0019541259375805342 0 -0.020475704452431943 0.0020721971100223636 0 -0.020088873164797141 0.0015648873155865819 0 -0.019768799946749852 0.0012728537002860028 0 -0.020176283920978751 0.0016471863594780636 0 -0.020411497494867061 0.0021685211888986234 0 -0.020475704452431943 0.0020721971100223636 0 -0.020340470091242853 0.0021062646017970988 0 -0.020795302796373143 0.0021526029579903849 0 -0.020553182280328576 0.002110799085185697 0 -0.020176283920978751 0.0016471863594780636 0 -0.020475704452431943 0.0020721971100223636 0 -0.020553182280328576 0.002110799085185697 0 -0.020340470091242853 0.0021062646017970988 0 -0.020176283920978751 0.0016471863594780636 0 -0.020553182280328576 0.002110799085185697 0 -0.019291249070571219 0.001618079626219608 0 -0.01945213144255567 0.0022811979497153871 0 -0.019962039481501048 0.001910468914088987 0 -0.018809480618200362 0.0018458707261601122 0 -0.019291249070571219 0.001618079626219608 0 -0.01945213144255567 0.0022811979497153871 0 -0.020411497494867061 0.0021685211888986234 0 -0.01945213144255567 0.0022811979497153871 0 -0.019962039481501048 0.001910468914088987 0 -0.019768799946749852 0.0012728537002860028 0 -0.017873157452248881 0.00098405401881336649 0 -0.019326331263432125 0.0003351372044160351 0 -0.016348310133802245 -0.00034968402229511628 0 -0.018242010010879408 0.0013020229065486939 0 -0.016348310133802245 -0.00034968402229511628 0 -0.018242010010879408 0.0013020229065486939 0 -0.015116050536247781 0.00068762847051943572 0 -0.015194781934113393 0.00076765544125954768 0 -0.015124289272879184 0.00087565192898478631 0 -0.015116050536247781 0.00068762847051943572 0 -0.016719307892352833 0.0009807392765139541 0 -0.015219770609692413 0.00075381488664749967 0 -0.015124289272879184 0.00087565192898478631 0 -0.01485700192354469 0.0010457309518510376 0 -0.015116050536247781 0.00068762847051943572 0 -0.015124289272879184 0.00087565192898478631 0 -0.01513660113117671 0.0011128797411947349 0 -0.01485700192354469 0.0010457309518510376 0 -0.01523892147039077 0.001040979611998612 0 -0.015204774242786002 0.00090751660524732972 0 -0.01513660113117671 0.0011128797411947349 0 -0.015327376304675044 0.00087232951880530745 0 -0.015194781934113393 0.00076765544125954768 0 -0.015204774242786002 0.00090751660524732972 0 -0.015194781934113393 0.00076765544125954768 0 -0.015124289272879184 0.00087565192898478631 0 -0.015204774242786002 0.00090751660524732972 0 -0.015124289272879184 0.00087565192898478631 0 -0.015204774242786002 0.00090751660524732972 0 -0.01513660113117671 0.0011128797411947349 0 -0.015119434560330674 0.001292502021435761 0 -0.01513660113117671 0.0011128797411947349 0 -0.015186001742080355 0.0011665375372929127 0 -0.01523892147039077 0.001040979611998612 0 -0.01513660113117671 0.0011128797411947349 0 -0.015186001742080355 0.0011665375372929127 0 -0.014941929513004071 0.0014673662015360224 0 -0.01513660113117671 0.0011128797411947349 0 -0.01485700192354469 0.0010457309518510376 0 -0.014430358712389117 0.0014626277707864221 0 -0.014324497415591074 0.0010882267495780805 0 -0.01485700192354469 0.0010457309518510376 0 -0.014941929513004071 0.0014673662015360224 0 -0.014430358712389117 0.0014626277707864221 0 -0.01485700192354469 0.0010457309518510376 0 -0.014430358712389117 0.0014626277707864221 0 -0.014324497415591074 0.0010882267495780805 0 -0.01374991072616921 0.001604783612392324 0 -0.014324497415591074 0.0010882267495780805 0 -0.013707106339527356 0.00097893041944721636 0 -0.01374991072616921 0.001604783612392324 0 -0.014324497415591074 0.0010882267495780805 0 -0.013934613446211361 0.00050384769932209598 0 -0.013707106339527356 0.00097893041944721636 0 -0.014324497415591074 0.0010882267495780805 0 -0.01455538173267009 0.00077813152096508384 0 -0.013934613446211361 0.00050384769932209598 0 -0.014324497415591074 0.0010882267495780805 0 -0.01485700192354469 0.0010457309518510376 0 -0.01455538173267009 0.00077813152096508384 0 -0.01485700192354469 0.0010457309518510376 0 -0.01455538173267009 0.00077813152096508384 0 -0.015116050536247781 0.00068762847051943572 0 -0.01455538173267009 0.00077813152096508384 0 -0.015116050536247781 0.00068762847051943572 0 -0.014380794136569588 -0.00023607147189188879 0 -0.01455538173267009 0.00077813152096508384 0 -0.013934613446211361 0.00050384769932209598 0 -0.014380794136569588 -0.00023607147189188879 0 -0.013934613446211361 0.00050384769932209598 0 -0.014380794136569588 -0.00023607147189188879 0 -0.013455233926302587 -0.0002794430376576888 0 -0.016621876864839062 0.0010209599438070034 0 -0.014499558600109333 0.00066504361299893789 0 -0.018128418717568533 0.0016800369987138243 0 -0.018417215168898719 0.0022288182957636384 0 -0.01736032636196292 0.0021262917118594167 0 -0.018809480618200362 0.0018458707261601122 0 -0.01945213144255567 0.0022811979497153871 0 -0.018417215168898719 0.0022288182957636384 0 -0.016348310133802245 -0.00034968402229511628 0 -0.015116050536247781 0.00068762847051943572 0 -0.014380794136569588 -0.00023607147189188879 0 -0.018809480618200362 0.0018458707261601122 0 -0.018128418717568533 0.0016800369987138243 0 -0.018417215168898719 0.0022288182957636384 0 -0.017873157452248881 0.00098405401881336649 0 -0.016621876864839062 0.0010209599438070034 0 -0.013167296786566385 -0.00029699769168915502 0 -0.013581963583931709 2.8621051466736355e-06 0 -0.012611851002132031 -0.00018756019944179598 0 -0.014499558600109333 0.00066504361299893789 0 -0.012216334489957218 -0.00037635060767445238 0 -0.013394062827715433 -0.00012756945923337172 0 -0.012793612569717228 0.00026079671002076987 0 -0.012611851002132031 -0.00018756019944179598 0 -0.014499558600109333 0.00066504361299893789 0 -0.013102651646981302 0.00021990571380060484 0 -0.013934613446211361 0.00050384769932209598 0 -0.013455233926302587 -0.0002794430376576888 0 -0.013236734582230658 0.00053844387570816689 0 -0.013236734582230658 0.00053844387570816689 0 -0.012793612569717228 0.00026079671002076987 0 -0.012723462591926782 0.00091457725661799689 0 -0.013394062827715433 -0.00012756945923337172 0 -0.013236734582230658 0.00053844387570816689 0 -0.012793612569717228 0.00026079671002076987 0 -0.013236734582230658 0.00053844387570816689 0 -0.012723462591926782 0.00091457725661799689 0 -0.013177117739449342 0.0011983778186525687 0 -0.013934613446211361 0.00050384769932209598 0 -0.013236734582230658 0.00053844387570816689 0 -0.013707106339527356 0.00097893041944721636 0 -0.013236734582230658 0.00053844387570816689 0 -0.013707106339527356 0.00097893041944721636 0 -0.013177117739449342 0.0011983778186525687 0 -0.013707106339527356 0.00097893041944721636 0 -0.01374991072616921 0.001604783612392324 0 -0.013177117739449342 0.0011983778186525687 0 -0.01374991072616921 0.001604783612392324 0 -0.013177117739449342 0.0011983778186525687 0 -0.012930662929766903 0.001922425137167183 0 -0.012723462591926782 0.00091457725661799689 0 -0.013177117739449342 0.0011983778186525687 0 -0.012449597348060858 0.0014298449762308214 0 -0.013177117739449342 0.0011983778186525687 0 -0.012930662929766903 0.001922425137167183 0 -0.012449597348060858 0.0014298449762308214 0 -0.012930662929766903 0.001922425137167183 0 -0.013479929453859039 0.0024266060542265386 0 -0.012534421994489382 0.0028331300462900518 0 -0.01374991072616921 0.001604783612392324 0 -0.012930662929766903 0.001922425137167183 0 -0.013479929453859039 0.0024266060542265386 0 -0.01374991072616921 0.001604783612392324 0 -0.013479929453859039 0.0024266060542265386 0 -0.014299089042786508 0.0020071795917490269 0 -0.014430358712389117 0.0014626277707864221 0 -0.01374991072616921 0.001604783612392324 0 -0.014299089042786508 0.0020071795917490269 0 -0.015119583089701459 0.0023900690756220792 0 -0.014941929513004071 0.0014673662015360224 0 -0.014299089042786508 0.0020071795917490269 0 -0.014941929513004071 0.0014673662015360224 0 -0.014430358712389117 0.0014626277707864221 0 -0.014299089042786508 0.0020071795917490269 0 -0.015119583089701459 0.0023900690756220792 0 -0.014299089042786508 0.0020071795917490269 0 -0.014209131065420225 0.0027006672269693057 0 -0.013479929453859039 0.0024266060542265386 0 -0.014299089042786508 0.0020071795917490269 0 -0.014209131065420225 0.0027006672269693057 0 -0.014209131065420225 0.0027006672269693057 0 -0.014239531635269564 0.0031799131229293138 0 -0.013361068120999959 0.0032112975318443369 0 -0.015119583089701459 0.0023900690756220792 0 -0.014209131065420225 0.0027006672269693057 0 -0.014763505441799591 0.0029454678587927888 0 -0.014209131065420225 0.0027006672269693057 0 -0.014239531635269564 0.0031799131229293138 0 -0.014763505441799591 0.0029454678587927888 0 -0.014239531635269564 0.0031799131229293138 0 -0.014763505441799591 0.0029454678587927888 0 -0.014724264655380539 0.0033989442059100712 0 -0.014239531635269564 0.0031799131229293138 0 -0.014724264655380539 0.0033989442059100712 0 -0.014164423779718794 0.0036419498422858155 0 -0.0098982776227447677 0.001987155365106475 0 -0.0085757342068431813 0.0017049867510474583 0 -0.0051289076520247435 0.00054485806601213473 0 -0.0049278190675712472 0.00093205983788308025 0 -0.004824379653679163 0.00087966743135547412 0 -0.0049278190675712472 0.00093205983788308025 0 -0.0050535878277034735 0.0011460093640534663 0 -0.0049676228937634362 0.00085519077574747789 0 -0.0064824032409910547 0.00084136890525170563 0 -0.0085757342068431813 0.0017049867510474583 0 -0.0051289076520247435 0.00054485806601213473 0 -0.0049278190675712472 0.00093205983788308025 0 -0.0051057387667133589 0.00077731634873752845 0 -0.0085757342068431813 0.0017049867510474583 0 -0.010951731556903033 0.0023657935789436302 0 -0.014239531635269564 0.0031799131229293138 0 -0.014164423779718794 0.0036419498422858155 0 -0.013361068120999959 0.0032112975318443369 0 -0.0076777671263719054 0.0011844226571571105 0 -0.0080500518673511118 0.00062043904748390708 0 -0.0076448509500484062 0.00052264934743998437 0 -0.007066483052752052 0.00082663238097543577 0 -0.0076777671263719054 0.0011844226571571105 0 -0.0076448509500484062 0.00052264934743998437 0 -0.0081451854920361454 0.0011003840469507385 0 -0.0076777671263719054 0.0011844226571571105 0 -0.0080500518673511118 0.00062043904748390708 0 -0.0081451854920361454 0.0011003840469507385 0 -0.0080500518673511118 0.00062043904748390708 0 -0.008515745412440311 0.00086274635661035709 0 -0.010951731556903033 0.0023657935789436302 0 -0.010386880821655221 0.002192592300737011 0 -0.0081451854920361454 0.0011003840469507385 0 -0.0076777671263719054 0.0011844226571571105 0 -0.0084305479255462629 0.0016388744628618047 0 -0.013479929453859039 0.0024266060542265386 0 -0.013361068120999959 0.0032112975318443369 0 -0.012534421994489382 0.0028331300462900518 0 -0.013479929453859039 0.0024266060542265386 0 -0.014209131065420225 0.0027006672269693057 0 -0.013361068120999959 0.0032112975318443369 0 -0.0069762954640387445 -0.00015565455318899987 0 -0.0062788571632412266 0.0009739871899711503 0 -0.0060208354133951493 -0.00072215764456502231 0 -0.0062788571632412266 0.0009739871899711503 0 -0.0049315502582384261 0.00025860222201983961 0 -0.0060208354133951493 -0.00072215764456502231 0 -0.0069762954640387445 -0.00015565455318899987 0 -0.0075309923295542522 -0.00099639844511902683 0 -0.0080835684416247656 0.00016024609132195928 0 -0.0069762954640387445 -0.00015565455318899987 0 -0.0062788571632412266 0.0009739871899711503 0 -0.0080835684416247656 0.00016024609132195928 0 -0.0080500518673511118 0.00062043904748390708 0 -0.0076448509500484062 0.00052264934743998437 0 -0.0080835684416247656 0.00016024609132195928 0 -0.0065058199700819067 0.00072877648856272033 0 -0.0082068765699394117 0.00016503411673130918 0 -0.0085757342068431813 0.0017049867510474583 0 -0.0065058199700819067 0.00072877648856272033 0 -0.0062788571632412266 0.0009739871899711503 0 -0.0051762980424820111 0.00074982934597265713 0 -0.0049315502582384261 0.00025860222201983961 0 -0.0050535878277034735 0.0011460093640534663 0 -0.0062788571632412266 0.0009739871899711503 0 -0.0051762980424820111 0.00074982934597265713 0 -0.0050535878277034735 0.0011460093640534663 0 -0.0051762980424820111 0.00074982934597265713 0 -0.0049676228937634362 0.00085519077574747789 0 -0.0051762980424820111 0.00074982934597265713 0 -0.0049281906896095568 0.00062318388548652289 0 -0.0049315502582384261 0.00025860222201983961 0 -0.0049129925281287366 0.00085983745438963346 0 -0.0048021315163881816 0.00050561583585771795 0 -0.0046695455140504764 0.000530212811163833 0 -0.0049278190675712472 0.00093205983788308025 0 -0.0051057387667133589 0.00077731634873752845 0 -0.0049129925281287366 0.00085983745438963346 0 -0.0051057387667133589 0.00077731634873752845 0 -0.0049129925281287366 0.00085983745438963346 0 -0.0053388907502124423 0.00090323108720187289 0 -0.0049129925281287366 0.00085983745438963346 0 -0.0049676228937634362 0.00085519077574747789 0 -0.0049281906896095568 0.00062318388548652289 0 -0.0049278190675712472 0.00093205983788308025 0 -0.0049129925281287366 0.00085983745438963346 0 -0.0049676228937634362 0.00085519077574747789 0 -0.0051762980424820111 0.00074982934597265713 0 -0.0049676228937634362 0.00085519077574747789 0 -0.0049281906896095568 0.00062318388548652289 0 -0.0049129925281287366 0.00085983745438963346 0 -0.0049281906896095568 0.00062318388548652289 0 -0.0048021315163881816 0.00050561583585771795 0 -0.0048021315163881816 0.00050561583585771795 0 -0.0049315502582384261 0.00025860222201983961 0 -0.0046987420929558519 0.00047440003846885238 0 -0.0049315502582384261 0.00025860222201983961 0 -0.0039542681803948192 -0.00086714800221513464 0 -0.0026786800402194546 -0.00022593778672308669 0 -0.0048608645802028999 0.00028668044479326286 0 -0.0036963131549969156 0.00010344439248145221 0 -0.0049281906896095568 0.00062318388548652289 0 -0.0048021315163881816 0.00050561583585771795 0 -0.0049315502582384261 0.00025860222201983961 0 -0.0049315502582384261 0.00025860222201983961 0 -0.0050301640652000469 -0.0013475812330251363 0 -0.0060208354133951493 -0.00072215764456502231 0 -0.0049315502582384261 0.00025860222201983961 0 -0.0050301640652000469 -0.0013475812330251363 0 -0.0039542681803948192 -0.00086714800221513464 0 -0.0039542681803948192 -0.00086714800221513464 0 -0.0030010046657486557 -0.0014844818251313944 0 -0.0026786800402194546 -0.00022593778672308669 0 -0.0050301640652000469 -0.0013475812330251363 0 -0.0039542681803948192 -0.00086714800221513464 0 -0.0040446109548045919 -0.0017709703403937889 0 -0.0039542681803948192 -0.00086714800221513464 0 -0.0040446109548045919 -0.0017709703403937889 0 -0.0030010046657486557 -0.0014844818251313944 0 -0.0040446109548045919 -0.0017709703403937889 0 -0.003395208343498885 -0.0027140933788196843 0 -0.0030010046657486557 -0.0014844818251313944 0 -0.0040446109548045919 -0.0017709703403937889 0 -0.003395208343498885 -0.0027140933788196843 0 -0.0045830889419193341 -0.0023991934755032856 0 -0.0050301640652000469 -0.0013475812330251363 0 -0.0045830889419193341 -0.0023991934755032856 0 -0.0060795945503918968 -0.0022770364267969585 0 -0.0045830889419193341 -0.0023991934755032856 0 -0.0060795945503918968 -0.0022770364267969585 0 -0.0042321143971729234 -0.0037423069739044613 0 -0.0050301640652000469 -0.0013475812330251363 0 -0.0040446109548045919 -0.0017709703403937889 0 -0.0045830889419193341 -0.0023991934755032856 0 -0.0050684626117451026 -0.003321361299917407 0 -0.0055798310361681019 -0.0029160578758468045 0 -0.0069762954640387445 -0.00015565455318899987 0 -0.0060208354133951493 -0.00072215764456502231 0 -0.0075309923295542522 -0.00099639844511902683 0 -0.0050301640652000469 -0.0013475812330251363 0 -0.0060795945503918968 -0.0022770364267969585 0 -0.0060208354133951493 -0.00072215764456502231 0 -0.0060795945503918968 -0.0022770364267969585 0 -0.0060208354133951493 -0.00072215764456502231 0 -0.0075309923295542522 -0.00099639844511902683 0 -0.0036002739496667001 -0.0048688703613816355 0 -0.0036405163047138729 -0.0044809831102692608 0 -0.0033288810170673849 -0.0046578115347704089 0 -0.0041387957911510368 -0.004371679146829041 0 -0.0036405163047138729 -0.0044809831102692608 0 -0.003755582436498948 -0.0041179450589935223 0 -0.0041387957911510368 -0.004371679146829041 0 -0.0036002739496667001 -0.0048688703613816355 0 -0.0036405163047138729 -0.0044809831102692608 0 -0.0036405163047138729 -0.0044809831102692608 0 -0.003755582436498948 -0.0041179450589935223 0 -0.0034269912921485054 -0.0043864550600638264 0 -0.003755582436498948 -0.0041179450589935223 0 -0.0035661111127107399 -0.0037623133693591385 0 -0.0033136177520634688 -0.0041165269649134986 0 -0.003755582436498948 -0.0041179450589935223 0 -0.0042053986034451558 -0.0039093663014808291 0 -0.003913220765610988 -0.0037707220531109273 0 -0.0041387957911510368 -0.004371679146829041 0 -0.003755582436498948 -0.0041179450589935223 0 -0.0042053986034451558 -0.0039093663014808291 0 -0.0042053986034451558 -0.0039093663014808291 0 -0.003913220765610988 -0.0037707220531109273 0 -0.0041439923762593761 -0.0035729224773014784 0 -0.003913220765610988 -0.0037707220531109273 0 -0.0041439923762593761 -0.0035729224773014784 0 -0.0037787429376552901 -0.0034528587145658822 0 -0.003755582436498948 -0.0041179450589935223 0 -0.003913220765610988 -0.0037707220531109273 0 -0.0035661111127107399 -0.0037623133693591385 0 -0.003913220765610988 -0.0037707220531109273 0 -0.0035661111127107399 -0.0037623133693591385 0 -0.0037787429376552901 -0.0034528587145658822 0 -0.0037787429376552901 -0.0034528587145658822 0 -0.0036642827069578643 -0.0027487577459524171 0 -0.003395285712745979 -0.003308755944604955 0 -0.0037787429376552901 -0.0034528587145658822 0 -0.0040219101436970214 -0.0031795705453590956 0 -0.0036642827069578643 -0.0027487577459524171 0 -0.0035661111127107399 -0.0037623133693591385 0 -0.0037787429376552901 -0.0034528587145658822 0 -0.003395285712745979 -0.003308755944604955 0 -0.0041439923762593761 -0.0035729224773014784 0 -0.0040219101436970214 -0.0031795705453590956 0 -0.0043837205417080029 -0.0029291551944116609 0 -0.0041439923762593761 -0.0035729224773014784 0 -0.0037787429376552901 -0.0034528587145658822 0 -0.0040219101436970214 -0.0031795705453590956 0 -0.0047029450269847617 -0.0032111648575647747 0 -0.0018114758737743702 -0.0011424378783052038 0 -0.0040219101436970214 -0.0031795705453590956 0 -0.0036642827069578643 -0.0027487577459524171 0 -0.0043837205417080029 -0.0029291551944116609 0 -0.0036642827069578643 -0.0027487577459524171 0 -0.0039146990910267441 -0.002715107107788392 0 -0.0038161045318878743 -0.0024945538400165061 0 0.0038230601672915674 0.0016959068772588199 0 0.0038331226754854449 0.0016960548973369816 0 0.0038645091304440357 0.0017299248827012407 0 -0.0018114758737743702 -0.0011424378783052038 0 -0.00070213268991718431 -0.0032513807316344357 0 -0.0041439923762593761 -0.0035729224773014784 0 -0.0041864217347603854 -0.003391081787779983 0 -0.0043041228067741454 -0.0035942994614728886 0 -0.0044769667719983426 -0.0041224791646711093 0 -0.0018114758737743702 -0.0011424378783052038 0 -0.0041864217347603854 -0.003391081787779983 0 -0.0043651032005619589 -0.0034553569756310093 0 -0.0043041228067741454 -0.0035942994614728886 0 -0.00070213268991718431 -0.0032513807316344357 0 -0.0045830657174642121 -0.0040818049004510857 0 -0.0030620462903278374 -0.0057579372886873755 0 -0.0030954787435968929 -0.0045664105817576003 0 -0.0041611032227939805 -0.0044631511224769464 0 -0.0030954787435968929 -0.0045664105817576003 0 -0.0041611032227939805 -0.0044631511224769464 0 -0.0033595844001612549 -0.0037966534630129454 0 -0.0041611032227939805 -0.0044631511224769464 0 -0.0042321143971729234 -0.0037423069739044613 0 -0.0033595844001612549 -0.0037966534630129454 0 -0.0040957191640766779 -0.0039753290464979388 0 -0.0045830657174642121 -0.0040818049004510857 0 -0.0042053986034451558 -0.0039093663014808291 0 -0.0041439923762593761 -0.0035729224773014784 0 -0.0043041228067741454 -0.0035942994614728886 0 -0.0042053986034451558 -0.0039093663014808291 0 -0.0041611032227939805 -0.0044631511224769464 0 -0.0042321143971729234 -0.0037423069739044613 0 -0.0041387957911510368 -0.004371679146829041 0 -0.0042053986034451558 -0.0039093663014808291 0 -0.0042321143971729234 -0.0037423069739044613 0 -0.0050684626117451026 -0.003321361299917407 0 -0.0043035386876970148 -0.0037548150927064032 0 -0.003395208343498885 -0.0027140933788196843 0 -0.0045830889419193341 -0.0023991934755032856 0 -0.0042321143971729234 -0.0037423069739044613 0 -0.003395208343498885 -0.0027140933788196843 0 -0.0033595844001612549 -0.0037966534630129454 0 -0.0026023580217417151 -0.0031548566434507056 0 -0.003395208343498885 -0.0027140933788196843 0 -0.0042321143971729234 -0.0037423069739044613 0 -0.0033595844001612549 -0.0037966534630129454 0 -0.0026023580217417151 -0.0031548566434507056 0 -0.0016541498027728692 -0.0031284511649562505 0 -0.0021394331558567126 -0.0022141519014610153 0 -0.0026023580217417151 -0.0031548566434507056 0 -0.0016541498027728692 -0.0031284511649562505 0 -0.0024571152031584715 -0.0038971962700474743 0 -0.0033595844001612549 -0.0037966534630129454 0 -0.0026023580217417151 -0.0031548566434507056 0 -0.0024571152031584715 -0.0038971962700474743 0 -0.0016541498027728692 -0.0031284511649562505 0 -0.001125683589552247 -0.0040614030358450013 0 -0.0024571152031584715 -0.0038971962700474743 0 -0.0016541498027728692 -0.0031284511649562505 0 -0.00060764988396777748 -0.0030155984206886861 0 -0.0013483671972782656 -0.0024637888012672359 0 -0.0016541498027728692 -0.0031284511649562505 0 -0.001125683589552247 -0.0040614030358450013 0 -0.00060764988396777748 -0.0030155984206886861 0 -0.001125683589552247 -0.0040614030358450013 0 -0.0022052807945024218 -0.0047022006180965767 0 -0.0016926826059675618 -0.0054666112316751432 0 -0.001125683589552247 -0.0040614030358450013 0 -0.0024571152031584715 -0.0038971962700474743 0 -0.0022052807945024218 -0.0047022006180965767 0 -0.0030954787435968929 -0.0045664105817576003 0 -0.0033595844001612549 -0.0037966534630129454 0 -0.0024571152031584715 -0.0038971962700474743 0 -0.0030954787435968929 -0.0045664105817576003 0 -0.0024571152031584715 -0.0038971962700474743 0 -0.0022052807945024218 -0.0047022006180965767 0 -0.00070213268991718431 -0.0032513807316344357 0 -0.0015498429110969703 -0.0054508616181596949 0 -0.0030620462903278374 -0.0057579372886873755 0 -0.0030954787435968929 -0.0045664105817576003 0 -0.0022052807945024218 -0.0047022006180965767 0 -0.0030620462903278374 -0.0057579372886873755 0 -0.0022052807945024218 -0.0047022006180965767 0 -0.0016926826059675618 -0.0054666112316751432 0 -0.001125683589552247 -0.0040614030358450013 0 -0.0016926826059675618 -0.0054666112316751432 0 -0.00017137751974597774 -0.0049985617782079377 0 -0.0015498429110969703 -0.0054508616181596949 0 -0.00013986411646048108 -0.0050078843700218255 0 -0.00071958298737912353 -0.0051646074347473656 0 9.1402665524022587e-06 -0.0055460091507606559 0 -0.00065057181788527498 -0.0060169846524568537 0 0.0038331226754854449 0.0016960548973369816 0 0.0038920516723924903 0.0017441499665344844 0 0.0038645091304440357 0.0017299248827012407 0 -0.0013448972247017718 -0.0052960786904281956 0 -0.00071958298737912353 -0.0051646074347473656 0 -0.00065057181788527498 -0.0060169846524568537 0 -0.00070213268991718431 -0.0032513807316344357 0 0.0018098938662128789 -0.0022854459516885015 0 0.0030132206155849203 -0.0024611353757020503 0 0.0025774251662569574 -0.0030837234752785383 0 0.0047454937125964046 0.00024457513623860435 0 0.0046617803108087927 0.00057489436343297203 0 0.0049590043901981389 0.00074758745565335584 0 9.1402665524022587e-06 -0.0055460091507606559 0 0.0011768992244328336 -0.0053503886933172857 0 0.00048595996521707396 -0.0060825984616460467 0 9.1402665524022587e-06 -0.0055460091507606559 0 -3.8245305174988257e-05 -0.0061086065744657995 0 -0.00065057181788527498 -0.0060169846524568537 0 9.1402665524022587e-06 -0.0055460091507606559 0 -3.8245305174988257e-05 -0.0061086065744657995 0 0.00048595996521707396 -0.0060825984616460467 0 9.1402665524022587e-06 -0.0055460091507606559 0 -0.00017137751974597774 -0.0049985617782079377 0 0.00073446523554336043 -0.0047220806056485288 0 -0.00071958298737912353 -0.0051646074347473656 0 9.1402665524022587e-06 -0.0055460091507606559 0 -0.00017137751974597774 -0.0049985617782079377 0 9.1402665524022587e-06 -0.0055460091507606559 0 0.00073446523554336043 -0.0047220806056485288 0 0.0011768992244328336 -0.0053503886933172857 0 0.00073446523554336043 -0.0047220806056485288 0 0.00051436889390247566 -0.0039378281887838089 0 0.0013474025619805287 -0.0035443658342487563 0 -0.00017137751974597774 -0.0049985617782079377 0 0.00073446523554336043 -0.0047220806056485288 0 0.00051436889390247566 -0.0039378281887838089 0 -0.001125683589552247 -0.0040614030358450013 0 -0.00017137751974597774 -0.0049985617782079377 0 -0.00026129015238905999 -0.0037704945660627489 0 -0.00017137751974597774 -0.0049985617782079377 0 0.00051436889390247566 -0.0039378281887838089 0 -0.00026129015238905999 -0.0037704945660627489 0 0.00051436889390247566 -0.0039378281887838089 0 -0.00026129015238905999 -0.0037704945660627489 0 0.00047922582706955727 -0.0031125454453171989 0 -0.001125683589552247 -0.0040614030358450013 0 -0.00026129015238905999 -0.0037704945660627489 0 -0.00060764988396777748 -0.0030155984206886861 0 -0.00026129015238905999 -0.0037704945660627489 0 -0.00060764988396777748 -0.0030155984206886861 0 0.00047922582706955727 -0.0031125454453171989 0 -0.00060764988396777748 -0.0030155984206886861 0 0.00047922582706955727 -0.0031125454453171989 0 3.1826370699453206e-05 -0.0024176759389110797 0 0.0013474025619805287 -0.0035443658342487563 0 0.00047922582706955727 -0.0031125454453171989 0 0.0014285474611301192 -0.0027080080074064518 0 0.00051436889390247566 -0.0039378281887838089 0 0.0013474025619805287 -0.0035443658342487563 0 0.00047922582706955727 -0.0031125454453171989 0 0.00047922582706955727 -0.0031125454453171989 0 0.00084805331570707277 -0.0022731335342301854 0 3.1826370699453206e-05 -0.0024176759389110797 0 0.00047922582706955727 -0.0031125454453171989 0 0.0014285474611301192 -0.0027080080074064518 0 0.00084805331570707277 -0.0022731335342301854 0 0.00084805331570707277 -0.0022731335342301854 0 0.00091972080396296495 -0.001822075972087326 0 0.0015646374204267141 -0.0020381154631423214 0 0.0014285474611301192 -0.0027080080074064518 0 0.00084805331570707277 -0.0022731335342301854 0 0.0015646374204267141 -0.0020381154631423214 0 0.00084805331570707277 -0.0022731335342301854 0 0.00027522624815438929 -0.0016955752660913496 0 3.1826370699453206e-05 -0.0024176759389110797 0 0.00091972080396296495 -0.001822075972087326 0 0.0009936566700420302 -0.0012788178217791224 0 0.00027522624815438929 -0.0016955752660913496 0 0.00084805331570707277 -0.0022731335342301854 0 0.00091972080396296495 -0.001822075972087326 0 0.00027522624815438929 -0.0016955752660913496 0 0.00091972080396296495 -0.001822075972087326 0 0.0009936566700420302 -0.0012788178217791224 0 0.0015646374204267141 -0.0020381154631423214 0 -0.014577070818485702 2.4049859394286687e-06 0 -0.014862375103846939 8.659995503933241e-05 0 -0.01442798557582879 -0.000435814564914622 0 -0.0049994746578945386 0.00052984644796108191 0 -0.0049328215976691724 0.00050567954427063223 0 -0.0050201999563430806 0.00051075786853843261 0 -0.010007101898008856 0.00024240210635125041 0 -0.010601363530698732 0.00035772579324360923 0 -0.014577070818485702 2.4049859394286687e-06 0 -0.014340927918720409 -0.00014442356403982602 0 -0.01442798557582879 -0.000435814564914622 0 -0.014577070818485702 2.4049859394286687e-06 0 -0.0142026316136962 8.898606452656125e-05 0 -0.014340927918720409 -0.00014442356403982602 0 -0.0049328215976691724 0.00050567954427063223 0 -0.0048274545668338864 0.00055221629376866642 0 -0.0048055327878999453 0.00049513599916364902 0 0.0009936566700420302 -0.0012788178217791224 0 0.00027522624815438929 -0.0016955752660913496 0 -0.0008031485798611302 -0.00077198603345248796 0 -0.0049994746578945386 0.00052984644796108191 0 -0.0049328215976691724 0.00050567954427063223 0 -0.0048274545668338864 0.00055221629376866642 0 -0.0014631448618621543 -0.00041598739074413419 0 -0.0029239526201402951 -9.2599859992395248e-05 0 -0.00056342132216320761 -0.0016018168363326137 0 0.00027522624815438929 -0.0016955752660913496 0 -0.0008031485798611302 -0.00077198603345248796 0 -0.00056342132216320761 -0.0016018168363326137 0 -0.00019562482989299198 -0.0019560395790922591 0 -0.00069661687964778869 -0.0022919440380451289 0 -0.00019562482989299198 -0.0019560395790922591 0 0.00027522624815438929 -0.0016955752660913496 0 3.1826370699453206e-05 -0.0024176759389110797 0 -0.00056342132216320761 -0.0016018168363326137 0 -0.00019562482989299198 -0.0019560395790922591 0 0.00027522624815438929 -0.0016955752660913496 0 -0.00019562482989299198 -0.0019560395790922591 0 3.1826370699453206e-05 -0.0024176759389110797 0 -0.00069661687964778869 -0.0022919440380451289 0 -0.00060764988396777748 -0.0030155984206886861 0 3.1826370699453206e-05 -0.0024176759389110797 0 -0.00069661687964778869 -0.0022919440380451289 0 -0.00069661687964778869 -0.0022919440380451289 0 -0.0013483671972782656 -0.0024637888012672359 0 -0.0012585021145390292 -0.0016856450386124313 0 -0.00060764988396777748 -0.0030155984206886861 0 -0.00069661687964778869 -0.0022919440380451289 0 -0.0013483671972782656 -0.0024637888012672359 0 -0.0013483671972782656 -0.0024637888012672359 0 -0.0012585021145390292 -0.0016856450386124313 0 -0.0021394331558567126 -0.0022141519014610153 0 -0.0016541498027728692 -0.0031284511649562505 0 -0.0013483671972782656 -0.0024637888012672359 0 -0.0021394331558567126 -0.0022141519014610153 0 -0.0012585021145390292 -0.0016856450386124313 0 -0.0021394331558567126 -0.0022141519014610153 0 -0.0019555736141953048 -0.0012545692170575903 0 -0.00056342132216320761 -0.0016018168363326137 0 -0.00069661687964778869 -0.0022919440380451289 0 -0.0012585021145390292 -0.0016856450386124313 0 -0.003395208343498885 -0.0027140933788196843 0 -0.0026023580217417151 -0.0031548566434507056 0 -0.0021394331558567126 -0.0022141519014610153 0 -0.003395208343498885 -0.0027140933788196843 0 -0.0021394331558567126 -0.0022141519014610153 0 -0.0030010046657486557 -0.0014844818251313944 0 -0.0021394331558567126 -0.0022141519014610153 0 -0.0030010046657486557 -0.0014844818251313944 0 -0.0019555736141953048 -0.0012545692170575903 0 -0.0030010046657486557 -0.0014844818251313944 0 -0.0019555736141953048 -0.0012545692170575903 0 -0.0026786800402194546 -0.00022593778672308669 0 -0.0029239526201402951 -9.2599859992395248e-05 0 -0.0036963131549969156 0.00010344439248145221 0 -0.0019555736141953048 -0.0012545692170575903 0 -0.0008031485798611302 -0.00077198603345248796 0 -0.0026786800402194546 -0.00022593778672308669 0 -0.00056342132216320761 -0.0016018168363326137 0 -0.0012585021145390292 -0.0016856450386124313 0 -0.0008031485798611302 -0.00077198603345248796 0 -0.0012585021145390292 -0.0016856450386124313 0 -0.0019555736141953048 -0.0012545692170575903 0 -0.0008031485798611302 -0.00077198603345248796 0 -0.0048274545668338864 0.00055221629376866642 0 -0.0047607363606935798 0.00049955878038958736 0 -0.0046987420929558519 0.00047440003846885238 0 -0.0079761769088367313 0.0011980411274379896 0 -0.0047266703970481319 0.000733595187251638 0 -0.0047846057218587958 0.00047418392803201195 0 -0.0047191017231024476 0.00049744211338351326 0 -0.0046695455140504764 0.000530212811163833 0 -0.0048274545668338864 0.00055221629376866642 0 -0.0048055327878999453 0.00049513599916364902 0 -0.0047607363606935798 0.00049955878038958736 0 -0.0048055327878999453 0.00049513599916364902 0 -0.0047607363606935798 0.00049955878038958736 0 -0.0047846057218587958 0.00047418392803201195 0 -0.0071182026668292608 0.00045593407536636106 0 -0.0079761769088367313 0.0011980411274379896 0 -0.0047607363606935798 0.00049955878038958736 0 -0.0047846057218587958 0.00047418392803201195 0 -0.0047191017231024476 0.00049744211338351326 0 -0.0048021315163881816 0.00050561583585771795 0 -0.0046987420929558519 0.00047440003846885238 0 -0.0046695455140504764 0.000530212811163833 0 -0.0046987420929558519 0.00047440003846885238 0 -0.0047191017231024476 0.00049744211338351326 0 -0.0046695455140504764 0.000530212811163833 0 -0.0047607363606935798 0.00049955878038958736 0 -0.0046987420929558519 0.00047440003846885238 0 -0.0047191017231024476 0.00049744211338351326 0 -0.0049129925281287366 0.00085983745438963346 0 -0.0054924324882609666 0.0013001521448849265 0 -0.0053388907502124423 0.00090323108720187289 0 -0.0050777867450879166 0.00093723028207148764 0 -0.0047266703970481319 0.000733595187251638 0 -0.0054924324882609666 0.0013001521448849265 0 -0.0053388907502124423 0.00090323108720187289 0 -0.0058448432566932888 0.00088989542307878048 0 -0.0061003514543556923 0.0016159594884427701 0 -0.0054924324882609666 0.0013001521448849265 0 -0.0058448432566932888 0.00088989542307878048 0 -0.015148204132692441 0.00036827254036629923 0 -0.015073569987234451 0.0005891997643570567 0 -0.015216439339704775 0.00074429783637986152 0 -0.0079761769088367313 0.0011980411274379896 0 -0.010626511819053098 0.00073933350139428037 0 -0.015073569987234451 0.0005891997643570567 0 -0.015216439339704775 0.00074429783637986152 0 -0.015039355920122777 0.00076049974135352087 0 -0.015073569987234451 0.0005891997643570567 0 -0.015039355920122777 0.00076049974135352087 0 -0.014947596803321661 0.00057464329337087751 0 -0.015039355920122777 0.00076049974135352087 0 -0.014947596803321661 0.00057464329337087751 0 -0.014864114504106482 0.00068662996814042396 0 -0.015073569987234451 0.0005891997643570567 0 -0.014947596803321661 0.00057464329337087751 0 -0.014927750482616313 0.00039937230119256671 0 -0.014947596803321661 0.00057464329337087751 0 -0.014864114504106482 0.00068662996814042396 0 -0.014721992329052835 0.00051318727734685275 0 -0.014947596803321661 0.00057464329337087751 0 -0.014721992329052835 0.00051318727734685275 0 -0.014927750482616313 0.00039937230119256671 0 -0.014896035835342445 0.00083771840594653083 0 -0.015039355920122777 0.00076049974135352087 0 -0.014864114504106482 0.00068662996814042396 0 -0.014896035835342445 0.00083771840594653083 0 -0.014864114504106482 0.00068662996814042396 0 -0.014720676703443297 0.00072008044669326517 0 -0.014722222341924416 0.00087561942289966224 0 -0.014720676703443297 0.00072008044669326517 0 -0.014355492970143042 0.00068304303482357863 0 -0.014720676703443297 0.00072008044669326517 0 -0.014721992329052835 0.00051318727734685275 0 -0.014355492970143042 0.00068304303482357863 0 -0.014721992329052835 0.00051318727734685275 0 -0.014453678196379672 0.00035442015113302139 0 -0.014355492970143042 0.00068304303482357863 0 -0.014864114504106482 0.00068662996814042396 0 -0.014720676703443297 0.00072008044669326517 0 -0.014721992329052835 0.00051318727734685275 0 -0.014721992329052835 0.00051318727734685275 0 -0.014453678196379672 0.00035442015113302139 0 -0.014726611001082709 0.00027758291945225539 0 -0.014577070818485702 2.4049859394286687e-06 0 -0.014453678196379672 0.00035442015113302139 0 -0.014726611001082709 0.00027758291945225539 0 -0.014577070818485702 2.4049859394286687e-06 0 -0.014453678196379672 0.00035442015113302139 0 -0.0142026316136962 8.898606452656125e-05 0 -0.014577070818485702 2.4049859394286687e-06 0 -0.014862375103846939 8.659995503933241e-05 0 -0.014726611001082709 0.00027758291945225539 0 -0.014862375103846939 8.659995503933241e-05 0 -0.015148204132692441 0.00036827254036629923 0 -0.014927750482616313 0.00039937230119256671 0 -0.014862375103846939 8.659995503933241e-05 0 -0.014726611001082709 0.00027758291945225539 0 -0.014927750482616313 0.00039937230119256671 0 -0.0049328215976691724 0.00050567954427063223 0 -0.0048055327878999453 0.00049513599916364902 0 -0.0048009499298688092 0.00046917081374144503 0 -0.010007101898008856 0.00024240210635125041 0 -0.0079761769088367313 0.0011980411274379896 0 -0.015148204132692441 0.00036827254036629923 0 -0.015073569987234451 0.0005891997643570567 0 -0.014927750482616313 0.00039937230119256671 0 -0.014721992329052835 0.00051318727734685275 0 -0.014726611001082709 0.00027758291945225539 0 -0.014927750482616313 0.00039937230119256671 0 -0.012726767340462032 0.00012481061260285366 0 -0.013555235043606804 0.00010020711723772003 0 -0.013771774472693647 0.00067523993851185743 0 -0.012726767340462032 0.00012481061260285366 0 -0.013771774472693647 0.00067523993851185743 0 -0.013294406253311866 0.00078410931734030861 0 -0.013555235043606804 0.00010020711723772003 0 -0.014046583822219832 0.00041712107164776596 0 -0.013771774472693647 0.00067523993851185743 0 -0.013555235043606804 0.00010020711723772003 0 -0.0142026316136962 8.898606452656125e-05 0 -0.014046583822219832 0.00041712107164776596 0 -0.014453678196379672 0.00035442015113302139 0 -0.0142026316136962 8.898606452656125e-05 0 -0.014046583822219832 0.00041712107164776596 0 -0.014453678196379672 0.00035442015113302139 0 -0.014046583822219832 0.00041712107164776596 0 -0.014355492970143042 0.00068304303482357863 0 -0.014046583822219832 0.00041712107164776596 0 -0.014355492970143042 0.00068304303482357863 0 -0.013771774472693647 0.00067523993851185743 0 -0.014222813685761308 0.00086520039561319151 0 -0.014355492970143042 0.00068304303482357863 0 -0.013771774472693647 0.00067523993851185743 0 -0.014222813685761308 0.00086520039561319151 0 -0.013771774472693647 0.00067523993851185743 0 -0.013863203726875774 0.00081723911330081175 0 -0.013771774472693647 0.00067523993851185743 0 -0.013863203726875774 0.00081723911330081175 0 -0.013294406253311866 0.00078410931734030861 0 -0.014053127352491363 0.00076620650447505804 0 -0.013863203726875774 0.00081723911330081175 0 -0.013294406253311866 0.00078410931734030861 0 -0.014183851679172485 0.00070262209332386564 0 -0.014053127352491363 0.00076620650447505804 0 -0.013294406253311866 0.00078410931734030861 0 -0.013911824894625118 0.00092414292097309225 0 -0.011229545840185227 0.00050048375705473663 0 -0.014183851679172485 0.00070262209332386564 0 -0.013294406253311866 0.00078410931734030861 0 -0.014192153769003167 0.00091701058925619278 0 -0.0067943803473521731 0.0011681781078595758 0 -0.0051233792307468157 0.00058275362929042726 0 -0.0050974139402666582 0.0010450494113347451 0 -0.0090825898000544067 0.00065564207924324706 0 -0.011229545840185227 0.00050048375705473663 0 -0.013294406253311866 0.00078410931734030861 0 -0.01217514525095567 -5.3742253274631453e-05 0 -0.011264839122887926 0.0010613393354993504 0 -0.012726767340462032 0.00012481061260285366 0 -0.013294406253311866 0.00078410931734030861 0 -0.01217514525095567 -5.3742253274631453e-05 0 -0.012726767340462032 0.00012481061260285366 0 -0.01217514525095567 -5.3742253274631453e-05 0 -0.011050919717352302 -0.0010524141338135002 0 -0.0090825898000544067 0.00065564207924324706 0 -0.011218225339142457 -0.0012318623406307378 0 -0.0077277637331824691 -0.00062964252347992816 0 -0.0067943803473521731 0.0011681781078595758 0 -0.011050919717352302 -0.0010524141338135002 0 -0.0067943803473521731 0.0011681781078595758 0 -0.0052852600211408867 -0.00021809120560722161 0 -0.0051233792307468157 0.00058275362929042726 0 -0.0077277637331824691 -0.00062964252347992816 0 -0.0067943803473521731 0.0011681781078595758 0 -0.0052852600211408867 -0.00021809120560722161 0 -0.0082120828884277297 -0.0026224377923377506 0 -0.0030575172700721891 -0.0017478107785895082 0 -0.0047954453248602348 -0.0012159969278609966 0 -0.0077277637331824691 -0.00062964252347992816 0 -0.0052852600211408867 -0.00021809120560722161 0 -0.0082120828884277297 -0.0026224377923377506 0 -0.0052852600211408867 -0.00021809120560722161 0 -0.0082120828884277297 -0.0026224377923377506 0 -0.0047954453248602348 -0.0012159969278609966 0 -0.0036516308232466244 -0.0027327458100776664 0 -0.0037874974477720138 -0.0011713885847074092 0 -0.011050919717352302 -0.0010524141338135002 0 -0.0082120828884277297 -0.0026224377923377506 0 -0.013486314068357383 -0.001498804178993791 0 0.001664514588584777 -0.0030846951666813421 0 0.0029082252677044658 -0.0025633031189855283 0 0.0024908072115189294 -0.0021683810013526585 0 -0.0077277637331824691 -0.00062964252347992816 0 -0.011050919717352302 -0.0010524141338135002 0 -0.0082120828884277297 -0.0026224377923377506 0 0.001664514588584777 -0.0030846951666813421 0 0.0029082252677044658 -0.0025633031189855283 0 0.0033437828216235726 -0.0024777432060882026 0 0.0029082252677044658 -0.0025633031189855283 0 0.0027566015080038209 -0.0023965199253903444 0 0.0030765489924813295 -0.0024183055894387087 0 0.0027566015080038209 -0.0023965199253903444 0 0.0026837048810403699 -0.0019994443217853258 0 0.0022901002377047346 -0.0024467570448880802 0 0.0029082252677044658 -0.0025633031189855283 0 0.0027566015080038209 -0.0023965199253903444 0 0.0026837048810403699 -0.0019994443217853258 0 0.0018642508544149795 -0.0032317258341229812 0 -0.0037874974477720138 -0.0011713885847074092 0 -0.011050919717352302 -0.0010524141338135002 0 -0.013486314068357383 -0.001498804178993791 0 -0.012894833839336789 -0.00038795547489243624 0 -0.012726767340462032 0.00012481061260285366 0 -0.011050919717352302 -0.0010524141338135002 0 -0.012894833839336789 -0.00038795547489243624 0 -0.013486314068357383 -0.001498804178993791 0 -0.012894833839336789 -0.00038795547489243624 0 -0.013758359704223122 -0.00048463736508892014 0 -0.013555235043606804 0.00010020711723772003 0 -0.012894833839336789 -0.00038795547489243624 0 -0.013758359704223122 -0.00048463736508892014 0 -0.012726767340462032 0.00012481061260285366 0 -0.013555235043606804 0.00010020711723772003 0 -0.012894833839336789 -0.00038795547489243624 0 -0.013486314068357383 -0.001498804178993791 0 -0.013758359704223122 -0.00048463736508892014 0 -0.01442798557582879 -0.000435814564914622 0 -0.0049994746578945386 0.00052984644796108191 0 -0.0050338847182707118 0.00042134221480089653 0 -0.0050201999563430806 0.00051075786853843261 0 -0.014126822796584606 -0.00025113019237915987 0 -0.014340927918720409 -0.00014442356403982602 0 -0.01442798557582879 -0.000435814564914622 0 -0.0142026316136962 8.898606452656125e-05 0 -0.014126822796584606 -0.00025113019237915987 0 -0.014340927918720409 -0.00014442356403982602 0 -0.013555235043606804 0.00010020711723772003 0 -0.0142026316136962 8.898606452656125e-05 0 -0.014126822796584606 -0.00025113019237915987 0 -0.013555235043606804 0.00010020711723772003 0 -0.014126822796584606 -0.00025113019237915987 0 -0.013758359704223122 -0.00048463736508892014 0 -0.014126822796584606 -0.00025113019237915987 0 -0.013758359704223122 -0.00048463736508892014 0 -0.01442798557582879 -0.000435814564914622 0 -0.0037874974477720138 -0.0011713885847074092 0 -0.010601363530698732 0.00035772579324360923 0 0.0026837048810403699 -0.0019994443217853258 0 0.0022901002377047346 -0.0024467570448880802 0 0.0015646374204267141 -0.0020381154631423214 0 0.0009936566700420302 -0.0012788178217791224 0 0.0026837048810403699 -0.0019994443217853258 0 0.0015646374204267141 -0.0020381154631423214 0 -0.0014631448618621543 -0.00041598739074413419 0 -0.0037874974477720138 -0.0011713885847074092 0 0.0014285474611301192 -0.0027080080074064518 0 0.0022901002377047346 -0.0024467570448880802 0 0.0015646374204267141 -0.0020381154631423214 0 0.0014285474611301192 -0.0027080080074064518 0 0.0022901002377047346 -0.0024467570448880802 0 0.0020483547997996593 -0.0030315052529082476 0 0.0020483547997996593 -0.0030315052529082476 0 0.0030765489924813295 -0.0024183055894387087 0 0.0021421115175613101 -0.0042216963150741279 0 0.0022901002377047346 -0.0024467570448880802 0 0.0020483547997996593 -0.0030315052529082476 0 0.0030765489924813295 -0.0024183055894387087 0 0.0013474025619805287 -0.0035443658342487563 0 0.0014285474611301192 -0.0027080080074064518 0 0.0020483547997996593 -0.0030315052529082476 0 0.0031199421818209096 -0.0024196353010445745 0 0.0031820848008581692 -0.0024541275528699473 0 0.0029082252677044658 -0.0025633031189855283 0 0.0030765489924813295 -0.0024183055894387087 0 0.0024908072115189294 -0.0021683810013526585 0 0.0027566015080038209 -0.0023965199253903444 0 0.0022901002377047346 -0.0024467570448880802 0 0.0030765489924813295 -0.0024183055894387087 0 0.0030765489924813295 -0.0024183055894387087 0 0.0030080287147011423 -0.0011763742088272636 0 0.0024908072115189294 -0.0021683810013526585 0 0.0030765489924813295 -0.0024183055894387087 0 0.0030080287147011423 -0.0011763742088272636 0 0.0043109087474715608 -0.00068543894755030831 0 0.0030080287147011423 -0.0011763742088272636 0 0.0034866966384935701 -0.00039201817113027271 0 0.0043109087474715608 -0.00068543894755030831 0 0.0030080287147011423 -0.0011763742088272636 0 0.0034866966384935701 -0.00039201817113027271 0 0.0027047964557225957 -0.00040066498354264843 0 0.00073446523554336043 -0.0047220806056485288 0 0.0013474025619805287 -0.0035443658342487563 0 0.0021421115175613101 -0.0042216963150741279 0 0.0013474025619805287 -0.0035443658342487563 0 0.0020483547997996593 -0.0030315052529082476 0 0.0021421115175613101 -0.0042216963150741279 0 0.0047454937125964046 0.00024457513623860435 0 0.0043109087474715608 -0.00068543894755030831 0 0.0039967749336648588 8.5185540782141484e-05 0 0.00073446523554336043 -0.0047220806056485288 0 0.0011768992244328336 -0.0053503886933172857 0 0.0021421115175613101 -0.0042216963150741279 0 0.0030132206155849203 -0.0024611353757020503 0 0.0031820848008581692 -0.0024541275528699473 0 0.0034866966384935701 -0.00039201817113027271 0 0.0043109087474715608 -0.00068543894755030831 0 0.0039967749336648588 8.5185540782141484e-05 0 0.0034866966384935701 -0.00039201817113027271 0 0.0033839943805018787 0.00019255961895799965 0 0.0027047964557225957 -0.00040066498354264843 0 0.0034866966384935701 -0.00039201817113027271 0 0.0039967749336648588 8.5185540782141484e-05 0 0.0033839943805018787 0.00019255961895799965 0 0.0039967749336648588 8.5185540782141484e-05 0 0.0039168586736555676 0.000498687707085921 0 0.0033839943805018787 0.00019255961895799965 0 0.0039967749336648588 8.5185540782141484e-05 0 0.0039168586736555676 0.000498687707085921 0 0.004318180417832624 0.00046906264716468872 0 0.0039168586736555676 0.000498687707085921 0 0.0038079674552547061 0.00065034830255530679 0 0.0035670825623768786 0.00047669159154038862 0 0.0039168586736555676 0.000498687707085921 0 0.0035670825623768786 0.00047669159154038862 0 0.0033839943805018787 0.00019255961895799965 0 0.0039168586736555676 0.000498687707085921 0 0.0038079674552547061 0.00065034830255530679 0 0.0041170437544138317 0.0007073311580156681 0 0.0039168586736555676 0.000498687707085921 0 0.0042069967226378083 0.00062001702596276649 0 0.004318180417832624 0.00046906264716468872 0 0.0039168586736555676 0.000498687707085921 0 0.0042069967226378083 0.00062001702596276649 0 0.0041170437544138317 0.0007073311580156681 0 0.0044174123175636576 0.00063952426826774551 0 0.0046617803108087927 0.00057489436343297203 0 0.004318180417832624 0.00046906264716468872 0 0.0042069967226378083 0.00062001702596276649 0 0.0044174123175636576 0.00063952426826774551 0 0.004318180417832624 0.00046906264716468872 0 0.0047454937125964046 0.00024457513623860435 0 0.0039967749336648588 8.5185540782141484e-05 0 0.004318180417832624 0.00046906264716468872 0 0.0047454937125964046 0.00024457513623860435 0 0.0046617803108087927 0.00057489436343297203 0 0.004318180417832624 0.00046906264716468872 0 0.0026669571061048191 0.00012719599519007757 0 0.0019582057600472046 -0.00038724753585737059 0 0.002822859595687734 0.00056585984417102512 0 0.0027494042769081175 0.00042248312554987407 0 0.0024301582972964635 0.00026190451628121567 0 0.002822859595687734 0.00056585984417102512 0 0.0030453807739613931 0.00058291391480233784 0 0.0029042105075376451 0.00051406570697275569 0 0.0030453807739613931 0.00058291391480233784 0 0.0030443345226962089 0.00054844226932437151 0 0.0032370744949067679 0.00061362499241342803 0 0.0030443345226962089 0.00054844226932437151 0 0.0029042105075376451 0.00051406570697275569 0 0.002979527413104522 0.00049138142480586035 0 0.0030453807739613931 0.00058291391480233784 0 0.0030443345226962089 0.00054844226932437151 0 0.0029042105075376451 0.00051406570697275569 0 0.002822859595687734 0.00056585984417102512 0 0.0029042105075376451 0.00051406570697275569 0 0.0027494042769081175 0.00042248312554987407 0 0.0029042105075376451 0.00051406570697275569 0 0.0027494042769081175 0.00042248312554987407 0 0.002979527413104522 0.00049138142480586035 0 0.0030453807739613931 0.00058291391480233784 0 0.0035043427808914896 0.00068935289595819203 0 0.0032370744949067679 0.00061362499241342803 0 0.002822859595687734 0.00056585984417102512 0 0.0030453807739613931 0.00058291391480233784 0 0.0035043427808914896 0.00068935289595819203 0 0.0035043427808914896 0.00068935289595819203 0 0.0036847548374085888 0.00070144679468999382 0 0.0034246103269257029 0.00063361154469363705 0 0.0035043427808914896 0.00068935289595819203 0 0.0034246103269257029 0.00063361154469363705 0 0.0032370744949067679 0.00061362499241342803 0 0.0034246103269257029 0.00063361154469363705 0 0.0034633522333193992 0.00058223104818485682 0 0.0032081036692447585 0.00055319583855827699 0 0.0036847548374085888 0.00070144679468999382 0 0.0034246103269257029 0.00063361154469363705 0 0.0034633522333193992 0.00058223104818485682 0 0.0034246103269257029 0.00063361154469363705 0 0.0032370744949067679 0.00061362499241342803 0 0.0032081036692447585 0.00055319583855827699 0 0.0038079674552547061 0.00065034830255530679 0 0.0034633522333193992 0.00058223104818485682 0 0.0035670825623768786 0.00047669159154038862 0 0.0036847548374085888 0.00070144679468999382 0 0.0038079674552547061 0.00065034830255530679 0 0.0034633522333193992 0.00058223104818485682 0 0.0034633522333193992 0.00058223104818485682 0 0.0035670825623768786 0.00047669159154038862 0 0.0030104598046415002 0.00037193280726424824 0 0.0034633522333193992 0.00058223104818485682 0 0.0032081036692447585 0.00055319583855827699 0 0.0030104598046415002 0.00037193280726424824 0 0.0030443345226962089 0.00054844226932437151 0 0.0032081036692447585 0.00055319583855827699 0 0.002979527413104522 0.00049138142480586035 0 0.0030443345226962089 0.00054844226932437151 0 0.0032370744949067679 0.00061362499241342803 0 0.0032081036692447585 0.00055319583855827699 0 0.0027494042769081175 0.00042248312554987407 0 0.002979527413104522 0.00049138142480586035 0 0.0030104598046415002 0.00037193280726424824 0 0.0032081036692447585 0.00055319583855827699 0 0.002979527413104522 0.00049138142480586035 0 0.0030104598046415002 0.00037193280726424824 0 0.0027494042769081175 0.00042248312554987407 0 0.0030104598046415002 0.00037193280726424824 0 0.0024301582972964635 0.00026190451628121567 0 0.0030104598046415002 0.00037193280726424824 0 0.002614582859575847 7.9745718838334224e-05 0 0.0024301582972964635 0.00026190451628121567 0 0.002614582859575847 7.9745718838334224e-05 0 0.0013902647970931892 -0.00013698190699653703 0 0.0027047964557225957 -0.00040066498354264843 0 0.0030104598046415002 0.00037193280726424824 0 0.0033839943805018787 0.00019255961895799965 0 0.002614582859575847 7.9745718838334224e-05 0 0.0035670825623768786 0.00047669159154038862 0 0.0030104598046415002 0.00037193280726424824 0 0.0033839943805018787 0.00019255961895799965 0 0.0033839943805018787 0.00019255961895799965 0 0.002614582859575847 7.9745718838334224e-05 0 0.0027047964557225957 -0.00040066498354264843 0 0.002822859595687734 0.00056585984417102512 0 0.0024301582972964635 0.00026190451628121567 0 0.0013902647970931892 -0.00013698190699653703 0 -0.001393353865804883 0.00034821341159040623 0 -0.0011841423284579169 0.0001381151315000102 0 -0.001472921504357198 0.00028584838284118936 0 0.002614582859575847 7.9745718838334224e-05 0 0.0024301582972964635 0.00026190451628121567 0 0.0013902647970931892 -0.00013698190699653703 0 0.0026669571061048191 0.00012719599519007757 0 -5.7988179319922614e-05 -0.00016167578197580666 0 0.0013902647970931892 -0.00013698190699653703 0 0.0020911808053700087 -0.0011328168955677244 0 0.0012245113124870171 -0.001668670406601541 0 -0.0011841423284579169 0.0001381151315000102 0 -0.00060645267074955274 -0.0015173516425372585 0 -0.0020105539517697342 -0.00027590245347450791 0 -5.7988179319922614e-05 -0.00016167578197580666 0 -0.00045661164518985287 -0.0015541205909615468 0 0.0013902647970931892 -0.00013698190699653703 0 0.0012245113124870171 -0.001668670406601541 0 -0.00060645267074955274 -0.0015173516425372585 0 0.0013902647970931892 -0.00013698190699653703 0 0.0027047964557225957 -0.00040066498354264843 0 0.0020911808053700087 -0.0011328168955677244 0 0.0030080287147011423 -0.0011763742088272636 0 0.0027047964557225957 -0.00040066498354264843 0 0.0020911808053700087 -0.0011328168955677244 0 0.0030080287147011423 -0.0011763742088272636 0 0.0020911808053700087 -0.0011328168955677244 0 0.0024908072115189294 -0.0021683810013526585 0 0.0020911808053700087 -0.0011328168955677244 0 0.0012245113124870171 -0.001668670406601541 0 0.0024908072115189294 -0.0021683810013526585 0 0.001664514588584777 -0.0030846951666813421 0 0.0012245113124870171 -0.001668670406601541 0 0.0024908072115189294 -0.0021683810013526585 0 -0.0036516308232466244 -0.0027327458100776664 0 -0.0031014257787096442 -0.0019367271932373461 0 0.001664514588584777 -0.0030846951666813421 0 -0.00060645267074955274 -0.0015173516425372585 0 -0.0030575172700721891 -0.0017478107785895082 0 0.001664514588584777 -0.0030846951666813421 0 0.0012245113124870171 -0.001668670406601541 0 -0.00060645267074955274 -0.0015173516425372585 0 -0.00060645267074955274 -0.0015173516425372585 0 -0.0030575172700721891 -0.0017478107785895082 0 -0.0020105539517697342 -0.00027590245347450791 0 -0.0030575172700721891 -0.0017478107785895082 0 -0.0028687196926361334 -0.00033939301141205452 0 -0.0020105539517697342 -0.00027590245347450791 0 -0.0034053811493106765 -0.00080699122581055966 0 -0.0028687196926361334 -0.00033939301141205452 0 -0.003736093563555191 -0.00029678081347283885 0 -0.0030575172700721891 -0.0017478107785895082 0 -0.0034053811493106765 -0.00080699122581055966 0 -0.0028687196926361334 -0.00033939301141205452 0 -0.0028687196926361334 -0.00033939301141205452 0 -0.0020105539517697342 -0.00027590245347450791 0 -0.0017058849143967551 0.00024776352878385884 0 -0.0011841423284579169 0.0001381151315000102 0 -0.0020105539517697342 -0.00027590245347450791 0 -0.001472921504357198 0.00028584838284118936 0 -0.001472921504357198 0.00028584838284118936 0 -0.0017058849143967551 0.00024776352878385884 0 -0.001313845967521208 0.00030075366503451597 0 -0.0020105539517697342 -0.00027590245347450791 0 -0.001472921504357198 0.00028584838284118936 0 -0.0017058849143967551 0.00024776352878385884 0 -0.0028687196926361334 -0.00033939301141205452 0 -0.0017058849143967551 0.00024776352878385884 0 -0.0018522475519512928 0.00011837114590121229 0 -0.0017058849143967551 0.00024776352878385884 0 -0.001313845967521208 0.00030075366503451597 0 -0.00033980101717888319 0.00022221023035230678 0 -0.001393353865804883 0.00034821341159040623 0 -0.001313845967521208 0.00030075366503451597 0 -0.0010976009584602925 6.6920190541005598e-05 0 -0.001393353865804883 0.00034821341159040623 0 -0.001472921504357198 0.00028584838284118936 0 -0.001313845967521208 0.00030075366503451597 0 -0.00053937578377293775 5.1367812822055787e-07 0 -0.0018522475519512928 0.00011837114590121229 0 -0.00033980101717888319 0.00022221023035230678 0 -0.0017058849143967551 0.00024776352878385884 0 -0.0018522475519512928 0.00011837114590121229 0 -0.00033980101717888319 0.00022221023035230678 0 -0.00053937578377293775 5.1367812822055787e-07 0 -0.0018522475519512928 0.00011837114590121229 0 -0.0026199371354044417 -4.2407752201103143e-08 0 -0.0018522475519512928 0.00011837114590121229 0 -0.0026199371354044417 -4.2407752201103143e-08 0 -0.0031217174547659246 -8.9103531025909162e-05 0 -0.0028687196926361334 -0.00033939301141205452 0 -0.0018522475519512928 0.00011837114590121229 0 -0.0031217174547659246 -8.9103531025909162e-05 0 -0.0028687196926361334 -0.00033939301141205452 0 -0.0031217174547659246 -8.9103531025909162e-05 0 -0.003736093563555191 -0.00029678081347283885 0 -0.0026199371354044417 -4.2407752201103143e-08 0 -0.0031217174547659246 -8.9103531025909162e-05 0 -0.0047001144510814942 1.0139862352264539e-07 0 -0.0031217174547659246 -8.9103531025909162e-05 0 -0.0047001144510814942 1.0139862352264539e-07 0 -0.003736093563555191 -0.00029678081347283885 0 -0.0047001144510814942 1.0139862352264539e-07 0 -0.0047861526375863796 2.0575427843895371e-05 0 -0.003736093563555191 -0.00029678081347283885 0 -0.0047001144510814942 1.0139862352264539e-07 0 -0.0047861526375863796 2.0575427843895371e-05 0 -0.0067802285215367609 -3.1069793670590357e-07 0 -0.0047861526375863796 2.0575427843895371e-05 0 -0.0050933665004537906 0.00011129266118575508 0 -0.0067802285215367609 -3.1069793670590357e-07 0 -0.0047861526375863796 2.0575427843895371e-05 0 -0.0050933665004537906 0.00011129266118575508 0 -0.0041251107578686311 -0.00016629292163945623 0 -0.0050933665004537906 0.00011129266118575508 0 -0.0041251107578686311 -0.00016629292163945623 0 -0.0046206529607409992 0.00013372259692825774 0 -0.0047861526375863796 2.0575427843895371e-05 0 -0.003736093563555191 -0.00029678081347283885 0 -0.0041251107578686311 -0.00016629292163945623 0 -0.0034053811493106765 -0.00080699122581055966 0 -0.003736093563555191 -0.00029678081347283885 0 -0.0041251107578686311 -0.00016629292163945623 0 -0.0034053811493106765 -0.00080699122581055966 0 -0.0041251107578686311 -0.00016629292163945623 0 -0.0038733485349081104 -0.00070364786126514932 0 -0.0052852600211408867 -0.00021809120560722161 0 -0.0047954453248602348 -0.0012159969278609966 0 -0.0038733485349081104 -0.00070364786126514932 0 -0.0030575172700721891 -0.0017478107785895082 0 -0.0047954453248602348 -0.0012159969278609966 0 -0.0038733485349081104 -0.00070364786126514932 0 -0.0030575172700721891 -0.0017478107785895082 0 -0.0034053811493106765 -0.00080699122581055966 0 -0.0038733485349081104 -0.00070364786126514932 0 -0.0052852600211408867 -0.00021809120560722161 0 -0.0043637577335840696 6.0387455609288452e-05 0 -0.0051233792307468157 0.00058275362929042726 0 -0.0052852600211408867 -0.00021809120560722161 0 -0.0038733485349081104 -0.00070364786126514932 0 -0.0043637577335840696 6.0387455609288452e-05 0 -0.0041251107578686311 -0.00016629292163945623 0 -0.0043637577335840696 6.0387455609288452e-05 0 -0.0046206529607409992 0.00013372259692825774 0 -0.0041251107578686311 -0.00016629292163945623 0 -0.0038733485349081104 -0.00070364786126514932 0 -0.0043637577335840696 6.0387455609288452e-05 0 -0.0046718696718648194 0.00033203863599397753 0 -0.0050974139402666582 0.0010450494113347451 0 -0.0047108742126348432 -0.00033716301407798842 0 -0.0046206529607409992 0.00013372259692825774 0 -0.0046718696718648194 0.00033203863599397753 0 -0.0049492540188363328 9.1807100889290273e-05 0 -0.0046718696718648194 0.00033203863599397753 0 -0.0047108742126348432 -0.00033716301407798842 0 -0.0049492540188363328 9.1807100889290273e-05 0 -0.0043637577335840696 6.0387455609288452e-05 0 -0.0046206529607409992 0.00013372259692825774 0 -0.0046718696718648194 0.00033203863599397753 0 -0.0046718696718648194 0.00033203863599397753 0 -0.0051233792307468157 0.00058275362929042726 0 -0.0050974139402666582 0.0010450494113347451 0 -0.0043637577335840696 6.0387455609288452e-05 0 -0.0046718696718648194 0.00033203863599397753 0 -0.0051233792307468157 0.00058275362929042726 0 -0.014635370786918485 2.9864017201092737e-05 0 -0.011229545840185227 0.00050048375705473663 0 -0.014190141439555022 0.00063778861114667604 0 -0.014183851679172485 0.00070262209332386564 0 -0.014192153769003167 0.00091701058925619278 0 -0.014023133731271059 8.3202418680873642e-05 0 -0.01527065384666983 -0.0014681465745957412 0 -0.012777283041912592 -0.0014889627045685814 0 -0.011229545840185227 0.00050048375705473663 0 -0.00856364715503115 -0.00089371130759723593 0 -0.012777283041912592 -0.0014889627045685814 0 -0.010779662136977715 -0.00018597858315194435 0 -0.0080929250010052332 -0.00020066789060896344 0 -0.0047108742126348432 -0.00033716301407798842 0 -0.0080929250010052332 -0.00020066789060896344 0 -0.0060320147985971091 5.2392161983037954e-05 0 -0.00856364715503115 -0.00089371130759723593 0 -0.0082347501549482911 -0.0003081962318854117 0 -0.012887439919758966 0.00029787782644423802 0 -0.012777283041912592 -0.0014889627045685814 0 -0.010779662136977715 -0.00018597858315194435 0 -0.0088632690704304479 -1.2363319520445912e-06 0 -0.0080929250010052332 -0.00020066789060896344 0 -0.0067802285215367609 -3.1069793670590357e-07 0 -0.0088632690704304479 -1.2363319520445912e-06 0 -0.010779662136977715 -0.00018597858315194435 0 -0.0080929250010052332 -0.00020066789060896344 0 -0.0080929250010052332 -0.00020066789060896344 0 -0.0067802285215367609 -3.1069793670590357e-07 0 -0.0060320147985971091 5.2392161983037954e-05 0 -0.0050933665004537906 0.00011129266118575508 0 -0.0067802285215367609 -3.1069793670590357e-07 0 -0.0060320147985971091 5.2392161983037954e-05 0 -0.0050933665004537906 0.00011129266118575508 0 -0.0049492540188363328 9.1807100889290273e-05 0 -0.0060320147985971091 5.2392161983037954e-05 0 -0.0050933665004537906 0.00011129266118575508 0 -0.0046206529607409992 0.00013372259692825774 0 -0.0049492540188363328 9.1807100889290273e-05 0 -0.0047108742126348432 -0.00033716301407798842 0 -0.0049492540188363328 9.1807100889290273e-05 0 -0.0060320147985971091 5.2392161983037954e-05 0 -0.014129823294386151 -0.0004483974278664105 0 -0.013115208026280899 -2.6976550086353591e-05 0 -0.013444415546864969 -0.0015128053426248487 0 -0.014129823294386151 -0.0004483974278664105 0 -0.013115208026280899 -2.6976550086353591e-05 0 -0.01418430575159943 0.00033094330786478645 0 -0.014129823294386151 -0.0004483974278664105 0 -0.014836855753889305 -0.0010410047307321528 0 -0.013444415546864969 -0.0015128053426248487 0 -0.014836855753889305 -0.0010410047307321528 0 -0.015053536312223025 -7.0418659424607478e-05 0 -0.016040308177572512 -0.00056904866613817755 0 -0.014551045243564771 -0.0011581659420471684 0 -0.015860329749935037 -0.00080396069602757514 0 -0.014382630676724481 -0.0012438374668793494 0 -0.014946974098237042 -0.0014687303686246177 0 -0.015306314696400244 -0.00093467097980018822 0 -0.014129823294386151 -0.0004483974278664105 0 -0.014836855753889305 -0.0010410047307321528 0 -0.015053536312223025 -7.0418659424607478e-05 0 -0.014129823294386151 -0.0004483974278664105 0 -0.015053536312223025 -7.0418659424607478e-05 0 -0.01418430575159943 0.00033094330786478645 0 -0.015053536312223025 -7.0418659424607478e-05 0 -0.014911228256585097 0.00072733494412379742 0 -0.01418430575159943 0.00033094330786478645 0 -0.015053536312223025 -7.0418659424607478e-05 0 -0.014911228256585097 0.00072733494412379742 0 -0.01574583477825137 0.00062781005161425998 0 -0.014911228256585097 0.00072733494412379742 0 -0.01574583477825137 0.00062781005161425998 0 -0.015057668086783962 0.0015485335541844116 0 -0.014911228256585097 0.00072733494412379742 0 -0.014317147329698353 0.0012454122506207381 0 -0.015057668086783962 0.0015485335541844116 0 -0.014911228256585097 0.00072733494412379742 0 -0.014317147329698353 0.0012454122506207381 0 -0.01418430575159943 0.00033094330786478645 0 -0.014317147329698353 0.0012454122506207381 0 -0.01418430575159943 0.00033094330786478645 0 -0.013441571092886866 0.0010202839153296078 0 -0.013115208026280899 -2.6976550086353591e-05 0 -0.01418430575159943 0.00033094330786478645 0 -0.013441571092886866 0.0010202839153296078 0 -0.013441571092886866 0.0010202839153296078 0 -0.012542435155151355 0.00088270798072255779 0 -0.012756551829441505 0.001837072761632845 0 -0.012542435155151355 0.00088270798072255779 0 -0.011872057433463982 0.00024032279864304941 0 -0.011571699187270724 0.0013381870528342298 0 -0.013115208026280899 -2.6976550086353591e-05 0 -0.012542435155151355 0.00088270798072255779 0 -0.011872057433463982 0.00024032279864304941 0 -0.013115208026280899 -2.6976550086353591e-05 0 -0.013441571092886866 0.0010202839153296078 0 -0.012542435155151355 0.00088270798072255779 0 -0.011571699187270724 0.0013381870528342298 0 -0.01071321822911727 0.00036489207665724784 0 -0.010009000174369878 0.0017534197298540216 0 -0.011872057433463982 0.00024032279864304941 0 -0.011571699187270724 0.0013381870528342298 0 -0.01071321822911727 0.00036489207665724784 0 -0.011872057433463982 0.00024032279864304941 0 -0.01071321822911727 0.00036489207665724784 0 -0.010864011106221576 -0.00098662573578023782 0 -0.01071321822911727 0.00036489207665724784 0 -0.010864011106221576 -0.00098662573578023782 0 -0.0093887103008958323 -0.00090642746111350763 0 -0.013115208026280899 -2.6976550086353591e-05 0 -0.012208145816483785 -0.00066690246473973306 0 -0.013444415546864969 -0.0015128053426248487 0 -0.013115208026280899 -2.6976550086353591e-05 0 -0.011872057433463982 0.00024032279864304941 0 -0.012208145816483785 -0.00066690246473973306 0 -0.011872057433463982 0.00024032279864304941 0 -0.010864011106221576 -0.00098662573578023782 0 -0.012208145816483785 -0.00066690246473973306 0 -0.012208145816483785 -0.00066690246473973306 0 -0.011883468981138668 -0.001692645676438221 0 -0.013444415546864969 -0.0015128053426248487 0 -0.011883468981138668 -0.001692645676438221 0 -0.012688627908272942 -0.0024500545401940237 0 -0.013444415546864969 -0.0015128053426248487 0 -0.010864011106221576 -0.00098662573578023782 0 -0.012208145816483785 -0.00066690246473973306 0 -0.011883468981138668 -0.001692645676438221 0 -0.011883468981138668 -0.001692645676438221 0 -0.012688627908272942 -0.0024500545401940237 0 -0.011637261594889599 -0.0026530514356725267 0 -0.010864011106221576 -0.00098662573578023782 0 -0.011883468981138668 -0.001692645676438221 0 -0.010637876488712516 -0.0023572202367740285 0 -0.010864011106221576 -0.00098662573578023782 0 -0.010637876488712516 -0.0023572202367740285 0 -0.0092348491082954922 -0.0020424175782929751 0 -0.011883468981138668 -0.001692645676438221 0 -0.010637876488712516 -0.0023572202367740285 0 -0.011637261594889599 -0.0026530514356725267 0 -0.010637876488712516 -0.0023572202367740285 0 -0.011637261594889599 -0.0026530514356725267 0 -0.010833919273869277 -0.0037008156543467986 0 -0.010637876488712516 -0.0023572202367740285 0 -0.0097311516368716947 -0.0032077275032596493 0 -0.010833919273869277 -0.0037008156543467986 0 -0.012688627908272942 -0.0024500545401940237 0 -0.011637261594889599 -0.0026530514356725267 0 -0.01221794723616753 -0.0034438460628551837 0 -0.011637261594889599 -0.0026530514356725267 0 -0.01221794723616753 -0.0034438460628551837 0 -0.010833919273869277 -0.0037008156543467986 0 -0.012688627908272942 -0.0024500545401940237 0 -0.01221794723616753 -0.0034438460628551837 0 -0.013198448053551444 -0.003174425770159848 0 -0.01221794723616753 -0.0034438460628551837 0 -0.013198448053551444 -0.003174425770159848 0 -0.01285739674397632 -0.0041297805492220407 0 -0.013198448053551444 -0.003174425770159848 0 -0.01402337630879281 -0.0032410629303946397 0 -0.013506608890637985 -0.0037640101467132838 0 -0.013198448053551444 -0.003174425770159848 0 -0.013778637514586401 -0.0022450688041606836 0 -0.01402337630879281 -0.0032410629303946397 0 -0.012688627908272942 -0.0024500545401940237 0 -0.013198448053551444 -0.003174425770159848 0 -0.013778637514586401 -0.0022450688041606836 0 -0.012688627908272942 -0.0024500545401940237 0 -0.013778637514586401 -0.0022450688041606836 0 -0.013444415546864969 -0.0015128053426248487 0 -0.014382630676724481 -0.0012438374668793494 0 -0.013778637514586401 -0.0022450688041606836 0 -0.013444415546864969 -0.0015128053426248487 0 -0.014551045243564771 -0.0011581659420471684 0 -0.013616203293333955 -0.0014732798342005768 0 -0.014382630676724481 -0.0012438374668793494 0 -0.014946974098237042 -0.0014687303686246177 0 -0.014701765880256207 -0.0020609669224419059 0 -0.014382630676724481 -0.0012438374668793494 0 -0.013778637514586401 -0.0022450688041606836 0 -0.014701765880256207 -0.0020609669224419059 0 -0.013778637514586401 -0.0022450688041606836 0 -0.014701765880256207 -0.0020609669224419059 0 -0.01402337630879281 -0.0032410629303946397 0 -0.014701765880256207 -0.0020609669224419059 0 -0.015003232161017909 -0.0029395010285400091 0 -0.01402337630879281 -0.0032410629303946397 0 -0.015003232161017909 -0.0029395010285400091 0 -0.01402337630879281 -0.0032410629303946397 0 -0.01415740197719108 -0.0044501678296915009 0 -0.0066625175151609466 -0.0019268606880657598 0 -0.0070355937632354997 -0.0017630334192468222 0 -0.006840365580997842 -0.002465768295031479 0 -0.0070355937632354997 -0.0017630334192468222 0 -0.0074209473785218144 -0.0018451407784355583 0 -0.0073439179107718322 -0.0022376918430390396 0 -0.0074209473785218144 -0.0018451407784355583 0 -0.0077760214478432479 -0.0019151011813521234 0 -0.0073439179107718322 -0.0022376918430390396 0 -0.0074209473785218144 -0.0018451407784355583 0 -0.0076236147409567629 -0.0015949732765426221 0 -0.0077760214478432479 -0.0019151011813521234 0 -0.0070355937632354997 -0.0017630334192468222 0 -0.0074209473785218144 -0.0018451407784355583 0 -0.0073789450354163318 -0.0015714337983521898 0 -0.0070355937632354997 -0.0017630334192468222 0 -0.0073789450354163318 -0.0015714337983521898 0 -0.007245708296889676 -0.0014716540739645846 0 -0.0074209473785218144 -0.0018451407784355583 0 -0.0073789450354163318 -0.0015714337983521898 0 -0.0076236147409567629 -0.0015949732765426221 0 -0.0073789450354163318 -0.0015714337983521898 0 -0.0076236147409567629 -0.0015949732765426221 0 -0.0075429363295538964 -0.001443030173725041 0 -0.0076236147409567629 -0.0015949732765426221 0 -0.0075429363295538964 -0.001443030173725041 0 -0.007702133037984042 -0.0014035926365060817 0 -0.0075429363295538964 -0.001443030173725041 0 -0.0076434934073227748 -0.0013063320188612172 0 -0.007702133037984042 -0.0014035926365060817 0 -0.0073789450354163318 -0.0015714337983521898 0 -0.0075429363295538964 -0.001443030173725041 0 -0.0074104891653037639 -0.0013655818064248781 0 -0.0075297035675041448 -0.0012794208260867139 0 -0.0074104891653037639 -0.0013655818064248781 0 -0.007461735628653916 -0.0012314750440579583 0 -0.0075429363295538964 -0.001443030173725041 0 -0.0075297035675041448 -0.0012794208260867139 0 -0.0074104891653037639 -0.0013655818064248781 0 -0.0075429363295538964 -0.001443030173725041 0 -0.0075297035675041448 -0.0012794208260867139 0 -0.0076434934073227748 -0.0013063320188612172 0 -0.007245708296889676 -0.0014716540739645846 0 -0.0073164916741590286 -0.0012808443716017632 0 -0.0070873755172686766 -0.0013762849547701616 0 -0.007245708296889676 -0.0014716540739645846 0 -0.0073164916741590286 -0.0012808443716017632 0 -0.0074104891653037639 -0.0013655818064248781 0 -0.0073789450354163318 -0.0015714337983521898 0 -0.007245708296889676 -0.0014716540739645846 0 -0.0074104891653037639 -0.0013655818064248781 0 -0.0073164916741590286 -0.0012808443716017632 0 -0.0074104891653037639 -0.0013655818064248781 0 -0.007461735628653916 -0.0012314750440579583 0 -0.010844986855075432 -0.002411271522304523 0 -0.011135405126667356 -0.0015836433365640987 0 -0.0066625175151609466 -0.0019268606880657598 0 -0.0070355937632354997 -0.0017630334192468222 0 -0.0070873755172686766 -0.0013762849547701616 0 -0.014701765880256207 -0.0020609669224419059 0 -0.015003232161017909 -0.0029395010285400091 0 -0.015446831301498961 -0.0016099830664322141 0 -0.015003232161017909 -0.0029395010285400091 0 -0.015666402159006908 -0.0016512892943298561 0 -0.015446831301498961 -0.0016099830664322141 0 -0.015666402159006908 -0.0016512892943298561 0 -0.015446831301498961 -0.0016099830664322141 0 -0.015600395905005981 -0.0014074312601584369 0 -0.014946974098237042 -0.0014687303686246177 0 -0.014701765880256207 -0.0020609669224419059 0 -0.015446831301498961 -0.0016099830664322141 0 -0.0070355937632354997 -0.0017630334192468222 0 -0.007245708296889676 -0.0014716540739645846 0 -0.0070873755172686766 -0.0013762849547701616 0 -0.0084271679347979796 -0.0018991247780101965 0 -0.0080959669417059524 -0.0018507806432180977 0 -0.0083231882378104697 -0.0017067369809809817 0 -0.0084271679347979796 -0.0018991247780101965 0 -0.0080959669417059524 -0.0018507806432180977 0 -0.0082781962579238939 -0.0021402302849883215 0 -0.0080959669417059524 -0.0018507806432180977 0 -0.0082781962579238939 -0.0021402302849883215 0 -0.0079986220744064848 -0.0021605284748239116 0 -0.0080959669417059524 -0.0018507806432180977 0 -0.0077760214478432479 -0.0019151011813521234 0 -0.0078386375338349457 -0.0016302075185205699 0 -0.0080959669417059524 -0.0018507806432180977 0 -0.0077760214478432479 -0.0019151011813521234 0 -0.0079986220744064848 -0.0021605284748239116 0 -0.0076236147409567629 -0.0015949732765426221 0 -0.0077760214478432479 -0.0019151011813521234 0 -0.0078386375338349457 -0.0016302075185205699 0 -0.0078386375338349457 -0.0016302075185205699 0 -0.0077645843204051188 -0.0015040508173715487 0 -0.007845349036993042 -0.0014838874735611813 0 -0.0076236147409567629 -0.0015949732765426221 0 -0.0078386375338349457 -0.0016302075185205699 0 -0.0077645843204051188 -0.0015040508173715487 0 -0.0076236147409567629 -0.0015949732765426221 0 -0.0077645843204051188 -0.0015040508173715487 0 -0.007702133037984042 -0.0014035926365060817 0 -0.0076434934073227748 -0.0013063320188612172 0 -0.007702133037984042 -0.0014035926365060817 0 -0.0077188533759393919 -0.0012895984758438453 0 -0.007702133037984042 -0.0014035926365060817 0 -0.0077188533759393919 -0.0012895984758438453 0 -0.0077873916973177663 -0.0013285384881025954 0 -0.0077188533759393919 -0.0012895984758438453 0 -0.0077873916973177663 -0.0013285384881025954 0 -0.0077522831238759941 -0.0012253685262424571 0 -0.0076434934073227748 -0.0013063320188612172 0 -0.0077188533759393919 -0.0012895984758438453 0 -0.0076908649922812784 -0.0011996719387147759 0 -0.0078663130923609728 -0.0012887621944534711 0 -0.0077873916973177663 -0.0013285384881025954 0 -0.0077522831238759941 -0.0012253685262424571 0 -0.0078663130923609728 -0.0012887621944534711 0 -0.0077873916973177663 -0.0013285384881025954 0 -0.0078473460384274139 -0.0013452291558341844 0 -0.0077873916973177663 -0.0013285384881025954 0 -0.0078473460384274139 -0.0013452291558341844 0 -0.0078150077596835128 -0.0014082344535115373 0 -0.0078663130923609728 -0.0012887621944534711 0 -0.0078473460384274139 -0.0013452291558341844 0 -0.0078876328108457294 -0.0013833695139468562 0 -0.0078473460384274139 -0.0013452291558341844 0 -0.0078150077596835128 -0.0014082344535115373 0 -0.0078876328108457294 -0.0013833695139468562 0 -0.0078150077596835128 -0.0014082344535115373 0 -0.0078876328108457294 -0.0013833695139468562 0 -0.0078769711699166519 -0.0014333516565803912 0 -0.007702133037984042 -0.0014035926365060817 0 -0.0077873916973177663 -0.0013285384881025954 0 -0.0078150077596835128 -0.0014082344535115373 0 -0.0077645843204051188 -0.0015040508173715487 0 -0.007702133037984042 -0.0014035926365060817 0 -0.0078150077596835128 -0.0014082344535115373 0 -0.0077645843204051188 -0.0015040508173715487 0 -0.0078150077596835128 -0.0014082344535115373 0 -0.007845349036993042 -0.0014838874735611813 0 -0.0078150077596835128 -0.0014082344535115373 0 -0.007845349036993042 -0.0014838874735611813 0 -0.0078769711699166519 -0.0014333516565803912 0 -0.007845349036993042 -0.0014838874735611813 0 -0.0079624896722448758 -0.0014348353616447775 0 -0.0078769711699166519 -0.0014333516565803912 0 -0.0079624896722448758 -0.0014348353616447775 0 -0.0078876328108457294 -0.0013833695139468562 0 -0.0078769711699166519 -0.0014333516565803912 0 -0.0078663130923609728 -0.0012887621944534711 0 -0.0079624896722448758 -0.0014348353616447775 0 -0.0078876328108457294 -0.0013833695139468562 0 -0.0080959669417059524 -0.0018507806432180977 0 -0.0078386375338349457 -0.0016302075185205699 0 -0.0079624896722448758 -0.0014348353616447775 0 -0.0082021582808441389 -0.00098615590616425437 0 -0.012122084465351356 -0.002526843720591203 0 -0.0078386375338349457 -0.0016302075185205699 0 -0.007845349036993042 -0.0014838874735611813 0 -0.0079624896722448758 -0.0014348353616447775 0 -0.0080959669417059524 -0.0018507806432180977 0 -0.0080385231941923398 -0.0016434893660835809 0 -0.0083231882378104697 -0.0017067369809809817 0 -0.0085357177718471608 -0.0014561624969023983 0 -0.0080385231941923398 -0.0016434893660835809 0 -0.0083231882378104697 -0.0017067369809809817 0 -0.01404865485100964 -0.0022613334172132747 0 -0.012122084465351356 -0.002526843720591203 0 -0.017476617111178139 -0.0038554080078333228 0 -0.018868617583326312 -0.0022351439949995621 0 -0.017689822407630732 -0.002557920938115995 0 -0.019810910485622456 -0.0029289154588504835 0 -0.017476617111178139 -0.0038554080078333228 0 -0.018868617583326312 -0.0022351439949995621 0 -0.018868617583326312 -0.0022351439949995621 0 -0.017689822407630732 -0.002557920938115995 0 -0.018007566822324704 -0.0014266570483754356 0 -0.012122084465351356 -0.002526843720591203 0 -0.014115980778811653 -0.0010703106839375423 0 -0.0078663130923609728 -0.0012887621944534711 0 -0.0076889229434402408 -0.0010281139302899299 0 -0.0077273729017787044 -0.00075319203570162619 0 -0.0078663130923609728 -0.0012887621944534711 0 -0.0079624896722448758 -0.0014348353616447775 0 -0.0077273729017787044 -0.00075319203570162619 0 -0.017476617111178139 -0.0038554080078333228 0 -0.017689822407630732 -0.002557920938115995 0 -0.016626027195685053 -0.0019141608724240612 0 -0.0078663130923609728 -0.0012887621944534711 0 -0.0077522831238759941 -0.0012253685262424571 0 -0.0076889229434402408 -0.0010281139302899299 0 -0.0077522831238759941 -0.0012253685262424571 0 -0.0076908649922812784 -0.0011996719387147759 0 -0.0076889229434402408 -0.0010281139302899299 0 -0.0077188533759393919 -0.0012895984758438453 0 -0.0077522831238759941 -0.0012253685262424571 0 -0.0076908649922812784 -0.0011996719387147759 0 -0.014115980778811653 -0.0010703106839375423 0 -0.018575614019286608 -0.0012595901124594034 0 -0.017221931057975048 -0.0018243422458675555 0 -0.018354139473429079 -0.0014037531436921504 0 -0.017537626408988434 -0.0008328706510409039 0 -0.017689822407630732 -0.002557920938115995 0 -0.016626027195685053 -0.0019141608724240612 0 -0.018007566822324704 -0.0014266570483754356 0 -0.015640063849416627 -0.0010622579539814059 0 -0.017105956048991545 -0.00067753979388466602 0 -0.017221931057975048 -0.0018243422458675555 0 -0.017079356096741986 -0.0014966449802716463 0 -0.017537626408988434 -0.0008328706510409039 0 -0.018354139473429079 -0.0014037531436921504 0 -0.018578062539871008 -0.0004236204871466855 0 -0.017537626408988434 -0.0008328706510409039 0 -0.019131796977698522 -0.0010941154246395695 0 -0.018575614019286608 -0.0012595901124594034 0 -0.01941780005702733 -0.0010057937033144538 0 -0.018868617583326312 -0.0022351439949995621 0 -0.018007566822324704 -0.0014266570483754356 0 -0.01941780005702733 -0.0010057937033144538 0 -0.018354139473429079 -0.0014037531436921504 0 -0.018578062539871008 -0.0004236204871466855 0 -0.015860329749935037 -0.00080396069602757514 0 -0.013863463539904206 -0.0013918287064550951 0 -0.015421418049295237 -0.0012819512095421062 0 -0.015600395905005981 -0.0014074312601584369 0 -0.015948482233617764 -0.0010569177086539271 0 -0.015860329749935037 -0.00080396069602757514 0 -0.015708423902448206 9.6904532028129972e-05 0 -0.015053536312223025 -7.0418659424607478e-05 0 -0.016040308177572512 -0.00056904866613817755 0 -0.01574583477825137 0.00062781005161425998 0 -0.014946974098237042 -0.0014687303686246177 0 -0.015446831301498961 -0.0016099830664322141 0 -0.015306314696400244 -0.00093467097980018822 0 -0.015620500333051793 -0.0014793990376272017 0 -0.015860329749935037 -0.00080396069602757514 0 -0.015446831301498961 -0.0016099830664322141 0 -0.015421418049295237 -0.0012819512095421062 0 -0.015600395905005981 -0.0014074312601584369 0 -0.0073164916741590286 -0.0012808443716017632 0 -0.0070873755172686766 -0.0013762849547701616 0 -0.0074599326166196181 -0.0010801999459472582 0 -0.015666402159006908 -0.0016512892943298561 0 -0.015600395905005981 -0.0014074312601584369 0 -0.015948482233617764 -0.0010569177086539271 0 -0.0070873755172686766 -0.0013762849547701616 0 -0.0074599326166196181 -0.0010801999459472582 0 -0.0075163453647708245 -0.00082506911422498439 0 -0.011135405126667356 -0.0015836433365640987 0 -0.013863463539904206 -0.0013918287064550951 0 -0.0073164916741590286 -0.0012808443716017632 0 -0.007461735628653916 -0.0012314750440579583 0 -0.0074599326166196181 -0.0010801999459472582 0 -0.0075297035675041448 -0.0012794208260867139 0 -0.0076434934073227748 -0.0013063320188612172 0 -0.0075918675144591658 -0.0011511733800669088 0 -0.0076434934073227748 -0.0013063320188612172 0 -0.0076908649922812784 -0.0011996719387147759 0 -0.0075918675144591658 -0.0011511733800669088 0 -0.0075297035675041448 -0.0012794208260867139 0 -0.0075918675144591658 -0.0011511733800669088 0 -0.007461735628653916 -0.0012314750440579583 0 -0.0075918675144591658 -0.0011511733800669088 0 -0.007461735628653916 -0.0012314750440579583 0 -0.0074599326166196181 -0.0010801999459472582 0 -0.0076889229434402408 -0.0010281139302899299 0 -0.0075918675144591658 -0.0011511733800669088 0 -0.0074599326166196181 -0.0010801999459472582 0 -0.0076908649922812784 -0.0011996719387147759 0 -0.0076889229434402408 -0.0010281139302899299 0 -0.0075918675144591658 -0.0011511733800669088 0 -0.0074599326166196181 -0.0010801999459472582 0 -0.0075981035625167399 -0.00092168758978747756 0 -0.0075163453647708245 -0.00082506911422498439 0 -0.0076889229434402408 -0.0010281139302899299 0 -0.0077273729017787044 -0.00075319203570162619 0 -0.0075981035625167399 -0.00092168758978747756 0 -0.0076889229434402408 -0.0010281139302899299 0 -0.0074599326166196181 -0.0010801999459472582 0 -0.0075981035625167399 -0.00092168758978747756 0 -0.0077273729017787044 -0.00075319203570162619 0 -0.0075981035625167399 -0.00092168758978747756 0 -0.0075163453647708245 -0.00082506911422498439 0 -0.016029398976576365 -0.0007061968163247673 0 -0.016105250116987057 -0.00059624800518310575 0 -0.015889294305586475 -0.00053638218388205429 0 -0.014115980778811653 -0.0010703106839375423 0 -0.013863463539904206 -0.0013918287064550951 0 -0.013863463539904206 -0.0013918287064550951 0 -0.015640063849416627 -0.0010622579539814059 0 -0.01493849836787243 -0.001295747024274376 0 -0.014417737848476808 -0.0014918090823313138 0 -0.014784199741419103 -0.0009425036287068673 0 -0.014115980778811653 -0.0010703106839375423 0 -0.015640063849416627 -0.0010622579539814059 0 -0.015738124332254032 -0.00081422067025700077 0 -0.016029398976576365 -0.0007061968163247673 0 -0.015889294305586475 -0.00053638218388205429 0 -0.015738124332254032 -0.00081422067025700077 0 -0.015889294305586475 -0.00053638218388205429 0 -0.015688404482511464 -0.00058517009144982643 0 -0.015889294305586475 -0.00053638218388205429 0 -0.015688404482511464 -0.00058517009144982643 0 -0.015639645958665956 -0.0003560417103945781 0 -0.015708423902448206 9.6904532028129972e-05 0 -0.015881507598546712 0.00031545926175276549 0 -0.01739822545613768 6.3690087233983134e-05 0 -0.015881507598546712 0.00031545926175276549 0 -0.018835318046251329 -0.00013430737246521553 0 -0.017402986159247631 0.00032901051220430265 0 -0.016574298155878259 -0.0011797110568244522 0 -0.015889294305586475 -0.00053638218388205429 0 -0.015955350044088622 -0.00021472635585682959 0 -0.015639645958665956 -0.0003560417103945781 0 -0.015640063849416627 -0.0010622579539814059 0 -0.01739822545613768 6.3690087233983134e-05 0 -0.017097010360794005 -0.0014901499648008682 0 -0.016346927387136941 0.00022688400355954367 0 -0.017537626408988434 -0.0008328706510409039 0 -0.016346927387136941 0.00022688400355954367 0 -0.017537626408988434 -0.0008328706510409039 0 -0.017704104322903327 6.4747200359447358e-05 0 -0.016105250116987057 -0.00059624800518310575 0 -0.015889294305586475 -0.00053638218388205429 0 -0.015955350044088622 -0.00021472635585682959 0 -0.0187283789853477 0.000236562073745407 0 -0.020583750798773531 0.0011134530899971212 0 -0.019505322335979486 0.0022182456454405675 0 -0.01739822545613768 6.3690087233983134e-05 0 -0.018222161701358278 0.00095960033175951809 0 -0.0187283789853477 0.000236562073745407 0 -0.018200737661132501 0.0013462370420751399 0 -0.019505322335979486 0.0022182456454405675 0 -0.01739822545613768 6.3690087233983134e-05 0 -0.019274534022992781 0.001068442460715552 0 -0.018200737661132501 0.0013462370420751399 0 -0.017402986159247631 0.00032901051220430265 0 -0.01598159478830526 0.0012947450822393518 0 -0.018835318046251329 -0.00013430737246521553 0 -0.018200737661132501 0.0013462370420751399 0 -0.017402986159247631 0.00032901051220430265 0 -0.018578062539871008 -0.0004236204871466855 0 -0.017704104322903327 6.4747200359447358e-05 0 -0.018862889914300414 0.00066607565354930129 0 -0.019584353578709527 3.1217855942181197e-05 0 -0.018578062539871008 -0.0004236204871466855 0 -0.018862889914300414 0.00066607565354930129 0 -0.01941780005702733 -0.0010057937033144538 0 -0.019584353578709527 3.1217855942181197e-05 0 -0.018578062539871008 -0.0004236204871466855 0 -0.018578062539871008 -0.0004236204871466855 0 -0.017537626408988434 -0.0008328706510409039 0 -0.017704104322903327 6.4747200359447358e-05 0 -0.016346927387136941 0.00022688400355954367 0 -0.017704104322903327 6.4747200359447358e-05 0 -0.017920836836236929 0.00097173395239701977 0 -0.017704104322903327 6.4747200359447358e-05 0 -0.017920836836236929 0.00097173395239701977 0 -0.018862889914300414 0.00066607565354930129 0 -0.019584353578709527 3.1217855942181197e-05 0 -0.019598488385366399 0.0017242574175168745 0 -0.018862889914300414 0.00066607565354930129 0 -0.020644564830587048 0.0017158924483473301 0 -0.019274534022992781 0.001068442460715552 0 -0.019598488385366399 0.0017242574175168745 0 -0.017920836836236929 0.00097173395239701977 0 -0.018862889914300414 0.00066607565354930129 0 -0.021715324824057976 0.001756631428950001 0 -0.020583750798773531 0.0011134530899971212 0 -0.020895041350818686 0.0024406942341458249 0 -0.020583750798773531 0.0011134530899971212 0 -0.020895041350818686 0.0024406942341458249 0 -0.019505322335979486 0.0022182456454405675 0 -0.020069047786682125 0.0032238203463772564 0 -0.020770887756456951 0.0025720025815030431 0 -0.019421862241850094 0.0041266651637450139 0 -0.020895041350818686 0.0024406942341458249 0 -0.019505322335979486 0.0022182456454405675 0 -0.020536015858055843 0.0025192981780231389 0 -0.021096293453124013 0.002649029842657588 0 -0.020895041350818686 0.0024406942341458249 0 -0.021715324824057976 0.001756631428950001 0 -0.021718337961498677 0.0023640023025526167 0 -0.020895041350818686 0.0024406942341458249 0 -0.021718337961498677 0.0023640023025526167 0 -0.021096293453124013 0.002649029842657588 0 -0.020895041350818686 0.0024406942341458249 0 -0.017825261344249187 0.0029081704079921291 0 -0.01670791511200866 0.0042205410157647181 0 -0.01598159478830526 0.0012947450822393518 0 -0.018200737661132501 0.0013462370420751399 0 -0.017825261344249187 0.0029081704079921291 0 -0.01598159478830526 0.0012947450822393518 0 -0.018200737661132501 0.0013462370420751399 0 -0.017825261344249187 0.0029081704079921291 0 -0.019505322335979486 0.0022182456454405675 0 -0.017825261344249187 0.0029081704079921291 0 -0.019505322335979486 0.0022182456454405675 0 -0.018660564559853491 0.0033198822165983106 0 -0.019421862241850094 0.0041266651637450139 0 -0.019505322335979486 0.0022182456454405675 0 -0.018660564559853491 0.0033198822165983106 0 -0.019421862241850094 0.0041266651637450139 0 -0.018660564559853491 0.0033198822165983106 0 -0.018036394037772061 0.0039500486440003472 0 -0.017825261344249187 0.0029081704079921291 0 -0.017487556331830661 0.0049990737513419658 0 -0.01670791511200866 0.0042205410157647181 0 -0.017782727450360698 0.0029938261789213337 0 -0.017768769090067183 0.0045844885649779831 0 -0.017825261344249187 0.0029081704079921291 0 -0.018660564559853491 0.0033198822165983106 0 -0.018036394037772061 0.0039500486440003472 0 -0.016272186769239236 0.0053681592446127597 0 -0.017487556331830661 0.0049990737513419658 0 -0.01670791511200866 0.0042205410157647181 0 -0.016272186769239236 0.0053681592446127597 0 -0.01670791511200866 0.0042205410157647181 0 -0.015401591368907478 0.0042742584504237499 0 -0.01531806000429368 0.0056504144164448529 0 -0.016272186769239236 0.0053681592446127597 0 -0.015401591368907478 0.0042742584504237499 0 -0.01531806000429368 0.0056504144164448529 0 -0.015401591368907478 0.0042742584504237499 0 -0.014219027766678874 0.0048007585948665246 0 -0.014219027766678874 0.0048007585948665246 0 -0.014567076209583918 0.0036864052194388788 0 -0.013479234080450065 0.0035703664983117766 0 -0.015401591368907478 0.0042742584504237499 0 -0.014219027766678874 0.0048007585948665246 0 -0.014567076209583918 0.0036864052194388788 0 -0.014567076209583918 0.0036864052194388788 0 -0.014322436498933888 0.0030274408257535482 0 -0.013479234080450065 0.0035703664983117766 0 -0.01670791511200866 0.0042205410157647181 0 -0.015401591368907478 0.0042742584504237499 0 -0.01598159478830526 0.0012947450822393518 0 -0.015401591368907478 0.0042742584504237499 0 -0.014567076209583918 0.0036864052194388788 0 -0.015221038065745034 0.0031862583026626592 0 -0.015364942254393787 0.0041391853972451613 0 -0.015634073967165471 0.0022766454066855276 0 -0.017402986159247631 0.00032901051220430265 0 -0.01598159478830526 0.0012947450822393518 0 -0.016574298155878259 -0.0011797110568244522 0 -0.015634073967165471 0.0022766454066855276 0 -0.015881507598546712 0.00031545926175276549 0 -0.015221038065745034 0.0031862583026626592 0 -0.014322436498933888 0.0030274408257535482 0 -0.014582675867398819 0.0021489140598998776 0 -0.014567076209583918 0.0036864052194388788 0 -0.015221038065745034 0.0031862583026626592 0 -0.014322436498933888 0.0030274408257535482 0 -0.014322436498933888 0.0030274408257535482 0 -0.013598212251790412 0.0024920141572134218 0 -0.013479234080450065 0.0035703664983117766 0 -0.014322436498933888 0.0030274408257535482 0 -0.013598212251790412 0.0024920141572134218 0 -0.014582675867398819 0.0021489140598998776 0 -0.013598212251790412 0.0024920141572134218 0 -0.013743315660291144 0.001755889527920246 0 -0.014582675867398819 0.0021489140598998776 0 -0.013598212251790412 0.0024920141572134218 0 -0.013743315660291144 0.001755889527920246 0 -0.012756551829441505 0.001837072761632845 0 -0.013441571092886866 0.0010202839153296078 0 -0.013743315660291144 0.001755889527920246 0 -0.012756551829441505 0.001837072761632845 0 -0.014317147329698353 0.0012454122506207381 0 -0.013441571092886866 0.0010202839153296078 0 -0.013743315660291144 0.001755889527920246 0 -0.014317147329698353 0.0012454122506207381 0 -0.013743315660291144 0.001755889527920246 0 -0.014582675867398819 0.0021489140598998776 0 -0.015221038065745034 0.0031862583026626592 0 -0.015452548525615574 0.0017283932847147884 0 -0.014582675867398819 0.0021489140598998776 0 -0.014317147329698353 0.0012454122506207381 0 -0.015057668086783962 0.0015485335541844116 0 -0.014582675867398819 0.0021489140598998776 0 -0.015057668086783962 0.0015485335541844116 0 -0.015452548525615574 0.0017283932847147884 0 -0.014582675867398819 0.0021489140598998776 0 -0.01574583477825137 0.00062781005161425998 0 -0.015057668086783962 0.0015485335541844116 0 -0.015485807917699646 0.0017425479505044999 0 -0.015632338619092637 0.0007080709923751174 0 -0.015881507598546712 0.00031545926175276549 0 -0.011571699187270724 0.0013381870528342298 0 -0.011634699986075603 0.0026744529243409197 0 -0.010009000174369878 0.0017534197298540216 0 -0.011571699187270724 0.0013381870528342298 0 -0.012756551829441505 0.001837072761632845 0 -0.011634699986075603 0.0026744529243409197 0 -0.012542435155151355 0.00088270798072255779 0 -0.011571699187270724 0.0013381870528342298 0 -0.012756551829441505 0.001837072761632845 0 -0.013598212251790412 0.0024920141572134218 0 -0.012756551829441505 0.001837072761632845 0 -0.012750544964611246 0.0027900587837463215 0 -0.012756551829441505 0.001837072761632845 0 -0.012750544964611246 0.0027900587837463215 0 -0.011634699986075603 0.0026744529243409197 0 -0.013598212251790412 0.0024920141572134218 0 -0.012750544964611246 0.0027900587837463215 0 -0.013479234080450065 0.0035703664983117766 0 -0.012750544964611246 0.0027900587837463215 0 -0.011986043310612255 0.0036209887672277999 0 -0.013479234080450065 0.0035703664983117766 0 -0.012750544964611246 0.0027900587837463215 0 -0.011634699986075603 0.0026744529243409197 0 -0.011986043310612255 0.0036209887672277999 0 -0.011634699986075603 0.0026744529243409197 0 -0.011986043310612255 0.0036209887672277999 0 -0.010604082720220355 0.0032144679360406928 0 -0.011986043310612255 0.0036209887672277999 0 -0.011135548903638789 0.0045027863511174233 0 -0.010604082720220355 0.0032144679360406928 0 -0.011986043310612255 0.0036209887672277999 0 -0.012426218186857602 0.004776503633459655 0 -0.011135548903638789 0.0045027863511174233 0 -0.011986043310612255 0.0036209887672277999 0 -0.013479234080450065 0.0035703664983117766 0 -0.012426218186857602 0.004776503633459655 0 -0.014219027766678874 0.0048007585948665246 0 -0.013479234080450065 0.0035703664983117766 0 -0.012426218186857602 0.004776503633459655 0 -0.012602041117572599 0.0057776968188260787 0 -0.014219027766678874 0.0048007585948665246 0 -0.012426218186857602 0.004776503633459655 0 -0.011506435926324164 0.0058496942150622379 0 -0.012426218186857602 0.004776503633459655 0 -0.011135548903638789 0.0045027863511174233 0 -0.011506435926324164 0.0058496942150622379 0 -0.012602041117572599 0.0057776968188260787 0 -0.012426218186857602 0.004776503633459655 0 -0.011506435926324164 0.0058496942150622379 0 -0.010305020517659236 0.0052838051991199149 0 -0.011135548903638789 0.0045027863511174233 0 -0.010305020517659236 0.0052838051991199149 0 -0.011135548903638789 0.0045027863511174233 0 -0.0099853122771505695 0.004073165705220573 0 -0.011135548903638789 0.0045027863511174233 0 -0.0099853122771505695 0.004073165705220573 0 -0.010604082720220355 0.0032144679360406928 0 -0.0099853122771505695 0.004073165705220573 0 -0.009036563626107344 0.004692987808392295 0 -0.0088803936602892906 0.0037224851278331887 0 -0.0091048603081030632 0.0056925031921155446 0 -0.010305020517659236 0.0052838051991199149 0 -0.009036563626107344 0.004692987808392295 0 -0.010305020517659236 0.0052838051991199149 0 -0.0099853122771505695 0.004073165705220573 0 -0.009036563626107344 0.004692987808392295 0 -0.016010942756780621 0.004586562733268869 0 -0.015929695862546826 0.0045226264991031573 0 -0.015920222921685219 0.0045581803815671782 0 -0.0091048603081030632 0.0056925031921155446 0 -0.009036563626107344 0.004692987808392295 0 -0.0080053435948524779 0.0048087212491655911 0 -0.012737483525471528 0.0052364791750010012 0 -0.010667185135649314 0.004572056375525475 0 -0.016359762231563758 0.002311851208175896 0 -0.010567813389057479 0.0017523518632438623 0 -0.013017336179451696 0.0027960044770376016 0 -0.012731953448841451 0.0031595498720517375 0 -0.012578663583542678 0.0024572787273113685 0 -0.014432433165230641 -0.00049394641010106378 0 -0.014404228988593488 -0.00051928919303501802 0 -0.014418445723120515 -0.0005021269502005351 0 -0.010667185135649314 0.004572056375525475 0 -0.016359762231563758 0.002311851208175896 0 -0.010667185135649314 0.004572056375525475 0 -0.010567813389057479 0.0017523518632438623 0 -0.0061040817106232017 0.0061082001118020297 0 -0.0052198596414379629 0.005444919672288908 0 -0.006200590919250802 0.0050777179839619326 0 -0.0052198596414379629 0.005444919672288908 0 -0.006200590919250802 0.0050777179839619326 0 -0.0060138846866914612 0.0041026420629386015 0 -0.009036563626107344 0.004692987808392295 0 -0.0080053435948524779 0.0048087212491655911 0 -0.0088803936602892906 0.0037224851278331887 0 -0.0061040817106232017 0.0061082001118020297 0 -0.006200590919250802 0.0050777179839619326 0 -0.007208905120996487 0.0047800191262801486 0 -0.010667185135649314 0.004572056375525475 0 -0.0075826034701818356 0.004631274750356555 0 -0.006200590919250802 0.0050777179839619326 0 -0.007208905120996487 0.0047800191262801486 0 -0.0060138846866914612 0.0041026420629386015 0 -0.007208905120996487 0.0047800191262801486 0 -0.0069825827296350262 0.0034252683669172813 0 -0.0060138846866914612 0.0041026420629386015 0 -0.0069825827296350262 0.0034252683669172813 0 -0.0060138846866914612 0.0041026420629386015 0 -0.005919585000650914 0.0028258778996848662 0 -0.0098752755965286418 0.00019697040165207402 0 -0.010092340014294029 0.0013539332493613713 0 -0.010247706324064401 0.00087648500254183142 0 -0.0052198596414379629 0.005444919672288908 0 -0.0060138846866914612 0.0041026420629386015 0 -0.0046719508432870108 0.0028966122179050987 0 -0.010567813389057479 0.0017523518632438623 0 -0.0069214056548072026 0.0022477167467012536 0 -0.0060138846866914612 0.0041026420629386015 0 -0.0046719508432870108 0.0028966122179050987 0 -0.005919585000650914 0.0028258778996848662 0 -0.0046719508432870108 0.0028966122179050987 0 -0.005919585000650914 0.0028258778996848662 0 -0.0053419813756037269 0.0015883995242547432 0 -0.0069825827296350262 0.0034252683669172813 0 -0.006627079865017412 0.0020333334613316981 0 -0.0078733169979425133 0.0022383404295141939 0 -0.0069825827296350262 0.0034252683669172813 0 -0.005919585000650914 0.0028258778996848662 0 -0.006627079865017412 0.0020333334613316981 0 -0.005919585000650914 0.0028258778996848662 0 -0.006627079865017412 0.0020333334613316981 0 -0.0053419813756037269 0.0015883995242547432 0 -0.0078733169979425133 0.0022383404295141939 0 -0.010009000174369878 0.0017534197298540216 0 -0.0084578843829204876 0.003447723758995012 0 -0.0078733169979425133 0.0022383404295141939 0 -0.010009000174369878 0.0017534197298540216 0 -0.0078673603398949632 0.00097460807924515315 0 -0.006627079865017412 0.0020333334613316981 0 -0.0078733169979425133 0.0022383404295141939 0 -0.0078673603398949632 0.00097460807924515315 0 -0.0069825827296350262 0.0034252683669172813 0 -0.0078733169979425133 0.0022383404295141939 0 -0.0084578843829204876 0.003447723758995012 0 -0.0099304909619596683 0.0018918989027504279 0 -0.0091594808239030875 0.0029269078359050391 0 -0.011634699986075603 0.0026744529243409197 0 -0.010009000174369878 0.0017534197298540216 0 -0.010604082720220355 0.0032144679360406928 0 -0.010009000174369878 0.0017534197298540216 0 -0.010604082720220355 0.0032144679360406928 0 -0.0096666921387288472 0.0026837720978398908 0 -0.0099853122771505695 0.004073165705220573 0 -0.010604082720220355 0.0032144679360406928 0 -0.0096666921387288472 0.0026837720978398908 0 -0.0099853122771505695 0.004073165705220573 0 -0.0088803936602892906 0.0037224851278331887 0 -0.0096666921387288472 0.0026837720978398908 0 -0.007208905120996487 0.0047800191262801486 0 -0.0069825827296350262 0.0034252683669172813 0 -0.0084578843829204876 0.003447723758995012 0 -0.0075826034701818356 0.004631274750356555 0 -0.0091594808239030875 0.0029269078359050391 0 -0.012793612569717228 0.00026079671002076987 0 -0.012723462591926782 0.00091457725661799689 0 -0.012328022411077061 0.00056358700636128872 0 -0.012793612569717228 0.00026079671002076987 0 -0.012328022411077061 0.00056358700636128872 0 -0.012254766652498601 0.00015397142721052499 0 -0.012793612569717228 0.00026079671002076987 0 -0.012254766652498601 0.00015397142721052499 0 -0.012611851002132031 -0.00018756019944179598 0 -0.012254766652498601 0.00015397142721052499 0 -0.012611851002132031 -0.00018756019944179598 0 -0.012276124639168098 -0.00029466423617517586 0 -0.013243810550367689 -0.00040540542203974502 0 -0.013034885753959335 -0.00027258232633803483 0 -0.012254766652498601 0.00015397142721052499 0 -0.012276124639168098 -0.00029466423617517586 0 -0.011468352598987888 0.00013869427802849871 0 -0.014286526503386883 -0.0005782706876637174 0 -0.014353472293122907 -0.00053787317078200856 0 -0.014363996038202171 -0.0005456761566327874 0 -0.012254766652498601 0.00015397142721052499 0 -0.011803315560671854 0.00057766671607867336 0 -0.011468352598987888 0.00013869427802849871 0 -0.012328022411077061 0.00056358700636128872 0 -0.012254766652498601 0.00015397142721052499 0 -0.011803315560671854 0.00057766671607867336 0 -0.011304327133070445 0.00061888050539748714 0 -0.011468352598987888 0.00013869427802849871 0 -0.010749148834244803 0.00066604727008747291 0 -0.013034885753959335 -0.00027258232633803483 0 -0.011937266984547961 0.00034859271095580079 0 -0.014363996038202171 -0.0005456761566327874 0 -0.014390040078890019 -0.00052717466681144996 0 -0.014375229172088817 -0.00053603777668701034 0 -0.011803315560671854 0.00057766671607867336 0 -0.011304327133070445 0.00061888050539748714 0 -0.011468352598987888 0.00013869427802849871 0 -0.014363996038202171 -0.0005456761566327874 0 -0.014391837578795402 -0.00051881983429646927 0 -0.014390040078890019 -0.00052717466681144996 0 -0.014353472293122907 -0.00053787317078200856 0 -0.014363996038202171 -0.0005456761566327874 0 -0.014391837578795402 -0.00051881983429646927 0 -0.014404228988593488 -0.00051928919303501802 0 -0.014390040078890019 -0.00052717466681144996 0 -0.014418445723120515 -0.0005021269502005351 0 -0.014391837578795402 -0.00051881983429646927 0 -0.014390040078890019 -0.00052717466681144996 0 -0.014418445723120515 -0.0005021269502005351 0 -0.010567813389057479 0.0017523518632438623 0 -0.011937266984547961 0.00034859271095580079 0 -0.0098752755965286418 0.00019697040165207402 0 -0.010247706324064401 0.00087648500254183142 0 -0.010505455910193513 0.00067532756551065781 0 -0.014404228988593488 -0.00051928919303501802 0 -0.014390040078890019 -0.00052717466681144996 0 -0.014375229172088817 -0.00053603777668701034 0 -0.010493696091860984 0.00063479478906377335 0 -0.010477946169296877 0.0011127869017892044 0 -0.011227291404970318 0.0010948218519914348 0 -0.010247706324064401 0.00087648500254183142 0 -0.010493696091860984 0.00063479478906377335 0 -0.010477946169296877 0.0011127869017892044 0 -0.010600326413150792 0.0010334731947855792 0 -0.011937266984547961 0.00034859271095580079 0 -0.010092340014294029 0.0013539332493613713 0 -0.010247706324064401 0.00087648500254183142 0 -0.010477946169296877 0.0011127869017892044 0 -0.010092340014294029 0.0013539332493613713 0 -0.010477946169296877 0.0011127869017892044 0 -0.010433038077167056 0.0015772714201285982 0 -0.010477946169296877 0.0011127869017892044 0 -0.010433038077167056 0.0015772714201285982 0 -0.011227291404970318 0.0010948218519914348 0 -0.010092340014294029 0.0013539332493613713 0 -0.010433038077167056 0.0015772714201285982 0 -0.010311515787392563 0.0021164043545678674 0 -0.010433038077167056 0.0015772714201285982 0 -0.011227291404970318 0.0010948218519914348 0 -0.011377453961175524 0.0017741968928290815 0 -0.010433038077167056 0.0015772714201285982 0 -0.011377453961175524 0.0017741968928290815 0 -0.010438895062664521 0.0019975054876097431 0 -0.011937266984547961 0.00034859271095580079 0 -0.010871526287577066 0.00094793367405229551 0 -0.011304327133070445 0.00061888050539748714 0 -0.010749148834244803 0.00066604727008747291 0 -0.011227291404970318 0.0010948218519914348 0 -0.011803315560671854 0.00057766671607867336 0 -0.011304327133070445 0.00061888050539748714 0 -0.011227291404970318 0.0010948218519914348 0 -0.011803315560671854 0.00057766671607867336 0 -0.011227291404970318 0.0010948218519914348 0 -0.011940533410139578 0.0010449117461920352 0 -0.012328022411077061 0.00056358700636128872 0 -0.011803315560671854 0.00057766671607867336 0 -0.011940533410139578 0.0010449117461920352 0 -0.011940533410139578 0.0010449117461920352 0 -0.012449597348060858 0.0014298449762308214 0 -0.011377453961175524 0.0017741968928290815 0 -0.011227291404970318 0.0010948218519914348 0 -0.011940533410139578 0.0010449117461920352 0 -0.011377453961175524 0.0017741968928290815 0 -0.012723462591926782 0.00091457725661799689 0 -0.012328022411077061 0.00056358700636128872 0 -0.011940533410139578 0.0010449117461920352 0 -0.012723462591926782 0.00091457725661799689 0 -0.011940533410139578 0.0010449117461920352 0 -0.012449597348060858 0.0014298449762308214 0 -0.012930662929766903 0.001922425137167183 0 -0.012181932310816124 0.00204082788875363 0 -0.012534421994489382 0.0028331300462900518 0 -0.012181932310816124 0.00204082788875363 0 -0.011622123133824351 0.0024890186066078039 0 -0.012534421994489382 0.0028331300462900518 0 -0.010513462440840109 0.0022489660077908372 0 -0.010386880821655221 0.002192592300737011 0 -0.012930662929766903 0.001922425137167183 0 -0.012449597348060858 0.0014298449762308214 0 -0.012181932310816124 0.00204082788875363 0 -0.012449597348060858 0.0014298449762308214 0 -0.012181932310816124 0.00204082788875363 0 -0.011377453961175524 0.0017741968928290815 0 -0.012181932310816124 0.00204082788875363 0 -0.011622123133824351 0.0024890186066078039 0 -0.011377453961175524 0.0017741968928290815 0 -0.0093924350672808712 0.0020607592066645242 0 -0.0094323480723272207 0.0013495347585591433 0 -0.0084305479255462629 0.0016388744628618047 0 -0.0093924350672808712 0.0020607592066645242 0 -0.0099766153208372694 0.0017128476348972355 0 -0.010085144035949036 0.001968425695133477 0 -0.0093924350672808712 0.0020607592066645242 0 -0.0099766153208372694 0.0017128476348972355 0 -0.0094323480723272207 0.0013495347585591433 0 -0.0093924350672808712 0.0020607592066645242 0 -0.010085144035949036 0.001968425695133477 0 -0.010438895062664521 0.0019975054876097431 0 -0.010513462440840109 0.0022489660077908372 0 -0.010388895753734553 0.0020172648720519206 0 -0.011622123133824351 0.0024890186066078039 0 -0.011377453961175524 0.0017741968928290815 0 -0.010438895062664521 0.0019975054876097431 0 -0.0069214056548072026 0.0022477167467012536 0 -0.0076103558502193212 0.0015178317376264587 0 -0.010433038077167056 0.0015772714201285982 0 -0.010438895062664521 0.0019975054876097431 0 -0.010311515787392563 0.0021164043545678674 0 -0.010085144035949036 0.001968425695133477 0 -0.010438895062664521 0.0019975054876097431 0 -0.010311515787392563 0.0021164043545678674 0 -0.0099766153208372694 0.0017128476348972355 0 -0.010311515787392563 0.0021164043545678674 0 -0.010180312859157993 0.0011818229402842044 0 -0.0042480509737628878 0.00042380325147000128 0 -0.003915133588388452 -0.0016998719193201659 0 -0.004859566867281782 -0.00080445361684434969 0 -0.0076103558502193212 0.0015178317376264587 0 -0.005273951249692552 -0.0014473184064255557 0 -0.0099766153208372694 0.0017128476348972355 0 -0.010085144035949036 0.001968425695133477 0 -0.010311515787392563 0.0021164043545678674 0 -0.0030206078182209366 -0.0021891653450044073 0 -0.0042851431612170778 -0.0010233916050252571 0 -0.0044225007884216641 -0.0023004921309889193 0 -0.005273951249692552 -0.0014473184064255557 0 -0.0043713721614276717 -0.0011103302143415288 0 -0.0030206078182209366 -0.0021891653450044073 0 -0.0037779815993642463 -0.0032197107564126987 0 -0.0028523343015715011 -0.0038984021434453789 0 -0.0030206078182209366 -0.0021891653450044073 0 -0.0037779815993642463 -0.0032197107564126987 0 -0.0044225007884216641 -0.0023004921309889193 0 -0.005273951249692552 -0.0014473184064255557 0 -0.0027786741210064432 -0.0048482569371634306 0 -0.010180312859157993 0.0011818229402842044 0 -0.0094323480723272207 0.0013495347585591433 0 -0.0094404464549544351 0.00059807077691571473 0 -0.0031466704009856499 -0.0046974171945365021 0 -0.0029907402103733359 -0.004941508424026804 0 -0.003073824777186714 -0.0049410075357125783 0 -0.005273951249692552 -0.0014473184064255557 0 -0.0064598501838638153 -0.0021436801763173546 0 -0.0099766153208372694 0.0017128476348972355 0 -0.010180312859157993 0.0011818229402842044 0 -0.0094323480723272207 0.0013495347585591433 0 -0.0094323480723272207 0.0013495347585591433 0 -0.0090537055545478074 0.00093844904606279838 0 -0.0084305479255462629 0.0016388744628618047 0 -0.0094323480723272207 0.0013495347585591433 0 -0.0090537055545478074 0.00093844904606279838 0 -0.0094404464549544351 0.00059807077691571473 0 -0.0090537055545478074 0.00093844904606279838 0 -0.0088566836092553343 0.00058144661567432695 0 -0.0094404464549544351 0.00059807077691571473 0 -0.0090537055545478074 0.00093844904606279838 0 -0.008515745412440311 0.00086274635661035709 0 -0.0084305479255462629 0.0016388744628618047 0 -0.0090537055545478074 0.00093844904606279838 0 -0.008515745412440311 0.00086274635661035709 0 -0.0088566836092553343 0.00058144661567432695 0 -0.0081451854920361454 0.0011003840469507385 0 -0.008515745412440311 0.00086274635661035709 0 -0.0084305479255462629 0.0016388744628618047 0 -0.0082363816378804699 -0.0005263052293426534 0 -0.0092629929664197579 0.00031092373919904069 0 -0.0078673603398949632 0.00097460807924515315 0 -0.0082363816378804699 -0.0005263052293426534 0 -0.0078673603398949632 0.00097460807924515315 0 -0.0069798844858225189 -0.00027055778652446214 0 -0.0082363816378804699 -0.0005263052293426534 0 -0.0069798844858225189 -0.00027055778652446214 0 -0.0076991250302009089 -0.0016153420491129972 0 -0.0082363816378804699 -0.0005263052293426534 0 -0.0093887103008958323 -0.00090642746111350763 0 -0.0092629929664197579 0.00031092373919904069 0 -0.01071321822911727 0.00036489207665724784 0 -0.0093887103008958323 -0.00090642746111350763 0 -0.0092629929664197579 0.00031092373919904069 0 -0.010009000174369878 0.0017534197298540216 0 -0.0092629929664197579 0.00031092373919904069 0 -0.0078673603398949632 0.00097460807924515315 0 -0.01071321822911727 0.00036489207665724784 0 -0.010009000174369878 0.0017534197298540216 0 -0.0092629929664197579 0.00031092373919904069 0 -0.006627079865017412 0.0020333334613316981 0 -0.0078673603398949632 0.00097460807924515315 0 -0.0062601204375455745 0.00081395070298352287 0 -0.0078673603398949632 0.00097460807924515315 0 -0.0062601204375455745 0.00081395070298352287 0 -0.0069798844858225189 -0.00027055778652446214 0 -0.006627079865017412 0.0020333334613316981 0 -0.0062601204375455745 0.00081395070298352287 0 -0.0053419813756037269 0.0015883995242547432 0 -0.0046719508432870108 0.0028966122179050987 0 -0.0042480509737628878 0.00042380325147000128 0 -0.0053419813756037269 0.0015883995242547432 0 -0.0062601204375455745 0.00081395070298352287 0 -0.0051608995881860364 0.00050888598190838429 0 -0.005827195743349195 7.6584930878729118e-05 0 -0.0062601204375455745 0.00081395070298352287 0 -0.0053419813756037269 0.0015883995242547432 0 -0.0051608995881860364 0.00050888598190838429 0 -0.0042480509737628878 0.00042380325147000128 0 -0.0053419813756037269 0.0015883995242547432 0 -0.0051608995881860364 0.00050888598190838429 0 -0.0051608995881860364 0.00050888598190838429 0 -0.005827195743349195 7.6584930878729118e-05 0 -0.004859566867281782 -0.00080445361684434969 0 -0.0042480509737628878 0.00042380325147000128 0 -0.0051608995881860364 0.00050888598190838429 0 -0.004859566867281782 -0.00080445361684434969 0 -0.005827195743349195 7.6584930878729118e-05 0 -0.0061569103005493699 -0.0016817242746609961 0 -0.0042851431612170778 -0.0010233916050252571 0 -0.0057370503418495075 4.6987857076131247e-05 0 -0.0043713721614276717 -0.0011103302143415288 0 -0.0069798844858225189 -0.00027055778652446214 0 -0.005827195743349195 7.6584930878729118e-05 0 -0.0061569103005493699 -0.0016817242746609961 0 -0.0062601204375455745 0.00081395070298352287 0 -0.0069798844858225189 -0.00027055778652446214 0 -0.005827195743349195 7.6584930878729118e-05 0 -0.0061569103005493699 -0.0016817242746609961 0 -0.0065451548767180498 -0.0029325100454724211 0 -0.0076991250302009089 -0.0016153420491129972 0 -0.0069798844858225189 -0.00027055778652446214 0 -0.0061569103005493699 -0.0016817242746609961 0 -0.0076991250302009089 -0.0016153420491129972 0 -0.0061569103005493699 -0.0016817242746609961 0 -0.0042851431612170778 -0.0010233916050252571 0 -0.0044225007884216641 -0.0023004921309889193 0 -0.0061569103005493699 -0.0016817242746609961 0 -0.0044225007884216641 -0.0023004921309889193 0 -0.004960092782025821 -0.0032873367255228099 0 -0.0037779815993642463 -0.0032197107564126987 0 -0.0044225007884216641 -0.0023004921309889193 0 -0.004960092782025821 -0.0032873367255228099 0 -0.004960092782025821 -0.0032873367255228099 0 -0.0065451548767180498 -0.0029325100454724211 0 -0.0055862779704985667 -0.004240376169126675 0 -0.0061569103005493699 -0.0016817242746609961 0 -0.004960092782025821 -0.0032873367255228099 0 -0.0065451548767180498 -0.0029325100454724211 0 -0.0065451548767180498 -0.0029325100454724211 0 -0.0077346288286598104 -0.0028133680972173528 0 -0.0076991250302009089 -0.0016153420491129972 0 -0.0065451548767180498 -0.0029325100454724211 0 -0.0077346288286598104 -0.0028133680972173528 0 -0.0072380006474852734 -0.0038757092300660662 0 -0.0077346288286598104 -0.0028133680972173528 0 -0.0085562121863511191 -0.0035242487895245098 0 -0.0072380006474852734 -0.0038757092300660662 0 -0.0082363816378804699 -0.0005263052293426534 0 -0.0093887103008958323 -0.00090642746111350763 0 -0.0076991250302009089 -0.0016153420491129972 0 -0.0077346288286598104 -0.0028133680972173528 0 -0.0076991250302009089 -0.0016153420491129972 0 -0.0092348491082954922 -0.0020424175782929751 0 -0.0093887103008958323 -0.00090642746111350763 0 -0.0076991250302009089 -0.0016153420491129972 0 -0.0092348491082954922 -0.0020424175782929751 0 -0.010864011106221576 -0.00098662573578023782 0 -0.0093887103008958323 -0.00090642746111350763 0 -0.0092348491082954922 -0.0020424175782929751 0 -0.010637876488712516 -0.0023572202367740285 0 -0.0092348491082954922 -0.0020424175782929751 0 -0.0097311516368716947 -0.0032077275032596493 0 -0.0077346288286598104 -0.0028133680972173528 0 -0.0092348491082954922 -0.0020424175782929751 0 -0.0085562121863511191 -0.0035242487895245098 0 -0.0092348491082954922 -0.0020424175782929751 0 -0.0085562121863511191 -0.0035242487895245098 0 -0.0097311516368716947 -0.0032077275032596493 0 -0.0085562121863511191 -0.0035242487895245098 0 -0.0097311516368716947 -0.0032077275032596493 0 -0.0093126602272868095 -0.0046689642229475505 0 -0.0085562121863511191 -0.0035242487895245098 0 -0.0093126602272868095 -0.0046689642229475505 0 -0.0080660186798292306 -0.0046352046949057115 0 -0.0093126602272868095 -0.0046689642229475505 0 -0.0081036379448930253 -0.0056657389381569627 0 -0.0080660186798292306 -0.0046352046949057115 0 -0.0093126602272868095 -0.0046689642229475505 0 -0.0092758704448950569 -0.0066136525339196848 0 -0.0081036379448930253 -0.0056657389381569627 0 -0.0093126602272868095 -0.0046689642229475505 0 -0.0092758704448950569 -0.0066136525339196848 0 -0.010498205342346207 -0.0054726918464432618 0 -0.0092758704448950569 -0.0066136525339196848 0 -0.0068890429655469529 -0.0066108794455317713 0 -0.0081036379448930253 -0.0056657389381569627 0 -0.0079841293221590854 -0.0056649428282567089 0 -0.0075716971420365653 -0.0067374298022825725 0 -0.0081036379448930253 -0.0056657389381569627 0 -0.006703699214886903 -0.0050379247133965936 0 -0.0080660186798292306 -0.0046352046949057115 0 -0.0068890429655469529 -0.0066108794455317713 0 -0.0081036379448930253 -0.0056657389381569627 0 -0.006703699214886903 -0.0050379247133965936 0 -0.006703699214886903 -0.0050379247133965936 0 -0.0080660186798292306 -0.0046352046949057115 0 -0.0072380006474852734 -0.0038757092300660662 0 -0.0085562121863511191 -0.0035242487895245098 0 -0.0080660186798292306 -0.0046352046949057115 0 -0.0072380006474852734 -0.0038757092300660662 0 -0.0065451548767180498 -0.0029325100454724211 0 -0.0072380006474852734 -0.0038757092300660662 0 -0.0055862779704985667 -0.004240376169126675 0 -0.006703699214886903 -0.0050379247133965936 0 -0.0072380006474852734 -0.0038757092300660662 0 -0.0055862779704985667 -0.004240376169126675 0 -0.004960092782025821 -0.0032873367255228099 0 -0.0055862779704985667 -0.004240376169126675 0 -0.0037214663160841282 -0.004371665961317309 0 -0.0055862779704985667 -0.004240376169126675 0 -0.0037214663160841282 -0.004371665961317309 0 -0.0040661026227048072 -0.0053607084988366548 0 -0.0037779815993642463 -0.0032197107564126987 0 -0.004960092782025821 -0.0032873367255228099 0 -0.0037214663160841282 -0.004371665961317309 0 -0.0037214663160841282 -0.004371665961317309 0 -0.0040661026227048072 -0.0053607084988366548 0 -0.003386095837080313 -0.0050146427645448004 0 -0.0040661026227048072 -0.0053607084988366548 0 -0.003386095837080313 -0.0050146427645448004 0 -0.0030809984451678164 -0.0050911175926424993 0 -0.006703699214886903 -0.0050379247133965936 0 -0.0055862779704985667 -0.004240376169126675 0 -0.0040661026227048072 -0.0053607084988366548 0 -0.0068890429655469529 -0.0066108794455317713 0 -0.006703699214886903 -0.0050379247133965936 0 -0.0040661026227048072 -0.0053607084988366548 0 -0.0068890429655469529 -0.0066108794455317713 0 -0.0049759622191610431 -0.0077711618842138206 0 -0.0063178719644084039 -0.0081028862913742599 0 -0.0038958276998832214 -0.0053154118400097561 0 -0.0040797204946629124 -0.0066618518933292577 0 -0.0068890429655469529 -0.0066108794455317713 0 -0.0040661026227048072 -0.0053607084988366548 0 -0.0049759622191610431 -0.0077711618842138206 0 -0.0040661026227048072 -0.0053607084988366548 0 -0.0029081781840647751 -0.0050511152378218769 0 -0.0030809984451678164 -0.0050911175926424993 0 -0.0029081781840647751 -0.0050511152378218769 0 -0.0026731236648004442 -0.004854925074454973 0 -0.0030809984451678164 -0.0050911175926424993 0 -0.0029081781840647751 -0.0050511152378218769 0 -0.0026731236648004442 -0.004854925074454973 0 -0.0025201116343979502 -0.0047767495241812655 0 -0.0026731236648004442 -0.004854925074454973 0 -0.0025201116343979502 -0.0047767495241812655 0 -0.0023044665888653157 -0.0046529384023641989 0 -0.0040797204946629124 -0.0066618518933292577 0 -0.0036325593301113875 -0.0054869051708393507 0 -0.0029081781840647751 -0.0050511152378218769 0 -0.0025201116343979502 -0.0047767495241812655 0 -0.0023623001466503424 -0.0047526651975615727 0 -0.0049759622191610431 -0.0077711618842138206 0 -0.0063178719644084039 -0.0081028862913742599 0 -0.0057947423292414486 -0.0098512124776453571 0 -0.0025201116343979502 -0.0047767495241812655 0 -0.0023623001466503424 -0.0047526651975615727 0 -0.0022659676259475302 -0.0045535466245252357 0 -0.0036325593301113875 -0.0054869051708393507 0 -0.0053476676911382521 -0.0058566065659063915 0 -0.002641626779495752 -0.00402925201932622 0 -0.0032109670133367474 -0.0040182087837333678 0 -0.0032972572597916453 -0.003361059289334807 0 -0.0063178719644084039 -0.0081028862913742599 0 -0.0057947423292414486 -0.0098512124776453571 0 -0.0076022083975178156 -0.0081824788740224221 0 -0.0034373665879196325 -0.0039675826065213027 0 -0.0037786908615849049 -0.003305461008501574 0 -0.0032109670133367474 -0.0040182087837333678 0 -0.0039690558660872358 -0.0034308590541096201 0 -0.0037712446703928935 -0.0041489454326623576 0 -0.0032109670133367474 -0.0040182087837333678 0 -0.0044930473822347751 -0.0033801484996397201 0 -0.0032972572597916453 -0.003361059289334807 0 -0.0042046281363228031 -0.0025534539584098647 0 -0.0044930473822347751 -0.0033801484996397201 0 -0.0032972572597916453 -0.003361059289334807 0 -0.0079841293221590854 -0.0056649428282567089 0 -0.0053476676911382521 -0.0058566065659063915 0 -0.0092947880977379219 -0.0065797574785410803 0 -0.0068890429655469529 -0.0066108794455317713 0 -0.0076022083975178156 -0.0081824788740224221 0 -0.0068890429655469529 -0.0066108794455317713 0 -0.0063178719644084039 -0.0081028862913742599 0 -0.0076022083975178156 -0.0081824788740224221 0 -0.0036002739496667001 -0.0048688703613816355 0 -0.0031640255514162633 -0.0050355980373928333 0 -0.0031931447283197836 -0.0048733336538861784 0 -0.0075309923295542522 -0.00099639844511902683 0 -0.0087366543027225553 6.6782422486678141e-05 0 -0.0080835684416247656 0.00016024609132195928 0 -0.0055798310361681019 -0.0029160578758468045 0 -0.0059143182370131929 -0.00249681582986072 0 -0.0087366543027225553 6.6782422486678141e-05 0 -0.0080835684416247656 0.00016024609132195928 0 -0.0084308604756702567 0.00047970876195713576 0 -0.0080500518673511118 0.00062043904748390708 0 -0.0080835684416247656 0.00016024609132195928 0 -0.0084308604756702567 0.00047970876195713576 0 -0.0087366543027225553 6.6782422486678141e-05 0 -0.0084308604756702567 0.00047970876195713576 0 -0.0088566836092553343 0.00058144661567432695 0 -0.0080500518673511118 0.00062043904748390708 0 -0.008515745412440311 0.00086274635661035709 0 -0.0084308604756702567 0.00047970876195713576 0 -0.008515745412440311 0.00086274635661035709 0 -0.0084308604756702567 0.00047970876195713576 0 -0.0088566836092553343 0.00058144661567432695 0 -0.0059143182370131929 -0.00249681582986072 0 -0.0064598501838638153 -0.0021436801763173546 0 -0.0087366543027225553 6.6782422486678141e-05 0 -0.0088566836092553343 0.00058144661567432695 0 -0.0094404464549544351 0.00059807077691571473 0 -0.0031640255514162633 -0.0050355980373928333 0 -0.0029907402103733359 -0.004941508424026804 0 -0.0029931143762438367 -0.0049845620938821734 0 -0.0031640255514162633 -0.0050355980373928333 0 -0.0030060083938213741 -0.0049387930774627917 0 -0.0029931143762438367 -0.0049845620938821734 0 -0.0031640255514162633 -0.0050355980373928333 0 -0.0030060083938213741 -0.0049387930774627917 0 -0.0031931447283197836 -0.0048733336538861784 0 -0.0030060083938213741 -0.0049387930774627917 0 -0.0029079716763532513 -0.0049647203719297281 0 -0.0029931143762438367 -0.0049845620938821734 0 -0.0029536555805556065 -0.0047185317694419188 0 -0.0027786741210064432 -0.0048482569371634306 0 -0.0029079716763532513 -0.0049647203719297281 0 -0.0029931143762438367 -0.0049845620938821734 0 -0.003073824777186714 -0.0049410075357125783 0 -0.0029907402103733359 -0.004941508424026804 0 -0.0029931143762438367 -0.0049845620938821734 0 -0.003073824777186714 -0.0049410075357125783 0 -0.0037214663160841282 -0.004371665961317309 0 -0.0029079716763532513 -0.0049647203719297281 0 -0.0028523343015715011 -0.0038984021434453789 0 -0.0037779815993642463 -0.0032197107564126987 0 -0.0037214663160841282 -0.004371665961317309 0 -0.0028523343015715011 -0.0038984021434453789 0 -0.0037214663160841282 -0.004371665961317309 0 -0.0029079716763532513 -0.0049647203719297281 0 -0.003386095837080313 -0.0050146427645448004 0 -0.0029079716763532513 -0.0049647203719297281 0 -0.003386095837080313 -0.0050146427645448004 0 -0.0030809984451678164 -0.0050911175926424993 0 -0.0030809984451678164 -0.0050911175926424993 0 -0.002640710720578779 -0.0047557838129869794 0 -0.002875180470856512 -0.0049112398372751619 0 -0.0029079716763532513 -0.0049647203719297281 0 -0.0030809984451678164 -0.0050911175926424993 0 -0.002875180470856512 -0.0049112398372751619 0 -0.0026731236648004442 -0.004854925074454973 0 -0.0030809984451678164 -0.0050911175926424993 0 -0.002640710720578779 -0.0047557838129869794 0 -0.0026731236648004442 -0.004854925074454973 0 -0.002640710720578779 -0.0047557838129869794 0 -0.0023044665888653157 -0.0046529384023641989 0 -0.0028577829287295096 -0.0046302624162310544 0 -0.002875180470856512 -0.0049112398372751619 0 -0.0030353910377934248 -0.0047857029309273328 0 -0.002640710720578779 -0.0047557838129869794 0 -0.0028577829287295096 -0.0046302624162310544 0 -0.002875180470856512 -0.0049112398372751619 0 -0.0030060083938213741 -0.0049387930774627917 0 -0.0029079716763532513 -0.0049647203719297281 0 -0.002875180470856512 -0.0049112398372751619 0 -0.0030060083938213741 -0.0049387930774627917 0 -0.002875180470856512 -0.0049112398372751619 0 -0.0030353910377934248 -0.0047857029309273328 0 -0.0030060083938213741 -0.0049387930774627917 0 -0.0030353910377934248 -0.0047857029309273328 0 -0.0031931447283197836 -0.0048733336538861784 0 -0.0028577829287295096 -0.0046302624162310544 0 -0.0030353910377934248 -0.0047857029309273328 0 -0.0031282130516566936 -0.0045022054317261362 0 -0.0030353910377934248 -0.0047857029309273328 0 -0.0031282130516566936 -0.0045022054317261362 0 -0.0033288810170673849 -0.0046578115347704089 0 -0.0031282130516566936 -0.0045022054317261362 0 -0.0034269912921485054 -0.0043864550600638264 0 -0.0033288810170673849 -0.0046578115347704089 0 -0.0036405163047138729 -0.0044809831102692608 0 -0.0034269912921485054 -0.0043864550600638264 0 -0.0033288810170673849 -0.0046578115347704089 0 -0.0036002739496667001 -0.0048688703613816355 0 -0.0033288810170673849 -0.0046578115347704089 0 -0.0031931447283197836 -0.0048733336538861784 0 -0.0030353910377934248 -0.0047857029309273328 0 -0.0033288810170673849 -0.0046578115347704089 0 -0.0031931447283197836 -0.0048733336538861784 0 -0.0035661111127107399 -0.0037623133693591385 0 -0.0033136177520634688 -0.0041165269649134986 0 -0.0031143314645729891 -0.0038011087652954031 0 -0.0035661111127107399 -0.0037623133693591385 0 -0.0031143314645729891 -0.0038011087652954031 0 -0.003395285712745979 -0.003308755944604955 0 -0.003755582436498948 -0.0041179450589935223 0 -0.0034269912921485054 -0.0043864550600638264 0 -0.0033136177520634688 -0.0041165269649134986 0 -0.0031282130516566936 -0.0045022054317261362 0 -0.0034269912921485054 -0.0043864550600638264 0 -0.0033136177520634688 -0.0041165269649134986 0 -0.0028577829287295096 -0.0046302624162310544 0 -0.0031282130516566936 -0.0045022054317261362 0 -0.0029654372837182212 -0.0042664953282131974 0 -0.0031282130516566936 -0.0045022054317261362 0 -0.0033136177520634688 -0.0041165269649134986 0 -0.0029654372837182212 -0.0042664953282131974 0 -0.0029654372837182212 -0.0042664953282131974 0 -0.0031143314645729891 -0.0038011087652954031 0 -0.0027719565761100532 -0.0040801114653837792 0 -0.0033136177520634688 -0.0041165269649134986 0 -0.0029654372837182212 -0.0042664953282131974 0 -0.0031143314645729891 -0.0038011087652954031 0 -0.0031143314645729891 -0.0038011087652954031 0 -0.0027336612842049045 -0.0037283162453720649 0 -0.0027719565761100532 -0.0040801114653837792 0 -0.0027336612842049045 -0.0037283162453720649 0 -0.002356340695934787 -0.0040392503537917471 0 -0.0027719565761100532 -0.0040801114653837792 0 -0.002356340695934787 -0.0040392503537917471 0 -0.0026364019274000882 -0.0043913684682682814 0 -0.002288107140240493 -0.0045058028241143 0 -0.002356340695934787 -0.0040392503537917471 0 -0.0027719565761100532 -0.0040801114653837792 0 -0.0026364019274000882 -0.0043913684682682814 0 -0.0029654372837182212 -0.0042664953282131974 0 -0.0027719565761100532 -0.0040801114653837792 0 -0.0026364019274000882 -0.0043913684682682814 0 -0.002640710720578779 -0.0047557838129869794 0 -0.0028577829287295096 -0.0046302624162310544 0 -0.0026364019274000882 -0.0043913684682682814 0 -0.0028577829287295096 -0.0046302624162310544 0 -0.0029654372837182212 -0.0042664953282131974 0 -0.0026364019274000882 -0.0043913684682682814 0 -0.002640710720578779 -0.0047557838129869794 0 -0.0026364019274000882 -0.0043913684682682814 0 -0.002288107140240493 -0.0045058028241143 0 -0.002640710720578779 -0.0047557838129869794 0 -0.002288107140240493 -0.0045058028241143 0 -0.0023044665888653157 -0.0046529384023641989 0 -0.002288107140240493 -0.0045058028241143 0 -0.0018812569661901815 -0.0041834501599484833 0 -0.0017535676501944657 -0.0046270479714004865 0 -0.002356340695934787 -0.0040392503537917471 0 -0.002288107140240493 -0.0045058028241143 0 -0.0018812569661901815 -0.0041834501599484833 0 -0.002356340695934787 -0.0040392503537917471 0 -0.0018812569661901815 -0.0041834501599484833 0 -0.0019523470700461849 -0.0037310081851930329 0 -0.0018812569661901815 -0.0041834501599484833 0 -0.0019523470700461849 -0.0037310081851930329 0 -0.0013906195105569863 -0.0035706158746052416 0 -0.002356340695934787 -0.0040392503537917471 0 -0.0019523470700461849 -0.0037310081851930329 0 -0.0023004232768918127 -0.0034258270787662971 0 -0.0017234035918389297 -0.0032063248780817735 0 -0.0019676143781281511 -0.0027849168208330145 0 -0.0023004232768918127 -0.0034258270787662971 0 -0.0019523470700461849 -0.0037310081851930329 0 -0.0017234035918389297 -0.0032063248780817735 0 -0.0023004232768918127 -0.0034258270787662971 0 -0.0019523470700461849 -0.0037310081851930329 0 -0.0017234035918389297 -0.0032063248780817735 0 -0.0013906195105569863 -0.0035706158746052416 0 -0.0017234035918389297 -0.0032063248780817735 0 -0.0013906195105569863 -0.0035706158746052416 0 -0.001035088253422284 -0.0027815248432621602 0 -0.0017234035918389297 -0.0032063248780817735 0 -0.00143156517674562 -0.002301921805460586 0 -0.001035088253422284 -0.0027815248432621602 0 -0.00143156517674562 -0.002301921805460586 0 -0.001035088253422284 -0.0027815248432621602 0 -0.00073674859286572717 -0.002053133416433438 0 -0.0017234035918389297 -0.0032063248780817735 0 -0.00143156517674562 -0.002301921805460586 0 -0.0019676143781281511 -0.0027849168208330145 0 -0.0021359251058197023 -0.0025652078372660446 0 -0.0025394357619237377 -0.0027905929140883759 0 -0.0027110362979556827 -0.0025711965915700763 0 -0.0019676143781281511 -0.0027849168208330145 0 -0.0023004453239788463 -0.0028371302691745774 0 -0.0023004232768918127 -0.0034258270787662971 0 -0.0023004453239788463 -0.0028371302691745774 0 -0.0021359251058197023 -0.0025652078372660446 0 -0.0025394357619237377 -0.0027905929140883759 0 -0.0019676143781281511 -0.0027849168208330145 0 -0.0023004453239788463 -0.0028371302691745774 0 -0.0021359251058197023 -0.0025652078372660446 0 -0.0023004453239788463 -0.0028371302691745774 0 -0.0025394357619237377 -0.0027905929140883759 0 -0.0026018792623720864 -0.0030738711446596286 0 -0.0023004453239788463 -0.0028371302691745774 0 -0.0026018792623720864 -0.0030738711446596286 0 -0.0023004232768918127 -0.0034258270787662971 0 -0.0026018792623720864 -0.0030738711446596286 0 -0.0026289874503193779 -0.003401335232563224 0 -0.0023004232768918127 -0.0034258270787662971 0 -0.0027336612842049045 -0.0037283162453720649 0 -0.002356340695934787 -0.0040392503537917471 0 -0.0023004232768918127 -0.0034258270787662971 0 -0.0027336612842049045 -0.0037283162453720649 0 -0.0026289874503193779 -0.003401335232563224 0 -0.0023004232768918127 -0.0034258270787662971 0 -0.0031143314645729891 -0.0038011087652954031 0 -0.0027336612842049045 -0.0037283162453720649 0 -0.0029847956441315725 -0.003305722077943044 0 -0.0027336612842049045 -0.0037283162453720649 0 -0.0026289874503193779 -0.003401335232563224 0 -0.0029847956441315725 -0.003305722077943044 0 -0.0026018792623720864 -0.0030738711446596286 0 -0.0026289874503193779 -0.003401335232563224 0 -0.0029847956441315725 -0.003305722077943044 0 -0.0026018792623720864 -0.0030738711446596286 0 -0.0029847956441315725 -0.003305722077943044 0 -0.0028735864361566902 -0.0028937066598051582 0 -0.0028735864361566902 -0.0028937066598051582 0 -0.003227348834952183 -0.0027736356837377669 0 -0.0027110362979556827 -0.0025711965915700763 0 -0.0025394357619237377 -0.0027905929140883759 0 -0.0026018792623720864 -0.0030738711446596286 0 -0.0028735864361566902 -0.0028937066598051582 0 -0.0029847956441315725 -0.003305722077943044 0 -0.0028735864361566902 -0.0028937066598051582 0 -0.003227348834952183 -0.0027736356837377669 0 -0.0025394357619237377 -0.0027905929140883759 0 -0.0028735864361566902 -0.0028937066598051582 0 -0.0027110362979556827 -0.0025711965915700763 0 -0.0036642827069578643 -0.0027487577459524171 0 -0.003227348834952183 -0.0027736356837377669 0 -0.003395285712745979 -0.003308755944604955 0 -0.0029847956441315725 -0.003305722077943044 0 -0.003227348834952183 -0.0027736356837377669 0 -0.003395285712745979 -0.003308755944604955 0 -0.0031143314645729891 -0.0038011087652954031 0 -0.0029847956441315725 -0.003305722077943044 0 -0.003395285712745979 -0.003308755944604955 0 -0.0026504528517791049 -0.0044888489173518353 0 -0.0031333326132940665 -0.0055558980744066398 0 -0.0029560634446581693 -0.0048180619727707583 0 -0.0032129109741268688 -0.0049839494339588659 0 -0.003089235585956421 -0.0054586814673093795 0 -0.0029560634446581693 -0.0048180619727707583 0 -0.0032129109741268688 -0.0049839494339588659 0 -0.0033868361566641476 -0.0045925878289929138 0 -0.0033113868977357971 -0.0051795405897720895 0 -0.0035061847363472461 -0.0049442962161441572 0 -0.0034685737617193005 -0.0053398535004100765 0 -0.0034382102573997262 -0.0050374434095141352 0 -0.0030480671004831377 -0.0055068726706086809 0 -0.0032129109741268688 -0.0049839494339588659 0 -0.0033113868977357971 -0.0051795405897720895 0 -0.0035061847363472461 -0.0049442962161441572 0 -0.0037096863727112258 -0.0052800105942531267 0 -0.0035061847363472461 -0.0049442962161441572 0 -0.0039723888348446399 -0.0050378453376246869 0 -0.0037096863727112258 -0.0052800105942531267 0 -0.0040314417036384515 -0.0055015006119654881 0 -0.0039723888348446399 -0.0050378453376246869 0 -0.0037096863727112258 -0.0052800105942531267 0 -0.0035061847363472461 -0.0049442962161441572 0 -0.003692497866488302 -0.0055156645566844902 0 -0.0035061847363472461 -0.0049442962161441572 0 -0.0038696763449598687 -0.0046446906355402766 0 -0.0039723888348446399 -0.0050378453376246869 0 -0.0035061847363472461 -0.0049442962161441572 0 -0.0033868361566641476 -0.0045925878289929138 0 -0.0038696763449598687 -0.0046446906355402766 0 -0.0032129109741268688 -0.0049839494339588659 0 -0.0035061847363472461 -0.0049442962161441572 0 -0.0033868361566641476 -0.0045925878289929138 0 -0.0032109670133367474 -0.0040182087837333678 0 -0.0033868361566641476 -0.0045925878289929138 0 -0.0037712446703928935 -0.0041489454326623576 0 -0.0033868361566641476 -0.0045925878289929138 0 -0.0038696763449598687 -0.0046446906355402766 0 -0.0037712446703928935 -0.0041489454326623576 0 -0.0032109670133367474 -0.0040182087837333678 0 -0.0029560634446581693 -0.0048180619727707583 0 -0.0033868361566641476 -0.0045925878289929138 0 -0.002641626779495752 -0.00402925201932622 0 -0.0032109670133367474 -0.0040182087837333678 0 -0.0029560634446581693 -0.0048180619727707583 0 -0.0024254103359605717 -0.004347536828055062 0 -0.0022659676259475302 -0.0045535466245252357 0 -0.0023085343842497883 -0.0046756471315761551 0 -0.0024254103359605717 -0.004347536828055062 0 -0.0026871588365100789 -0.0047424709024711459 0 -0.0023085343842497883 -0.0046756471315761551 0 -0.0036325593301113875 -0.0054869051708393507 0 -0.0026504528517791049 -0.0044888489173518353 0 -0.0036325593301113875 -0.0054869051708393507 0 -0.0024545174258672167 -0.0047872834323930578 0 -0.0022659676259475302 -0.0045535466245252357 0 -0.0017535676501944657 -0.0046270479714004865 0 -0.0023085343842497883 -0.0046756471315761551 0 -0.002288107140240493 -0.0045058028241143 0 -0.0023044665888653157 -0.0046529384023641989 0 -0.0017535676501944657 -0.0046270479714004865 0 -0.0025201116343979502 -0.0047767495241812655 0 -0.0022659676259475302 -0.0045535466245252357 0 -0.0023044665888653157 -0.0046529384023641989 0 -0.0022659676259475302 -0.0045535466245252357 0 -0.0023044665888653157 -0.0046529384023641989 0 -0.0017535676501944657 -0.0046270479714004865 0 -0.0017535676501944657 -0.0046270479714004865 0 0.00025266004508780999 -0.0038821682321297933 0 -0.0011535592309597144 -0.0039079564825652184 0 -0.0018812569661901815 -0.0041834501599484833 0 -0.0017535676501944657 -0.0046270479714004865 0 -0.0011535592309597144 -0.0039079564825652184 0 -0.0026871588365100789 -0.0047424709024711459 0 -0.0023085343842497883 -0.0046756471315761551 0 -0.0023650283827315356 -0.0052747281449886056 0 -0.0017535676501944657 -0.0046270479714004865 0 -0.0023085343842497883 -0.0046756471315761551 0 -0.0023650283827315356 -0.0052747281449886056 0 -0.0016108386748357136 -0.0046477347251688327 0 -0.0010223236320364682 -0.0044631818351084191 0 -0.0010223236320364682 -0.0044631818351084191 0 -0.00082867688722711651 -0.0044905252445984591 0 0.00025266004508780999 -0.0038821682321297933 0 0.00012476670786786727 -0.0028121199346571014 0 0.00096022717627657127 -0.0025585565832703756 0 0.00025266004508780999 -0.0038821682321297933 0 -0.00062210711175877031 -0.0032204337821644725 0 0.00012476670786786727 -0.0028121199346571014 0 -0.0013906195105569863 -0.0035706158746052416 0 -0.0011535592309597144 -0.0039079564825652184 0 -0.00062210711175877031 -0.0032204337821644725 0 -0.0018812569661901815 -0.0041834501599484833 0 -0.0013906195105569863 -0.0035706158746052416 0 -0.0011535592309597144 -0.0039079564825652184 0 0.00025266004508780999 -0.0038821682321297933 0 -0.0011535592309597144 -0.0039079564825652184 0 -0.00062210711175877031 -0.0032204337821644725 0 -0.0013906195105569863 -0.0035706158746052416 0 -0.00062210711175877031 -0.0032204337821644725 0 -0.001035088253422284 -0.0027815248432621602 0 -0.00062210711175877031 -0.0032204337821644725 0 -0.001035088253422284 -0.0027815248432621602 0 -0.00032901439704051438 -0.0024897277869935426 0 -0.00062210711175877031 -0.0032204337821644725 0 -0.00032901439704051438 -0.0024897277869935426 0 0.00012476670786786727 -0.0028121199346571014 0 -0.00032901439704051438 -0.0024897277869935426 0 -0.00073674859286572717 -0.002053133416433438 0 -7.6768529939052934e-05 -0.0018864279309471826 0 -0.00032901439704051438 -0.0024897277869935426 0 0.00038715114051627529 -0.0021728319138449165 0 -7.6768529939052934e-05 -0.0018864279309471826 0 -0.001035088253422284 -0.0027815248432621602 0 -0.00032901439704051438 -0.0024897277869935426 0 -0.00073674859286572717 -0.002053133416433438 0 0.00025266004508780999 -0.0038821682321297933 0 0.00096022717627657127 -0.0025585565832703756 0 0.0017057344912196697 -0.0027830698369815188 0 0.00012476670786786727 -0.0028121199346571014 0 0.00038715114051627529 -0.0021728319138449165 0 0.00096022717627657127 -0.0025585565832703756 0 -0.00032901439704051438 -0.0024897277869935426 0 0.00012476670786786727 -0.0028121199346571014 0 0.00038715114051627529 -0.0021728319138449165 0 0.00038715114051627529 -0.0021728319138449165 0 0.00096022717627657127 -0.0025585565832703756 0 0.0010825802725931673 -0.0019158912034665499 0 0.0017057344912196697 -0.0027830698369815188 0 0.0028475465245817095 -0.0015855096835272176 0 0.002021962516895875 -0.0020092049420839314 0 -0.0029257003535452099 -0.0057650933095423724 0 -0.003089235585956421 -0.0054586814673093795 0 -0.0033303996680001204 -0.0057654689587790103 0 -0.00082867688722711651 -0.0044905252445984591 0 0.00087872301060203768 -0.0028464587050163175 0 0.00096022717627657127 -0.0025585565832703756 0 0.002021962516895875 -0.0020092049420839314 0 0.0010825802725931673 -0.0019158912034665499 0 0.00096022717627657127 -0.0025585565832703756 0 0.0017057344912196697 -0.0027830698369815188 0 0.002021962516895875 -0.0020092049420839314 0 -0.0026871588365100789 -0.0047424709024711459 0 -0.0023650283827315356 -0.0052747281449886056 0 -0.003089235585956421 -0.0054586814673093795 0 -0.0032129109741268688 -0.0049839494339588659 0 -0.0033113868977357971 -0.0051795405897720895 0 -0.003089235585956421 -0.0054586814673093795 0 -0.0023650283827315356 -0.0052747281449886056 0 -0.0029257003535452099 -0.0057650933095423724 0 -0.003089235585956421 -0.0054586814673093795 0 -0.0030480671004831377 -0.0055068726706086809 0 -0.002663326988370949 -0.0057971246651171314 0 -0.003089235585956421 -0.0054586814673093795 0 -0.0034685737617193005 -0.0053398535004100765 0 -0.0033303996680001204 -0.0057654689587790103 0 -0.0037096863727112258 -0.0052800105942531267 0 -0.0036965048364739381 -0.0054893936732906112 0 -0.0040314417036384515 -0.0055015006119654881 0 -0.0032370110988117588 -0.0053697202554606749 0 -0.0030480671004831377 -0.0055068726706086809 0 -0.0033113868977357971 -0.0051795405897720895 0 -0.003089235585956421 -0.0054586814673093795 0 -0.0034685737617193005 -0.0053398535004100765 0 -0.0036965048364739381 -0.0054893936732906112 0 -0.0038490496002187894 -0.0060323317394371453 0 -0.0040314417036384515 -0.0055015006119654881 0 -0.0030480671004831377 -0.0055068726706086809 0 -0.0027521037627322238 -0.0058391824052160821 0 -0.002663326988370949 -0.0057971246651171314 0 0.00087872301060203768 -0.0028464587050163175 0 -0.0029257003535452099 -0.0057650933095423724 0 -0.0033303996680001204 -0.0057654689587790103 0 -0.0032741762561331092 -0.0061154795127374784 0 -0.001836361305265515 -0.0061420634022769519 0 -0.001549687806122963 -0.0051584406311715554 0 -0.0019326860053317481 -0.0050622873283065742 0 -0.001549687806122963 -0.0051584406311715554 0 -0.0019326860053317481 -0.0050622873283065742 0 -0.0012653068210582434 -0.0041566696333836901 0 -0.0027521037627322238 -0.0058391824052160821 0 -0.0016156623253580781 -0.0041078062978420708 0 -0.0027802583194485313 -0.0044750442729397282 0 -0.0016156623253580781 -0.0041078062978420708 0 -0.0050540618633187935 -0.0061732216486273511 0 -0.0044174819137662849 -0.0058588447445267816 0 -0.0039860520986445954 -0.0065764778605223789 0 -0.0038490496002187894 -0.0060323317394371453 0 -0.0044174819137662849 -0.0058588447445267816 0 -0.0039860520986445954 -0.0065764778605223789 0 -0.0050688967618086351 -0.0055102717741730926 0 -0.0044558933214030516 -0.0053090215332070858 0 -0.0044174819137662849 -0.0058588447445267816 0 -0.0050540618633187935 -0.0061732216486273511 0 -0.0050688967618086351 -0.0055102717741730926 0 -0.0044174819137662849 -0.0058588447445267816 0 -0.0050688967618086351 -0.0055102717741730926 0 -0.0044558933214030516 -0.0053090215332070858 0 -0.0048710362170325122 -0.0050401698630187361 0 -0.0044558933214030516 -0.0053090215332070858 0 -0.0040314417036384515 -0.0055015006119654881 0 -0.0044174819137662849 -0.0058588447445267816 0 -0.0038490496002187894 -0.0060323317394371453 0 -0.0040314417036384515 -0.0055015006119654881 0 -0.0044174819137662849 -0.0058588447445267816 0 -0.00033409719843883101 -0.0026330038841813445 0 -0.00064983606664267694 -0.0024961470482928031 0 -0.00058141546410709136 -0.0027351997719407312 0 -0.0027802583194485313 -0.0044750442729397282 0 -0.0033408812227509253 -0.0041026858923050909 0 -0.0050540618633187935 -0.0061732216486273511 0 -0.0050688967618086351 -0.0055102717741730926 0 -0.0061225983083053898 -0.0057328354664332136 0 -0.0050688967618086351 -0.0055102717741730926 0 -0.0061225983083053898 -0.0057328354664332136 0 -0.0054792542024401135 -0.0049433766234268086 0 -0.0061225983083053898 -0.0057328354664332136 0 -0.0061776522171289724 -0.0048506245300185642 0 -0.0066584589844917198 -0.0050687619559595725 0 -0.0061776522171289724 -0.0048506245300185642 0 -0.0054792542024401135 -0.0049433766234268086 0 -0.0058167090072940211 -0.0045667658939437432 0 -0.0061225983083053898 -0.0057328354664332136 0 -0.0061776522171289724 -0.0048506245300185642 0 -0.0054792542024401135 -0.0049433766234268086 0 -0.0054792542024401135 -0.0049433766234268086 0 -0.0054729925814125772 -0.004244554055460305 0 -0.0058167090072940211 -0.0045667658939437432 0 -0.0054792542024401135 -0.0049433766234268086 0 -0.0054729925814125772 -0.004244554055460305 0 -0.0049242029002575759 -0.0045669351550243192 0 -0.0061776522171289724 -0.0048506245300185642 0 -0.0061917802226401867 -0.0042264398101180363 0 -0.0058167090072940211 -0.0045667658939437432 0 -0.0054729925814125772 -0.004244554055460305 0 -0.0061917802226401867 -0.0042264398101180363 0 -0.0058167090072940211 -0.0045667658939437432 0 -0.0038696763449598687 -0.0046446906355402766 0 -0.0043455850589863391 -0.0048344518737051942 0 -0.0039723888348446399 -0.0050378453376246869 0 -0.0044558933214030516 -0.0053090215332070858 0 -0.0040314417036384515 -0.0055015006119654881 0 -0.0039723888348446399 -0.0050378453376246869 0 -0.0044558933214030516 -0.0053090215332070858 0 -0.0043455850589863391 -0.0048344518737051942 0 -0.0039723888348446399 -0.0050378453376246869 0 -0.0044558933214030516 -0.0053090215332070858 0 -0.0043455850589863391 -0.0048344518737051942 0 -0.0048710362170325122 -0.0050401698630187361 0 -0.0050688967618086351 -0.0055102717741730926 0 -0.0054792542024401135 -0.0049433766234268086 0 -0.0048710362170325122 -0.0050401698630187361 0 -0.0054792542024401135 -0.0049433766234268086 0 -0.0048710362170325122 -0.0050401698630187361 0 -0.0049242029002575759 -0.0045669351550243192 0 -0.0043455850589863391 -0.0048344518737051942 0 -0.0048710362170325122 -0.0050401698630187361 0 -0.0049242029002575759 -0.0045669351550243192 0 -0.0049242029002575759 -0.0045669351550243192 0 -0.0043010019194243739 -0.0043592770672563654 0 -0.0046594201133487766 -0.0040527794430464019 0 -0.0054729925814125772 -0.004244554055460305 0 -0.0049242029002575759 -0.0045669351550243192 0 -0.0046594201133487766 -0.0040527794430464019 0 -0.0043455850589863391 -0.0048344518737051942 0 -0.0049242029002575759 -0.0045669351550243192 0 -0.0043010019194243739 -0.0043592770672563654 0 -0.0038696763449598687 -0.0046446906355402766 0 -0.0043455850589863391 -0.0048344518737051942 0 -0.0043010019194243739 -0.0043592770672563654 0 -0.0038696763449598687 -0.0046446906355402766 0 -0.0037712446703928935 -0.0041489454326623576 0 -0.0043010019194243739 -0.0043592770672563654 0 -0.0037712446703928935 -0.0041489454326623576 0 -0.0043010019194243739 -0.0043592770672563654 0 -0.0042389386156931443 -0.0039073343736938408 0 -0.0039690558660872358 -0.0034308590541096201 0 -0.0037712446703928935 -0.0041489454326623576 0 -0.0042389386156931443 -0.0039073343736938408 0 -0.0043010019194243739 -0.0043592770672563654 0 -0.0042389386156931443 -0.0039073343736938408 0 -0.0046594201133487766 -0.0040527794430464019 0 -0.0042389386156931443 -0.0039073343736938408 0 -0.0045487142802658458 -0.0035431643039361051 0 -0.0046594201133487766 -0.0040527794430464019 0 -0.0039690558660872358 -0.0034308590541096201 0 -0.0042389386156931443 -0.0039073343736938408 0 -0.0045487142802658458 -0.0035431643039361051 0 -0.0039690558660872358 -0.0034308590541096201 0 -0.0045487142802658458 -0.0035431643039361051 0 -0.0048628181346725904 -0.0028238203773649543 0 -0.0037786908615849049 -0.003305461008501574 0 -0.0081707184285354888 -0.004375951380184079 0 -0.0042046281363228031 -0.0025534539584098647 0 -0.0044930473822347751 -0.0033801484996397201 0 -0.0058622364416887887 -0.0025420656694903113 0 -0.0051163889479026326 -0.0034559581228964433 0 -0.0055758872683808348 -0.0028119888416452037 0 -0.0048628181346725904 -0.0028238203773649543 0 -0.0045487142802658458 -0.0035431643039361051 0 -0.0051163889479026326 -0.0034559581228964433 0 -0.0048628181346725904 -0.0028238203773649543 0 -0.0054729925814125772 -0.004244554055460305 0 -0.0046594201133487766 -0.0040527794430464019 0 -0.0053902267133399987 -0.0037726106804714448 0 -0.0050701439368359743 -0.00349057954575773 0 -0.0046594201133487766 -0.0040527794430464019 0 -0.0053902267133399987 -0.0037726106804714448 0 -0.0045487142802658458 -0.0035431643039361051 0 -0.0051163889479026326 -0.0034559581228964433 0 -0.0046594201133487766 -0.0040527794430464019 0 -0.0050043835896810742 -0.0035452384502770626 0 -0.0047334958533640642 -0.0039665913526935742 0 -0.0054729925814125772 -0.004244554055460305 0 -0.0058383493216788455 -0.0035825830242370133 0 -0.0053902267133399987 -0.0037726106804714448 0 -0.0058383493216788455 -0.0035825830242370133 0 -0.0053902267133399987 -0.0037726106804714448 0 -0.0054518795614284842 -0.0034424186607628481 0 -0.0050701439368359743 -0.00349057954575773 0 -0.0053902267133399987 -0.0037726106804714448 0 -0.0054518795614284842 -0.0034424186607628481 0 -0.0054729925814125772 -0.004244554055460305 0 -0.0061917802226401867 -0.0042264398101180363 0 -0.0058383493216788455 -0.0035825830242370133 0 -0.0061917802226401867 -0.0042264398101180363 0 -0.0058383493216788455 -0.0035825830242370133 0 -0.0063485906163158528 -0.0037117422900256217 0 -0.0058383493216788455 -0.0035825830242370133 0 -0.0054786646657677086 -0.0029150964120377609 0 -0.0065093012181566857 -0.0029629968301799043 0 -0.0058383493216788455 -0.0035825830242370133 0 -0.0063485906163158528 -0.0037117422900256217 0 -0.0065093012181566857 -0.0029629968301799043 0 -0.0058383493216788455 -0.0035825830242370133 0 -0.0054518795614284842 -0.0034424186607628481 0 -0.0054786646657677086 -0.0029150964120377609 0 -0.0050701439368359743 -0.00349057954575773 0 -0.0054518795614284842 -0.0034424186607628481 0 -0.0054786646657677086 -0.0029150964120377609 0 -0.0050043835896810742 -0.0035452384502770626 0 -0.0073147781503731081 -0.0034150637967694441 0 -0.0073147781503731081 -0.0034150637967694441 0 -0.010354907779175799 -0.0035945545611086429 0 -0.012608676575308665 -0.0065973674938312145 0 -0.01415740197719108 -0.0044501678296915009 0 -0.013806958128790594 -0.0046587249570876283 0 -0.012608676575308665 -0.0065973674938312145 0 -0.012208232354666162 -0.0056092695701439165 0 -0.013806958128790594 -0.0046587249570876283 0 -0.0059967927504003902 -0.0029495560464207187 0 -0.0062758525204343824 -0.0027855526684168394 0 -0.006266995327581259 -0.0024891102678079318 0 -0.012848462763442129 -0.0053825625604976002 0 -0.013121439494425097 -0.004676091527749256 0 -0.013806958128790594 -0.0046587249570876283 0 -0.012658889973800326 -0.0052637266628781524 0 -0.013555445803164021 -0.0048093127525132406 0 -0.012848462763442129 -0.0053825625604976002 0 -0.013121439494425097 -0.004676091527749256 0 -0.012601860994686674 -0.0048225931473891443 0 -0.0059967927504003902 -0.0029495560464207187 0 -0.0065093012181566857 -0.0029629968301799043 0 -0.0062758525204343824 -0.0027855526684168394 0 -0.0073147781503731081 -0.0034150637967694441 0 -0.0058100199336557235 -0.0028597203398478452 0 -0.0062758525204343824 -0.0027855526684168394 0 -0.0064763871864940373 -0.002622725299442475 0 -0.006266995327581259 -0.0024891102678079318 0 -0.0065093012181566857 -0.0029629968301799043 0 -0.0062758525204343824 -0.0027855526684168394 0 -0.0064763871864940373 -0.002622725299442475 0 -0.010844986855075432 -0.002411271522304523 0 -0.010354907779175799 -0.0035945545611086429 0 -0.0066625175151609466 -0.0019268606880657598 0 -0.006266995327581259 -0.0024891102678079318 0 -0.0065603208171578168 -0.0023778016803633261 0 -0.0064763871864940373 -0.002622725299442475 0 -0.006266995327581259 -0.0024891102678079318 0 -0.0065603208171578168 -0.0023778016803633261 0 -0.01415740197719108 -0.0044501678296915009 0 -0.013806958128790594 -0.0046587249570876283 0 -0.013792923117778348 -0.0040655170181976034 0 -0.01402337630879281 -0.0032410629303946397 0 -0.01415740197719108 -0.0044501678296915009 0 -0.013792923117778348 -0.0040655170181976034 0 -0.013121439494425097 -0.004676091527749256 0 -0.01285739674397632 -0.0041297805492220407 0 -0.012601860994686674 -0.0048225931473891443 0 -0.013121439494425097 -0.004676091527749256 0 -0.013428810577457715 -0.0042820520874365907 0 -0.01285739674397632 -0.0041297805492220407 0 -0.013121439494425097 -0.004676091527749256 0 -0.013806958128790594 -0.0046587249570876283 0 -0.013428810577457715 -0.0042820520874365907 0 -0.013806958128790594 -0.0046587249570876283 0 -0.013428810577457715 -0.0042820520874365907 0 -0.013792923117778348 -0.0040655170181976034 0 -0.01402337630879281 -0.0032410629303946397 0 -0.013792923117778348 -0.0040655170181976034 0 -0.013506608890637985 -0.0037640101467132838 0 -0.013428810577457715 -0.0042820520874365907 0 -0.013792923117778348 -0.0040655170181976034 0 -0.013506608890637985 -0.0037640101467132838 0 -0.013428810577457715 -0.0042820520874365907 0 -0.013506608890637985 -0.0037640101467132838 0 -0.01285739674397632 -0.0041297805492220407 0 -0.013198448053551444 -0.003174425770159848 0 -0.013506608890637985 -0.0037640101467132838 0 -0.01285739674397632 -0.0041297805492220407 0 -0.01221794723616753 -0.0034438460628551837 0 -0.01285739674397632 -0.0041297805492220407 0 -0.011626315321439526 -0.0043662568654026642 0 -0.01285739674397632 -0.0041297805492220407 0 -0.012601860994686674 -0.0048225931473891443 0 -0.011626315321439526 -0.0043662568654026642 0 -0.012601860994686674 -0.0048225931473891443 0 -0.011626315321439526 -0.0043662568654026642 0 -0.01189249371444342 -0.0051818665839136451 0 -0.01221794723616753 -0.0034438460628551837 0 -0.011626315321439526 -0.0043662568654026642 0 -0.010833919273869277 -0.0037008156543467986 0 -0.0097311516368716947 -0.0032077275032596493 0 -0.0093126602272868095 -0.0046689642229475505 0 -0.010833919273869277 -0.0037008156543467986 0 -0.0093126602272868095 -0.0046689642229475505 0 -0.010833919273869277 -0.0037008156543467986 0 -0.010498205342346207 -0.0054726918464432618 0 -0.011626315321439526 -0.0043662568654026642 0 -0.010833919273869277 -0.0037008156543467986 0 -0.010498205342346207 -0.0054726918464432618 0 -0.011458367593294166 -0.0045161016408254585 0 -0.010616851274865264 -0.0052548406435073639 0 -0.0079841293221590854 -0.0056649428282567089 0 -0.0081707184285354888 -0.004375951380184079 0 -0.0095826659594163699 -0.0061606599177362158 0 -0.010603488371342657 -0.0052330592374161457 0 -0.011773214784845783 -0.0061224430707837851 0 -0.0079841293221590854 -0.0056649428282567089 0 -0.010616851274865264 -0.0052548406435073639 0 -0.012608676575308665 -0.0065973674938312145 0 -0.012208232354666162 -0.0056092695701439165 0 -0.010619706735925322 -0.0066213572334902588 0 -0.0073147781503731081 -0.0034150637967694441 0 -0.0081707184285354888 -0.004375951380184079 0 -0.012848462763442129 -0.0053825625604976002 0 -0.011773214784845783 -0.0061224430707837851 0 -0.01189249371444342 -0.0051818665839136451 0 -0.012658889973800326 -0.0052637266628781524 0 -0.0081707184285354888 -0.004375951380184079 0 -0.012848462763442129 -0.0053825625604976002 0 -0.012601860994686674 -0.0048225931473891443 0 -0.01189249371444342 -0.0051818665839136451 0 -0.011626315321439526 -0.0043662568654026642 0 -0.010603488371342657 -0.0052330592374161457 0 -0.01189249371444342 -0.0051818665839136451 0 -0.010603488371342657 -0.0052330592374161457 0 -0.011773214784845783 -0.0061224430707837851 0 -0.01189249371444342 -0.0051818665839136451 0 -0.0078667952191014447 -0.0028291573617208461 0 -0.0073649971629037043 -0.0028221572396698925 0 -0.0076424117727459887 -0.0031933234837732858 0 -0.0078667952191014447 -0.0028291573617208461 0 -0.0077141011330580768 -0.0024217735128187821 0 -0.0073649971629037043 -0.0028221572396698925 0 -0.0078667952191014447 -0.0028291573617208461 0 -0.0083152141795548706 -0.0028303559110608137 0 -0.0079919094194059754 -0.0032118251874769751 0 -0.0078667952191014447 -0.0028291573617208461 0 -0.0083152141795548706 -0.0028303559110608137 0 -0.0080363769238134177 -0.0024686092945441448 0 -0.0082591182694318858 -0.0026554471089010752 0 -0.0082786030396166024 -0.0021874918546278921 0 -0.0084516030219931888 -0.0023769154903670675 0 -0.0082197055239995893 -0.0025099988494621008 0 -0.0082781962579238939 -0.0021402302849883215 0 -0.0083152141795548706 -0.0028303559110608137 0 -0.0080363769238134177 -0.0024686092945441448 0 -0.0082781962579238939 -0.0021402302849883215 0 -0.0080363769238134177 -0.0024686092945441448 0 -0.0082781962579238939 -0.0021402302849883215 0 -0.0079986220744064848 -0.0021605284748239116 0 -0.0077760214478432479 -0.0019151011813521234 0 -0.0079986220744064848 -0.0021605284748239116 0 -0.0077141011330580768 -0.0024217735128187821 0 -0.0077760214478432479 -0.0019151011813521234 0 -0.0077141011330580768 -0.0024217735128187821 0 -0.0073439179107718322 -0.0022376918430390396 0 -0.0080363769238134177 -0.0024686092945441448 0 -0.0079986220744064848 -0.0021605284748239116 0 -0.0077141011330580768 -0.0024217735128187821 0 -0.0078667952191014447 -0.0028291573617208461 0 -0.0080363769238134177 -0.0024686092945441448 0 -0.0077141011330580768 -0.0024217735128187821 0 -0.0073439179107718322 -0.0022376918430390396 0 -0.006840365580997842 -0.002465768295031479 0 -0.0073649971629037043 -0.0028221572396698925 0 -0.0077141011330580768 -0.0024217735128187821 0 -0.0073439179107718322 -0.0022376918430390396 0 -0.0073649971629037043 -0.0028221572396698925 0 -0.0070355937632354997 -0.0017630334192468222 0 -0.0073439179107718322 -0.0022376918430390396 0 -0.006840365580997842 -0.002465768295031479 0 -0.0066625175151609466 -0.0019268606880657598 0 -0.0065603208171578168 -0.0023778016803633261 0 -0.006840365580997842 -0.002465768295031479 0 -0.0064763871864940373 -0.002622725299442475 0 -0.0065603208171578168 -0.0023778016803633261 0 -0.006840365580997842 -0.002465768295031479 0 -0.0065093012181566857 -0.0029629968301799043 0 -0.006840365580997842 -0.002465768295031479 0 -0.0069489603756515772 -0.0030305412187743579 0 -0.0065093012181566857 -0.0029629968301799043 0 -0.0064763871864940373 -0.002622725299442475 0 -0.006840365580997842 -0.002465768295031479 0 -0.006840365580997842 -0.002465768295031479 0 -0.0069489603756515772 -0.0030305412187743579 0 -0.0073649971629037043 -0.0028221572396698925 0 -0.0073649971629037043 -0.0028221572396698925 0 -0.0072611427764483275 -0.0034745777948497728 0 -0.0076424117727459887 -0.0031933234837732858 0 -0.0069489603756515772 -0.0030305412187743579 0 -0.0073649971629037043 -0.0028221572396698925 0 -0.0072611427764483275 -0.0034745777948497728 0 -0.0065093012181566857 -0.0029629968301799043 0 -0.0069489603756515772 -0.0030305412187743579 0 -0.0067798506771227802 -0.0035264703236443824 0 -0.0063485906163158528 -0.0037117422900256217 0 -0.0065093012181566857 -0.0029629968301799043 0 -0.0067798506771227802 -0.0035264703236443824 0 -0.0069489603756515772 -0.0030305412187743579 0 -0.0072611427764483275 -0.0034745777948497728 0 -0.0067798506771227802 -0.0035264703236443824 0 -0.0072611427764483275 -0.0034745777948497728 0 -0.0067798506771227802 -0.0035264703236443824 0 -0.0068674542227047577 -0.0040186958645638824 0 -0.0061917802226401867 -0.0042264398101180363 0 -0.0063485906163158528 -0.0037117422900256217 0 -0.0068674542227047577 -0.0040186958645638824 0 -0.0063485906163158528 -0.0037117422900256217 0 -0.0067798506771227802 -0.0035264703236443824 0 -0.0068674542227047577 -0.0040186958645638824 0 -0.0072611427764483275 -0.0034745777948497728 0 -0.0068674542227047577 -0.0040186958645638824 0 -0.0073918023437632629 -0.0039739924634323957 0 -0.0072611427764483275 -0.0034745777948497728 0 -0.0073918023437632629 -0.0039739924634323957 0 -0.0077844653909212658 -0.0036322432603632243 0 -0.0073918023437632629 -0.0039739924634323957 0 -0.0077766555546603406 -0.0040373082994754443 0 -0.0077844653909212658 -0.0036322432603632243 0 -0.0077766555546603406 -0.0040373082994754443 0 -0.0077844653909212658 -0.0036322432603632243 0 -0.0080562496172786619 -0.0039633379063974822 0 -0.0077766555546603406 -0.0040373082994754443 0 -0.0080562496172786619 -0.0039633379063974822 0 -0.0079685981884694036 -0.0042495269575593513 0 -0.0072611427764483275 -0.0034745777948497728 0 -0.0077844653909212658 -0.0036322432603632243 0 -0.0076424117727459887 -0.0031933234837732858 0 -0.0077844653909212658 -0.0036322432603632243 0 -0.0079919094194059754 -0.0032118251874769751 0 -0.0076424117727459887 -0.0031933234837732858 0 -0.0078667952191014447 -0.0028291573617208461 0 -0.0079919094194059754 -0.0032118251874769751 0 -0.0076424117727459887 -0.0031933234837732858 0 -0.0077844653909212658 -0.0036322432603632243 0 -0.0079919094194059754 -0.0032118251874769751 0 -0.008318343711263932 -0.0035866541064875118 0 -0.0083152141795548706 -0.0028303559110608137 0 -0.0079919094194059754 -0.0032118251874769751 0 -0.008318343711263932 -0.0035866541064875118 0 -0.0082591182694318858 -0.0026554471089010752 0 -0.0083361823820050848 -0.0032869479608465457 0 -0.0084217012334635837 -0.0026821216057083134 0 -0.0082197055239995893 -0.0025099988494621008 0 -0.0081814464930405305 -0.0028701900839973298 0 -0.0077844653909212658 -0.0036322432603632243 0 -0.008318343711263932 -0.0035866541064875118 0 -0.0080562496172786619 -0.0039633379063974822 0 -0.008318343711263932 -0.0035866541064875118 0 -0.0080562496172786619 -0.0039633379063974822 0 -0.0083031959369803694 -0.0043860441713736804 0 -0.0083047841681214828 -0.002965317137587803 0 -0.0081814464930405305 -0.0028701900839973298 0 -0.008150435410301568 -0.0032765341404006896 0 -0.0083361823820050848 -0.0032869479608465457 0 -0.0072585168631579978 -0.0035670892860476715 0 -0.0083128855116910826 -0.002889100517254363 0 -0.0072585168631579978 -0.0035670892860476715 0 -0.0083125711194819377 -0.0034238899211772988 0 -0.0079696937649560602 -0.0033359202195595906 0 -0.0079480666414705817 -0.0035457743955631836 0 -0.0081810443571298953 -0.0029951414261966533 0 -0.0082039851306396124 -0.0032222232541649228 0 -0.0079696937649560602 -0.0033359202195595906 0 -0.0072585168631579978 -0.0035670892860476715 0 -0.0041511100877575568 -0.0033287827104792117 0 -0.0072585168631579978 -0.0035670892860476715 0 -0.0052134437519089308 -0.0037320412615463924 0 -0.0083031959369803694 -0.0043860441713736804 0 -0.0079961149741525628 -0.0045091227683934322 0 -0.0079685981884694036 -0.0042495269575593513 0 -0.0083031959369803694 -0.0043860441713736804 0 -0.0079961149741525628 -0.0045091227683934322 0 -0.0081079554362868539 -0.0048134208941456548 0 -0.0080562496172786619 -0.0039633379063974822 0 -0.0083031959369803694 -0.0043860441713736804 0 -0.0079685981884694036 -0.0042495269575593513 0 -0.0077766555546603406 -0.0040373082994754443 0 -0.0079685981884694036 -0.0042495269575593513 0 -0.0077129770408335433 -0.0043553292369390897 0 -0.0073918023437632629 -0.0039739924634323957 0 -0.0077129770408335433 -0.0043553292369390897 0 -0.0073176784816921542 -0.0046017197515736989 0 -0.0079961149741525628 -0.0045091227683934322 0 -0.0079685981884694036 -0.0042495269575593513 0 -0.0077129770408335433 -0.0043553292369390897 0 -0.0073918023437632629 -0.0039739924634323957 0 -0.0077766555546603406 -0.0040373082994754443 0 -0.0077129770408335433 -0.0043553292369390897 0 -0.0077129770408335433 -0.0043553292369390897 0 -0.0077285930104290662 -0.0046531618559000126 0 -0.0073176784816921542 -0.0046017197515736989 0 -0.0079961149741525628 -0.0045091227683934322 0 -0.0077129770408335433 -0.0043553292369390897 0 -0.0077285930104290662 -0.0046531618559000126 0 -0.0079961149741525628 -0.0045091227683934322 0 -0.0077285930104290662 -0.0046531618559000126 0 -0.0081079554362868539 -0.0048134208941456548 0 -0.0077285930104290662 -0.0046531618559000126 0 -0.007531747703951641 -0.0049971890683048019 0 -0.0081079554362868539 -0.0048134208941456548 0 -0.007531747703951641 -0.0049971890683048019 0 -0.0079816422087279348 -0.004847423983695056 0 -0.0071374840457614263 -0.0052711661271840991 0 -0.0040068169676991785 -0.0031462077271481544 0 -0.0042013926882147725 -0.0038596542688631497 0 -0.007531747703951641 -0.0049971890683048019 0 -0.0080031321262095285 -0.0047921416945903737 0 -0.0079816422087279348 -0.004847423983695056 0 -0.0083045838105917074 -0.0046820168866169923 0 -0.0052134437519089308 -0.0037320412615463924 0 -0.0077285930104290662 -0.0046531618559000126 0 -0.007531747703951641 -0.0049971890683048019 0 -0.0073176784816921542 -0.0046017197515736989 0 -0.001075728754560122 -0.002677154441139056 0 -0.00081753385610422035 -0.002488902752452326 0 -0.00078464360343721232 -0.002771569498041982 0 -0.001397626149525536 -0.0023048657195311804 0 -0.001359918296340395 -0.0023251141465884446 0 -0.0013628664584789242 -0.0024527896954834329 0 -0.0041511100877575568 -0.0033287827104792117 0 -0.0010774620405089061 -0.0024658731628761786 0 -0.0013350746483133105 -0.0023327844190736331 0 -0.001359918296340395 -0.0023251141465884446 0 -0.0013628664584789242 -0.0024527896954834329 0 -0.0041511100877575568 -0.0033287827104792117 0 -0.0052134437519089308 -0.0037320412615463924 0 -0.0059720527819129348 -0.0032796088578504021 0 -0.0059534490283303524 -0.0039202483668827276 0 -0.0056200516634220517 -0.0040287360221282183 0 -0.0052134437519089308 -0.0037320412615463924 0 -0.0040068169676991785 -0.0031462077271481544 0 -0.0040068169676991785 -0.0031462077271481544 0 -0.0035424571702812376 -0.003220306053165221 0 -0.001397626149525536 -0.0023048657195311804 0 -0.001350371807392392 -0.0023200511665209364 0 -0.001359918296340395 -0.0023251141465884446 0 -0.001350371807392392 -0.0023200511665209364 0 -0.0013496971880220436 -0.0023305110986380907 0 -0.001359918296340395 -0.0023251141465884446 0 -0.0061776522171289724 -0.0048506245300185642 0 -0.0061917802226401867 -0.0042264398101180363 0 -0.0067742576804674772 -0.0046092728849058779 0 -0.0061917802226401867 -0.0042264398101180363 0 -0.0068674542227047577 -0.0040186958645638824 0 -0.0067742576804674772 -0.0046092728849058779 0 -0.0068674542227047577 -0.0040186958645638824 0 -0.0073918023437632629 -0.0039739924634323957 0 -0.0073176784816921542 -0.0046017197515736989 0 -0.0068674542227047577 -0.0040186958645638824 0 -0.0067742576804674772 -0.0046092728849058779 0 -0.0073176784816921542 -0.0046017197515736989 0 -0.0067742576804674772 -0.0046092728849058779 0 -0.0073176784816921542 -0.0046017197515736989 0 -0.0070624048844346102 -0.0048953357233549027 0 -0.007531747703951641 -0.0049971890683048019 0 -0.0073176784816921542 -0.0046017197515736989 0 -0.0070624048844346102 -0.0048953357233549027 0 -0.007531747703951641 -0.0049971890683048019 0 -0.0070624048844346102 -0.0048953357233549027 0 -0.0071374840457614263 -0.0052711661271840991 0 -0.0070624048844346102 -0.0048953357233549027 0 -0.0066584589844917198 -0.0050687619559595725 0 -0.0071374840457614263 -0.0052711661271840991 0 -0.0061776522171289724 -0.0048506245300185642 0 -0.0067742576804674772 -0.0046092728849058779 0 -0.0066584589844917198 -0.0050687619559595725 0 -0.0067742576804674772 -0.0046092728849058779 0 -0.0070624048844346102 -0.0048953357233549027 0 -0.0066584589844917198 -0.0050687619559595725 0 -0.0033408812227509253 -0.0041026858923050909 0 -0.0042013926882147725 -0.0038596542688631497 0 -0.0061225983083053898 -0.0057328354664332136 0 -0.0066584589844917198 -0.0050687619559595725 0 -0.0071374840457614263 -0.0052711661271840991 0 -0.00064983606664267694 -0.0024961470482928031 0 -0.00099468857710499842 -0.0023621045027495636 0 -0.0009576817428888785 -0.0025466479311035562 0 -0.00099468857710499842 -0.0023621045027495636 0 -0.0009576817428888785 -0.0025466479311035562 0 -0.0011704785441686866 -0.0025612963452497925 0 -0.0009576817428888785 -0.0025466479311035562 0 -0.0011704785441686866 -0.0025612963452497925 0 -0.00091066627830623664 -0.0027228734276043111 0 -0.00064983606664267694 -0.0024961470482928031 0 -0.0009576817428888785 -0.0025466479311035562 0 -0.00091066627830623664 -0.0027228734276043111 0 -0.00064983606664267694 -0.0024961470482928031 0 -0.00091066627830623664 -0.0027228734276043111 0 -0.00058141546410709136 -0.0027351997719407312 0 -0.0010774620405089061 -0.0024658731628761786 0 0.0016904993502848086 -0.0027928139213531365 0 -0.0013628664584789242 -0.0024527896954834329 0 -0.0011704785441686866 -0.0025612963452497925 0 -0.0013379204293591134 -0.0026148266636534028 0 -0.0013350746483133105 -0.0023327844190736331 0 -0.0013628664584789242 -0.0024527896954834329 0 -0.0011704785441686866 -0.0025612963452497925 0 -0.001075728754560122 -0.002677154441139056 0 -0.00078464360343721232 -0.002771569498041982 0 -0.00075513385836794558 -0.0030614417041212733 0 -0.0013910098453049533 -0.0022185613066342171 0 -0.00099468857710499842 -0.0023621045027495636 0 -0.0011704785441686866 -0.0025612963452497925 0 -0.0040068169676991785 -0.0031462077271481544 0 -0.00042930790395508665 -0.0023551034280171693 0 -0.0011704785441686866 -0.0025612963452497925 0 -0.0011903287736199002 -0.0027912265752464008 0 -0.00091066627830623664 -0.0027228734276043111 0 -0.0011704785441686866 -0.0025612963452497925 0 -0.0013379204293591134 -0.0026148266636534028 0 -0.0011903287736199002 -0.0027912265752464008 0 0.0016904993502848086 -0.0027928139213531365 0 0.0012289795303151278 -0.0028392794290737276 0 0.0016904993502848086 -0.0027928139213531365 0 0.0045294212728892412 -0.0027511027481919898 0 0.0039712097904086273 -0.0031504970722214696 0 0.0038247225564912832 -0.0029359541122906648 0 0.0040170587141549578 -0.0028114417020974631 0 0.0046828817164089875 -0.0025298654265601098 0 0.0044451669847149688 -0.0027274745879756861 0 0.004537846598406222 -0.0026612198404359915 0 0.0038247225564912832 -0.0029359541122906648 0 0.0038404626420064434 -0.0027833730377268134 0 0.0040170587141549578 -0.0028114417020974631 0 0.0012289795303151278 -0.0028392794290737276 0 0.0018353247724862023 -0.0026811047286988293 0 0.0038247225564912832 -0.0029359541122906648 0 0.0038404626420064434 -0.0027833730377268134 0 0.0036780494257845318 -0.0027107838638945354 0 0.0038247225564912832 -0.0029359541122906648 0 0.0036780494257845318 -0.0027107838638945354 0 0.0036064640636039591 -0.0026899506597349875 0 0.0038404626420064434 -0.0027833730377268134 0 0.0036780494257845318 -0.0027107838638945354 0 0.0037534285334311361 -0.0026521475449711928 0 0.0037534285334311361 -0.0026521475449711928 0 0.0035973683370866603 -0.0026865178705236577 0 0.0037317683204703073 -0.0024460387719517553 0 0.0036780494257845318 -0.0027107838638945354 0 0.0037534285334311361 -0.0026521475449711928 0 0.0035973683370866603 -0.0026865178705236577 0 0.0027183834746030947 -0.0028825183996914502 0 0.0018353247724862023 -0.0026811047286988293 0 0.0037534285334311361 -0.0026521475449711928 0 0.0039100927507070195 -0.0026174155090813614 0 0.0037317683204703073 -0.0024460387719517553 0 0.0038404626420064434 -0.0027833730377268134 0 0.0037534285334311361 -0.0026521475449711928 0 0.0039100927507070195 -0.0026174155090813614 0 0.0045294212728892412 -0.0027511027481919898 0 0.0040669920907572439 -0.0023761001088485729 0 0.0039100927507070195 -0.0026174155090813614 0 0.0040170587141549578 -0.0028114417020974631 0 0.0041134657502759171 -0.002378356377781604 0 0.0044451669847149688 -0.0027274745879756861 0 0.0041134657502759171 -0.002378356377781604 0 0.0043831397072958168 -0.0025769172843884869 0 0.0038404626420064434 -0.0027833730377268134 0 0.0039100927507070195 -0.0026174155090813614 0 0.0040170587141549578 -0.0028114417020974631 0 -0.00091066627830623664 -0.0027228734276043111 0 -0.00076308268995338728 -0.0028678069590095316 0 -0.00058141546410709136 -0.0027351997719407312 0 -0.0011903287736199002 -0.0027912265752464008 0 -0.00091066627830623664 -0.0027228734276043111 0 -0.0010230640419197888 -0.002975145292055358 0 -0.00091066627830623664 -0.0027228734276043111 0 -0.0010230640419197888 -0.002975145292055358 0 -0.00076308268995338728 -0.0028678069590095316 0 0.0018353247724862023 -0.0026811047286988293 0 0.00020573974819151198 -0.0026396382345649548 0 -0.0010230640419197888 -0.002975145292055358 0 -0.00081656070352335765 -0.0030353230787745081 0 -0.00076308268995338728 -0.0028678069590095316 0 -0.00081656070352335765 -0.0030353230787745081 0 -0.00076308268995338728 -0.0028678069590095316 0 -0.00060465167816696854 -0.0030957202815049345 0 0.0038815221327625541 -0.0014529605654002276 0 0.00074414649429810375 -0.0024410019028385851 0 0.0017378053652554689 -0.0023776432953676518 0 0.0018203933852022117 -0.001971196937375525 0 0.001204710815488606 -0.0021948606486170983 0 0.00020573974819151198 -0.0026396382345649548 0 0.00074414649429810375 -0.0024410019028385851 0 0.0038202984072770469 -0.00086671482672415678 0 0.0036772191656264134 -0.00067517532597356886 0 0.0031846526263434082 -0.0010929045645461637 0 0.0035973683370866603 -0.0026865178705236577 0 0.0033063123304409728 -0.0023067939581458354 0 0.0037317683204703073 -0.0024460387719517553 0 0.0022616819361111614 -0.002561463141766833 0 0.0017378053652554689 -0.0023776432953676518 0 0.0018203933852022117 -0.001971196937375525 0 0.0018353247724862023 -0.0026811047286988293 0 0.0038815221327625541 -0.0014529605654002276 0 0.0033063123304409728 -0.0023067939581458354 0 0.0037317683204703073 -0.0024460387719517553 0 0.0037347541418070109 -0.0021466800119427031 0 0.0054418939886020663 -0.00096070354519059073 0 0.0051610138335202362 -0.001004332132137927 0 0.0053174416740963265 -0.0011478265539083302 0 0.0038815221327625541 -0.0014529605654002276 0 0.0045456257210315255 -0.0015690710359208167 0 0.0054849029086829317 -0.00085777694426256049 0 0.0054418939886020663 -0.00096070354519059073 0 0.0051610138335202362 -0.001004332132137927 0 0.0054418939886020663 -0.00096070354519059073 0 0.0053174416740963265 -0.0011478265539083302 0 0.0055534849638850083 -0.0011396336104506364 0 0.0055645335949491056 -0.00093846985163912905 0 0.0055534849638850083 -0.0011396336104506364 0 0.0058295265044425249 -0.0012480232927041389 0 0.0050543076320084188 -0.00012883558991756808 0 0.0058354653685701715 0.00032949945164399875 0 0.0054096456226489309 -0.00047878460670604939 0 0.0050543076320084188 -0.00012883558991756808 0 0.0054849029086829317 -0.00085777694426256049 0 0.0054418939886020663 -0.00096070354519059073 0 0.0055493847183273985 -0.00094355115693708664 0 0.0038815221327625541 -0.0014529605654002276 0 0.0050543076320084188 -0.00012883558991756808 0 0.0054418939886020663 -0.00096070354519059073 0 0.0055645335949491056 -0.00093846985163912905 0 0.0055534849638850083 -0.0011396336104506364 0 0.0041134657502759171 -0.002378356377781604 0 0.0037317683204703073 -0.0024460387719517553 0 0.0037347541418070109 -0.0021466800119427031 0 0.0039100927507070195 -0.0026174155090813614 0 0.0041134657502759171 -0.002378356377781604 0 0.0037317683204703073 -0.0024460387719517553 0 0.0051610138335202362 -0.001004332132137927 0 0.0050670143090801433 -0.0012763330473276491 0 0.0053174416740963265 -0.0011478265539083302 0 0.0051610138335202362 -0.001004332132137927 0 0.0048563342978410074 -0.0011977717755673072 0 0.0050670143090801433 -0.0012763330473276491 0 0.0041134657502759171 -0.002378356377781604 0 0.0037347541418070109 -0.0021466800119427031 0 0.0041671614579328184 -0.0019366492778518435 0 0.0045456257210315255 -0.0015690710359208167 0 0.0045208712195773096 -0.0015711425975897773 0 0.0048563342978410074 -0.0011977717755673072 0 0.0050670143090801433 -0.0012763330473276491 0 0.0048047636833945485 -0.0013305311115695592 0 0.0045565949225368236 -0.00092725400393668157 0 0.0048339542488075532 -0.00071898106022413497 0 0.0048256232449821138 -0.0010358533672596426 0 0.0050539533415597795 -0.0015212956038774146 0 0.0050670143090801433 -0.0012763330473276491 0 0.0048047636833945485 -0.0013305311115695592 0 0.0045565949225368236 -0.00092725400393668157 0 0.0048256232449821138 -0.0010358533672596426 0 0.0048047636833945485 -0.0013305311115695592 0 0.0049679013096387203 -0.0013074629780781047 0 0.0047554881124605621 -0.0012840447285949095 0 0.0050539533415597795 -0.0015212956038774146 0 0.0053043303843835462 -0.0014244728722723405 0 0.0053693909481631686 -0.0017567556741141012 0 0.0050539533415597795 -0.0015212956038774146 0 0.0050670143090801433 -0.0012763330473276491 0 0.0053043303843835462 -0.0014244728722723405 0 0.0050670143090801433 -0.0012763330473276491 0 0.0053174416740963265 -0.0011478265539083302 0 0.0053043303843835462 -0.0014244728722723405 0 0.0053174416740963265 -0.0011478265539083302 0 0.0054842333975174658 -0.00127256023275105 0 0.0053043303843835462 -0.0014244728722723405 0 0.0053174416740963265 -0.0011478265539083302 0 0.0054842333975174658 -0.00127256023275105 0 0.0055534849638850083 -0.0011396336104506364 0 0.0055534849638850083 -0.0011396336104506364 0 0.0056579257659470769 -0.0012836504007277647 0 0.0058295265044425249 -0.0012480232927041389 0 0.0054842333975174658 -0.00127256023275105 0 0.0055534849638850083 -0.0011396336104506364 0 0.0056579257659470769 -0.0012836504007277647 0 0.0054842333975174658 -0.00127256023275105 0 0.0056579257659470769 -0.0012836504007277647 0 0.0055911447804382298 -0.0014257986087254165 0 0.0056579257659470769 -0.0012836504007277647 0 0.0055911447804382298 -0.0014257986087254165 0 0.0058120366365146826 -0.0013347076271501813 0 0.0055911447804382298 -0.0014257986087254165 0 0.005471421012712631 -0.0015692585215605478 0 0.00562482657803514 -0.0015805161193688021 0 0.0055911447804382298 -0.0014257986087254165 0 0.0058067938105413096 -0.0015581905080404941 0 0.0058120366365146826 -0.0013347076271501813 0 0.0055911447804382298 -0.0014257986087254165 0 0.00562482657803514 -0.0015805161193688021 0 0.0058067938105413096 -0.0015581905080404941 0 0.0054842333975174658 -0.00127256023275105 0 0.0055911447804382298 -0.0014257986087254165 0 0.0053043303843835462 -0.0014244728722723405 0 0.0055911447804382298 -0.0014257986087254165 0 0.0053043303843835462 -0.0014244728722723405 0 0.005471421012712631 -0.0015692585215605478 0 0.0053043303843835462 -0.0014244728722723405 0 0.005471421012712631 -0.0015692585215605478 0 0.0053693909481631686 -0.0017567556741141012 0 0.005471421012712631 -0.0015692585215605478 0 0.0053693909481631686 -0.0017567556741141012 0 0.0056482970745499123 -0.0017636347473200112 0 0.00562482657803514 -0.0015805161193688021 0 0.0056482970745499123 -0.0017636347473200112 0 0.0058067938105413096 -0.0015581905080404941 0 0.005471421012712631 -0.0015692585215605478 0 0.00562482657803514 -0.0015805161193688021 0 0.0056482970745499123 -0.0017636347473200112 0 0.0056482970745499123 -0.0017636347473200112 0 0.0057509408119953628 -0.0020214643312657884 0 0.0059250939676607365 -0.0018312327915063732 0 0.0040897807650386473 -0.00097945758012145758 0 0.008947948086692626 -0.0012519011363693413 0 0.0053693909481631686 -0.0017567556741141012 0 0.0056482970745499123 -0.0017636347473200112 0 0.0057509408119953628 -0.0020214643312657884 0 0.014415633891828364 -0.0021634235421284075 0 0.014463894384299687 -0.0020192062501858937 0 0.0137500032018315 -0.0018875911084835679 0 0.004316784099586907 -0.00061175706500476101 0 0.0040687737150544223 -0.00036575931963700144 0 0.0043731441451946938 -0.00031918918150350124 0 0.004316784099586907 -0.00061175706500476101 0 0.0043731441451946938 -0.00031918918150350124 0 0.0045716592079131733 -0.00044918321079388433 0 0.0045716592079131733 -0.00044918321079388433 0 0.0048339542488075532 -0.00071898106022413497 0 0.0049622732891021837 -0.00032103540731947969 0 0.0045565949225368236 -0.00092725400393668157 0 0.0045716592079131733 -0.00044918321079388433 0 0.0048339542488075532 -0.00071898106022413497 0 0.0045565949225368236 -0.00092725400393668157 0 0.004316784099586907 -0.00061175706500476101 0 0.0045716592079131733 -0.00044918321079388433 0 0.0049679013096387203 -0.0013074629780781047 0 0.0040897807650386473 -0.00097945758012145758 0 0.0052066277503419918 0.0023607084192836009 0 0.0051935528136379337 0.0023676051938380173 0 0.0052513319978604606 0.0023343407837757204 0 0.0051870105877444735 0.0023605931133126503 0 0.0052066277503419918 0.0023607084192836009 0 0.0052513319978604606 0.0023343407837757204 0 0.0051870105877444735 0.0023605931133126503 0 0.0052066277503419918 0.0023607084192836009 0 0.0052062144316500185 0.0023636440496978173 0 0.0057885567557715255 0.0017457192243631302 0 0.0062107690872486273 0.0012959136618541521 0 0.0062107690872486273 0.0012959136618541521 0 0.0052655571913466899 0.0022483870066161492 0 0.0052066277503419918 0.0023607084192836009 0 0.0052062144316500185 0.0023636440496978173 0 0.0052407338820717672 0.0023022489046060565 0 0.0052892350607974224 0.0021746046477924318 0 0.005225542335607871 0.0021042524514561772 0 0.0052808258315030811 0.0021209835707174615 0 0.0052066277503419918 0.0023607084192836009 0 0.0051935528136379337 0.0023676051938380173 0 0.0051618391044606542 0.002321101525688173 0 0.0051935528136379337 0.0023676051938380173 0 0.0052812163548302876 0.0023871189296605201 0 0.0051025151977170365 0.0023517091161274653 0 0.0051935528136379337 0.0023676051938380173 0 0.0050358294974039196 0.0022751995156097609 0 0.0051025151977170365 0.0023517091161274653 0 0.0052812163548302876 0.0023871189296605201 0 0.0051025151977170365 0.0023517091161274653 0 0.0053027388507730852 0.0024445845179499079 0 0.0051935528136379337 0.0023676051938380173 0 0.0052812163548302876 0.0023871189296605201 0 0.0052513319978604606 0.0023343407837757204 0 0.0052812163548302876 0.0023871189296605201 0 0.0054416860926309076 0.0022446262872860031 0 0.0052513319978604606 0.0023343407837757204 0 0.0052812163548302876 0.0023871189296605201 0 0.0054416860926309076 0.0022446262872860031 0 0.0053027388507730852 0.0024445845179499079 0 0.0054416860926309076 0.0022446262872860031 0 0.005301119718855273 0.0021829973236428012 0 0.0052513319978604606 0.0023343407837757204 0 0.0054416860926309076 0.0022446262872860031 0 0.005301119718855273 0.0021829973236428012 0 0.005480134995212816 0.002061912995439349 0 0.007409239889842773 0.00089164541679266163 0 0.0073516424141870972 0.00081606052622800916 0 0.0074312833932534128 0.00073160995481827645 0 0.0057885567557715255 0.0017457192243631302 0 0.0063354763412815564 0.0013656735275719958 0 0.0057885567557715255 0.0017457192243631302 0 0.0050813389279679771 0.0024555243313959581 0 0.0051870105877444735 0.0023605931133126503 0 0.005301119718855273 0.0021829973236428012 0 0.0052513319978604606 0.0023343407837757204 0 0.0051319880486520066 0.0024031591062344273 0 0.005301119718855273 0.0021829973236428012 0 0.0051466693861204798 0.002052369840393952 0 0.0072199938472418271 -0.00010393481667093521 0 0.0071643745775478891 -6.5210155393072698e-05 0 0.0072051230649723521 -0.00016176390210341645 0 0.0072199938472418271 -0.00010393481667093521 0 0.0071643745775478891 -6.5210155393072698e-05 0 0.0072386974085826292 -4.1148372267836437e-05 0 0.0072597711991353583 0.00027820795905068738 0 0.0089038871816461539 -0.00024216127643313866 0 0.007409239889842773 0.00089164541679266163 0 0.0073516424141870972 0.00081606052622800916 0 0.0073864432428421278 0.00091982943458424212 0 0.0072597711991353583 0.00027820795905068738 0 0.0062107690872486273 0.0012959136618541521 0 0.0088556698010362096 -0.0020170748215571997 0 0.010168841934164386 -0.00072970647902604691 0 0.0088629537272579759 -0.0013946212313537194 0 0.0087880356265980682 -0.001471856509492503 0 0.0086518527113146702 -0.00080513819501003704 0 0.014313809825268713 -0.0023222938990848088 0 0.013412147537965439 -0.003288483215369873 0 0.0137500032018315 -0.0018875911084835679 0 0.013412147537965439 -0.003288483215369873 0 0.0137500032018315 -0.0018875911084835679 0 0.012748358211014251 -0.0012597514307342312 0 0.0073175674566721659 -0.0013859643907084456 0 0.0089038871816461539 -0.00024216127643313866 0 0.008947948086692626 -0.0012519011363693413 0 0.01330320939129959 -0.0029510313576648008 0 0.008947948086692626 -0.0012519011363693413 0 0.0088556698010362096 -0.0020170748215571997 0 0.0059507771554068202 -0.0018600914965515426 0 0.005996217324973083 -0.0018061393152480666 0 0.0058067938105413096 -0.0015581905080404941 0 0.0088556698010362096 -0.0020170748215571997 0 0.0056725101809912016 -0.0012476931474723709 0 0.0056482970745499123 -0.0017636347473200112 0 0.0059250939676607365 -0.0018312327915063732 0 0.0058067938105413096 -0.0015581905080404941 0 0.0058832350462925797 -0.0014919626585601969 0 0.0059582329470048764 -0.0014078124479608249 0 0.0058120366365146826 -0.0013347076271501813 0 0.0073175674566721659 -0.0013859643907084456 0 0.0054795939456831061 -0.0014024659763844287 0 0.0088556698010362096 -0.0020170748215571997 0 0.0073175674566721659 -0.0013859643907084456 0 0.0071643745775478891 -6.5210155393072698e-05 0 0.0072386974085826292 -4.1148372267836437e-05 0 0.0072055282837194803 -2.909040324287182e-06 0 0.0073175674566721659 -0.0013859643907084456 0 0.0060077814992337032 0.00053959847380005048 0 0.0062107690872486273 0.0012959136618541521 0 0.0060077814992337032 0.00053959847380005048 0 0.0052892350607974224 0.0021746046477924318 0 0.0053230962551783249 0.0021217144087383399 0 0.0052808258315030811 0.0021209835707174615 0 0.0054294552412519504 0.0022354661770986719 0 0.0054448870215443677 0.0019825045727028907 0 0.0057315587477160127 0.001852998750186923 0 0.0053230962551783249 0.0021217144087383399 0 0.0052811053308937711 0.0020821058904902023 0 0.0052808258315030811 0.0021209835707174615 0 0.0060077814992337032 0.00053959847380005048 0 0.0056942236325951412 0.001943803508864729 0 0.0054448870215443677 0.0019825045727028907 0 0.0053254170127475407 0.0019234347914616006 0 0.0052811053308937711 0.0020821058904902023 0 0.0054294552412519504 0.0022354661770986719 0 0.0054448870215443677 0.0019825045727028907 0 0.0052811053308937711 0.0020821058904902023 0 0.0060077814992337032 0.00053959847380005048 0 0.0058354653685701715 0.00032949945164399875 0 0.005996217324973083 -0.0018061393152480666 0 0.0058067938105413096 -0.0015581905080404941 0 0.0058120366365146826 -0.0013347076271501813 0 0.0059582329470048764 -0.0014078124479608249 0 0.0058120366365146826 -0.0013347076271501813 0 0.0058295265044425249 -0.0012480232927041389 0 0.0056579257659470769 -0.0012836504007277647 0 0.0058120366365146826 -0.0013347076271501813 0 0.0058295265044425249 -0.0012480232927041389 0 0.0054448870215443677 0.0019825045727028907 0 0.0057315587477160127 0.001852998750186923 0 0.0054686213056667028 0.0018178982726722622 0 0.0054448870215443677 0.0019825045727028907 0 0.0053254170127475407 0.0019234347914616006 0 0.0054686213056667028 0.0018178982726722622 0 0.0057315587477160127 0.001852998750186923 0 0.0054686213056667028 0.0018178982726722622 0 0.0055023232941053988 0.0016188370568510622 0 0.0053254170127475407 0.0019234347914616006 0 0.0054686213056667028 0.0018178982726722622 0 0.0053064888320012871 0.0017029828040390532 0 0.0054686213056667028 0.0018178982726722622 0 0.0053064888320012871 0.0017029828040390532 0 0.0055023232941053988 0.0016188370568510622 0 0.0053064888320012871 0.0017029828040390532 0 0.005156899178096877 0.0017721350437087308 0 0.0052303594674631398 0.0018758952895573855 0 0.0053254170127475407 0.0019234347914616006 0 0.0053064888320012871 0.0017029828040390532 0 0.0052303594674631398 0.0018758952895573855 0 0.005156899178096877 0.0017721350437087308 0 0.0051475599259190544 0.0019977309811455538 0 0.0052303594674631398 0.0018758952895573855 0 0.0051475599259190544 0.0019977309811455538 0 0.0050735455389761567 0.001866581276865821 0 0.0051438578261164417 0.001642454612684678 0 0.005156899178096877 0.0017721350437087308 0 0.0051475599259190544 0.0019977309811455538 0 0.0049540894483669305 0.0016220507787103333 0 0.0051062407039314988 0.0018502458201964699 0 0.0050949721655427927 0.0019108493082438851 0 0.005107912161680446 0.0019988341862080049 0 0.0051475599259190544 0.0019977309811455538 0 0.0050735455389761567 0.001866581276865821 0 0.005107912161680446 0.0019988341862080049 0 0.0051475599259190544 0.0019977309811455538 0 0.0051950880410023305 0.0020304688188113058 0 0.0051475599259190544 0.0019977309811455538 0 0.0052236241513044686 0.0019755560014611396 0 0.0051950880410023305 0.0020304688188113058 0 0.0053254170127475407 0.0019234347914616006 0 0.0052303594674631398 0.0018758952895573855 0 0.0052236241513044686 0.0019755560014611396 0 0.0051475599259190544 0.0019977309811455538 0 0.0052303594674631398 0.0018758952895573855 0 0.0052236241513044686 0.0019755560014611396 0 0.0052236241513044686 0.0019755560014611396 0 0.0052811053308937711 0.0020821058904902023 0 0.0051950880410023305 0.0020304688188113058 0 0.0052811053308937711 0.0020821058904902023 0 0.0051950880410023305 0.0020304688188113058 0 0.005225542335607871 0.0021042524514561772 0 0.0053254170127475407 0.0019234347914616006 0 0.0052236241513044686 0.0019755560014611396 0 0.0052811053308937711 0.0020821058904902023 0 0.0051170589994737996 0.0019982751545982221 0 0.0052655571913466899 0.0022483870066161492 0 0.005107912161680446 0.0019988341862080049 0 0.0051950880410023305 0.0020304688188113058 0 0.005225542335607871 0.0021042524514561772 0 0.005107912161680446 0.0019988341862080049 0 0.0052407338820717672 0.0023022489046060565 0 0.0050935969885630818 0.0022160502687563286 0 0.0051618391044606542 0.002321101525688173 0 0.0052407338820717672 0.0023022489046060565 0 0.0050935969885630818 0.0022160502687563286 0 0.0052066277503419918 0.0023607084192836009 0 0.0051618391044606542 0.002321101525688173 0 0.0052407338820717672 0.0023022489046060565 0 0.0052811053308937711 0.0020821058904902023 0 0.005225542335607871 0.0021042524514561772 0 0.0052808258315030811 0.0021209835707174615 0 0.0050358294974039196 0.0022751995156097609 0 0.0045117970697390658 0.0020417365303155442 0 0.0051025151977170365 0.0023517091161274653 0 0.0050358294974039196 0.0022751995156097609 0 0.0049320479346630563 0.0020953567731375549 0 0.0045117970697390658 0.0020417365303155442 0 0.0051618391044606542 0.002321101525688173 0 0.0050358294974039196 0.0022751995156097609 0 0.0050935969885630818 0.0022160502687563286 0 0.0051935528136379337 0.0023676051938380173 0 0.0051618391044606542 0.002321101525688173 0 0.0050358294974039196 0.0022751995156097609 0 0.0050358294974039196 0.0022751995156097609 0 0.0050935969885630818 0.0022160502687563286 0 0.0049320479346630563 0.0020953567731375549 0 0.0049320479346630563 0.0020953567731375549 0 0.0048539463690717719 0.0018741101398369354 0 0.0045117970697390658 0.0020417365303155442 0 0.005107912161680446 0.0019988341862080049 0 0.0050935969885630818 0.0022160502687563286 0 0.0049320479346630563 0.0020953567731375549 0 0.005107912161680446 0.0019988341862080049 0 0.0049320479346630563 0.0020953567731375549 0 0.0048539463690717719 0.0018741101398369354 0 0.0050735455389761567 0.001866581276865821 0 0.0048539463690717719 0.0018741101398369354 0 0.0051438578261164417 0.001642454612684678 0 0.005107912161680446 0.0019988341862080049 0 0.0050735455389761567 0.001866581276865821 0 0.0048539463690717719 0.0018741101398369354 0 0.0048539463690717719 0.0018741101398369354 0 0.0044822613702614035 0.0016885885849611103 0 0.0045117970697390658 0.0020417365303155442 0 0.0048539463690717719 0.0018741101398369354 0 0.0048316846937043537 0.0014014862077545323 0 0.0044822613702614035 0.0016885885849611103 0 0.0048316846937043537 0.0014014862077545323 0 0.0045216541069773297 0.0012606961799813969 0 0.0044822613702614035 0.0016885885849611103 0 0.0048316846937043537 0.0014014862077545323 0 0.0045216541069773297 0.0012606961799813969 0 0.0046918635331365723 0.00087447346008066504 0 0.0049540894483669305 0.0016220507787103333 0 0.0049554003163962586 0.0014330467106777017 0 0.0048522314738476922 0.0012756564330626747 0 0.0050949721655427927 0.0019108493082438851 0 0.0031668340786086581 -0.00027783424568007695 0 0.0048316846937043537 0.0014014862077545323 0 0.0051438578261164417 0.001642454612684678 0 0.0050434152781205378 0.00095647890705775462 0 0.0048539463690717719 0.0018741101398369354 0 0.0048316846937043537 0.0014014862077545323 0 0.0051438578261164417 0.001642454612684678 0 0.005156899178096877 0.0017721350437087308 0 0.0049540894483669305 0.0016220507787103333 0 0.0051346540851995295 0.0015748978972060475 0 0.0053064888320012871 0.0017029828040390532 0 0.0051346540851995295 0.0015748978972060475 0 0.0052761670181398152 0.0013460244944023994 0 0.0049540894483669305 0.0016220507787103333 0 0.0051346540851995295 0.0015748978972060475 0 0.0049554003163962586 0.0014330467106777017 0 0.0053064888320012871 0.0017029828040390532 0 0.005156899178096877 0.0017721350437087308 0 0.0051346540851995295 0.0015748978972060475 0 0.0053957880900118846 0.0010793311658035957 0 0.0028987453252715492 -0.0002633700898128996 0 0.0051346540851995295 0.0015748978972060475 0 0.0049554003163962586 0.0014330467106777017 0 0.0052761670181398152 0.0013460244944023994 0 0.0031668340786086581 -0.00027783424568007695 0 0.0028987453252715492 -0.0002633700898128996 0 -0.0002396827433361739 -0.0029377414543009491 0 -0.00017215013618611304 -0.0029710112182584876 0 -0.00027504906989358411 -0.0029539518911400032 0 0.0049554003163962586 0.0014330467106777017 0 0.0048522314738476922 0.0012756564330626747 0 0.0052120136068041622 0.0013208372653067777 0 -0.0002396827433361739 -0.0029377414543009491 0 -0.00027504906989358411 -0.0029539518911400032 0 -0.00031202413674999603 -0.0029457495594843249 0 -0.00017549884690574855 -0.0029227028826451806 0 -0.00017215013618611304 -0.0029710112182584876 0 -0.00013499452625247065 -0.0028867579482250148 0 0.0046918635331365723 0.00087447346008066504 0 0.0052226581121171583 0.00092653161010295532 0 0.0049712752453284102 -6.7630326898375734e-05 0 0.0031668340786086581 -0.00027783424568007695 0 0.0018517210716417773 -0.0014630329419766173 0 -0.0002396827433361739 -0.0029377414543009491 0 -0.00017549884690574855 -0.0029227028826451806 0 -0.00017215013618611304 -0.0029710112182584876 0 0.0046918635331365723 0.00087447346008066504 0 0.0049712752453284102 -6.7630326898375734e-05 0 0.0042731892145261956 0.00057969525525324581 0 0.0045216541069773297 0.0012606961799813969 0 0.0046918635331365723 0.00087447346008066504 0 0.0042777785123423511 0.0010943579511404882 0 0.0048316846937043537 0.0014014862077545323 0 0.0046918635331365723 0.00087447346008066504 0 0.0050434152781205378 0.00095647890705775462 0 0.0048443749798365273 0.00037771255897723163 0 0.0031668340786086581 -0.00027783424568007695 0 0.0057315587477160127 0.001852998750186923 0 0.0056585666500097564 0.0014027291969415938 0 0.0055023232941053988 0.0016188370568510622 0 0.0060301015863780047 0.0014308639295551476 0 0.0057315587477160127 0.001852998750186923 0 0.0056585666500097564 0.0014027291969415938 0 0.0050543076320084188 -0.00012883558991756808 0 0.0045051812193964997 0.00039610030648681448 0 0.0053064888320012871 0.0017029828040390532 0 0.0055023232941053988 0.0016188370568510622 0 0.0052761670181398152 0.0013460244944023994 0 0.0056585666500097564 0.0014027291969415938 0 0.0055023232941053988 0.0016188370568510622 0 0.0052761670181398152 0.0013460244944023994 0 0.0045051812193964997 0.00039610030648681448 0 0.0028987453252715492 -0.0002633700898128996 0 -0.00027504906989358411 -0.0029539518911400032 0 -0.00026157116958815303 -0.0029336315927188249 0 -0.00031202413674999603 -0.0029457495594843249 0 0.003040314115030212 -0.00074586113378989594 0 0.0024210047536179233 -0.00081001194734387221 0 0.0031846526263434082 -0.0010929045645461637 0 0.0028987453252715492 -0.0002633700898128996 0 0.00074414649429810375 -0.0024410019028385851 0 0.00074414649429810375 -0.0024410019028385851 0 -0.00081555569532714073 -0.0031631883049378492 0 0.0036772191656264134 -0.00067517532597356886 0 0.003040314115030212 -0.00074586113378989594 0 0.0031846526263434082 -0.0010929045645461637 0 -0.00076308268995338728 -0.0028678069590095316 0 -0.00060465167816696854 -0.0030957202815049345 0 -0.00052002656176115944 -0.0028799116730909148 0 -0.00052002656176115944 -0.0028799116730909148 0 -0.00031202413674999603 -0.0029457495594843249 0 -0.00035344722006102296 -0.0027945253303073517 0 -0.00060465167816696854 -0.0030957202815049345 0 -0.00052002656176115944 -0.0028799116730909148 0 -0.00031202413674999603 -0.0029457495594843249 0 -0.00052002656176115944 -0.0028799116730909148 0 -0.00035344722006102296 -0.0027945253303073517 0 -0.00058141546410709136 -0.0027351997719407312 0 -0.00033409719843883101 -0.0026330038841813445 0 -0.00035344722006102296 -0.0027945253303073517 0 -0.00058141546410709136 -0.0027351997719407312 0 -0.00076308268995338728 -0.0028678069590095316 0 -0.00052002656176115944 -0.0028799116730909148 0 -0.00058141546410709136 -0.0027351997719407312 0 -0.00035344722006102296 -0.0027945253303073517 0 -0.0002348365204108828 -0.0028815205217440345 0 -0.00010679538989515567 -0.0027454627617332717 0 -0.00033409719843883101 -0.0026330038841813445 0 -0.00035344722006102296 -0.0027945253303073517 0 -0.00010679538989515567 -0.0027454627617332717 0 0.0018517210716417773 -0.0014630329419766173 0 -0.0016156623253580781 -0.0041078062978420708 0 -0.0001525476076376546 -0.0029044799125541466 0 -0.0002348365204108828 -0.0028815205217440345 0 -0.00010679538989515567 -0.0027454627617332717 0 -0.00017549884690574855 -0.0029227028826451806 0 -0.0001525476076376546 -0.0029044799125541466 0 -0.0002348365204108828 -0.0028815205217440345 0 0.00031229818744223716 -0.002925172311411746 0 0.0018517210716417773 -0.0014630329419766173 0 -0.00031202413674999603 -0.0029457495594843249 0 -0.00035344722006102296 -0.0027945253303073517 0 -0.0002348365204108828 -0.0028815205217440345 0 -0.0002396827433361739 -0.0029377414543009491 0 -0.00017549884690574855 -0.0029227028826451806 0 -0.0002348365204108828 -0.0028815205217440345 0 -0.0002396827433361739 -0.0029377414543009491 0 -0.00031202413674999603 -0.0029457495594843249 0 -0.0002348365204108828 -0.0028815205217440345 0 0.001047491241129605 -0.0015587812009357643 0 0.00049122026505933494 -0.0035781172618217752 0 -0.00036203260621422344 -0.003233409437129766 0 -0.0016156623253580781 -0.0041078062978420708 0 0.00087872301060203768 -0.0028464587050163175 0 -0.0019326860053317481 -0.0050622873283065742 0 -0.0012653068210582434 -0.0041566696333836901 0 -0.0019570129013207777 -0.0038739445394281786 0 0.0028475465245817095 -0.0015855096835272176 0 0.002406648405087068 -0.0016225249859907712 0 0.002021962516895875 -0.0020092049420839314 0 0.0018517210716417773 -0.0014630329419766173 0 0.00087872301060203768 -0.0028464587050163175 0 0.0049712752453284102 -6.7630326898375734e-05 0 0.0038510487151552325 -0.0014089346775747174 0 0.0036576103682403878 0.00010348470882998693 0 0.0030735968229699947 -0.0016759120071196945 0 0.0030302168280511243 -0.00011139374418562771 0 0.0020657485432108045 -0.0012595600738029211 0 0.00087872301060203768 -0.0028464587050163175 0 0.0035886218142360052 0.00027517421611185909 0 0.0030302168280511243 -0.00011139374418562771 0 0.0017469193455213184 -0.00044251541943980205 0 0.0020657485432108045 -0.0012595600738029211 0 0.0017469193455213184 -0.00044251541943980205 0 0.0020657485432108045 -0.0012595600738029211 0 0.0013352349998651562 -0.0013054733714638928 0 0.0020657485432108045 -0.0012595600738029211 0 0.002021962516895875 -0.0020092049420839314 0 0.0013352349998651562 -0.0013054733714638928 0 0.0028475465245817095 -0.0015855096835272176 0 0.0020657485432108045 -0.0012595600738029211 0 0.002406648405087068 -0.0016225249859907712 0 0.00087872301060203768 -0.0028464587050163175 0 0.002499206069525587 -0.0016720089729463201 0 0.0020657485432108045 -0.0012595600738029211 0 0.002406648405087068 -0.0016225249859907712 0 0.002021962516895875 -0.0020092049420839314 0 0.002021962516895875 -0.0020092049420839314 0 0.0010825802725931673 -0.0019158912034665499 0 0.0013352349998651562 -0.0013054733714638928 0 0.00038715114051627529 -0.0021728319138449165 0 0.00047431898512392346 -0.0014094787448186777 0 -7.6768529939052934e-05 -0.0018864279309471826 0 0.00038715114051627529 -0.0021728319138449165 0 0.0010825802725931673 -0.0019158912034665499 0 0.00047431898512392346 -0.0014094787448186777 0 0.00047431898512392346 -0.0014094787448186777 0 0.0013352349998651562 -0.0013054733714638928 0 0.00094343918913576067 -0.00072786512989765823 0 0.0010825802725931673 -0.0019158912034665499 0 0.00047431898512392346 -0.0014094787448186777 0 0.0013352349998651562 -0.0013054733714638928 0 -0.00073674859286572717 -0.002053133416433438 0 -0.0004426906613089859 -0.0012663126454242482 0 -0.0011474692212385467 -0.0016330955898123361 0 -0.00073674859286572717 -0.002053133416433438 0 -7.6768529939052934e-05 -0.0018864279309471826 0 -0.0004426906613089859 -0.0012663126454242482 0 0.00047431898512392346 -0.0014094787448186777 0 -0.0004426906613089859 -0.0012663126454242482 0 0.00013973459173468491 -0.0005883487856335756 0 0.00047431898512392346 -0.0014094787448186777 0 -7.6768529939052934e-05 -0.0018864279309471826 0 -0.0004426906613089859 -0.0012663126454242482 0 -0.0004426906613089859 -0.0012663126454242482 0 0.00013973459173468491 -0.0005883487856335756 0 -0.00056352893053353813 -0.00042930061829360406 0 0.00013973459173468491 -0.0005883487856335756 0 0.00098622110708228143 0.00017830240212704624 0 0.00011077646985988815 0.00017597073504681141 0 0.00013973459173468491 -0.0005883487856335756 0 0.00011077646985988815 0.00017597073504681141 0 -0.00056352893053353813 -0.00042930061829360406 0 0.0017469193455213184 -0.00044251541943980205 0 0.0013352349998651562 -0.0013054733714638928 0 0.00094343918913576067 -0.00072786512989765823 0 0.00047431898512392346 -0.0014094787448186777 0 0.00013973459173468491 -0.0005883487856335756 0 0.00094343918913576067 -0.00072786512989765823 0 0.00013973459173468491 -0.0005883487856335756 0 0.00094343918913576067 -0.00072786512989765823 0 0.00098622110708228143 0.00017830240212704624 0 0.0017469193455213184 -0.00044251541943980205 0 0.00094343918913576067 -0.00072786512989765823 0 0.00098622110708228143 0.00017830240212704624 0 0.0017469193455213184 -0.00044251541943980205 0 0.00098622110708228143 0.00017830240212704624 0 0.0021477164258979168 0.00044088747064092228 0 0.00098622110708228143 0.00017830240212704624 0 0.00045494243609493719 0.00094184793457378414 0 0.0015435336895293797 0.0010971407712785631 0 0.00098622110708228143 0.00017830240212704624 0 0.0015435336895293797 0.0010971407712785631 0 0.0021477164258979168 0.00044088747064092228 0 0.00011077646985988815 0.00017597073504681141 0 0.00045494243609493719 0.00094184793457378414 0 -0.00054142904100106274 0.00055837633520710683 0 0.00011077646985988815 0.00017597073504681141 0 -0.00056352893053353813 -0.00042930061829360406 0 -0.00054142904100106274 0.00055837633520710683 0 0.00098622110708228143 0.00017830240212704624 0 0.00011077646985988815 0.00017597073504681141 0 0.00045494243609493719 0.00094184793457378414 0 0.00045494243609493719 0.00094184793457378414 0 -0.00025058966376703478 0.0013710838561859049 0 -0.00054142904100106274 0.00055837633520710683 0 0.00045494243609493719 0.00094184793457378414 0 -0.00025058966376703478 0.0013710838561859049 0 0.001062653569952063 0.0022410062452086418 0 0.00045494243609493719 0.00094184793457378414 0 0.0015435336895293797 0.0010971407712785631 0 0.001062653569952063 0.0022410062452086418 0 0.0033973801557711921 0.0015306495589117474 0 0.0040409860261021368 0.0018843951306066749 0 0.0040721478627755653 0.0020092934208634783 0 0.0034564565941538694 0.0015325829510405876 0 0.0028350755599829231 0.0021382208689056182 0 0.0015435336895293797 0.0010971407712785631 0 0.0033973801557711921 0.0015306495589117474 0 0.001062653569952063 0.0022410062452086418 0 0.0015435336895293797 0.0010971407712785631 0 0.0033973801557711921 0.0015306495589117474 0 0.0021477164258979168 0.00044088747064092228 0 0.0041392240245077929 0.0014958296382421787 0 0.0035902421118799667 0.001555443034367103 0 0.0040409860261021368 0.0018843951306066749 0 0.0033973801557711921 0.0015306495589117474 0 0.0035902421118799667 0.001555443034367103 0 0.0040409860261021368 0.0018843951306066749 0 0.0044822613702614035 0.0016885885849611103 0 0.0041392240245077929 0.0014958296382421787 0 0.0040409860261021368 0.0018843951306066749 0 0.0041392240245077929 0.0014958296382421787 0 0.00397452106035312 0.00096115705025624743 0 0.0042777785123423511 0.0010943579511404882 0 0.0045216541069773297 0.0012606961799813969 0 0.0044822613702614035 0.0016885885849611103 0 0.0041392240245077929 0.0014958296382421787 0 0.0045216541069773297 0.0012606961799813969 0 0.0041392240245077929 0.0014958296382421787 0 0.0042777785123423511 0.0010943579511404882 0 0.0041392240245077929 0.0014958296382421787 0 0.0035902421118799667 0.001555443034367103 0 0.00397452106035312 0.00096115705025624743 0 0.0036576103682403878 0.00010348470882998693 0 0.0035902421118799667 0.001555443034367103 0 0.00397452106035312 0.00096115705025624743 0 0.0030302168280511243 -0.00011139374418562771 0 0.0033973801557711921 0.0015306495589117474 0 0.0035902421118799667 0.001555443034367103 0 0.0035886218142360052 0.00027517421611185909 0 0.0034706223997582192 0.0013873810189945828 0 0.0049712752453284102 -6.7630326898375734e-05 0 0.0036576103682403878 0.00010348470882998693 0 0.0042731892145261956 0.00057969525525324581 0 0.00397452106035312 0.00096115705025624743 0 0.0042777785123423511 0.0010943579511404882 0 0.0042731892145261956 0.00057969525525324581 0 0.0046918635331365723 0.00087447346008066504 0 0.0042777785123423511 0.0010943579511404882 0 0.0042731892145261956 0.00057969525525324581 0 0.0036576103682403878 0.00010348470882998693 0 0.00397452106035312 0.00096115705025624743 0 0.0042731892145261956 0.00057969525525324581 0 0.0030302168280511243 -0.00011139374418562771 0 0.0033973801557711921 0.0015306495589117474 0 0.0021477164258979168 0.00044088747064092228 0 0.0030302168280511243 -0.00011139374418562771 0 0.0017469193455213184 -0.00044251541943980205 0 0.0021477164258979168 0.00044088747064092228 0 -0.0032452654180649002 -0.0024017218078693343 0 -0.00061563150888996505 0.0003046525461997858 0 -0.0029646935806359777 -0.0022415749519735691 0 -0.0033950386789122346 -0.002387105972305324 0 -0.0034294729203651962 -0.0019786809937218032 0 -0.0026751853956668739 -0.0020117087151243704 0 -0.0027733370558024203 -0.0016014668293924193 0 -0.0030748711234117629 -0.0015832615001459998 0 -0.003227348834952183 -0.0027736356837377669 0 -0.0029646935806359777 -0.0022415749519735691 0 -0.0033950386789122346 -0.002387105972305324 0 -0.003227348834952183 -0.0027736356837377669 0 -0.0027110362979556827 -0.0025711965915700763 0 -0.0029646935806359777 -0.0022415749519735691 0 -0.0021359251058197023 -0.0025652078372660446 0 -0.0027110362979556827 -0.0025711965915700763 0 -0.0029646935806359777 -0.0022415749519735691 0 -0.0026751853956668739 -0.0020117087151243704 0 -0.0022443932785131833 -0.0021443595262962598 0 -0.0024278411127546702 -0.0015866461050485739 0 -0.0026751853956668739 -0.0020117087151243704 0 -0.0024278411127546702 -0.0015866461050485739 0 -0.0027733370558024203 -0.0016014668293924193 0 -0.0020397474998214305 -0.0011196325001316591 0 -0.0013354886324001872 -0.00032746329053137099 0 -0.0023799119107699085 0.0005241713042893327 0 -0.0022459409363714809 -0.0018887864004306903 0 -0.0010705630488589556 0.00076976838076565489 0 -0.0020100730297696765 -0.0025044649129368503 0 -0.0032452654180649002 -0.0024017218078693343 0 -0.0019676143781281511 -0.0027849168208330145 0 -0.0021359251058197023 -0.0025652078372660446 0 -0.0022443932785131833 -0.0021443595262962598 0 -0.0021359251058197023 -0.0025652078372660446 0 -0.0026751853956668739 -0.0020117087151243704 0 -0.0022443932785131833 -0.0021443595262962598 0 -0.0019234036361113424 -0.0026506485961674377 0 -0.0022459409363714809 -0.0018887864004306903 0 -0.00143156517674562 -0.002301921805460586 0 -0.0020397474998214305 -0.0011196325001316591 0 -0.0011474692212385467 -0.0016330955898123361 0 -0.0020397474998214305 -0.0011196325001316591 0 -0.0011474692212385467 -0.0016330955898123361 0 -0.0011038416793128347 -0.00094760937338835883 0 -0.00143156517674562 -0.002301921805460586 0 -0.0019676143781281511 -0.0027849168208330145 0 -0.0020397474998214305 -0.0011196325001316591 0 -0.00143156517674562 -0.002301921805460586 0 -0.00073674859286572717 -0.002053133416433438 0 -0.0011474692212385467 -0.0016330955898123361 0 -0.0004426906613089859 -0.0012663126454242482 0 -0.0011474692212385467 -0.0016330955898123361 0 -0.0011038416793128347 -0.00094760937338835883 0 -0.0004426906613089859 -0.0012663126454242482 0 -0.0011038416793128347 -0.00094760937338835883 0 -0.00056352893053353813 -0.00042930061829360406 0 -0.0020397474998214305 -0.0011196325001316591 0 -0.0011038416793128347 -0.00094760937338835883 0 -0.0013354886324001872 -0.00032746329053137099 0 -0.0011038416793128347 -0.00094760937338835883 0 -0.0013354886324001872 -0.00032746329053137099 0 -0.00056352893053353813 -0.00042930061829360406 0 -0.0013354886324001872 -0.00032746329053137099 0 -0.00056352893053353813 -0.00042930061829360406 0 -0.00054142904100106274 0.00055837633520710683 0 -0.00054142904100106274 0.00055837633520710683 0 -0.00078914957630939078 0.0013167064832464424 0 -0.0013423899923159228 0.0005649217932359637 0 -0.0013354886324001872 -0.00032746329053137099 0 -0.00054142904100106274 0.00055837633520710683 0 -0.0013423899923159228 0.0005649217932359637 0 -0.00025058966376703478 0.0013710838561859049 0 -0.00078914957630939078 0.0013167064832464424 0 -0.00046405821714443947 0.0019095828034443522 0 -0.00025058966376703478 0.0013710838561859049 0 -0.00054142904100106274 0.00055837633520710683 0 -0.00078914957630939078 0.0013167064832464424 0 -0.00078914957630939078 0.0013167064832464424 0 -0.0011403633467210034 0.0012765978234655518 0 -0.0013423899923159228 0.0005649217932359637 0 -0.0011403633467210034 0.0012765978234655518 0 -0.0012234615403300909 0.0016080609605168916 0 -0.00087553226282479529 0.0018103602763777399 0 -0.00078914957630939078 0.0013167064832464424 0 -0.0011403633467210034 0.0012765978234655518 0 -0.00087553226282479529 0.0018103602763777399 0 -0.0011403633467210034 0.0012765978234655518 0 -0.0013423899923159228 0.0005649217932359637 0 -0.0014400315604789844 0.00075977425643752113 0 -0.0013354886324001872 -0.00032746329053137099 0 -0.0013423899923159228 0.0005649217932359637 0 -0.0023799119107699085 0.0005241713042893327 0 -0.0016149558530564397 0.00062311162157831625 0 -0.0010705630488589556 0.00076976838076565489 0 -0.0010705630488589556 0.00076976838076565489 0 -0.00055274758909426287 0.00053256273922286368 0 0.00097646129147207085 0.0026464752003475603 0 0.0013002531921754562 0.001924285880760053 0 0.0015166586459501202 0.0026591977252395926 0 -0.0011403633467210034 0.0012765978234655518 0 -0.0014400315604789844 0.00075977425643752113 0 -0.0012234615403300909 0.0016080609605168916 0 -0.0010705630488589556 0.00076976838076565489 0 0.00013458453291811915 0.0018925713540503715 0 0.0013002531921754562 0.001924285880760053 0 0.0017982455571279006 0.0023468312815386402 0 0.0020025626066934176 0.0019785852682067877 0 0.0013002531921754562 0.001924285880760053 0 0.0015166586459501202 0.0026591977252395926 0 0.0017982455571279006 0.0023468312815386402 0 0.0015166586459501202 0.0026591977252395926 0 0.0017982455571279006 0.0023468312815386402 0 0.0020589677162588648 0.0026746844839400309 0 -0.00055274758909426287 0.00053256273922286368 0 -0.00061563150888996505 0.0003046525461997858 0 0.0017982455571279006 0.0023468312815386402 0 0.0020589677162588648 0.0026746844839400309 0 0.0020025626066934176 0.0019785852682067877 0 0.0013002531921754562 0.001924285880760053 0 0.001624133877905067 0.0012199750742523374 0 0.0020025626066934176 0.0019785852682067877 0 0.001624133877905067 0.0012199750742523374 0 0.0020025626066934176 0.0019785852682067877 0 0.0021981628829449719 0.0013383837966111005 0 -0.0012234615403300909 0.0016080609605168916 0 -0.00056702786501960153 0.0020673234246151237 0 -0.00084250708896500294 0.0019576997171869459 0 0.00013458453291811915 0.0018925713540503715 0 0.00054418012128365262 0.001574569141444796 0 -0.0012234615403300909 0.0016080609605168916 0 -0.00084250708896500294 0.0019576997171869459 0 -0.00087553226282479529 0.0018103602763777399 0 -0.00056702786501960153 0.0020673234246151237 0 -0.00068197893664884916 0.0019067387804135986 0 -0.0003732226089536195 0.0017329812996768096 0 -0.00056702786501960153 0.0020673234246151237 0 -0.00084250708896500294 0.0019576997171869459 0 -0.00068197893664884916 0.0019067387804135986 0 -0.00084250708896500294 0.0019576997171869459 0 -0.00079415681917885525 0.0020203500756481711 0 -0.00068197893664884916 0.0019067387804135986 0 -0.00084250708896500294 0.0019576997171869459 0 -0.00079415681917885525 0.0020203500756481711 0 -0.00087553226282479529 0.0018103602763777399 0 -0.00079415681917885525 0.0020203500756481711 0 -0.00064517285191396402 0.0020613782973283529 0 -0.00080988903338510105 0.0020598598518964113 0 -0.00079415681917885525 0.0020203500756481711 0 -0.00087553226282479529 0.0018103602763777399 0 -0.00064517285191396402 0.0020613782973283529 0 -0.00078914957630939078 0.0013167064832464424 0 -0.00087553226282479529 0.0018103602763777399 0 -0.00046405821714443947 0.0019095828034443522 0 -0.00087553226282479529 0.0018103602763777399 0 -0.00046405821714443947 0.0019095828034443522 0 -0.00064517285191396402 0.0020613782973283529 0 0.0025465267743724333 0.0019076759250600539 0 0.002600988338121662 0.002208889987388005 0 -0.00046405821714443947 0.0019095828034443522 0 -0.00064517285191396402 0.0020613782973283529 0 -0.00011417664761303636 0.0023363732097415628 0 -0.00064517285191396402 0.0020613782973283529 0 -0.00080988903338510105 0.0020598598518964113 0 -0.00011417664761303636 0.0023363732097415628 0 0.0058658338948072873 0.0018142895669182666 0 0.0057985357205220332 0.0017468353935173962 0 0.0053963305250226135 0.0018222087695085134 0 0.0058658338948072873 0.0018142895669182666 0 0.005263904947310904 0.0021505700758801482 0 0.0053963305250226135 0.0018222087695085134 0 0.0057985357205220332 0.0017468353935173962 0 0.0053963305250226135 0.0018222087695085134 0 0.0056279477729834935 0.0015380516172269194 0 0.0057985357205220332 0.0017468353935173962 0 0.0059855245356427635 0.0014137402765570743 0 0.0056279477729834935 0.0015380516172269194 0 0.0057985357205220332 0.0017468353935173962 0 0.0059855245356427635 0.0014137402765570743 0 0.0064013093575698114 0.0013270190300501922 0 0.0059855245356427635 0.0014137402765570743 0 0.0056279477729834935 0.0015380516172269194 0 0.0058961049167091401 0.0012532021210502598 0 0.0059855245356427635 0.0014137402765570743 0 0.0062195099621566614 0.0012242200301249009 0 0.0058961049167091401 0.0012532021210502598 0 0.0058658338948072873 0.0018142895669182666 0 0.0058274900841495982 0.0016879564565859416 0 0.0058352121074056063 0.001702291773140417 0 0.0058372685574370874 0.0017318213086397112 0 0.0061114475963359683 0.0014907878443030638 0 0.0059855245356427635 0.0014137402765570743 0 0.0064013093575698114 0.0013270190300501922 0 0.0062195099621566614 0.0012242200301249009 0 0.0025465267743724333 0.0019076759250600539 0 0.0025722402797080991 0.0014902345337199487 0 -0.00080988903338510105 0.0020598598518964113 0 -0.00076653911598372881 0.0018045591247184461 0 -0.00078574252789105408 0.0012523342383073737 0 0.0058658338948072873 0.0018142895669182666 0 0.0057985357205220332 0.0017468353935173962 0 0.0058274900841495982 0.0016879564565859416 0 -0.00079415681917885525 0.0020203500756481711 0 -0.00080988903338510105 0.0020598598518964113 0 -0.00076653911598372881 0.0018045591247184461 0 -0.00079415681917885525 0.0020203500756481711 0 -0.00076653911598372881 0.0018045591247184461 0 -0.00068197893664884916 0.0019067387804135986 0 -0.00076653911598372881 0.0018045591247184461 0 -0.00068197893664884916 0.0019067387804135986 0 -0.0006344025312118789 0.0016919387445810928 0 -0.00068197893664884916 0.0019067387804135986 0 -0.0003732226089536195 0.0017329812996768096 0 -0.0006344025312118789 0.0016919387445810928 0 -0.0003732226089536195 0.0017329812996768096 0 -0.00050021708752856356 0.0015004390650799303 0 -0.00023370621399176371 0.0013744408782120532 0 -0.0003732226089536195 0.0017329812996768096 0 -0.00050021708752856356 0.0015004390650799303 0 -0.0006344025312118789 0.0016919387445810928 0 -0.00050021708752856356 0.0015004390650799303 0 -0.00068246956059407171 0.001514110930803444 0 -0.0006344025312118789 0.0016919387445810928 0 -0.00076653911598372881 0.0018045591247184461 0 -0.00068246956059407171 0.001514110930803444 0 -0.0006344025312118789 0.0016919387445810928 0 -0.00076653911598372881 0.0018045591247184461 0 -0.00068246956059407171 0.001514110930803444 0 -0.00078574252789105408 0.0012523342383073737 0 -0.00078574252789105408 0.0012523342383073737 0 -0.00058621520863877917 0.0012621989143349473 0 0.00096152476983275132 -4.410739969729443e-05 0 0.0025722402797080991 0.0014902345337199487 0 0.0034024589739308823 0.00077666446472558727 0 0.0058274900841495982 0.0016879564565859416 0 0.0058352121074056063 0.001702291773140417 0 0.0058430619381188483 0.0016701121946519468 0 0.0058352121074056063 0.001702291773140417 0 0.0058583458631624842 0.0016504852610088863 0 0.0058430619381188483 0.0016701121946519468 0 -0.00068246956059407171 0.001514110930803444 0 -0.00078574252789105408 0.0012523342383073737 0 -0.00058621520863877917 0.0012621989143349473 0 -0.00050021708752856356 0.0015004390650799303 0 -0.00068246956059407171 0.001514110930803444 0 -0.00058621520863877917 0.0012621989143349473 0 -0.00058621520863877917 0.0012621989143349473 0 -0.00023370621399176371 0.0013744408782120532 0 0.0001203902481833296 0.00099850079139100984 0 -0.00050021708752856356 0.0015004390650799303 0 -0.00058621520863877917 0.0012621989143349473 0 -0.00023370621399176371 0.0013744408782120532 0 -0.00058621520863877917 0.0012621989143349473 0 0.0001203902481833296 0.00099850079139100984 0 0.00060196474392539695 0.00014932130036046393 0 -0.00023370621399176371 0.0013744408782120532 0 0.0001203902481833296 0.00099850079139100984 0 0.00051616960350478469 0.0015990684800916409 0 0.00051616960350478469 0.0015990684800916409 0 0.00060196474392539695 0.00014932130036046393 0 0.0018105242623714902 -8.8498745118261381e-05 0 -0.00058621520863877917 0.0012621989143349473 0 0.0011090771445754826 0.00018900539235866559 0 0.00096152476983275132 -4.410739969729443e-05 0 -0.00046186861566787789 0.0011667205341682693 0 0.00079935925545571358 0.00015162899628284751 0 0.0001203902481833296 0.00099850079139100984 0 0.00051616960350478469 0.0015990684800916409 0 0.00060196474392539695 0.00014932130036046393 0 0.00054418012128365262 0.001574569141444796 0 0.0012056170712379868 0.0010183102712808738 0 -0.0003732226089536195 0.0017329812996768096 0 -0.00023370621399176371 0.0013744408782120532 0 0.00051616960350478469 0.0015990684800916409 0 -0.00056702786501960153 0.0020673234246151237 0 -0.0003732226089536195 0.0017329812996768096 0 0.00051616960350478469 0.0015990684800916409 0 0.001624133877905067 0.0012199750742523374 0 0.0018895910089481106 0.00058369840465970387 0 0.0022285081494125567 0.00088048803591513904 0 0.0042480960355833208 0.0020367757067752761 0 0.0040721478627755653 0.0020092934208634783 0 0.0045954050404554561 0.0019805388278158098 0 0.0042480960355833208 0.0020367757067752761 0 0.0045954050404554561 0.0019805388278158098 0 0.0042453959451513304 0.0019329194575335282 0 0.0046005684802244828 0.0019653228415778701 0 0.0044976283563569527 0.0021908638339741843 0 0.0045117970697390658 0.0020417365303155442 0 0.0051025151977170365 0.0023517091161274653 0 0.0050458202273817544 0.0023292464973465915 0 0.0042480960355833208 0.0020367757067752761 0 0.0045117970697390658 0.0020417365303155442 0 0.0042453959451513304 0.0019329194575335282 0 0.0042480960355833208 0.0020367757067752761 0 0.0045117970697390658 0.0020417365303155442 0 0.0040409860261021368 0.0018843951306066749 0 0.0044822613702614035 0.0016885885849611103 0 0.0045117970697390658 0.0020417365303155442 0 0.0040409860261021368 0.0018843951306066749 0 0.0042480960355833208 0.0020367757067752761 0 0.0040409860261021368 0.0018843951306066749 0 0.0040721478627755653 0.0020092934208634783 0 0.0040721478627755653 0.0020092934208634783 0 0.0044640870114759177 0.0022174908668177312 0 0.0045954050404554561 0.0019805388278158098 0 0.0033973801557711921 0.0015306495589117474 0 0.0040721478627755653 0.0020092934208634783 0 0.0044640870114759177 0.0022174908668177312 0 -0.00025058966376703478 0.0013710838561859049 0 -0.00046405821714443947 0.0019095828034443522 0 0.001062653569952063 0.0022410062452086418 0 0.0028350755599829231 0.0021382208689056182 0 0.002600988338121662 0.002208889987388005 0 -0.00046405821714443947 0.0019095828034443522 0 0.001062653569952063 0.0022410062452086418 0 -0.00011417664761303636 0.0023363732097415628 0 0.005263904947310904 0.0021505700758801482 0 0.0045954050404554561 0.0019805388278158098 0 0.0053963305250226135 0.0018222087695085134 0 0.0044640870114759177 0.0022174908668177312 0 0.005263904947310904 0.0021505700758801482 0 0.0045954050404554561 0.0019805388278158098 0 0.0045954050404554561 0.0019805388278158098 0 0.005066205851319336 0.001641768056328664 0 0.0053963305250226135 0.0018222087695085134 0 0.0045954050404554561 0.0019805388278158098 0 0.005066205851319336 0.001641768056328664 0 0.0046609512327871108 0.0016794698261713898 0 0.005066205851319336 0.001641768056328664 0 0.0053963305250226135 0.0018222087695085134 0 0.0056279477729834935 0.0015380516172269194 0 0.005066205851319336 0.001641768056328664 0 0.0056279477729834935 0.0015380516172269194 0 0.0054113007233803773 0.0013209821050773124 0 0.0056279477729834935 0.0015380516172269194 0 0.0054113007233803773 0.0013209821050773124 0 0.0058961049167091401 0.0012532021210502598 0 0.005066205851319336 0.001641768056328664 0 0.0049984832586996934 0.0013751174111254968 0 0.0046609512327871108 0.0016794698261713898 0 0.005066205851319336 0.001641768056328664 0 0.0054113007233803773 0.0013209821050773124 0 0.0049984832586996934 0.0013751174111254968 0 0.0049984832586996934 0.0013751174111254968 0 0.0045056447591539633 0.0013068452157464442 0 0.0046609512327871108 0.0016794698261713898 0 0.0056650498943310234 0.0017684801035532667 0 0.0044976283563569527 0.0021908638339741843 0 0.0045954050404554561 0.0019805388278158098 0 0.0046609512327871108 0.0016794698261713898 0 0.0042453959451513304 0.0019329194575335282 0 0.0045056447591539633 0.0013068452157464442 0 0.0046609512327871108 0.0016794698261713898 0 0.0042453959451513304 0.0019329194575335282 0 0.0049330280616142336 0.0027109144035358658 0 0.0050458202273817544 0.0023292464973465915 0 0.0053027388507730852 0.0024445845179499079 0 0.0051025151977170365 0.0023517091161274653 0 0.0050458202273817544 0.0023292464973465915 0 0.0053027388507730852 0.0024445845179499079 0 0.0054416860926309076 0.0022446262872860031 0 0.0061650742572414959 0.0022409359982684435 0 0.0053027388507730852 0.0024445845179499079 0 0.0056650498943310234 0.0017684801035532667 0 0.0052422189341589263 0.0026712358595144961 0 0.0061650742572414959 0.0022409359982684435 0 0.0057378998778215388 0.0019480340682631271 0 0.0061169817626019083 0.0017949459802556469 0 0.0054416860926309076 0.0022446262872860031 0 0.0061650742572414959 0.0022409359982684435 0 0.0057378998778215388 0.0019480340682631271 0 0.0057378998778215388 0.0019480340682631271 0 0.0058824446218993902 0.001574851233782683 0 0.0061169817626019083 0.0017949459802556469 0 0.0058824446218993902 0.001574851233782683 0 0.0061169817626019083 0.0017949459802556469 0 0.0063127066039491723 0.0014413971684935144 0 0.0061169817626019083 0.0017949459802556469 0 0.0065069378266690223 0.001787052494387049 0 0.0063127066039491723 0.0014413971684935144 0 0.0065069378266690223 0.001787052494387049 0 0.0068104706470391114 0.001323034811267321 0 0.0063127066039491723 0.0014413971684935144 0 0.0061650742572414959 0.0022409359982684435 0 0.0061169817626019083 0.0017949459802556469 0 0.0065069378266690223 0.001787052494387049 0 0.0056650498943310234 0.0017684801035532667 0 0.0068689979110529657 0.001151800451561913 0 0.0049984832586996934 0.0013751174111254968 0 0.0045056447591539633 0.0013068452157464442 0 0.0053496158485888991 0.00087069463192855005 0 0.0056650498943310234 0.0017684801035532667 0 0.0062536813222428579 0.00067315504254352712 0 0.0070188226447250434 0.00076001992702505418 0 0.0070467573818154688 0.00071009318466228272 0 0.0070488925953491217 0.00068833488750192034 0 0.0054113007233803773 0.0013209821050773124 0 0.0049984832586996934 0.0013751174111254968 0 0.0053496158485888991 0.00087069463192855005 0 0.0054113007233803773 0.0013209821050773124 0 0.0053496158485888991 0.00087069463192855005 0 0.0057355538634786879 0.0010797198282259989 0 0.0054113007233803773 0.0013209821050773124 0 0.0057355538634786879 0.0010797198282259989 0 0.0058961049167091401 0.0012532021210502598 0 0.0070488925953491217 0.00068833488750192034 0 0.0070001942373774141 0.00077520740360766799 0 0.0067662330460624533 0.00075864647897764289 0 0.0053496158485888991 0.00087069463192855005 0 0.0057355538634786879 0.0010797198282259989 0 0.0064703266796809124 0.000909565814293062 0 0.0053496158485888991 0.00087069463192855005 0 0.0064703266796809124 0.000909565814293062 0 0.0067662330460624533 0.00075864647897764289 0 0.0062536813222428579 0.00067315504254352712 0 0.0066533448739738051 0.00080434171672598843 0 0.0070488925953491217 0.00068833488750192034 0 0.00705423035063313 0.000783644728040279 0 0.0070001942373774141 0.00077520740360766799 0 0.0070467573818154688 0.00071009318466228272 0 0.0070488925953491217 0.00068833488750192034 0 0.00705423035063313 0.000783644728040279 0 0.0068689979110529657 0.001151800451561913 0 0.0069210320065025699 0.0010670518596579239 0 0.00705423035063313 0.000783644728040279 0 0.0070001942373774141 0.00077520740360766799 0 0.0070596625634689507 0.00080901437889873665 0 0.0070001942373774141 0.00077520740360766799 0 0.0070596625634689507 0.00080901437889873665 0 0.0067662330460624533 0.00075864647897764289 0 0.0070596625634689507 0.00080901437889873665 0 0.0070706805311683716 0.00083515878843199072 0 0.0072641447960910275 0.00072033203042730397 0 0.00705423035063313 0.000783644728040279 0 0.0070596625634689507 0.00080901437889873665 0 0.0070706805311683716 0.00083515878843199072 0 0.0068104706470391114 0.001323034811267321 0 0.0070706805311683716 0.00083515878843199072 0 0.0067352926769350552 0.00080301070783927433 0 0.0069210320065025699 0.0010670518596579239 0 0.00705642458345602 0.00084005127675384171 0 0.0067352926769350552 0.00080301070783927433 0 0.0063770604858652729 0.0010457565156089975 0 0.0064050033521883439 0.00063635005722144583 0 0.0068104706470391114 0.001323034811267321 0 0.0067352926769350552 0.00080301070783927433 0 0.0063770604858652729 0.0010457565156089975 0 0.0063770604858652729 0.0010457565156089975 0 0.0060975305357652927 0.00088307936551010866 0 0.0064050033521883439 0.00063635005722144583 0 0.0063770604858652729 0.0010457565156089975 0 0.0060975305357652927 0.00088307936551010866 0 0.0059924025731378349 0.0011917402473153027 0 0.0058824446218993902 0.001574851233782683 0 0.0059924025731378349 0.0011917402473153027 0 0.0063127066039491723 0.0014413971684935144 0 0.0063770604858652729 0.0010457565156089975 0 0.0059924025731378349 0.0011917402473153027 0 0.0063127066039491723 0.0014413971684935144 0 0.0068104706470391114 0.001323034811267321 0 0.0063770604858652729 0.0010457565156089975 0 0.0063127066039491723 0.0014413971684935144 0 0.0058671516413040586 0.0015721523884479247 0 0.005856374486902214 0.0016206170127847969 0 0.0058311222861726578 0.0016384276456898491 0 0.0058671516413040586 0.0015721523884479247 0 0.0058834239328397217 0.0015930732363483571 0 0.0059084577187581656 0.0015815106355184961 0 0.0058671516413040586 0.0015721523884479247 0 0.0058720658923103472 0.0016045760181508618 0 0.0058834239328397217 0.0015930732363483571 0 0.0058671516413040586 0.0015721523884479247 0 0.005856374486902214 0.0016206170127847969 0 0.0058720658923103472 0.0016045760181508618 0 0.005856374486902214 0.0016206170127847969 0 0.0058720658923103472 0.0016045760181508618 0 0.0058658601570839627 0.0016260288819654682 0 0.0058720658923103472 0.0016045760181508618 0 0.0058873951785228095 0.0016087166312135721 0 0.0058658601570839627 0.0016260288819654682 0 0.0058720658923103472 0.0016045760181508618 0 0.0058834239328397217 0.0015930732363483571 0 0.0058873951785228095 0.0016087166312135721 0 0.0058873951785228095 0.0016087166312135721 0 0.0058658601570839627 0.0016260288819654682 0 0.0058583458631624842 0.0016504852610088863 0 0.0058583458631624842 0.0016504852610088863 0 0.0058513354769825464 0.0016517648756823079 0 0.0058430619381188483 0.0016701121946519468 0 0.0058583458631624842 0.0016504852610088863 0 0.0058513354769825464 0.0016517648756823079 0 0.0058565949774617883 0.0016396484208150419 0 0.005856374486902214 0.0016206170127847969 0 0.0058480387973598577 0.0016453294574620947 0 0.0058565949774617883 0.0016396484208150419 0 0.0058513354769825464 0.0016517648756823079 0 0.0058480387973598577 0.0016453294574620947 0 0.0058565949774617883 0.0016396484208150419 0 0.0058658601570839627 0.0016260288819654682 0 0.0058583458631624842 0.0016504852610088863 0 0.0058565949774617883 0.0016396484208150419 0 0.005856374486902214 0.0016206170127847969 0 0.0058658601570839627 0.0016260288819654682 0 0.0058565949774617883 0.0016396484208150419 0 0.0061114475963359683 0.0014907878443030638 0 0.0061027538690327544 0.001404353317507472 0 0.005856374486902214 0.0016206170127847969 0 0.0058480387973598577 0.0016453294574620947 0 0.0058311222861726578 0.0016384276456898491 0 0.0058274900841495982 0.0016879564565859416 0 0.0058430619381188483 0.0016701121946519468 0 0.0058311222861726578 0.0016384276456898491 0 0.0058480387973598577 0.0016453294574620947 0 0.0058430619381188483 0.0016701121946519468 0 0.0058311222861726578 0.0016384276456898491 0 0.0058513354769825464 0.0016517648756823079 0 0.0058480387973598577 0.0016453294574620947 0 0.0058430619381188483 0.0016701121946519468 0 0.0069377795148010601 0.001167343085188316 0 0.0069487665241097767 0.00094850150716961114 0 0.0065519228332024722 0.0010569012946943061 0 0.0064354588335872659 0.0009333727960257706 0 0.0064204091407156659 0.0010710927313983436 0 0.0069377795148010601 0.001167343085188316 0 0.0061027538690327544 0.001404353317507472 0 0.0077347325509965698 0.0010185385745444283 0 0.0073423216585099312 0.0010374902546270758 0 0.007514280035859063 0.00087191617085853222 0 0.0066953020800768715 0.00090342206479001751 0 0.0065519228332024722 0.0010569012946943061 0 0.0064354588335872659 0.0009333727960257706 0 0.0064354588335872659 0.0009333727960257706 0 0.0063890440870046803 0.00096863111979798812 0 0.0064703266796809124 0.000909565814293062 0 0.0069487665241097767 0.00094850150716961114 0 0.0064848650946852486 0.00093734999461050938 0 0.0064354588335872659 0.0009333727960257706 0 0.0063890440870046803 0.00096863111979798812 0 0.0064204091407156659 0.0010710927313983436 0 0.0064013093575698114 0.0013270190300501922 0 0.0065519228332024722 0.0010569012946943061 0 0.0064204091407156659 0.0010710927313983436 0 0.0064013093575698114 0.0013270190300501922 0 0.0064204091407156659 0.0010710927313983436 0 0.0062195099621566614 0.0012242200301249009 0 0.0064204091407156659 0.0010710927313983436 0 0.0063149088983842257 0.0010580588743345329 0 0.0062195099621566614 0.0012242200301249009 0 0.0063890440870046803 0.00096863111979798812 0 0.0064204091407156659 0.0010710927313983436 0 0.0063149088983842257 0.0010580588743345329 0 0.0063890440870046803 0.00096863111979798812 0 0.0063149088983842257 0.0010580588743345329 0 0.0063138043791908542 0.00099132532811890004 0 0.0061463747030589874 0.0011273784118616681 0 0.0061102966805230731 0.0010498714494603706 0 0.0063138043791908542 0.00099132532811890004 0 0.0063149088983842257 0.0010580588743345329 0 0.0061463747030589874 0.0011273784118616681 0 0.0063138043791908542 0.00099132532811890004 0 0.0061463747030589874 0.0011273784118616681 0 0.0062195099621566614 0.0012242200301249009 0 0.0058961049167091401 0.0012532021210502598 0 0.0063149088983842257 0.0010580588743345329 0 0.0061463747030589874 0.0011273784118616681 0 0.0062195099621566614 0.0012242200301249009 0 0.0057355538634786879 0.0010797198282259989 0 0.0058961049167091401 0.0012532021210502598 0 0.0061102966805230731 0.0010498714494603706 0 0.0061463747030589874 0.0011273784118616681 0 0.0058961049167091401 0.0012532021210502598 0 0.0061102966805230731 0.0010498714494603706 0 0.0057355538634786879 0.0010797198282259989 0 0.0061102966805230731 0.0010498714494603706 0 0.0064703266796809124 0.000909565814293062 0 0.0073423216585099312 0.0010374902546270758 0 0.0064703266796809124 0.000909565814293062 0 0.0067662330460624533 0.00075864647897764289 0 0.0061102966805230731 0.0010498714494603706 0 0.0063138043791908542 0.00099132532811890004 0 0.0064703266796809124 0.000909565814293062 0 0.0063890440870046803 0.00096863111979798812 0 0.0063138043791908542 0.00099132532811890004 0 0.0064703266796809124 0.000909565814293062 0 0.0067662330460624533 0.00075864647897764289 0 0.0070191292884319266 0.00076089393524049747 0 0.0072209355257720174 0.00076285567003208374 0 0.0070596625634689507 0.00080901437889873665 0 0.0067662330460624533 0.00075864647897764289 0 0.0070191292884319266 0.00076089393524049747 0 0.0070596625634689507 0.00080901437889873665 0 0.0070191292884319266 0.00076089393524049747 0 0.0072641447960910275 0.00072033203042730397 0 0.0070191292884319266 0.00076089393524049747 0 0.0072641447960910275 0.00072033203042730397 0 0.007235111120374154 0.00070061727289229758 0 0.0073756406570719048 0.00055153081448202279 0 0.007235111120374154 0.00070061727289229758 0 0.0072209355257720174 0.00076285567003208374 0 0.0073423216585099312 0.0010374902546270758 0 0.0067662330460624533 0.00075864647897764289 0 0.0072209355257720174 0.00076285567003208374 0 0.0073423216585099312 0.0010374902546270758 0 0.0072209355257720174 0.00076285567003208374 0 0.007514280035859063 0.00087191617085853222 0 0.0070191292884319266 0.00076089393524049747 0 0.007235111120374154 0.00070061727289229758 0 0.0072209355257720174 0.00076285567003208374 0 0.0072209355257720174 0.00076285567003208374 0 0.007514280035859063 0.00087191617085853222 0 0.0075371909989588584 0.00069206322086690281 0 0.007514280035859063 0.00087191617085853222 0 0.0075371909989588584 0.00069206322086690281 0 0.0077011462717766497 0.00083948218558411634 0 0.0073756406570719048 0.00055153081448202279 0 0.0072209355257720174 0.00076285567003208374 0 0.0075371909989588584 0.00069206322086690281 0 0.0073756406570719048 0.00055153081448202279 0 0.0075371909989588584 0.00069206322086690281 0 0.0076815362939519453 0.00040333693149635131 0 0.0075371909989588584 0.00069206322086690281 0 0.0077926043268430759 0.00066118655772060193 0 0.0077011462717766497 0.00083948218558411634 0 0.0075371909989588584 0.00069206322086690281 0 0.0077926043268430759 0.00066118655772060193 0 0.0076815362939519453 0.00040333693149635131 0 0.0077926043268430759 0.00066118655772060193 0 0.0077011462717766497 0.00083948218558411634 0 0.0078797695384452259 0.00086925942074623326 0 0.0077347325509965698 0.0010185385745444283 0 0.007514280035859063 0.00087191617085853222 0 0.0077011462717766497 0.00083948218558411634 0 0.0069377795148010601 0.001167343085188316 0 0.0079066356765991642 0.00072067051506613457 0 0.0077347325509965698 0.0010185385745444283 0 0.0077011462717766497 0.00083948218558411634 0 0.0078797695384452259 0.00086925942074623326 0 0.0076815362939519453 0.00040333693149635131 0 0.0076527217841360672 8.9670772151394487e-05 0 0.0080856595508857158 9.486621851869749e-05 0 0.0077926043268430759 0.00066118655772060193 0 0.0076815362939519453 0.00040333693149635131 0 0.0080329326550835356 0.00040813378995931582 0 0.0076815362939519453 0.00040333693149635131 0 0.0080329326550835356 0.00040813378995931582 0 0.0080856595508857158 9.486621851869749e-05 0 0.0073756406570719048 0.00055153081448202279 0 0.0076815362939519453 0.00040333693149635131 0 0.0072818670393097759 0.00031410015678458937 0 0.0076527217841360672 8.9670772151394487e-05 0 0.0072818670393097759 0.00031410015678458937 0 0.007390960863691713 -0.00014357835482029646 0 0.0076815362939519453 0.00040333693149635131 0 0.0076527217841360672 8.9670772151394487e-05 0 0.0072818670393097759 0.00031410015678458937 0 0.0078648126111382569 0.00053231761058504122 0 0.007894939229794385 0.00020094427594908004 0 0.0083266549660846595 9.112439307015511e-05 0 0.0075642008878743106 0.00040115018318876951 0 0.0078778215340112954 -5.5630455380958312e-05 0 0.0072955353716357765 0.00066377774809273896 0 0.0075642008878743106 0.00040115018318876951 0 0.0073756406570719048 0.00055153081448202279 0 0.007235111120374154 0.00070061727289229758 0 0.0072818670393097759 0.00031410015678458937 0 0.0072641447960910275 0.00072033203042730397 0 0.0078648126111382569 0.00053231761058504122 0 0.0074359765241097543 0.00052914598303060848 0 0.0072641447960910275 0.00072033203042730397 0 0.007235111120374154 0.00070061727289229758 0 0.0078648126111382569 0.00053231761058504122 0 0.007894939229794385 0.00020094427594908004 0 0.0074359765241097543 0.00052914598303060848 0 0.0075095640248669139 0.00019614778112693958 0 0.0078648126111382569 0.00053231761058504122 0 0.007894939229794385 0.00020094427594908004 0 0.0074359765241097543 0.00052914598303060848 0 0.007894939229794385 0.00020094427594908004 0 0.007963288956448723 -8.8257688728825455e-05 0 0.0075095640248669139 0.00019614778112693958 0 0.007963288956448723 -8.8257688728825455e-05 0 0.0082250081198248035 -4.8045814383521609e-05 0 0.0085281007337403777 -0.00014117778377470167 0 0.007894939229794385 0.00020094427594908004 0 0.007963288956448723 -8.8257688728825455e-05 0 0.0082250081198248035 -4.8045814383521609e-05 0 0.0082250081198248035 -4.8045814383521609e-05 0 0.0083755765913683632 -0.00011760513279500819 0 0.0083266549660846595 9.112439307015511e-05 0 0.0082250081198248035 -4.8045814383521609e-05 0 0.0083755765913683632 -0.00011760513279500819 0 0.0085281007337403777 -0.00014117778377470167 0 0.007894939229794385 0.00020094427594908004 0 0.0082250081198248035 -4.8045814383521609e-05 0 0.0083266549660846595 9.112439307015511e-05 0 0.0076527217841360672 8.9670772151394487e-05 0 0.007390960863691713 -0.00014357835482029646 0 0.0078831846060834852 -0.00026892762884654523 0 0.007390960863691713 -0.00014357835482029646 0 0.0077573893693692426 -0.00051817126480397074 0 0.007520232191992866 -0.00068713934924154445 0 0.0083755765913683632 -0.00011760513279500819 0 0.0083266549660846595 9.112439307015511e-05 0 0.0084517074655145238 -0.00013050092149683899 0 0.0078778215340112954 -5.5630455380958312e-05 0 0.0077937342966975121 -0.0003442868446826202 0 0.007390960863691713 -0.00014357835482029646 0 0.0077573893693692426 -0.00051817126480397074 0 0.0078831846060834852 -0.00026892762884654523 0 0.0077573893693692426 -0.00051817126480397074 0 0.0078831846060834852 -0.00026892762884654523 0 0.0080518932011237766 -0.00058217609145929067 0 0.0076527217841360672 8.9670772151394487e-05 0 0.0078831846060834852 -0.00026892762884654523 0 0.0080856595508857158 9.486621851869749e-05 0 0.0066488049370459776 0.00030591226812671851 0 0.0067314263267642446 0.00055325108388726057 0 0.007096450511731035 0.00047135407686553754 0 0.0066488049370459776 0.00030591226812671851 0 0.007096450511731035 0.00047135407686553754 0 0.006946891725453431 6.3187501584081957e-05 0 0.0066488049370459776 0.00030591226812671851 0 0.0064050033521883439 0.00063635005722144583 0 0.0067314263267642446 0.00055325108388726057 0 0.0066488049370459776 0.00030591226812671851 0 0.0062573947188273383 0.00026672999965237428 0 0.0064050033521883439 0.00063635005722144583 0 0.0062573947188273383 0.00026672999965237428 0 0.0064050033521883439 0.00063635005722144583 0 0.0060470096325242481 0.00062098462714324748 0 0.0060975305357652927 0.00088307936551010866 0 0.0064050033521883439 0.00063635005722144583 0 0.0060470096325242481 0.00062098462714324748 0 0.0067352926769350552 0.00080301070783927433 0 0.0064050033521883439 0.00063635005722144583 0 0.0067314263267642446 0.00055325108388726057 0 0.0067352926769350552 0.00080301070783927433 0 0.0067314263267642446 0.00055325108388726057 0 0.007096450511731035 0.00047135407686553754 0 0.0070706805311683716 0.00083515878843199072 0 0.0067352926769350552 0.00080301070783927433 0 0.007096450511731035 0.00047135407686553754 0 0.0070706805311683716 0.00083515878843199072 0 0.0074359765241097543 0.00052914598303060848 0 0.007096450511731035 0.00047135407686553754 0 0.0070706805311683716 0.00083515878843199072 0 0.0072641447960910275 0.00072033203042730397 0 0.0074359765241097543 0.00052914598303060848 0 0.0074359765241097543 0.00052914598303060848 0 0.007096450511731035 0.00047135407686553754 0 0.0075095640248669139 0.00019614778112693958 0 0.007096450511731035 0.00047135407686553754 0 0.0075095640248669139 0.00019614778112693958 0 0.006946891725453431 6.3187501584081957e-05 0 0.0075095640248669139 0.00019614778112693958 0 0.0073659525583241953 -0.00015867348652441349 0 0.006946891725453431 6.3187501584081957e-05 0 0.007963288956448723 -8.8257688728825455e-05 0 0.0075095640248669139 0.00019614778112693958 0 0.0073659525583241953 -0.00015867348652441349 0 0.007963288956448723 -8.8257688728825455e-05 0 0.0073659525583241953 -0.00015867348652441349 0 0.0076930423977300318 -0.0004627546122010364 0 0.0073659525583241953 -0.00015867348652441349 0 0.0071293877110216383 -0.00056351528726237003 0 0.0076930423977300318 -0.0004627546122010364 0 0.0073659525583241953 -0.00015867348652441349 0 0.00687559179572007 -0.00027654198459832301 0 0.006946891725453431 6.3187501584081957e-05 0 0.0073659525583241953 -0.00015867348652441349 0 0.00687559179572007 -0.00027654198459832301 0 0.0071293877110216383 -0.00056351528726237003 0 0.00687559179572007 -0.00027654198459832301 0 0.0064949735163180727 -0.00016512490146809546 0 0.0066160438626863471 -0.00067520816311362997 0 0.00687559179572007 -0.00027654198459832301 0 0.006946891725453431 6.3187501584081957e-05 0 0.0064949735163180727 -0.00016512490146809546 0 0.0066488049370459776 0.00030591226812671851 0 0.006946891725453431 6.3187501584081957e-05 0 0.0064949735163180727 -0.00016512490146809546 0 0.0062573947188273383 0.00026672999965237428 0 0.0064949735163180727 -0.00016512490146809546 0 0.006040909588765464 -0.00021192513842338022 0 0.0066488049370459776 0.00030591226812671851 0 0.0062573947188273383 0.00026672999965237428 0 0.0064949735163180727 -0.00016512490146809546 0 0.0064949735163180727 -0.00016512490146809546 0 0.0063428244650007605 -0.00045236229277861335 0 0.0066160438626863471 -0.00067520816311362997 0 0.0064949735163180727 -0.00016512490146809546 0 0.0063428244650007605 -0.00045236229277861335 0 0.006040909588765464 -0.00021192513842338022 0 0.012133914372776085 -0.00064397639064603905 0 0.011917553881252842 -0.0010189612231641632 0 0.012513428309845982 -0.0017077042783543686 0 0.0086650050705545049 -0.0005210329856736158 0 0.013722606175912795 -0.00094877055222271985 0 0.012573885627514285 0.00050904184428415822 0 0.017428900273967221 -0.00093741366953390781 0 0.015516667217080444 -0.00075474381579096104 0 0.015275210254267171 8.4044608806548344e-05 0 0.015040449734335069 -0.00088753485282334194 0 0.013725525851530713 0.00054236514825167488 0 0.014113001162663657 0.00080119479453502423 0 0.013972886162284827 0.0011646754911058901 0 0.013722606175912795 -0.00094877055222271985 0 0.012573885627514285 0.00050904184428415822 0 0.011242785762288895 -0.00043230800313267094 0 0.011061336150829106 -0.00074583473344965432 0 0.010813668551020757 0.00015638465359586872 0 0.011242785762288895 -0.00043230800313267094 0 0.010813668551020757 0.00015638465359586872 0 0.010906226493334227 0.00050976579237633113 0 0.0054509491471292039 0.00014108767718627177 0 0.0086650050705545049 -0.0005210329856736158 0 0.0059402865584477823 -0.00028348510228817602 0 0.0059701801723685563 0.00030886332083251083 0 0.0057261148269416584 0.00030738351840094548 0 0.0062573947188273383 0.00026672999965237428 0 0.0059402865584477823 -0.00028348510228817602 0 0.0059701801723685563 0.00030886332083251083 0 0.0086650050705545049 -0.0005210329856736158 0 0.0089521768174048028 0.00039912816980356889 0 0.0059701801723685563 0.00030886332083251083 0 0.0060470096325242481 0.00062098462714324748 0 0.0058622564671164225 0.00054775099250432455 0 0.0062573947188273383 0.00026672999965237428 0 0.0059701801723685563 0.00030886332083251083 0 0.0060470096325242481 0.00062098462714324748 0 0.0059701801723685563 0.00030886332083251083 0 0.0057261148269416584 0.00030738351840094548 0 0.0057619727027917404 0.0004390174512313575 0 0.0059701801723685563 0.00030886332083251083 0 0.0057619727027917404 0.0004390174512313575 0 0.0058622564671164225 0.00054775099250432455 0 0.012573885627514285 0.00050904184428415822 0 0.012549598297628251 9.0711285121847457e-05 0 0.013725525851530713 0.00054236514825167488 0 0.013796716014171774 4.67214823173334e-05 0 0.014145374106950421 0.00050311723225947205 0 0.011088003837954566 0.00055182357243880697 0 0.011028251162500823 0.00037483559795823199 0 0.011172026627136303 0.00017320671265991185 0 0.012573885627514285 0.00050904184428415822 0 0.0089521768174048028 0.00039912816980356889 0 0.0089521768174048028 0.00039912816980356889 0 0.0090998464212625457 0.00025636194192473616 0 0.0090998464212625457 0.00025636194192473616 0 0.0075537030078109404 0.00040196763519854587 0 0.0081169568568042697 0.00027867302059772573 0 0.0081678518207327355 0.00035109908846770723 0 0.0080988811809565887 0.00046373037509985263 0 0.011028251162500823 0.00037483559795823199 0 0.011043227427213226 0.00032642689850701136 0 0.011172026627136303 0.00017320671265991185 0 0.0081351340563981453 0.00022805362664118735 0 0.0081169568568042697 0.00027867302059772573 0 0.0081678518207327355 0.00035109908846770723 0 0.0089521768174048028 0.00039912816980356889 0 0.0068051681645054781 0.00025527458824715178 0 0.0088184110195193791 0.00040369638695942202 0 0.0088314471089712878 0.00026959557890087274 0 0.0089169178025487669 0.00013504507379621128 0 0.012549598297628251 9.0711285121847457e-05 0 0.01153502350265885 -0.00036170402928403913 0 0.0055516383049766865 0.00021808386181136036 0 0.0054489819436263371 0.00038358567037438863 0 0.0057413443610583523 0.00095670931206279632 0 0.0074908492582768235 0.00028715153836358296 0 0.0074512705514242598 0.00035088622724099156 0 0.0074714212254835015 0.00043801937879721646 0 0.0075537030078109404 0.00040196763519854587 0 0.0063273188779554854 0.00072348029904373821 0 0.011172026627136303 0.00017320671265991185 0 0.011156999030913365 -2.6493295625394138e-05 0 0.011263249367383153 -0.00020468141471811262 0 0.0090998464212625457 0.00025636194192473616 0 0.0093416374919751168 9.7263122571649127e-05 0 0.011043227427213226 0.00032642689850701136 0 0.011172026627136303 0.00017320671265991185 0 0.011156999030913365 -2.6493295625394138e-05 0 0.0068051681645054781 0.00025527458824715178 0 0.0075537030078109404 0.00040196763519854587 0 0.0075537030078109404 0.00040196763519854587 0 0.0093416374919751168 9.7263122571649127e-05 0 0.0068051681645054781 0.00025527458824715178 0 0.0054467511977985758 0.00090837464882382571 0 0.0057619727027917404 0.0004390174512313575 0 0.0058622564671164225 0.00054775099250432455 0 0.0057413443610583523 0.00095670931206279632 0 0.0060470096325242481 0.00062098462714324748 0 0.0058622564671164225 0.00054775099250432455 0 0.0057413443610583523 0.00095670931206279632 0 0.01442010418581754 1.5280403332301937e-05 0 0.014334810231397663 -0.00023271110590402259 0 0.014173958863065581 0.00011684025791121361 0 0.01442010418581754 1.5280403332301937e-05 0 0.014629983507034153 -0.00012371408094549732 0 0.014557607333377298 0.0002451132838161097 0 0.014629983507034153 -0.00012371408094549732 0 0.014334810231397663 -0.00023271110590402259 0 0.01455124078524442 -0.00041717791056135854 0 0.01442010418581754 1.5280403332301937e-05 0 0.014629983507034153 -0.00012371408094549732 0 0.014334810231397663 -0.00023271110590402259 0 0.014334810231397663 -0.00023271110590402259 0 0.014173958863065581 0.00011684025791121361 0 0.013876288505896679 -0.00048400660060826959 0 0.013796716014171774 4.67214823173334e-05 0 0.014173958863065581 0.00011684025791121361 0 0.013876288505896679 -0.00048400660060826959 0 0.013796716014171774 4.67214823173334e-05 0 0.014173958863065581 0.00011684025791121361 0 0.014145374106950421 0.00050311723225947205 0 0.014173958863065581 0.00011684025791121361 0 0.014469013367000447 0.00052614053353190889 0 0.014145374106950421 0.00050311723225947205 0 0.014173958863065581 0.00011684025791121361 0 0.014557607333377298 0.0002451132838161097 0 0.014469013367000447 0.00052614053353190889 0 0.01442010418581754 1.5280403332301937e-05 0 0.014173958863065581 0.00011684025791121361 0 0.014557607333377298 0.0002451132838161097 0 0.014557607333377298 0.0002451132838161097 0 0.014469013367000447 0.00052614053353190889 0 0.014767100585682565 0.00059438132132834398 0 0.014469013367000447 0.00052614053353190889 0 0.014145374106950421 0.00050311723225947205 0 0.014528561825563384 0.00085384135804672143 0 0.014469013367000447 0.00052614053353190889 0 0.014528561825563384 0.00085384135804672143 0 0.014767100585682565 0.00059438132132834398 0 0.014145374106950421 0.00050311723225947205 0 0.014113001162663657 0.00080119479453502423 0 0.014528561825563384 0.00085384135804672143 0 0.013725525851530713 0.00054236514825167488 0 0.014145374106950421 0.00050311723225947205 0 0.014113001162663657 0.00080119479453502423 0 0.017210825432855542 -0.00024848795684002679 0 0.017428900273967221 -0.00093741366953390781 0 0.019789644252540067 -0.0014332156986636999 0 0.020304961103947635 -0.0024966986149248462 0 0.02146396013425041 -0.0024033041746454147 0 0.014113001162663657 0.00080119479453502423 0 0.014528561825563384 0.00085384135804672143 0 0.013972886162284827 0.0011646754911058901 0 0.025544440541158533 -3.6513328722100343e-05 0 0.026749607164042632 -0.00085310345951376549 0 0.019789644252540067 -0.0014332156986636999 0 0.018827383524981652 -0.0016283020144167188 0 0.020304961103947635 -0.0024966986149248462 0 0.032318155569663824 0.0015165958786243516 0 0.031117493522835812 0.0012924967243590629 0 0.031750407823212576 0.00060535705943103046 0 0.032318155569663824 0.0015165958786243516 0 0.031506882612445747 0.0024526123065637001 0 0.031117493522835812 0.0012924967243590629 0 0.018827383524981652 -0.0016283020144167188 0 0.01726964067403166 -0.00072765429008343914 0 0.017907131602591893 -0.00045663268018984564 0 0.025544440541158533 -3.6513328722100343e-05 0 0.024200325218061359 0.00093912345202323919 0 0.019789644252540067 -0.0014332156986636999 0 0.018827383524981652 -0.0016283020144167188 0 0.017907131602591893 -0.00045663268018984564 0 0.014528561825563384 0.00085384135804672143 0 0.015165850143795085 0.00057406644896683379 0 0.014767100585682565 0.00059438132132834398 0 0.015165850143795085 0.00057406644896683379 0 0.014767100585682565 0.00059438132132834398 0 0.014978470610238966 0.00044818276630353743 0 0.017210825432855542 -0.00024848795684002679 0 0.016536431877988429 3.1289533254163142e-05 0 0.029652463547060786 0.0011192272084081325 0 0.030176748857544736 0.0020483080306726857 0 0.02888632868585677 0.0019503317353228751 0 0.029652463547060786 0.0011192272084081325 0 0.031117493522835812 0.0012924967243590629 0 0.030176748857544736 0.0020483080306726857 0 0.031506882612445747 0.0024526123065637001 0 0.030176748857544736 0.0020483080306726857 0 0.030225613754200662 0.0037773051880515204 0 0.031506882612445747 0.0024526123065637001 0 0.031117493522835812 0.0012924967243590629 0 0.030176748857544736 0.0020483080306726857 0 0.030176748857544736 0.0020483080306726857 0 0.02888632868585677 0.0019503317353228751 0 0.029018685964780872 0.0026209554011609776 0 0.030176748857544736 0.0020483080306726857 0 0.030225613754200662 0.0037773051880515204 0 0.029018685964780872 0.0026209554011609776 0 0.030225613754200662 0.0037773051880515204 0 0.02811880626275471 0.0044085263900330209 0 0.029018685964780872 0.0026209554011609776 0 0.024200325218061359 0.00093912345202323919 0 0.02403169567468787 0.0018267779292977446 0 0.015165850143795085 0.00057406644896683379 0 0.016068022597138382 0.00014664063613307001 0 0.015663741437372539 0.00020867676799388437 0 0.016536431877988429 3.1289533254163142e-05 0 0.016122254039221979 0.00014983232096720344 0 0.01726964067403166 -0.00072765429008343914 0 0.015989905171664116 5.9855809356389636e-05 0 0.016068022597138382 0.00014664063613307001 0 0.01726964067403166 -0.00072765429008343914 0 0.017907131602591893 -0.00045663268018984564 0 0.016068022597138382 0.00014664063613307001 0 0.016068022597138382 0.00014664063613307001 0 0.015663741437372539 0.00020867676799388437 0 0.015824063800434544 8.0998999926357222e-05 0 0.015663741437372539 0.00020867676799388437 0 0.015683537261963979 3.1584877808398338e-05 0 0.015824063800434544 8.0998999926357222e-05 0 0.015663741437372539 0.00020867676799388437 0 0.015683537261963979 3.1584877808398338e-05 0 0.015505761955631324 6.9972399296791202e-05 0 0.015683537261963979 3.1584877808398338e-05 0 0.015677650205791191 -0.00023234056664037347 0 0.015878398584187475 -4.6349001733800921e-05 0 0.015683537261963979 3.1584877808398338e-05 0 0.015878398584187475 -4.6349001733800921e-05 0 0.015824063800434544 8.0998999926357222e-05 0 0.015683537261963979 3.1584877808398338e-05 0 0.015505761955631324 6.9972399296791202e-05 0 0.015520386499987686 -0.00012017540436344074 0 0.015683537261963979 3.1584877808398338e-05 0 0.015677650205791191 -0.00023234056664037347 0 0.015520386499987686 -0.00012017540436344074 0 0.015677650205791191 -0.00023234056664037347 0 0.015878398584187475 -4.6349001733800921e-05 0 0.016038084847541188 -0.00014495271160949044 0 0.016068022597138382 0.00014664063613307001 0 0.015878398584187475 -4.6349001733800921e-05 0 0.016038084847541188 -0.00014495271160949044 0 0.016068022597138382 0.00014664063613307001 0 0.015878398584187475 -4.6349001733800921e-05 0 0.015824063800434544 8.0998999926357222e-05 0 0.016038084847541188 -0.00014495271160949044 0 0.016078611545687259 -0.00054867284868431341 0 0.016419609750145787 -8.8124521306973811e-05 0 0.015989905171664116 5.9855809356389636e-05 0 0.016038084847541188 -0.00014495271160949044 0 0.016419609750145787 -8.8124521306973811e-05 0 0.02403169567468787 0.0018267779292977446 0 0.016650185658514546 0.0018222783234896683 0 0.015989905171664116 5.9855809356389636e-05 0 0.016068022597138382 0.00014664063613307001 0 0.016038084847541188 -0.00014495271160949044 0 0.014856262002428972 0.00034648449864811774 0 0.015139983914053738 0.00025693086048806057 0 0.014884821654968154 7.0788811577202198e-05 0 0.015139983914053738 0.00025693086048806057 0 0.015100119408314131 4.7952790440967885e-05 0 0.014884821654968154 7.0788811577202198e-05 0 0.014557607333377298 0.0002451132838161097 0 0.014856262002428972 0.00034648449864811774 0 0.014884821654968154 7.0788811577202198e-05 0 0.014557607333377298 0.0002451132838161097 0 0.014767100585682565 0.00059438132132834398 0 0.014856262002428972 0.00034648449864811774 0 0.014767100585682565 0.00059438132132834398 0 0.014856262002428972 0.00034648449864811774 0 0.014978470610238966 0.00044818276630353743 0 0.014856262002428972 0.00034648449864811774 0 0.014978470610238966 0.00044818276630353743 0 0.015139983914053738 0.00025693086048806057 0 0.015165850143795085 0.00057406644896683379 0 0.015354616839513807 0.00022915523094288841 0 0.015139983914053738 0.00025693086048806057 0 0.015165850143795085 0.00057406644896683379 0 0.014978470610238966 0.00044818276630353743 0 0.015139983914053738 0.00025693086048806057 0 0.015165850143795085 0.00057406644896683379 0 0.015663741437372539 0.00020867676799388437 0 0.015354616839513807 0.00022915523094288841 0 0.015354616839513807 0.00022915523094288841 0 0.015505761955631324 6.9972399296791202e-05 0 0.015309029844858725 1.5456165822850547e-05 0 0.015663741437372539 0.00020867676799388437 0 0.015354616839513807 0.00022915523094288841 0 0.015505761955631324 6.9972399296791202e-05 0 0.015354616839513807 0.00022915523094288841 0 0.015139983914053738 0.00025693086048806057 0 0.015309029844858725 1.5456165822850547e-05 0 0.015139983914053738 0.00025693086048806057 0 0.015100119408314131 4.7952790440967885e-05 0 0.015309029844858725 1.5456165822850547e-05 0 0.015100119408314131 4.7952790440967885e-05 0 0.015309029844858725 1.5456165822850547e-05 0 0.015073339660618098 -0.00015061022623784594 0 0.015505761955631324 6.9972399296791202e-05 0 0.015309029844858725 1.5456165822850547e-05 0 0.015520386499987686 -0.00012017540436344074 0 0.015677650205791191 -0.00023234056664037347 0 0.01535009128910584 -0.00027312082478912904 0 0.015520386499987686 -0.00012017540436344074 0 0.015309029844858725 1.5456165822850547e-05 0 0.01535009128910584 -0.00027312082478912904 0 0.015520386499987686 -0.00012017540436344074 0 0.015309029844858725 1.5456165822850547e-05 0 0.01535009128910584 -0.00027312082478912904 0 0.015073339660618098 -0.00015061022623784594 0 0.01535009128910584 -0.00027312082478912904 0 0.015073339660618098 -0.00015061022623784594 0 0.015113347901455075 -0.00043197478122857408 0 0.015073339660618098 -0.00015061022623784594 0 0.01485789466689286 -0.0001359514619690971 0 0.014849324625209092 -0.00034018086891167545 0 0.015100119408314131 4.7952790440967885e-05 0 0.015073339660618098 -0.00015061022623784594 0 0.014884821654968154 7.0788811577202198e-05 0 0.015073339660618098 -0.00015061022623784594 0 0.01485789466689286 -0.0001359514619690971 0 0.014884821654968154 7.0788811577202198e-05 0 0.014629983507034153 -0.00012371408094549732 0 0.014557607333377298 0.0002451132838161097 0 0.014884821654968154 7.0788811577202198e-05 0 0.014629983507034153 -0.00012371408094549732 0 0.01485789466689286 -0.0001359514619690971 0 0.014884821654968154 7.0788811577202198e-05 0 0.014629983507034153 -0.00012371408094549732 0 0.014849324625209092 -0.00034018086891167545 0 0.01455124078524442 -0.00041717791056135854 0 0.014629983507034153 -0.00012371408094549732 0 0.01485789466689286 -0.0001359514619690971 0 0.014849324625209092 -0.00034018086891167545 0 0.014710286239753364 -0.00053494935235927593 0 0.014849324625209092 -0.00034018086891167545 0 0.01455124078524442 -0.00041717791056135854 0 0.014710286239753364 -0.00053494935235927593 0 0.014885155342837936 -0.00069406169006542054 0 0.014849324625209092 -0.00034018086891167545 0 0.014710286239753364 -0.00053494935235927593 0 0.014885155342837936 -0.00069406169006542054 0 0.014556065104301248 -0.00068943156119122154 0 0.015073339660618098 -0.00015061022623784594 0 0.014849324625209092 -0.00034018086891167545 0 0.015113347901455075 -0.00043197478122857408 0 0.014885155342837936 -0.00069406169006542054 0 0.014849324625209092 -0.00034018086891167545 0 0.015113347901455075 -0.00043197478122857408 0 0.015677650205791191 -0.00023234056664037347 0 0.01535009128910584 -0.00027312082478912904 0 0.015397655352809193 -0.00054056422617101507 0 0.01535009128910584 -0.00027312082478912904 0 0.015113347901455075 -0.00043197478122857408 0 0.015397655352809193 -0.00054056422617101507 0 0.015113347901455075 -0.00043197478122857408 0 0.015397655352809193 -0.00054056422617101507 0 0.015190230170933298 -0.00081670545657833453 0 0.014885155342837936 -0.00069406169006542054 0 0.015113347901455075 -0.00043197478122857408 0 0.015190230170933298 -0.00081670545657833453 0 0.014885155342837936 -0.00069406169006542054 0 0.015190230170933298 -0.00081670545657833453 0 0.014984681240682536 -0.001068812169135518 0 0.015397655352809193 -0.00054056422617101507 0 0.015190230170933298 -0.00081670545657833453 0 0.015567421377463383 -0.0010831779869437585 0 0.015190230170933298 -0.00081670545657833453 0 0.014984681240682536 -0.001068812169135518 0 0.015567421377463383 -0.0010831779869437585 0 0.014984681240682536 -0.001068812169135518 0 0.014624556582602321 -0.00096921755229546042 0 0.01461178451150561 -0.0012585689923691004 0 0.014885155342837936 -0.00069406169006542054 0 0.014624556582602321 -0.00096921755229546042 0 0.014556065104301248 -0.00068943156119122154 0 0.014885155342837936 -0.00069406169006542054 0 0.014984681240682536 -0.001068812169135518 0 0.014624556582602321 -0.00096921755229546042 0 0.016038084847541188 -0.00014495271160949044 0 0.016078611545687259 -0.00054867284868431341 0 0.015753809446173935 -0.00050321717935732709 0 0.0095145918653619273 -0.00048509680573775973 0 0.016650185658514546 0.0018222783234896683 0 0.015397655352809193 -0.00054056422617101507 0 0.015753809446173935 -0.00050321717935732709 0 0.015567421377463383 -0.0010831779869437585 0 0.015677650205791191 -0.00023234056664037347 0 0.016038084847541188 -0.00014495271160949044 0 0.015753809446173935 -0.00050321717935732709 0 0.015677650205791191 -0.00023234056664037347 0 0.015397655352809193 -0.00054056422617101507 0 0.015753809446173935 -0.00050321717935732709 0 0.0095145918653619273 -0.00048509680573775973 0 0.01026005615888019 -0.00024341132656290136 0 0.016078611545687259 -0.00054867284868431341 0 0.015753809446173935 -0.00050321717935732709 0 0.015567421377463383 -0.0010831779869437585 0 0.0049451153093512668 0.00067473437398266566 0 0.0045869006688405477 0.00031078376182662514 0 0.0049956301487325576 0.00033151893194598495 0 0.0049451153093512668 0.00067473437398266566 0 0.0049956301487325576 0.00033151893194598495 0 0.0053071926634245649 0.00061961684314717482 0 0.0049956301487325576 0.00033151893194598495 0 0.004673254471013623 -7.2669098663190334e-05 0 0.0051079357955166639 7.7834205735765149e-05 0 0.0045869006688405477 0.00031078376182662514 0 0.004673254471013623 -7.2669098663190334e-05 0 0.0042924345262593889 -5.7690257846253739e-05 0 0.0045869006688405477 0.00031078376182662514 0 0.0049956301487325576 0.00033151893194598495 0 0.004673254471013623 -7.2669098663190334e-05 0 0.0043731441451946938 -0.00031918918150350124 0 0.0045716592079131733 -0.00044918321079388433 0 0.004673254471013623 -7.2669098663190334e-05 0 0.004673254471013623 -7.2669098663190334e-05 0 0.0049622732891021837 -0.00032103540731947969 0 0.0051079357955166639 7.7834205735765149e-05 0 0.0045716592079131733 -0.00044918321079388433 0 0.004673254471013623 -7.2669098663190334e-05 0 0.0049622732891021837 -0.00032103540731947969 0 0.014584769092878921 -0.0015533722130611821 0 0.01461178451150561 -0.0012585689923691004 0 0.015049093973225089 -0.0015705564037910703 0 0.014984681240682536 -0.001068812169135518 0 0.01461178451150561 -0.0012585689923691004 0 0.015049093973225089 -0.0015705564037910703 0 0.01026005615888019 -0.00024341132656290136 0 0.0096838618702621559 -0.00082925129286868778 0 0.014984681240682536 -0.001068812169135518 0 0.015567421377463383 -0.0010831779869437585 0 0.015049093973225089 -0.0015705564037910703 0 0.0040687737150544223 -0.00036575931963700144 0 0.0043731441451946938 -0.00031918918150350124 0 0.0042924345262593889 -5.7690257846253739e-05 0 0.0043731441451946938 -0.00031918918150350124 0 0.004673254471013623 -7.2669098663190334e-05 0 0.0042924345262593889 -5.7690257846253739e-05 0 0.014584769092878921 -0.0015533722130611821 0 0.015049093973225089 -0.0015705564037910703 0 0.014463894384299687 -0.0020192062501858937 0 0.008947948086692626 -0.0012519011363693413 0 0.0096838618702621559 -0.00082925129286868778 0 0.014415633891828364 -0.0021634235421284075 0 0.015049093973225089 -0.0015705564037910703 0 0.014463894384299687 -0.0020192062501858937 0 0.0137500032018315 -0.0018875911084835679 0 0.013308128569560913 -9.9519169843724649e-05 0 0.012748358211014251 -0.0012597514307342312 0 0.014584769092878921 -0.0015533722130611821 0 0.014463894384299687 -0.0020192062501858937 0 0.014258939697341856 -0.001345349279143436 0 0.0088629537272579759 -0.0013946212313537194 0 0.0086781502361834365 -0.00075461880580818502 0 0.0086518527113146702 -0.00080513819501003704 0 0.014553207773901939 -0.0019687380787334614 0 0.01336638377543998 -0.00078521281690238024 0 0.014463894384299687 -0.0020192062501858937 0 0.0137500032018315 -0.0018875911084835679 0 0.013308128569560913 -9.9519169843724649e-05 0 0.01336638377543998 -0.00078521281690238024 0 0.012750873132700246 -0.00073643611385931383 0 0.014584769092878921 -0.0015533722130611821 0 0.01461178451150561 -0.0012585689923691004 0 0.014258939697341856 -0.001345349279143436 0 0.014290137200392093 -0.0013230570056298138 0 0.01436617914804173 -0.0011757107981629272 0 0.014088499521944214 -0.00091225264963011024 0 0.01336638377543998 -0.00078521281690238024 0 0.010168841934164386 -0.00072970647902604691 0 0.01336638377543998 -0.00078521281690238024 0 0.013725754881957406 -0.00094009084759490115 0 0.01461178451150561 -0.0012585689923691004 0 0.014258939697341856 -0.001345349279143436 0 0.01436617914804173 -0.0011757107981629272 0 0.014624556582602321 -0.00096921755229546042 0 0.01461178451150561 -0.0012585689923691004 0 0.01436617914804173 -0.0011757107981629272 0 0.0093252803546637203 0.00012832290979545631 0 0.010168841934164386 -0.00072970647902604691 0 0.011371992545917215 -0.00052597300786819416 0 0.011296494933585543 -0.00050788765128481964 0 0.011323454430949668 -0.00060753757268956483 0 0.0073898175066527743 0.00065876477224507057 0 0.007357031109540846 0.00060271628268875022 0 0.0073200786692942752 0.00071698369642905671 0 0.0073898175066527743 0.00065876477224507057 0 0.007357031109540846 0.00060271628268875022 0 0.0074504508567397182 0.00058453859007713972 0 0.0093252803546637203 0.00012832290979545631 0 0.0089038871816461539 -0.00024216127643313866 0 0.011371992545917215 -0.00052597300786819416 0 0.011296494933585543 -0.00050788765128481964 0 0.011315053216357653 -0.00043430620361142923 0 0.0073516424141870972 0.00081606052622800916 0 0.0073200786692942752 0.00071698369642905671 0 0.0074312833932534128 0.00073160995481827645 0 0.0092389673020128998 5.9072426007485757e-05 0 0.0094060577755662282 -0.00044271263829656903 0 0.009377395899027292 -0.00050134529180164832 0 0.0073898175066527743 0.00065876477224507057 0 0.0073200786692942752 0.00071698369642905671 0 0.0074312833932534128 0.00073160995481827645 0 0.010168841934164386 -0.00072970647902604691 0 0.0089038871816461539 -0.00024216127643313866 0 0.005301119718855273 0.0021829973236428012 0 0.0051466693861204798 0.002052369840393952 0 0.0054614180010679643 0.001838577625111049 0 0.005301119718855273 0.0021829973236428012 0 0.005480134995212816 0.002061912995439349 0 0.0054614180010679643 0.001838577625111049 0 0.0054416860926309076 0.0022446262872860031 0 0.0057378998778215388 0.0019480340682631271 0 0.005480134995212816 0.002061912995439349 0 0.0057378998778215388 0.0019480340682631271 0 0.005480134995212816 0.002061912995439349 0 0.0054614180010679643 0.001838577625111049 0 0.0057378998778215388 0.0019480340682631271 0 0.0058824446218993902 0.001574851233782683 0 0.0054614180010679643 0.001838577625111049 0 0.0058824446218993902 0.001574851233782683 0 0.0054614180010679643 0.001838577625111049 0 0.0056262965965158014 0.001349309848845429 0 0.0054614180010679643 0.001838577625111049 0 0.0052513812396832171 0.0015542182976856793 0 0.0056262965965158014 0.001349309848845429 0 0.0063354763412815564 0.0013656735275719958 0 0.0063558514724261286 0.0010797417727211472 0 0.0051466693861204798 0.002052369840393952 0 0.0054614180010679643 0.001838577625111049 0 0.0052513812396832171 0.0015542182976856793 0 0.0073898175066527743 0.00065876477224507057 0 0.0074312833932534128 0.00073160995481827645 0 0.0074504508567397182 0.00058453859007713972 0 0.0063558514724261286 0.0010797417727211472 0 0.0063273188779554854 0.00072348029904373821 0 0.0052513812396832171 0.0015542182976856793 0 0.0056262965965158014 0.001349309848845429 0 0.0053777803976016022 0.0010182088704602315 0 0.0074504508567397182 0.00058453859007713972 0 0.0074714212254835015 0.00043801937879721646 0 0.0074034252238179129 0.00047962771055051767 0 0.0058824446218993902 0.001574851233782683 0 0.0059924025731378349 0.0011917402473153027 0 0.0056262965965158014 0.001349309848845429 0 0.0059924025731378349 0.0011917402473153027 0 0.0056262965965158014 0.001349309848845429 0 0.0057413443610583523 0.00095670931206279632 0 0.0056262965965158014 0.001349309848845429 0 0.0057413443610583523 0.00095670931206279632 0 0.0053777803976016022 0.0010182088704602315 0 0.0060975305357652927 0.00088307936551010866 0 0.0060470096325242481 0.00062098462714324748 0 0.0057413443610583523 0.00095670931206279632 0 0.0060975305357652927 0.00088307936551010866 0 0.0059924025731378349 0.0011917402473153027 0 0.0057413443610583523 0.00095670931206279632 0 0.0074512705514242598 0.00035088622724099156 0 0.0074714212254835015 0.00043801937879721646 0 0.0074034252238179129 0.00047962771055051767 0 0.0054489819436263371 0.00038358567037438863 0 0.0057413443610583523 0.00095670931206279632 0 0.0053777803976016022 0.0010182088704602315 0 0.0093416374919751168 9.7263122571649127e-05 0 0.0083895000595401899 0.00036591079633182681 0 0.0093416374919751168 9.7263122571649127e-05 0 0.01153502350265885 -0.00036170402928403913 0 0.014334810231397663 -0.00023271110590402259 0 0.013876288505896679 -0.00048400660060826959 0 0.014295534156806835 -0.00061136920594881687 0 0.01153502350265885 -0.00036170402928403913 0 0.012750873132700246 -0.00073643611385931383 0 0.0096694679471956094 -9.7876947857815588e-05 0 0.0096384041374809343 -3.7601248502995099e-05 0 0.0096347497281699147 2.4016106560419426e-05 0 0.013876288505896679 -0.00048400660060826959 0 0.014295534156806835 -0.00061136920594881687 0 0.014088499521944214 -0.00091225264963011024 0 0.01153502350265885 -0.00036170402928403913 0 0.01045498441410621 -0.00020828217970662651 0 0.0096384041374809343 -3.7601248502995099e-05 0 0.0096179068611359202 5.4412649343735378e-05 0 0.0096347497281699147 2.4016106560419426e-05 0 0.014334810231397663 -0.00023271110590402259 0 0.01455124078524442 -0.00041717791056135854 0 0.014295534156806835 -0.00061136920594881687 0 0.014710286239753364 -0.00053494935235927593 0 0.01455124078524442 -0.00041717791056135854 0 0.014556065104301248 -0.00068943156119122154 0 0.01455124078524442 -0.00041717791056135854 0 0.014556065104301248 -0.00068943156119122154 0 0.014295534156806835 -0.00061136920594881687 0 0.014295534156806835 -0.00061136920594881687 0 0.014384230021024569 -0.00087234213997784205 0 0.014088499521944214 -0.00091225264963011024 0 0.014556065104301248 -0.00068943156119122154 0 0.014295534156806835 -0.00061136920594881687 0 0.014384230021024569 -0.00087234213997784205 0 0.014624556582602321 -0.00096921755229546042 0 0.014556065104301248 -0.00068943156119122154 0 0.014384230021024569 -0.00087234213997784205 0 0.014624556582602321 -0.00096921755229546042 0 0.01436617914804173 -0.0011757107981629272 0 0.014384230021024569 -0.00087234213997784205 0 0.01436617914804173 -0.0011757107981629272 0 0.014384230021024569 -0.00087234213997784205 0 0.014088499521944214 -0.00091225264963011024 0 0.007357031109540846 0.00060271628268875022 0 0.0074504508567397182 0.00058453859007713972 0 0.0074034252238179129 0.00047962771055051767 0 0.0093252803546637203 0.00012832290979545631 0 0.0083895000595401899 0.00036591079633182681 0 0.011265496464833453 -0.0003533307055822594 0 0.011315053216357653 -0.00043430620361142923 0 0.01128247420399617 -0.0004268793514102032 0 0.0095962809315986181 0.00014680251272724976 0 0.0096179068611359202 5.4412649343735378e-05 0 0.0096347497281699147 2.4016106560419426e-05 0 0.011296494933585543 -0.00050788765128481964 0 0.011315053216357653 -0.00043430620361142923 0 0.01128247420399617 -0.0004268793514102032 0 0.0093252803546637203 0.00012832290979545631 0 0.01045498441410621 -0.00020828217970662651 0 0.0077838680582924379 2.0154747167456257e-07 0 0.007103638870922413 0.00032459212222393248 0 0.0063801300991657844 0.00025868263217816159 0 0.0077838680582924379 2.0154747167456257e-07 0 0.007103638870922413 0.00032459212222393248 0 0.0088130181517983089 -0.00012226208111240096 0 0.0077838680582924379 2.0154747167456257e-07 0 0.0063801300991657844 0.00025868263217816159 0 0.0057030814166764742 6.9419636254744692e-07 0 0.007103638870922413 0.00032459212222393248 0 0.0065849380035370953 0.00032152853047930845 0 0.0072913412733630204 0.0001870374245956692 0 0.007103638870922413 0.00032459212222393248 0 0.0072913412733630204 0.0001870374245956692 0 0.0088130181517983089 -0.00012226208111240096 0 0.0065849380035370953 0.00032152853047930845 0 0.0061120189089930816 0.00047784758983436337 0 0.0062038828843609785 0.00042062380513179269 0 0.007103638870922413 0.00032459212222393248 0 0.0065849380035370953 0.00032152853047930845 0 0.0061120189089930816 0.00047784758983436337 0 0.007103638870922413 0.00032459212222393248 0 0.0061120189089930816 0.00047784758983436337 0 0.0063801300991657844 0.00025868263217816159 0 0.0061120189089930816 0.00047784758983436337 0 0.0059019341943120475 0.00046254133285534015 0 0.0062038828843609785 0.00042062380513179269 0 0.0061120189089930816 0.00047784758983436337 0 0.0054256298615061914 0.00025659699418632717 0 0.0059019341943120475 0.00046254133285534015 0 0.0061120189089930816 0.00047784758983436337 0 0.0052247903583275074 0.00032019203805520478 0 0.0054256298615061914 0.00025659699418632717 0 0.0061120189089930816 0.00047784758983436337 0 0.0052247903583275074 0.00032019203805520478 0 0.0063801300991657844 0.00025868263217816159 0 0.0052247903583275074 0.00032019203805520478 0 0.0063801300991657844 0.00025868263217816159 0 0.0057030814166764742 6.9419636254744692e-07 0 0.0052247903583275074 0.00032019203805520478 0 0.0057030814166764742 6.9419636254744692e-07 0 0.004382258440119532 7.5484163449740529e-05 0 0.0057030814166764742 6.9419636254744692e-07 0 0.004382258440119532 7.5484163449740529e-05 0 0.0036224592972814401 -3.3139582466491971e-07 0 0.004382258440119532 7.5484163449740529e-05 0 0.0036224592972814401 -3.3139582466491971e-07 0 0.003552154060796587 -0.00017578093308687881 0 0.0052247903583275074 0.00032019203805520478 0 0.004382258440119532 7.5484163449740529e-05 0 0.003552154060796587 -0.00017578093308687881 0 0.0052247903583275074 0.00032019203805520478 0 0.003552154060796587 -0.00017578093308687881 0 0.0054256298615061914 0.00025659699418632717 0 0.0032753767184947277 -0.00015668346828057175 0 0.0025093770436110463 -0.000314823264888684 0 0.003552154060796587 -0.00017578093308687881 0 0.0019099153201394448 -0.00015836817262487911 0 0.00029228675096678089 -0.00033819229523668315 0 0.0036224592972814401 -3.3139582466491971e-07 0 0.003552154060796587 -0.00017578093308687881 0 0.0019099153201394448 -0.00015836817262487911 0 0.0036224592972814401 -3.3139582466491971e-07 0 0.0015415169557515774 -2.950820785013113e-07 0 0.0019099153201394448 -0.00015836817262487911 0 0.0015415169557515774 -2.950820785013113e-07 0 0.0019099153201394448 -0.00015836817262487911 0 -0.00033980101717888319 0.00022221023035230678 0 0.0019099153201394448 -0.00015836817262487911 0 -0.00033980101717888319 0.00022221023035230678 0 0.00029228675096678089 -0.00033819229523668315 0 -0.00053937578377293775 5.1367812822055787e-07 0 0.0015415169557515774 -2.950820785013113e-07 0 -0.00033980101717888319 0.00022221023035230678 0 -0.001313845967521208 0.00030075366503451597 0 -0.00033980101717888319 0.00022221023035230678 0 -0.0010976009584602925 6.6920190541005598e-05 0 -0.00033980101717888319 0.00022221023035230678 0 -0.0010976009584602925 6.6920190541005598e-05 0 0.00029228675096678089 -0.00033819229523668315 0 0.0019582057600472046 -0.00038724753585737059 0 0.0025093770436110463 -0.000314823264888684 0 0.0051437851742626986 -0.00074780015435931468 0 0.0047132545598552594 -0.00054985049600716508 0 0.005304433900196766 -0.00012990812743448552 0 0.005304433900196766 -0.00012990812743448552 0 0.0054256298615061914 0.00025659699418632717 0 0.0054889750112500964 0.00041293923603833045 0 0.0047132545598552594 -0.00054985049600716508 0 0.005304433900196766 -0.00012990812743448552 0 0.0054256298615061914 0.00025659699418632717 0 0.003552154060796587 -0.00017578093308687881 0 0.0047132545598552594 -0.00054985049600716508 0 0.0054256298615061914 0.00025659699418632717 0 0.0054256298615061914 0.00025659699418632717 0 0.0054889750112500964 0.00041293923603833045 0 0.0059019341943120475 0.00046254133285534015 0 0.0054889750112500964 0.00041293923603833045 0 0.004942896776424224 0.00073682775573017268 0 0.0054565968751428733 0.00052385866386776218 0 0.0054889750112500964 0.00041293923603833045 0 0.0054565968751428733 0.00052385866386776218 0 0.0059019341943120475 0.00046254133285534015 0 0.0054889750112500964 0.00041293923603833045 0 0.0044660010263943943 0.00085783031948394371 0 0.004942896776424224 0.00073682775573017268 0 0.005304433900196766 -0.00012990812743448552 0 0.0054889750112500964 0.00041293923603833045 0 0.0056134195703698292 -0.00048001913727070727 0 0.0053573909650571749 0.00039279571460066964 0 0.0051846254281675891 2.7765211491017905e-05 0 0.0051437851742626986 -0.00074780015435931468 0 0.005304433900196766 -0.00012990812743448552 0 0.0056134195703698292 -0.00048001913727070727 0 0.0043622257668458472 0.0008557449526059547 0 0.0044660010263943943 0.00085783031948394371 0 0.0040278008501114454 0.00080521708287442 0 0.0054889750112500964 0.00041293923603833045 0 0.0043622257668458472 0.0008557449526059547 0 0.0044660010263943943 0.00085783031948394371 0 0.0035043427808914896 0.00068935289595819203 0 0.0043622257668458472 0.0008557449526059547 0 0.0040278008501114454 0.00080521708287442 0 0.0044660010263943943 0.00085783031948394371 0 0.0040278008501114454 0.00080521708287442 0 0.0041047813009277272 0.0007963177305499627 0 0.0036847548374085888 0.00070144679468999382 0 0.0038079674552547061 0.00065034830255530679 0 0.0041047813009277272 0.0007963177305499627 0 0.0036847548374085888 0.00070144679468999382 0 0.0040278008501114454 0.00080521708287442 0 0.0041047813009277272 0.0007963177305499627 0 0.0035043427808914896 0.00068935289595819203 0 0.0036847548374085888 0.00070144679468999382 0 0.0040278008501114454 0.00080521708287442 0 0.0026669571061048191 0.00012719599519007757 0 0.0051846254281675891 2.7765211491017905e-05 0 0.0054924209631158358 -0.0011266622087069788 0 0.0051437851742626986 -0.00074780015435931468 0 0.0056134195703698292 -0.00048001913727070727 0 0.002822859595687734 0.00056585984417102512 0 0.0035043427808914896 0.00068935289595819203 0 0.0043622257668458472 0.0008557449526059547 0 0.0046172388108860207 0.00080490783098478218 0 0.0046885837006881061 0.00077134847051167589 0 0.0045378864449757842 0.00074777217936142096 0 0.0046172388108860207 0.00080490783098478218 0 0.0044634150603860539 0.00081293173060959921 0 0.0046808386486980238 0.00082335332919670405 0 0.0047551085799744765 0.00081147679779482499 0 0.0046885837006881061 0.00077134847051167589 0 0.0047690370879906506 0.00080659649271154347 0 0.0046172388108860207 0.00080490783098478218 0 0.0047551085799744765 0.00081147679779482499 0 0.0046885837006881061 0.00077134847051167589 0 0.0046617803108087927 0.00057489436343297203 0 0.0046885837006881061 0.00077134847051167589 0 0.0045378864449757842 0.00074777217936142096 0 0.0044174123175636576 0.00063952426826774551 0 0.0046617803108087927 0.00057489436343297203 0 0.0045378864449757842 0.00074777217936142096 0 0.0046172388108860207 0.00080490783098478218 0 0.0045378864449757842 0.00074777217936142096 0 0.004371126445904836 0.00074612605017884866 0 0.0044174123175636576 0.00063952426826774551 0 0.0045378864449757842 0.00074777217936142096 0 0.004371126445904836 0.00074612605017884866 0 0.0042069967226378083 0.00062001702596276649 0 0.0044174123175636576 0.00063952426826774551 0 0.004371126445904836 0.00074612605017884866 0 0.004371126445904836 0.00074612605017884866 0 0.0041170437544138317 0.0007073311580156681 0 0.004271200065049263 0.00079404590425133066 0 0.0042069967226378083 0.00062001702596276649 0 0.004371126445904836 0.00074612605017884866 0 0.0041170437544138317 0.0007073311580156681 0 0.0038079674552547061 0.00065034830255530679 0 0.0041047813009277272 0.0007963177305499627 0 0.0041170437544138317 0.0007073311580156681 0 0.0041047813009277272 0.0007963177305499627 0 0.0041170437544138317 0.0007073311580156681 0 0.004271200065049263 0.00079404590425133066 0 0.0044660010263943943 0.00085783031948394371 0 0.0041047813009277272 0.0007963177305499627 0 0.004271200065049263 0.00079404590425133066 0 0.0044660010263943943 0.00085783031948394371 0 0.004271200065049263 0.00079404590425133066 0 0.0044634150603860539 0.00081293173060959921 0 0.0046172388108860207 0.00080490783098478218 0 0.004371126445904836 0.00074612605017884866 0 0.0044634150603860539 0.00081293173060959921 0 0.004371126445904836 0.00074612605017884866 0 0.004271200065049263 0.00079404590425133066 0 0.0044634150603860539 0.00081293173060959921 0 0.0044660010263943943 0.00085783031948394371 0 0.0044634150603860539 0.00081293173060959921 0 0.0046808386486980238 0.00082335332919670405 0 0.0044660010263943943 0.00085783031948394371 0 0.0046808386486980238 0.00082335332919670405 0 0.004942896776424224 0.00073682775573017268 0 0.0046808386486980238 0.00082335332919670405 0 0.0048507043543653807 0.00080372574521361925 0 0.004942896776424224 0.00073682775573017268 0 0.0046172388108860207 0.00080490783098478218 0 0.0047551085799744765 0.00081147679779482499 0 0.0046808386486980238 0.00082335332919670405 0 0.0047551085799744765 0.00081147679779482499 0 0.0046808386486980238 0.00082335332919670405 0 0.0048507043543653807 0.00080372574521361925 0 0.0050348959926246641 0.00074144095224840372 0 0.004942896776424224 0.00073682775573017268 0 0.0051872736667344377 0.00067227508220086575 0 0.0048507043543653807 0.00080372574521361925 0 0.0050348959926246641 0.00074144095224840372 0 0.004942896776424224 0.00073682775573017268 0 0.004942896776424224 0.00073682775573017268 0 0.0054565968751428733 0.00052385866386776218 0 0.0051872736667344377 0.00067227508220086575 0 0.0051872736667344377 0.00067227508220086575 0 0.0055039573360785854 0.00057986223646764982 0 0.0052478068963590953 0.00066265376986350457 0 0.0050348959926246641 0.00074144095224840372 0 0.0051872736667344377 0.00067227508220086575 0 0.0052478068963590953 0.00066265376986350457 0 0.0054565968751428733 0.00052385866386776218 0 0.0051872736667344377 0.00067227508220086575 0 0.0055039573360785854 0.00057986223646764982 0 0.0055039573360785854 0.00057986223646764982 0 0.00584345132606226 0.00053286635680854224 0 0.0055726461029711877 0.00059294242900579145 0 0.0055039573360785854 0.00057986223646764982 0 0.00584345132606226 0.00053286635680854224 0 0.0057494032175143929 0.0005048661435818803 0 0.00584345132606226 0.00053286635680854224 0 0.0057494032175143929 0.0005048661435818803 0 0.0061674172505731643 0.000376089774746388 0 0.0054565968751428733 0.00052385866386776218 0 0.0055039573360785854 0.00057986223646764982 0 0.0057494032175143929 0.0005048661435818803 0 0.0054565968751428733 0.00052385866386776218 0 0.0057494032175143929 0.0005048661435818803 0 0.0059019341943120475 0.00046254133285534015 0 0.0059019341943120475 0.00046254133285534015 0 0.0061674172505731643 0.000376089774746388 0 0.0062038828843609785 0.00042062380513179269 0 0.0057494032175143929 0.0005048661435818803 0 0.0059019341943120475 0.00046254133285534015 0 0.0061674172505731643 0.000376089774746388 0 0.0065849380035370953 0.00032152853047930845 0 0.0061674172505731643 0.000376089774746388 0 0.0062038828843609785 0.00042062380513179269 0 0.0065849380035370953 0.00032152853047930845 0 0.0061674172505731643 0.000376089774746388 0 0.0065257066256448988 0.00012687154170980581 0 0.0061674172505731643 0.000376089774746388 0 0.006306245724679518 0.0003372740713580122 0 0.0065257066256448988 0.00012687154170980581 0 0.00584345132606226 0.00053286635680854224 0 0.006306245724679518 0.0003372740713580122 0 0.0056993279652087815 0.00058990682835366947 0 0.00584345132606226 0.00053286635680854224 0 0.0061674172505731643 0.000376089774746388 0 0.006306245724679518 0.0003372740713580122 0 0.0056993279652087815 0.00058990682835366947 0 0.0052996426338008436 0.00025732938443717414 0 0.0050462564644192858 0.00058559448106863896 0 0.0056993279652087815 0.00058990682835366947 0 0.0050462564644192858 0.00058559448106863896 0 0.0048606662414048514 0.0010369492150931667 0 0.006306245724679518 0.0003372740713580122 0 0.0056993279652087815 0.00058990682835366947 0 0.0059841515891366041 0.00026319851346842102 0 0.006306245724679518 0.0003372740713580122 0 0.0059841515891366041 0.00026319851346842102 0 0.0066284054927642291 0.00010028072718859777 0 0.0056993279652087815 0.00058990682835366947 0 0.0059841515891366041 0.00026319851346842102 0 0.0052996426338008436 0.00025732938443717414 0 0.0052996426338008436 0.00025732938443717414 0 0.0044761021149915111 0.00044482037469756021 0 0.0046714711896075414 -0.00011628696355368824 0 0.0052996426338008436 0.00025732938443717414 0 0.0044761021149915111 0.00044482037469756021 0 0.0050462564644192858 0.00058559448106863896 0 0.0044761021149915111 0.00044482037469756021 0 0.0038102057165727747 0.00022196507379057103 0 0.0041267202148472307 -0.00016937922505036066 0 0.0044761021149915111 0.00044482037469756021 0 0.0041267202148472307 -0.00016937922505036066 0 0.0046714711896075414 -0.00011628696355368824 0 0.0044761021149915111 0.00044482037469756021 0 0.0041262756687302391 0.0011018145378089222 0 0.0038519247027097438 0.00069242596139668707 0 0.0044761021149915111 0.00044482037469756021 0 0.0048606662414048514 0.0010369492150931667 0 0.0041262756687302391 0.0011018145378089222 0 0.0044761021149915111 0.00044482037469756021 0 0.0050462564644192858 0.00058559448106863896 0 0.0048606662414048514 0.0010369492150931667 0 0.0048606662414048514 0.0010369492150931667 0 0.0041262756687302391 0.0011018145378089222 0 0.0043504360629815645 0.0015825003517781211 0 0.0043504360629815645 0.0015825003517781211 0 0.004038668773972744 0.0018323906677988233 0 0.0038636680116467012 0.0015845154970285584 0 0.0041262756687302391 0.0011018145378089222 0 0.0043504360629815645 0.0015825003517781211 0 0.0038636680116467012 0.0015845154970285584 0 0.0048606662414048514 0.0010369492150931667 0 0.0043504360629815645 0.0015825003517781211 0 0.0050354173222210506 0.0016447358662775909 0 0.0050354173222210506 0.0016447358662775909 0 0.0054568985676914537 0.0013220890558717842 0 0.0051866042158460902 0.0017320745690496031 0 0.0048606662414048514 0.0010369492150931667 0 0.0050354173222210506 0.0016447358662775909 0 0.0054568985676914537 0.0013220890558717842 0 0.0056993279652087815 0.00058990682835366947 0 0.0048606662414048514 0.0010369492150931667 0 0.0054568985676914537 0.0013220890558717842 0 0.00584345132606226 0.00053286635680854224 0 0.0056993279652087815 0.00058990682835366947 0 0.0055726461029711877 0.00059294242900579145 0 0.0056574177673910896 0.00060671558977673458 0 0.005507686463943594 0.00094497741173005614 0 0.005507686463943594 0.00094497741173005614 0 0.0052169979828785061 0.0011995465231539617 0 0.0055039573360785854 0.00057986223646764982 0 0.0055726461029711877 0.00059294242900579145 0 0.0052478068963590953 0.00066265376986350457 0 0.0050354173222210506 0.0016447358662775909 0 0.0051866042158460902 0.0017320745690496031 0 0.0050777239496542555 0.0017424650201769501 0 0.0050354173222210506 0.0016447358662775909 0 0.0050777239496542555 0.0017424650201769501 0 0.004937162317802413 0.0018176397902996465 0 0.0029994536190208498 -0.00036896436695816421 0 0.0047978680857737157 0.0022769878387559703 0 0.0051311557890056205 0.0016041673195479897 0 0.005137488656157989 0.0015933432689959103 0 0.004937162317802413 0.0018176397902996465 0 0.0050777239496542555 0.0017424650201769501 0 0.0051311557890056205 0.0016041673195479897 0 0.004937162317802413 0.0018176397902996465 0 0.0050777239496542555 0.0017424650201769501 0 0.0050216534881811943 0.001571203263022822 0 0.0051311557890056205 0.0016041673195479897 0 0.0050348959926246641 0.00074144095224840372 0 0.0052478068963590953 0.00066265376986350457 0 0.0049221666695983997 0.00079265775276040305 0 0.0052169979828785061 0.0011995465231539617 0 0.0049265850102177189 0.001206162242296687 0 0.0051866042158460902 0.0017320745690496031 0 0.0050777239496542555 0.0017424650201769501 0 0.004894182058155565 0.0016540151306239414 0 0.0050777239496542555 0.0017424650201769501 0 0.004894182058155565 0.0016540151306239414 0 0.0050216534881811943 0.001571203263022822 0 0.0048507043543653807 0.00080372574521361925 0 0.0050348959926246641 0.00074144095224840372 0 0.0049221666695983997 0.00079265775276040305 0 0.004894182058155565 0.0016540151306239414 0 0.0049665690223330838 0.0013361334854498006 0 0.0047690370879906506 0.00080659649271154347 0 0.0047551085799744765 0.00081147679779482499 0 0.0049221666695983997 0.00079265775276040305 0 0.0047690370879906506 0.00080659649271154347 0 0.0047551085799744765 0.00081147679779482499 0 0.0048507043543653807 0.00080372574521361925 0 0.0049221666695983997 0.00079265775276040305 0 0.0049265850102177189 0.001206162242296687 0 0.0047887128823504944 0.00084484808410209544 0 0.0049665690223330838 0.0013361334854498006 0 0.005071142659237686 0.0013139893356025026 0 0.0049584133263080813 0.0010800308125657025 0 0.0049665690223330838 0.0013361334854498006 0 0.0050216534881811943 0.001571203263022822 0 0.005071142659237686 0.0013139893356025026 0 0.004894182058155565 0.0016540151306239414 0 0.0049665690223330838 0.0013361334854498006 0 0.0050216534881811943 0.001571203263022822 0 0.0052778138039354123 0.0014789954614133336 0 0.005071142659237686 0.0013139893356025026 0 0.0049590043901981389 0.00074758745565335584 0 0.0051311557890056205 0.0016041673195479897 0 0.0051118710797006094 0.0014991340359125633 0 0.0052778138039354123 0.0014789954614133336 0 0.00334915607900547 -8.8529089463506433e-05 0 0.0029994536190208498 -0.00036896436695816421 0 0.0050216534881811943 0.001571203263022822 0 0.0051118710797006094 0.0014991340359125633 0 0.005071142659237686 0.0013139893356025026 0 0.0050216534881811943 0.001571203263022822 0 0.0051311557890056205 0.0016041673195479897 0 0.0051118710797006094 0.0014991340359125633 0 0.0051118710797006094 0.0014991340359125633 0 0.0052778138039354123 0.0014789954614133336 0 0.005071142659237686 0.0013139893356025026 0 5.521270488257125e-05 -0.0066776944723096459 0 -3.8245305174988257e-05 -0.0061086065744657995 0 -0.00065057181788527498 -0.0060169846524568537 0 5.521270488257125e-05 -0.0066776944723096459 0 -3.8245305174988257e-05 -0.0061086065744657995 0 0.00048595996521707396 -0.0060825984616460467 0 0.0029994536190208498 -0.00036896436695816421 0 0.0025774251662569574 -0.0030837234752785383 0 0.005071142659237686 0.0013139893356025026 0 0.0049590043901981389 0.00074758745565335584 0 0.0049584133263080813 0.0010800308125657025 0 0.0046617803108087927 0.00057489436343297203 0 0.0049590043901981389 0.00074758745565335584 0 0.0047690370879906506 0.00080659649271154347 0 0.0046617803108087927 0.00057489436343297203 0 0.0046885837006881061 0.00077134847051167589 0 0.0047690370879906506 0.00080659649271154347 0 0.0049590043901981389 0.00074758745565335584 0 0.0047690370879906506 0.00080659649271154347 0 0.0049584133263080813 0.0010800308125657025 0 0.0049665690223330838 0.0013361334854498006 0 0.0047690370879906506 0.00080659649271154347 0 0.0049584133263080813 0.0010800308125657025 0 0.0039002451042441538 0.0017717083502950604 0 0.0038920516723924903 0.0017441499665344844 0 0.0038645091304440357 0.0017299248827012407 0 0.0039002451042441538 0.0017717083502950604 0 0.0038920516723924903 0.0017441499665344844 0 0.0039369882123330251 0.0018113682454241145 0 0.0029994536190208498 -0.00036896436695816421 0 0.0018098938662128789 -0.0022854459516885015 0 0.0039186230975319508 0.0017982001548349524 0 0.0038920516723924903 0.0017441499665344844 0 0.0039369882123330251 0.0018113682454241145 0 0.0039002451042441538 0.0017717083502950604 0 0.0039439955470948846 0.0018660227674968705 0 0.0039172670548364291 0.0018094094895112682 0 0.0039002451042441538 0.0017717083502950604 0 0.0039369882123330251 0.0018113682454241145 0 0.0039439955470948846 0.0018660227674968705 0 0.0039439955470948846 0.0018660227674968705 0 0.004038668773972744 0.0018323906677988233 0 0.0037903420390737268 0.0019373384580809623 0 0.0039439955470948846 0.0018660227674968705 0 0.0040505522483238708 0.0018497182916078843 0 0.004038668773972744 0.0018323906677988233 0 0.0039369882123330251 0.0018113682454241145 0 0.0039439955470948846 0.0018660227674968705 0 0.0040505522483238708 0.0018497182916078843 0 0.0039186230975319508 0.0017982001548349524 0 0.0039369882123330251 0.0018113682454241145 0 0.0040505522483238708 0.0018497182916078843 0 0.0042113727238587625 0.0013597140250030928 0 0.0047978680857737157 0.0022769878387559703 0 0.0043504360629815645 0.0015825003517781211 0 0.0050354173222210506 0.0016447358662775909 0 0.004937162317802413 0.0018176397902996465 0 0.0043504360629815645 0.0015825003517781211 0 0.0040505522483238708 0.0018497182916078843 0 0.004038668773972744 0.0018323906677988233 0 0.004038668773972744 0.0018323906677988233 0 0.0037903420390737268 0.0019373384580809623 0 0.0038636680116467012 0.0015845154970285584 0 0.0037903420390737268 0.0019373384580809623 0 0.0033632001219649175 0.0016611548412833741 0 0.0038636680116467012 0.0015845154970285584 0 0.0033098742479087191 0.0020186452161223144 0 0.0028246957258381447 0.0019077471926152664 0 0.0033632001219649175 0.0016611548412833741 0 0.0037903420390737268 0.0019373384580809623 0 0.0033098742479087191 0.0020186452161223144 0 0.0033632001219649175 0.0016611548412833741 0 0.0030996232465973178 0.0022122048450620743 0 0.0032170117440791512 0.001682400046541647 0 0.001463814850016046 0.00037899897612076014 0 -0.00075657321779253669 0.00012756597876117072 0 0.0033098742479087191 0.0020186452161223144 0 0.0036404524063310805 0.0023385547969181734 0 0.0029418802262549289 0.0023526589841428441 0 -0.0040491457324254949 -0.0020374014390365583 0 -0.0039209111539508321 -0.0021693384339990826 0 -0.0037759573894587295 -0.0020339044073781043 0 0.0039439955470948846 0.0018660227674968705 0 0.0037903420390737268 0.0019373384580809623 0 0.0037995942777046357 0.0019381709095927944 0 0.0039439955470948846 0.0018660227674968705 0 0.0039101141405737377 0.0018063082685434917 0 0.0039172670548364291 0.0018094094895112682 0 0.0047200148624797766 0.0018716105901918855 0 0.001463814850016046 0.00037899897612076014 0 0.0037903420390737268 0.0019373384580809623 0 0.0033098742479087191 0.0020186452161223144 0 0.0036404524063310805 0.0023385547969181734 0 0.0031982489006260064 0.0020042511057278968 0 0.001463814850016046 0.00037899897612076014 0 0.0039101141405737377 0.0018063082685434917 0 0.0039172670548364291 0.0018094094895112682 0 0.0038779402883700404 0.0017481509430134338 0 0.0039002451042441538 0.0017717083502950604 0 0.0039172670548364291 0.0018094094895112682 0 0.0038779402883700404 0.0017481509430134338 0 0.001463814850016046 0.00037899897612076014 0 -4.0566570144770382e-05 -0.00029644485319939756 0 -0.0040491457324254949 -0.0020374014390365583 0 -0.0039209111539508321 -0.0021693384339990826 0 -0.0040009085047653329 -0.0023820929208635548 0 -0.0039209111539508321 -0.0021693384339990826 0 -0.0038205582659751095 -0.002257844643302392 0 -0.0037759573894587295 -0.0020339044073781043 0 -0.0039209111539508321 -0.0021693384339990826 0 -0.0040009085047653329 -0.0023820929208635548 0 -0.0038205582659751095 -0.002257844643302392 0 -0.0018114758737743702 -0.0011424378783052038 0 -4.0566570144770382e-05 -0.00029644485319939756 0 -0.0040009085047653329 -0.0023820929208635548 0 -0.0038161045318878743 -0.0024945538400165061 0 -0.0038205582659751095 -0.002257844643302392 0 0.0038230601672915674 0.0016959068772588199 0 0.0038779402883700404 0.0017481509430134338 0 0.0038645091304440357 0.0017299248827012407 0 -0.0039146990910267441 -0.002715107107788392 0 -0.0040009085047653329 -0.0023820929208635548 0 -0.0038161045318878743 -0.0024945538400165061 0 0.0039002451042441538 0.0017717083502950604 0 0.0038779402883700404 0.0017481509430134338 0 0.0038645091304440357 0.0017299248827012407 0 -0.0036642827069578643 -0.0027487577459524171 0 -0.003227348834952183 -0.0027736356837377669 0 -0.0033950386789122346 -0.002387105972305324 0 -0.0036642827069578643 -0.0027487577459524171 0 -0.0033950386789122346 -0.002387105972305324 0 -0.0036414121932654086 -0.0022834502126501907 0 -0.0036642827069578643 -0.0027487577459524171 0 -0.0038161045318878743 -0.0024945538400165061 0 -0.0036414121932654086 -0.0022834502126501907 0 -0.0038161045318878743 -0.0024945538400165061 0 -0.0038205582659751095 -0.002257844643302392 0 -0.0036414121932654086 -0.0022834502126501907 0 -0.0038205582659751095 -0.002257844643302392 0 -0.0036414121932654086 -0.0022834502126501907 0 -0.0037759573894587295 -0.0020339044073781043 0 -0.0036414121932654086 -0.0022834502126501907 0 -0.0034294729203651962 -0.0019786809937218032 0 -0.0037759573894587295 -0.0020339044073781043 0 -0.0033950386789122346 -0.002387105972305324 0 -0.0036414121932654086 -0.0022834502126501907 0 -0.0034294729203651962 -0.0019786809937218032 0 -0.00061563150888996505 0.0003046525461997858 0 -0.00075657321779253669 0.00012756597876117072 0 -0.00061563150888996505 0.0003046525461997858 0 0.0030996232465973178 0.0022122048450620743 0 0.0021658887856399454 0.0023399787245359624 0 0.0029418802262549289 0.0023526589841428441 0 0.0028246957258381447 0.0019077471926152664 0 0.0033098742479087191 0.0020186452161223144 0 0.0029418802262549289 0.0023526589841428441 0 0.0028246957258381447 0.0019077471926152664 0 0.0026927937751968084 0.0022182355113289027 0 0.0025730497915133852 0.0016414169673133249 0 0.0033632001219649175 0.0016611548412833741 0 0.0020589677162588648 0.0026746844839400309 0 0.0026927937751968084 0.0022182355113289027 0 0.0020025626066934176 0.0019785852682067877 0 0.0026927937751968084 0.0022182355113289027 0 0.0020025626066934176 0.0019785852682067877 0 0.0025730497915133852 0.0016414169673133249 0 0.0020025626066934176 0.0019785852682067877 0 0.0021981628829449719 0.0013383837966111005 0 0.0025730497915133852 0.0016414169673133249 0 0.001624133877905067 0.0012199750742523374 0 0.0021981628829449719 0.0013383837966111005 0 0.0022285081494125567 0.00088048803591513904 0 0.0021981628829449719 0.0013383837966111005 0 0.0027067480476062667 0.0011057818659492089 0 0.0022285081494125567 0.00088048803591513904 0 0.0021981628829449719 0.0013383837966111005 0 0.0027067480476062667 0.0011057818659492089 0 0.0025730497915133852 0.0016414169673133249 0 0.0027067480476062667 0.0011057818659492089 0 0.0025730497915133852 0.0016414169673133249 0 0.0033632001219649175 0.0016611548412833741 0 0.0033632001219649175 0.0016611548412833741 0 0.0038636680116467012 0.0015845154970285584 0 0.0034510155892899866 0.0010976412915517529 0 0.0041262756687302391 0.0011018145378089222 0 0.0034510155892899866 0.0010976412915517529 0 0.0038519247027097438 0.00069242596139668707 0 0.0041262756687302391 0.0011018145378089222 0 0.0038636680116467012 0.0015845154970285584 0 0.0034510155892899866 0.0010976412915517529 0 0.0027067480476062667 0.0011057818659492089 0 0.0034510155892899866 0.0010976412915517529 0 0.0028405745066323873 0.00068243051061442556 0 0.0027067480476062667 0.0011057818659492089 0 0.0033632001219649175 0.0016611548412833741 0 0.0034510155892899866 0.0010976412915517529 0 0.0034510155892899866 0.0010976412915517529 0 0.0034115070053615331 0.00055311826597852958 0 0.0028405745066323873 0.00068243051061442556 0 0.0034115070053615331 0.00055311826597852958 0 0.0030481791301108642 0.00035309064587850549 0 0.0028405745066323873 0.00068243051061442556 0 0.0034510155892899866 0.0010976412915517529 0 0.0034115070053615331 0.00055311826597852958 0 0.0038519247027097438 0.00069242596139668707 0 0.0034115070053615331 0.00055311826597852958 0 0.0038519247027097438 0.00069242596139668707 0 0.0038102057165727747 0.00022196507379057103 0 0.0044761021149915111 0.00044482037469756021 0 0.0038519247027097438 0.00069242596139668707 0 0.0038102057165727747 0.00022196507379057103 0 0.0038102057165727747 0.00022196507379057103 0 0.0033040287790233728 3.7975103020121271e-05 0 0.0036602506830696446 -0.00027011287023622084 0 0.0034115070053615331 0.00055311826597852958 0 0.0030481791301108642 0.00035309064587850549 0 0.0033040287790233728 3.7975103020121271e-05 0 0.0034115070053615331 0.00055311826597852958 0 0.0038102057165727747 0.00022196507379057103 0 0.0033040287790233728 3.7975103020121271e-05 0 0.0030481791301108642 0.00035309064587850549 0 0.0033040287790233728 3.7975103020121271e-05 0 0.002861182539894723 5.0941239521343588e-05 0 0.0030481791301108642 0.00035309064587850549 0 0.002861182539894723 5.0941239521343588e-05 0 0.0026913008162098408 0.00031385734162564136 0 0.0026913008162098408 0.00031385734162564136 0 0.0022485252251878856 0.00042880488312916222 0 0.0028405745066323873 0.00068243051061442556 0 0.0030481791301108642 0.00035309064587850549 0 0.0026913008162098408 0.00031385734162564136 0 0.0028405745066323873 0.00068243051061442556 0 0.0026913008162098408 0.00031385734162564136 0 0.0024153133713059227 6.6370644146544511e-05 0 0.0022485252251878856 0.00042880488312916222 0 0.002861182539894723 5.0941239521343588e-05 0 0.0026913008162098408 0.00031385734162564136 0 0.0024153133713059227 6.6370644146544511e-05 0 0.0012056170712379868 0.0010183102712808738 0 0.0017782613339148694 -6.010966328972908e-05 0 0.0018895910089481106 0.00058369840465970387 0 0.0022485252251878856 0.00042880488312916222 0 0.0018105242623714902 -8.8498745118261381e-05 0 0.0024153133713059227 6.6370644146544511e-05 0 0.0022485252251878856 0.00042880488312916222 0 0.0018105242623714902 -8.8498745118261381e-05 0 0.0018895910089481106 0.00058369840465970387 0 0.0022485252251878856 0.00042880488312916222 0 0.0022285081494125567 0.00088048803591513904 0 0.0027067480476062667 0.0011057818659492089 0 0.0022285081494125567 0.00088048803591513904 0 0.0028405745066323873 0.00068243051061442556 0 0.0022485252251878856 0.00042880488312916222 0 0.0022285081494125567 0.00088048803591513904 0 0.0028405745066323873 0.00068243051061442556 0 0.0057612329017826701 0.00066687525496695666 0 0.006410791363743948 4.8876534677402834e-05 0 0.0065996340457433519 2.448005252532478e-05 0 0.0042731510608645575 0.00057614162688177616 0 0.0059509591301622729 -0.00065827498422876851 0 0.0060723729726730969 -0.00066492424784918747 0 0.0028633999785035117 -0.00054135514290231236 0 0.0023653035023701737 -0.00058930039137412556 0 0.0033120407613260365 -0.0010711622885382242 0 0.0044529497716805679 0.0003130234643866692 0 0.0066367147504781659 2.8824328085041259e-05 0 0.0042343302168188282 0.00022569080459345606 0 0.0042731510608645575 0.00057614162688177616 0 0.005401996296416944 -0.00066090506025107696 0 0.0031716942154290844 -0.00036668382895460014 0 0.005996336529518388 -0.00016032489890417336 0 0.0042731510608645575 0.00057614162688177616 0 0.0059509591301622729 -0.00065827498422876851 0 0.005401996296416944 -0.00066090506025107696 0 0.005704984765937453 0.0001416191636746676 0 0.0057612329017826701 0.00066687525496695666 0 0.006410791363743948 4.8876534677402834e-05 0 0.0058671516413040586 0.0015721523884479247 0 0.0059339256098981706 0.0015579511849500417 0 0.0059084577187581656 0.0015815106355184961 0 0.0069377795148010601 0.001167343085188316 0 0.006980773661971142 0.00083744165934331331 0 0.0059339256098981706 0.0015579511849500417 0 0.0059084577187581656 0.0015815106355184961 0 0.0059319337476546399 0.0015924570465103299 0 0.006980773661971142 0.00083744165934331331 0 0.0044529497716805679 0.0003130234643866692 0 0.0058873951785228095 0.0016087166312135721 0 0.0059084577187581656 0.0015815106355184961 0 0.0059319337476546399 0.0015924570465103299 0 0.0058834239328397217 0.0015930732363483571 0 0.0058873951785228095 0.0016087166312135721 0 0.0059084577187581656 0.0015815106355184961 0 0.0044529497716805679 0.0003130234643866692 0 0.0031716942154290844 -0.00036668382895460014 0 0.00060196474392539695 0.00014932130036046393 0 0.0023815470667295545 -0.00089538983302721537 0 0.0018105242623714902 -8.8498745118261381e-05 0 0.0031716942154290844 -0.00036668382895460014 0 0.0029952416078113881 -0.00052192897794494698 0 0.0011090771445754826 0.00018900539235866559 0 0.00096152476983275132 -4.410739969729443e-05 0 0.0028923078844458492 -0.00098140096363008838 0 0.00079935925545571358 0.00015162899628284751 0 0.0031716942154290844 -0.00036668382895460014 0 0.0023815470667295545 -0.00089538983302721537 0 0.0023679909008728762 -0.00047462041910378616 0 0.0018105242623714902 -8.8498745118261381e-05 0 0.0058873951785228095 0.0016087166312135721 0 0.0058583458631624842 0.0016504852610088863 0 0.0059319337476546399 0.0015924570465103299 0 0.00096152476983275132 -4.410739969729443e-05 0 0.0028464300811872453 -0.0014181384796321107 0 0.0028923078844458492 -0.00098140096363008838 0 0.0034024589739308823 0.00077666446472558727 0 0.0044529497716805679 0.0003130234643866692 0 0.0024153133713059227 6.6370644146544511e-05 0 0.0018105242623714902 -8.8498745118261381e-05 0 0.0023322211036389483 -0.00018196747869595931 0 0.0023679909008728762 -0.00047462041910378616 0 0.0018105242623714902 -8.8498745118261381e-05 0 0.0023322211036389483 -0.00018196747869595931 0 0.002861182539894723 5.0941239521343588e-05 0 0.0024153133713059227 6.6370644146544511e-05 0 0.002631518139409714 -0.00023290031575009729 0 0.0024153133713059227 6.6370644146544511e-05 0 0.0023322211036389483 -0.00018196747869595931 0 0.002631518139409714 -0.00023290031575009729 0 0.0023679909008728762 -0.00047462041910378616 0 0.0023322211036389483 -0.00018196747869595931 0 0.002631518139409714 -0.00023290031575009729 0 0.0028633999785035117 -0.00054135514290231236 0 0.0023679909008728762 -0.00047462041910378616 0 0.002631518139409714 -0.00023290031575009729 0 0.0028633999785035117 -0.00054135514290231236 0 0.0023653035023701737 -0.00058930039137412556 0 0.0023679909008728762 -0.00047462041910378616 0 0.0028633999785035117 -0.00054135514290231236 0 0.0029961772765693525 -0.00025447161242771117 0 0.0031075918358596769 -0.00046033076297291884 0 0.0028633999785035117 -0.00054135514290231236 0 0.002631518139409714 -0.00023290031575009729 0 0.0029961772765693525 -0.00025447161242771117 0 0.002861182539894723 5.0941239521343588e-05 0 0.002631518139409714 -0.00023290031575009729 0 0.0029961772765693525 -0.00025447161242771117 0 0.0033040287790233728 3.7975103020121271e-05 0 0.002861182539894723 5.0941239521343588e-05 0 0.0029961772765693525 -0.00025447161242771117 0 0.0033040287790233728 3.7975103020121271e-05 0 0.0029961772765693525 -0.00025447161242771117 0 0.0032688261371312138 -0.0003448182428611028 0 0.0033040287790233728 3.7975103020121271e-05 0 0.0032688261371312138 -0.0003448182428611028 0 0.0036602506830696446 -0.00027011287023622084 0 0.0032688261371312138 -0.0003448182428611028 0 0.0036602506830696446 -0.00027011287023622084 0 0.0032914424402476221 -0.00068512972288602625 0 0.0029961772765693525 -0.00025447161242771117 0 0.0031075918358596769 -0.00046033076297291884 0 0.0032688261371312138 -0.0003448182428611028 0 0.0036602506830696446 -0.00027011287023622084 0 0.0041865072083793536 -0.00064677602786563531 0 0.0041267202148472307 -0.00016937922505036066 0 0.0038102057165727747 0.00022196507379057103 0 0.0036602506830696446 -0.00027011287023622084 0 0.0041267202148472307 -0.00016937922505036066 0 0.0032914424402476221 -0.00068512972288602625 0 0.0045672161549303652 -0.00088666220872387757 0 0.0048087391662496124 -0.00014682352283745595 0 0.0036602506830696446 -0.00027011287023622084 0 0.0032914424402476221 -0.00068512972288602625 0 0.0041865072083793536 -0.00064677602786563531 0 0.003367860228793857 -0.00065240172121208738 0 0.0044969971783235287 -0.0004074547088287345 0 0.0028633999785035117 -0.00054135514290231236 0 0.0032914424402476221 -0.00068512972288602625 0 0.0033120407613260365 -0.0010711622885382242 0 0.0032914424402476221 -0.00068512972288602625 0 0.0033120407613260365 -0.0010711622885382242 0 0.0045672161549303652 -0.00088666220872387757 0 0.0028633999785035117 -0.00054135514290231236 0 0.0031075918358596769 -0.00046033076297291884 0 0.0032914424402476221 -0.00068512972288602625 0 0.0031075918358596769 -0.00046033076297291884 0 0.0032688261371312138 -0.0003448182428611028 0 0.0032914424402476221 -0.00068512972288602625 0 0.0064306082135740326 -0.00014995164476816852 0 0.0066367147504781659 2.8824328085041259e-05 0 0.0083316262161505852 0.0003233625404843708 0 0.0083309523408855914 0.00032341694022955202 0 0.0083414279642614626 0.00031123889952921146 0 0.0083267120971030305 0.0003290641871806532 0 0.0083291998843123532 0.00032620196708365749 0 0.0083195949509340412 0.00033833292143768884 0 0.0083267120971030305 0.0003290641871806532 0 0.0083316262161505852 0.0003233625404843708 0 0.0083291998843123532 0.00032620196708365749 0 0.0083267120971030305 0.0003290641871806532 0 0.0083316262161505852 0.0003233625404843708 0 0.0083242914560686682 0.00033033411774266403 0 0.0083316262161505852 0.0003233625404843708 0 0.0083291998843123532 0.00032620196708365749 0 0.0083309523408855914 0.00032341694022955202 0 0.0064306082135740326 -0.00014995164476816852 0 0.005996336529518388 -0.00016032489890417336 0 0.0083309523408855914 0.00032341694022955202 0 0.0083363994225565344 0.00029975337340774964 0 0.0083414279642614626 0.00031123889952921146 0 0.005996336529518388 -0.00016032489890417336 0 0.0079082008382769641 -0.00038541890621343231 0 0.0083363994225565344 0.00029975337340774964 0 0.0083414279642614626 0.00031123889952921146 0 0.0083511766326204804 0.00030795410221502061 0 0.0083316262161505852 0.0003233625404843708 0 0.0083422550261467165 0.00031696764533369222 0 0.0083218110310525305 0.00032923006293734253 0 0.0083316262161505852 0.0003233625404843708 0 0.0083414279642614626 0.00031123889952921146 0 0.0083422550261467165 0.00031696764533369222 0 0.0083363994225565344 0.00029975337340774964 0 0.0083160451928744432 0.00026588028880598826 0 0.0083379321353659313 0.00030366068361152679 0 0.0083355163742076938 0.0003011390669378033 0 0.0083363994225565344 0.00029975337340774964 0 0.0083160451928744432 0.00026588028880598826 0 0.005996336529518388 -0.00016032489890417336 0 0.0063874524682536486 -0.0003281318608157904 0 0.0083363994225565344 0.00029975337340774964 0 0.0083379321353659313 0.00030366068361152679 0 0.0083511766326204804 0.00030795410221502061 0 0.0083379321353659313 0.00030366068361152679 0 0.0083705462865749803 0.00030732159903402881 0 0.0083168639151431027 0.00035449032796614665 0 0.0083379321353659313 0.00030366068361152679 0 0.0083511766326204804 0.00030795410221502061 0 0.0083705462865749803 0.00030732159903402881 0 0.0083414279642614626 0.00031123889952921146 0 0.0083422550261467165 0.00031696764533369222 0 0.0083511766326204804 0.00030795410221502061 0 0.0083422550261467165 0.00031696764533369222 0 0.0083511766326204804 0.00030795410221502061 0 0.0083679403110933151 0.00030225908269561818 0 0.0083511766326204804 0.00030795410221502061 0 0.0083679403110933151 0.00030225908269561818 0 0.0083705462865749803 0.00030732159903402881 0 0.0083422550261467165 0.00031696764533369222 0 0.0083679403110933151 0.00030225908269561818 0 0.0083257239247306342 0.00031833429854583565 0 0.0083257239247306342 0.00031833429854583565 0 0.0082882002599476232 0.00033328355594604514 0 0.0083121116943848765 0.00029565741536082674 0 0.0083257239247306342 0.00031833429854583565 0 0.0083108343479134528 0.00033029219296838095 0 0.0083218110310525305 0.00032923006293734253 0 0.0083257239247306342 0.00031833429854583565 0 0.0083108343479134528 0.00033029219296838095 0 0.0082882002599476232 0.00033328355594604514 0 0.0083422550261467165 0.00031696764533369222 0 0.0083257239247306342 0.00031833429854583565 0 0.0083218110310525305 0.00032923006293734253 0 0.0083316262161505852 0.0003233625404843708 0 0.0083218110310525305 0.00032923006293734253 0 0.0083242914560686682 0.00033033411774266403 0 0.0083108343479134528 0.00033029219296838095 0 0.0083218110310525305 0.00032923006293734253 0 0.0083060509002132691 0.00034002716940543685 0 0.0083108343479134528 0.00033029219296838095 0 0.0083060509002132691 0.00034002716940543685 0 0.0082882002599476232 0.00033328355594604514 0 0.006980773661971142 0.00083744165934331331 0 0.0071366490636149225 0.00011370370676836992 0 0.0082913034129168395 0.00035129793329528777 0 0.0083060509002132691 0.00034002716940543685 0 0.0083126985505809995 0.00034367156937220469 0 0.0083126985505809995 0.00034367156937220469 0 0.0083195949509340412 0.00033833292143768884 0 0.0083184202132177212 0.00033559589601259252 0 0.0071366490636149225 0.00011370370676836992 0 0.0066367147504781659 2.8824328085041259e-05 0 0.0083267120971030305 0.0003290641871806532 0 0.0083195949509340412 0.00033833292143768884 0 0.0083242914560686682 0.00033033411774266403 0 0.0083218110310525305 0.00032923006293734253 0 0.0083242914560686682 0.00033033411774266403 0 0.0083184202132177212 0.00033559589601259252 0 0.0083195949509340412 0.00033833292143768884 0 0.0083242914560686682 0.00033033411774266403 0 0.0083184202132177212 0.00033559589601259252 0 0.0083218110310525305 0.00032923006293734253 0 0.0083060509002132691 0.00034002716940543685 0 0.0083184202132177212 0.00033559589601259252 0 0.0083060509002132691 0.00034002716940543685 0 0.0083126985505809995 0.00034367156937220469 0 0.0083184202132177212 0.00033559589601259252 0 0.006980773661971142 0.00083744165934331331 0 0.0082132784224584667 0.00050094758045608767 0 0.0077280175552249071 0.0010273344491659477 0 0.00804154210906864 0.00099532064275628554 0 0.0078797695384452259 0.00086925942074623326 0 0.00804154210906864 0.00099532064275628554 0 0.0078797695384452259 0.00086925942074623326 0 0.008020153390177566 0.00069478691266983388 0 0.0082913034129168395 0.00035129793329528777 0 0.0083060509002132691 0.00034002716940543685 0 0.0082882002599476232 0.00033328355594604514 0 0.0077926043268430759 0.00066118655772060193 0 0.0078797695384452259 0.00086925942074623326 0 0.008020153390177566 0.00069478691266983388 0 0.0082132784224584667 0.00050094758045608767 0 0.0081270716482570258 0.00033454728882029833 0 0.0077926043268430759 0.00066118655772060193 0 0.008020153390177566 0.00069478691266983388 0 0.0080329326550835356 0.00040813378995931582 0 0.0082882002599476232 0.00033328355594604514 0 0.0082369857076669568 0.00029489009075315306 0 0.0083121116943848765 0.00029565741536082674 0 0.0082369857076669568 0.00029489009075315306 0 0.0083121116943848765 0.00029565741536082674 0 0.0083136941106857192 0.00022898250802533648 0 0.0083679403110933151 0.00030225908269561818 0 0.0083257239247306342 0.00031833429854583565 0 0.0083896473592267248 0.00026909357185398271 0 0.0083257239247306342 0.00031833429854583565 0 0.0083121116943848765 0.00029565741536082674 0 0.0083896473592267248 0.00026909357185398271 0 0.0083121116943848765 0.00029565741536082674 0 0.0083896473592267248 0.00026909357185398271 0 0.0083136941106857192 0.00022898250802533648 0 0.0083896473592267248 0.00026909357185398271 0 0.0083136941106857192 0.00022898250802533648 0 0.008503350142937717 5.8586703644629838e-05 0 0.0083136941106857192 0.00022898250802533648 0 0.0080856595508857158 9.486621851869749e-05 0 0.008503350142937717 5.8586703644629838e-05 0 0.0082369857076669568 0.00029489009075315306 0 0.0083136941106857192 0.00022898250802533648 0 0.0080856595508857158 9.486621851869749e-05 0 0.0081270716482570258 0.00033454728882029833 0 0.0080924869232501962 0.00010420007299285857 0 0.0078831846060834852 -0.00026892762884654523 0 0.0080856595508857158 9.486621851869749e-05 0 0.0083387369386874934 -0.00036306534654066382 0 0.0080856595508857158 9.486621851869749e-05 0 0.008503350142937717 5.8586703644629838e-05 0 0.0083387369386874934 -0.00036306534654066382 0 0.008503350142937717 5.8586703644629838e-05 0 0.0083387369386874934 -0.00036306534654066382 0 0.0089902540400499473 -0.00033811970681793562 0 0.0083387369386874934 -0.00036306534654066382 0 0.0089902540400499473 -0.00033811970681793562 0 0.0087642220853346563 -0.00084515429480160964 0 0.0083387369386874934 -0.00036306534654066382 0 0.0080518932011237766 -0.00058217609145929067 0 0.0083074155711249618 -0.00075130808781992127 0 0.0078831846060834852 -0.00026892762884654523 0 0.0083387369386874934 -0.00036306534654066382 0 0.0080518932011237766 -0.00058217609145929067 0 0.0089902540400499473 -0.00033811970681793562 0 0.009587497967510801 -0.00043674588063475614 0 0.0094198044561791712 -0.00097471209632251548 0 0.008503350142937717 5.8586703644629838e-05 0 0.0089902540400499473 -0.00033811970681793562 0 0.009036981494634555 4.9649402763124079e-05 0 0.0089902540400499473 -0.00033811970681793562 0 0.0093841745523952063 0.00010715551124978959 0 0.009587497967510801 -0.00043674588063475614 0 0.0089902540400499473 -0.00033811970681793562 0 0.009036981494634555 4.9649402763124079e-05 0 0.0093841745523952063 0.00010715551124978959 0 0.0093841745523952063 0.00010715551124978959 0 0.0092232713533924558 0.00035753526682946339 0 0.0095848398627905746 0.00023060974758418813 0 0.009036981494634555 4.9649402763124079e-05 0 0.0093841745523952063 0.00010715551124978959 0 0.0092232713533924558 0.00035753526682946339 0 0.0083896473592267248 0.00026909357185398271 0 0.008503350142937717 5.8586703644629838e-05 0 0.0084144733084416858 0.00027041545211620697 0 0.008503350142937717 5.8586703644629838e-05 0 0.009036981494634555 4.9649402763124079e-05 0 0.0092232713533924558 0.00035753526682946339 0 0.0085160841634227633 8.014054669339173e-05 0 0.0087732338796381801 0.00028284453614345746 0 0.0083896473592267248 0.00026909357185398271 0 0.0084144733084416858 0.00027041545211620697 0 0.008386075131267854 0.00028760110711378574 0 0.0083679403110933151 0.00030225908269561818 0 0.008386075131267854 0.00028760110711378574 0 0.0083705462865749803 0.00030732159903402881 0 0.0083679403110933151 0.00030225908269561818 0 0.0083896473592267248 0.00026909357185398271 0 0.008386075131267854 0.00028760110711378574 0 0.0087732338796381801 0.00028284453614345746 0 0.0090477746975735733 0.00046360156007036255 0 0.0084144733084416858 0.00027041545211620697 0 0.008386075131267854 0.00028760110711378574 0 0.0083705462865749803 0.00030732159903402881 0 0.0084144733084416858 0.00027041545211620697 0 0.0083705462865749803 0.00030732159903402881 0 0.0083168639151431027 0.00035449032796614665 0 0.0090477746975735733 0.00046360156007036255 0 0.0084472582503783578 0.0002463734721618009 0 0.0095533570349757221 0.00045826230779863323 0 0.0097427200173369494 0.0003541262292762903 0 0.0098144351472276015 0.00059187972545641013 0 0.0095533570349757221 0.00045826230779863323 0 0.0097427200173369494 0.0003541262292762903 0 0.0095848398627905746 0.00023060974758418813 0 0.0097427200173369494 0.0003541262292762903 0 0.0095848398627905746 0.00023060974758418813 0 0.0098273749815324749 0.00014914136932230854 0 0.0092232713533924558 0.00035753526682946339 0 0.0095533570349757221 0.00045826230779863323 0 0.0095848398627905746 0.00023060974758418813 0 0.0093841745523952063 0.00010715551124978959 0 0.0095848398627905746 0.00023060974758418813 0 0.0096684356874836407 1.169992509825377e-05 0 0.0093841745523952063 0.00010715551124978959 0 0.010133655731558548 -0.00012259900540346924 0 0.009587497967510801 -0.00043674588063475614 0 0.0094238245353031585 9.9601014423386541e-05 0 0.0098811368474830807 -5.1012397186932167e-05 0 0.0095848398627905746 0.00023060974758418813 0 0.0096684356874836407 1.169992509825377e-05 0 0.0098273749815324749 0.00014914136932230854 0 0.010133655731558548 -0.00012259900540346924 0 0.010535054859601923 -0.00068130162362237871 0 0.010046339120049411 -0.00083323395724274726 0 0.010133655731558548 -0.00012259900540346924 0 0.009587497967510801 -0.00043674588063475614 0 0.010046339120049411 -0.00083323395724274726 0 0.0099669698232693407 -0.0010453838659664383 0 0.010452115244380082 -0.00027305499687694276 0 0.0099669698232693407 -0.0010453838659664383 0 0.0086639536147448768 -0.00080139537016063282 0 0.0078339530066801437 -0.00276869563968951 0 0.0074629133967239547 -0.0015580607421878596 0 0.0080008337965057769 -0.0020300478260490335 0 0.011284127280786295 -0.00054123651126843661 0 0.010834328693781139 -0.0003720753743628281 0 0.011019237402569318 -0.00085555287830178773 0 0.010139832192548414 -0.0001988076187500164 0 0.0099488146912932156 -0.00011395143284691941 0 0.010032966649844101 7.6859797283751054e-05 0 0.010133655731558548 -0.00012259900540346924 0 0.010834328693781139 -0.0003720753743628281 0 0.010535054859601923 -0.00068130162362237871 0 0.0098811368474830807 -5.1012397186932167e-05 0 0.010452115244380082 -0.00027305499687694276 0 0.0096684356874836407 1.169992509825377e-05 0 0.0099488146912932156 -0.00011395143284691941 0 0.0098273749815324749 0.00014914136932230854 0 0.0099488146912932156 -0.00011395143284691941 0 0.0098273749815324749 0.00014914136932230854 0 0.010032966649844101 7.6859797283751054e-05 0 0.0074629133967239547 -0.0015580607421878596 0 0.0077948318891162298 -0.00080851717660501666 0 0.008051127118341184 -0.0014475294346407255 0 0.0074629133967239547 -0.0015580607421878596 0 0.0080008337965057769 -0.0020300478260490335 0 0.008051127118341184 -0.0014475294346407255 0 0.0074629133967239547 -0.0015580607421878596 0 0.0077948318891162298 -0.00080851717660501666 0 0.0072085844720850105 -0.0005876712783825554 0 0.0086639536147448768 -0.00080139537016063282 0 0.0085671636069802031 -0.00010515365179103288 0 0.0098273749815324749 0.00014914136932230854 0 0.010032966649844101 7.6859797283751054e-05 0 0.0099238096850766469 0.00034194929320649671 0 0.0097427200173369494 0.0003541262292762903 0 0.0098273749815324749 0.00014914136932230854 0 0.0099238096850766469 0.00034194929320649671 0 0.0097427200173369494 0.0003541262292762903 0 0.0099238096850766469 0.00034194929320649671 0 0.0098144351472276015 0.00059187972545641013 0 0.0072085844720850105 -0.0005876712783825554 0 0.007443056996400247 6.192356727990008e-05 0 0.0070149985663013502 0.00013020880359054847 0 0.0085671636069802031 -0.00010515365179103288 0 0.0084472582503783578 0.0002463734721618009 0 0.0072085844720850105 -0.0005876712783825554 0 0.0076199198815410929 -0.00026164866117018269 0 0.007443056996400247 6.192356727990008e-05 0 0.0077948318891162298 -0.00080851717660501666 0 0.0076199198815410929 -0.00026164866117018269 0 0.0080762066634617463 -0.00035047688612799114 0 0.0077948318891162298 -0.00080851717660501666 0 0.0072085844720850105 -0.0005876712783825554 0 0.0076199198815410929 -0.00026164866117018269 0 0.0076199198815410929 -0.00026164866117018269 0 0.0077996654458413733 7.9237590697911524e-05 0 0.007443056996400247 6.192356727990008e-05 0 0.0076199198815410929 -0.00026164866117018269 0 0.0077996654458413733 7.9237590697911524e-05 0 0.0080762066634617463 -0.00035047688612799114 0 0.0077996654458413733 7.9237590697911524e-05 0 0.007443056996400247 6.192356727990008e-05 0 0.0076578263335750655 0.0003989158461277035 0 0.0077996654458413733 7.9237590697911524e-05 0 0.0076578263335750655 0.0003989158461277035 0 0.0078544426699358183 0.00030055828148148919 0 0.0079657605965739158 0.00019856444640650706 0 0.0077178789875389413 0.00030091325369585998 0 0.0074901190156907056 0.00025954455817112608 0 0.0078667185966654427 0.00037560791143801135 0 0.0077178789875389413 0.00030091325369585998 0 0.0075564457343813051 0.0003356153341342733 0 0.007217311207018259 -3.6962897092914842e-05 0 0.0074428103390014322 0.00018833683857750927 0 0.0078667185966654427 0.00037560791143801135 0 0.0079657605965739158 0.00019856444640650706 0 0.0077178789875389413 0.00030091325369585998 0 0.0079657605965739158 0.00019856444640650706 0 0.0081410819650102103 0.00028554684384778697 0 0.0082145822314414977 0.0002229270252701014 0 0.007217311207018259 -3.6962897092914842e-05 0 0.0069585513247842233 -0.00019753983547422395 0 0.0079657605965739158 0.00019856444640650706 0 0.0080635590395258111 0.000330693506906989 0 0.0081410819650102103 0.00028554684384778697 0 0.0078667185966654427 0.00037560791143801135 0 0.0079657605965739158 0.00019856444640650706 0 0.0080635590395258111 0.000330693506906989 0 0.0080635590395258111 0.000330693506906989 0 0.0081410819650102103 0.00028554684384778697 0 0.0081716923063222102 0.0003579674747882622 0 0.0078667185966654427 0.00037560791143801135 0 0.0080635590395258111 0.000330693506906989 0 0.0081438314864183316 0.00044287569846137518 0 0.007443056996400247 6.192356727990008e-05 0 0.0076578263335750655 0.0003989158461277035 0 0.0070149985663013502 0.00013020880359054847 0 0.0080635590395258111 0.000330693506906989 0 0.0081438314864183316 0.00044287569846137518 0 0.0081716923063222102 0.0003579674747882622 0 0.0075787601039630894 0.00033338530016141147 0 0.0084472582503783578 0.0002463734721618009 0 0.0084472582503783578 0.0002463734721618009 0 0.0083139280160972398 0.00038670101669546037 0 0.0083168639151431027 0.00035449032796614665 0 0.0081710747129774986 0.00037329246688248477 0 0.0082208610057005038 0.00033244219699632709 0 0.0081710747129774986 0.00037329246688248477 0 0.0082208610057005038 0.00033244219699632709 0 0.0081716923063222102 0.0003579674747882622 0 0.0081410819650102103 0.00028554684384778697 0 0.0082208610057005038 0.00033244219699632709 0 0.0081716923063222102 0.0003579674747882622 0 0.0083379321353659313 0.00030366068361152679 0 0.0083168639151431027 0.00035449032796614665 0 0.0082880400477988066 0.00030111408539170586 0 0.0083168639151431027 0.00035449032796614665 0 0.0082208610057005038 0.00033244219699632709 0 0.0082880400477988066 0.00030111408539170586 0 0.0083160451928744432 0.00026588028880598826 0 0.0083379321353659313 0.00030366068361152679 0 0.0082880400477988066 0.00030111408539170586 0 0.0083160451928744432 0.00026588028880598826 0 0.0082880400477988066 0.00030111408539170586 0 0.0082145822314414977 0.0002229270252701014 0 0.0063874524682536486 -0.0003281318608157904 0 0.0069585513247842233 -0.00019753983547422395 0 0.0081410819650102103 0.00028554684384778697 0 0.0082208610057005038 0.00033244219699632709 0 0.0082145822314414977 0.0002229270252701014 0 0.0082208610057005038 0.00033244219699632709 0 0.0082880400477988066 0.00030111408539170586 0 0.0082145822314414977 0.0002229270252701014 0 0.0044969971783235287 -0.0004074547088287345 0 0.0056848625809939515 -0.00017200104523420808 0 0.0057367662483807959 -0.00062154815096593212 0 0.0048087391662496124 -0.00014682352283745595 0 0.006102413977423022 0.00012096463377437863 0 0.0045672161549303652 -0.00088666220872387757 0 0.0057367662483807959 -0.00062154815096593212 0 0.0048087391662496124 -0.00014682352283745595 0 0.0041865072083793536 -0.00064677602786563531 0 0.0041267202148472307 -0.00016937922505036066 0 0.0046714711896075414 -0.00011628696355368824 0 0.0052996426338008436 0.00025732938443717414 0 0.0046714711896075414 -0.00011628696355368824 0 0.0052746595564300055 -0.00049080963063643059 0 0.0041865072083793536 -0.00064677602786563531 0 0.0046714711896075414 -0.00011628696355368824 0 0.0052746595564300055 -0.00049080963063643059 0 0.0056848625809939515 -0.00017200104523420808 0 0.0065605880940650266 6.3019686075400688e-05 0 0.0059841515891366041 0.00026319851346842102 0 0.0052996426338008436 0.00025732938443717414 0 0.0052746595564300055 -0.00049080963063643059 0 0.0059841515891366041 0.00026319851346842102 0 0.0052746595564300055 -0.00049080963063643059 0 0.0066284054927642291 0.00010028072718859777 0 0.006102413977423022 0.00012096463377437863 0 0.0066284054927642291 0.00010028072718859777 0 0.006865485327779839 6.5192001431718522e-05 0 0.0065060392224195315 -0.00032444813130230493 0 0.006865485327779839 6.5192001431718522e-05 0 0.0074901190156907056 0.00025954455817112608 0 0.0065060392224195315 -0.00032444813130230493 0 0.0057367662483807959 -0.00062154815096593212 0 0.006102413977423022 0.00012096463377437863 0 0.0065060392224195315 -0.00032444813130230493 0 0.006102413977423022 0.00012096463377437863 0 0.006865485327779839 6.5192001431718522e-05 0 0.006306245724679518 0.0003372740713580122 0 0.0069098361053689366 0.00015543112233511348 0 0.0065257066256448988 0.00012687154170980581 0 0.0074361030362280998 0.00035046352410227023 0 0.0066798511865666021 0.00014730317271524756 0 0.0077982752460644912 0.00073937217745519352 0 0.0074361030362280998 0.00035046352410227023 0 0.0069098361053689366 0.00015543112233511348 0 0.0066798511865666021 0.00014730317271524756 0 0.0074361030362280998 0.00035046352410227023 0 0.0070894725202688795 0.00021616133202049395 0 0.0069098361053689366 0.00015543112233511348 0 0.0074361030362280998 0.00035046352410227023 0 0.0070894725202688795 0.00021616133202049395 0 0.0074901190156907056 0.00025954455817112608 0 0.006865485327779839 6.5192001431718522e-05 0 0.0070894725202688795 0.00021616133202049395 0 0.0074901190156907056 0.00025954455817112608 0 0.0066284054927642291 0.00010028072718859777 0 0.006865485327779839 6.5192001431718522e-05 0 0.0070894725202688795 0.00021616133202049395 0 0.0066284054927642291 0.00010028072718859777 0 0.0070894725202688795 0.00021616133202049395 0 0.0069098361053689366 0.00015543112233511348 0 0.006306245724679518 0.0003372740713580122 0 0.0066284054927642291 0.00010028072718859777 0 0.0069098361053689366 0.00015543112233511348 0 0.0069098361053689366 0.00015543112233511348 0 0.0065257066256448988 0.00012687154170980581 0 0.0066798511865666021 0.00014730317271524756 0 0.0065849380035370953 0.00032152853047930845 0 0.0065257066256448988 0.00012687154170980581 0 0.0068238055724330589 -0.00026981311489000494 0 0.010535157724961797 0.0014028369681038037 0 0.011163947310870821 0.0008928799697163637 0 0.011129096111399851 0.00049001920102488192 0 0.0085760217860696483 0.00071372727249627147 0 0.0089508139840663806 0.00015901510599468914 0 0.0065257066256448988 0.00012687154170980581 0 0.0066798511865666021 0.00014730317271524756 0 0.0068238055724330589 -0.00026981311489000494 0 0.0085760217860696483 0.00071372727249627147 0 0.0078568753232641578 0.00072810696176379682 0 0.010535157724961797 0.0014028369681038037 0 0.0095572966357961621 0.00069953133133743284 0 0.0077982752460644912 0.00073937217745519352 0 0.010535157724961797 0.0014028369681038037 0 0.0095572966357961621 0.00069953133133743284 0 0.010638928853016415 0.00050642270478260139 0 0.010535157724961797 0.0014028369681038037 0 0.010638928853016415 0.00050642270478260139 0 0.011163947310870821 0.0008928799697163637 0 0.010638928853016415 0.00050642270478260139 0 0.011162037557964742 3.3115249081418323e-05 0 0.011811183741793867 0.00038034932172592887 0 0.010638928853016415 0.00050642270478260139 0 0.01004691862155309 -0.00012254149758979404 0 0.011162037557964742 3.3115249081418323e-05 0 0.010638928853016415 0.00050642270478260139 0 0.0093869521164075334 0.00023921257374112765 0 0.01004691862155309 -0.00012254149758979404 0 0.0095572966357961621 0.00069953133133743284 0 0.010638928853016415 0.00050642270478260139 0 0.0093869521164075334 0.00023921257374112765 0 0.0095572966357961621 0.00069953133133743284 0 0.0093869521164075334 0.00023921257374112765 0 0.0085745446453110354 0.00040934241735569068 0 0.0093869521164075334 0.00023921257374112765 0 0.0085295851714266013 0.00019579298664115969 0 0.0090188032503689466 -0.00010718224777956122 0 0.0085295851714266013 0.00019579298664115969 0 0.008237631722762347 3.3408241214823421e-05 0 0.0090188032503689466 -0.00010718224777956122 0 0.0085295851714266013 0.00019579298664115969 0 0.0079902187912402299 0.00039155720512683702 0 0.0081352515589507846 0.00024085679660360164 0 0.0085295851714266013 0.00019579298664115969 0 0.0085745446453110354 0.00040934241735569068 0 0.0079902187912402299 0.00039155720512683702 0 0.0093869521164075334 0.00023921257374112765 0 0.0085295851714266013 0.00019579298664115969 0 0.0085745446453110354 0.00040934241735569068 0 0.0095572966357961621 0.00069953133133743284 0 0.0085745446453110354 0.00040934241735569068 0 0.0077982752460644912 0.00073937217745519352 0 0.0085745446453110354 0.00040934241735569068 0 0.0077982752460644912 0.00073937217745519352 0 0.0079902187912402299 0.00039155720512683702 0 0.0077982752460644912 0.00073937217745519352 0 0.0079902187912402299 0.00039155720512683702 0 0.0077196499262166219 0.00043328799095451579 0 0.0077982752460644912 0.00073937217745519352 0 0.0075996926229790363 0.0004305747630977545 0 0.0077196499262166219 0.00043328799095451579 0 0.0074361030362280998 0.00035046352410227023 0 0.0077982752460644912 0.00073937217745519352 0 0.0075996926229790363 0.0004305747630977545 0 0.0075787601039630894 0.00033338530016141147 0 0.0076342352595546014 0.00035699985911500872 0 0.0076578263335750655 0.0003989158461277035 0 0.0075564457343813051 0.0003356153341342733 0 0.0077232807003448237 0.00037823056826102489 0 0.0077178789875389413 0.00030091325369585998 0 0.0074901190156907056 0.00025954455817112608 0 0.0075564457343813051 0.0003356153341342733 0 0.0074901190156907056 0.00025954455817112608 0 0.0075996926229790363 0.0004305747630977545 0 0.0075564457343813051 0.0003356153341342733 0 0.0074361030362280998 0.00035046352410227023 0 0.0074901190156907056 0.00025954455817112608 0 0.0075996926229790363 0.0004305747630977545 0 0.0075996926229790363 0.0004305747630977545 0 0.0075564457343813051 0.0003356153341342733 0 0.0077196499262166219 0.00043328799095451579 0 0.0075564457343813051 0.0003356153341342733 0 0.0077196499262166219 0.00043328799095451579 0 0.0077232807003448237 0.00037823056826102489 0 0.0079902187912402299 0.00039155720512683702 0 0.0077196499262166219 0.00043328799095451579 0 0.0077232807003448237 0.00037823056826102489 0 0.0076578263335750655 0.0003989158461277035 0 0.0077232807003448237 0.00037823056826102489 0 0.0078544426699358183 0.00030055828148148919 0 0.0079902187912402299 0.00039155720512683702 0 0.0078544426699358183 0.00030055828148148919 0 0.0081352515589507846 0.00024085679660360164 0 0.0079902187912402299 0.00039155720512683702 0 0.0077232807003448237 0.00037823056826102489 0 0.0078544426699358183 0.00030055828148148919 0 0.0078544426699358183 0.00030055828148148919 0 0.0081352515589507846 0.00024085679660360164 0 0.008237631722762347 3.3408241214823421e-05 0 0.0085295851714266013 0.00019579298664115969 0 0.0081352515589507846 0.00024085679660360164 0 0.008237631722762347 3.3408241214823421e-05 0 0.0077996654458413733 7.9237590697911524e-05 0 0.0078544426699358183 0.00030055828148148919 0 0.008237631722762347 3.3408241214823421e-05 0 0.0077996654458413733 7.9237590697911524e-05 0 0.008237631722762347 3.3408241214823421e-05 0 0.0080762066634617463 -0.00035047688612799114 0 0.008237631722762347 3.3408241214823421e-05 0 0.0080762066634617463 -0.00035047688612799114 0 0.0086925387287477337 -0.00044805727643162593 0 0.0080762066634617463 -0.00035047688612799114 0 0.0086925387287477337 -0.00044805727643162593 0 0.008360560369108325 -0.00088016072294826435 0 0.008237631722762347 3.3408241214823421e-05 0 0.0090188032503689466 -0.00010718224777956122 0 0.0086925387287477337 -0.00044805727643162593 0 0.0090188032503689466 -0.00010718224777956122 0 0.0086925387287477337 -0.00044805727643162593 0 0.0095455332563643951 -0.00048799147449117705 0 0.0095455332563643951 -0.00048799147449117705 0 0.009109967966532604 -0.00084407077578114954 0 0.00993850289945865 -0.00097111699458769807 0 0.0086925387287477337 -0.00044805727643162593 0 0.0095455332563643951 -0.00048799147449117705 0 0.009109967966532604 -0.00084407077578114954 0 0.009109967966532604 -0.00084407077578114954 0 0.0086566697483841642 -0.001459719663896711 0 0.0093431415830417183 -0.0013788250565374026 0 0.009109967966532604 -0.00084407077578114954 0 0.0093431415830417183 -0.0013788250565374026 0 0.00993850289945865 -0.00097111699458769807 0 0.0077948318891162298 -0.00080851717660501666 0 0.0080762066634617463 -0.00035047688612799114 0 0.008360560369108325 -0.00088016072294826435 0 0.0086925387287477337 -0.00044805727643162593 0 0.009109967966532604 -0.00084407077578114954 0 0.008360560369108325 -0.00088016072294826435 0 0.009109967966532604 -0.00084407077578114954 0 0.008360560369108325 -0.00088016072294826435 0 0.0086566697483841642 -0.001459719663896711 0 0.0077948318891162298 -0.00080851717660501666 0 0.008360560369108325 -0.00088016072294826435 0 0.008051127118341184 -0.0014475294346407255 0 0.008360560369108325 -0.00088016072294826435 0 0.008051127118341184 -0.0014475294346407255 0 0.0086566697483841642 -0.001459719663896711 0 0.0080008337965057769 -0.0020300478260490335 0 0.008051127118341184 -0.0014475294346407255 0 0.0084237809752296857 -0.0020089744277063839 0 0.008051127118341184 -0.0014475294346407255 0 0.0084237809752296857 -0.0020089744277063839 0 0.0086566697483841642 -0.001459719663896711 0 0.0084237809752296857 -0.0020089744277063839 0 0.0086566697483841642 -0.001459719663896711 0 0.0090631564982422367 -0.0019225936054051795 0 0.0086566697483841642 -0.001459719663896711 0 0.0093431415830417183 -0.0013788250565374026 0 0.0090631564982422367 -0.0019225936054051795 0 0.0093431415830417183 -0.0013788250565374026 0 0.0090631564982422367 -0.0019225936054051795 0 0.010066651127984508 -0.0017565662610011263 0 0.0090631564982422367 -0.0019225936054051795 0 0.0094518802904982827 -0.0025044779585640603 0 0.010066651127984508 -0.0017565662610011263 0 0.0090631564982422367 -0.0019225936054051795 0 0.0094518802904982827 -0.0025044779585640603 0 0.0087466103290409491 -0.0024650595797358088 0 0.0094518802904982827 -0.0025044779585640603 0 0.0091711748051435307 -0.0029350667983779064 0 0.0096426088973965412 -0.0030379879681622346 0 0.0094518802904982827 -0.0025044779585640603 0 0.010169651005462663 -0.0028151249018089491 0 0.0096426088973965412 -0.0030379879681622346 0 0.0094518802904982827 -0.0025044779585640603 0 0.0091711748051435307 -0.0029350667983779064 0 0.0087466103290409491 -0.0024650595797358088 0 0.0091711748051435307 -0.0029350667983779064 0 0.0087466103290409491 -0.0024650595797358088 0 0.0082888437696683453 -0.0029903128403391166 0 0.0099669698232693407 -0.0010453838659664383 0 0.0095125912753410702 -0.0017008287376590943 0 0.0078339530066801437 -0.00276869563968951 0 0.0082326669082624388 -0.0024152686964202122 0 0.0082888437696683453 -0.0029903128403391166 0 0.0082326669082624388 -0.0024152686964202122 0 0.0087466103290409491 -0.0024650595797358088 0 0.0082888437696683453 -0.0029903128403391166 0 0.0080008337965057769 -0.0020300478260490335 0 0.0084237809752296857 -0.0020089744277063839 0 0.0082326669082624388 -0.0024152686964202122 0 0.0078339530066801437 -0.00276869563968951 0 0.0080008337965057769 -0.0020300478260490335 0 0.0082326669082624388 -0.0024152686964202122 0 0.0084237809752296857 -0.0020089744277063839 0 0.0090631564982422367 -0.0019225936054051795 0 0.0087466103290409491 -0.0024650595797358088 0 0.0084237809752296857 -0.0020089744277063839 0 0.0082326669082624388 -0.0024152686964202122 0 0.0087466103290409491 -0.0024650595797358088 0 0.011418559752091726 -0.0029416048484024841 0 0.010066651127984508 -0.0017565662610011263 0 0.012007111521161998 -0.0014917707857893805 0 0.0094518802904982827 -0.0025044779585640603 0 0.010169651005462663 -0.0028151249018089491 0 0.010066651127984508 -0.0017565662610011263 0 0.011418559752091726 -0.0029416048484024841 0 0.010169651005462663 -0.0028151249018089491 0 0.010066651127984508 -0.0017565662610011263 0 0.0093431415830417183 -0.0013788250565374026 0 0.010066651127984508 -0.0017565662610011263 0 0.00993850289945865 -0.00097111699458769807 0 0.010066651127984508 -0.0017565662610011263 0 0.011051374072261241 -0.0010811889112930914 0 0.00993850289945865 -0.00097111699458769807 0 0.012007111521161998 -0.0014917707857893805 0 0.011051374072261241 -0.0010811889112930914 0 0.012255898506238162 -0.00039912799703413021 0 0.010066651127984508 -0.0017565662610011263 0 0.012007111521161998 -0.0014917707857893805 0 0.011051374072261241 -0.0010811889112930914 0 0.01061239123528483 -0.00046915207515225039 0 0.011162037557964742 3.3115249081418323e-05 0 0.012255898506238162 -0.00039912799703413021 0 0.011051374072261241 -0.0010811889112930914 0 0.01061239123528483 -0.00046915207515225039 0 0.012255898506238162 -0.00039912799703413021 0 0.011051374072261241 -0.0010811889112930914 0 0.00993850289945865 -0.00097111699458769807 0 0.01061239123528483 -0.00046915207515225039 0 0.0095455332563643951 -0.00048799147449117705 0 0.00993850289945865 -0.00097111699458769807 0 0.01061239123528483 -0.00046915207515225039 0 0.0095455332563643951 -0.00048799147449117705 0 0.01061239123528483 -0.00046915207515225039 0 0.01004691862155309 -0.00012254149758979404 0 0.0090188032503689466 -0.00010718224777956122 0 0.0095455332563643951 -0.00048799147449117705 0 0.01004691862155309 -0.00012254149758979404 0 0.0093869521164075334 0.00023921257374112765 0 0.0090188032503689466 -0.00010718224777956122 0 0.01004691862155309 -0.00012254149758979404 0 0.01061239123528483 -0.00046915207515225039 0 0.01004691862155309 -0.00012254149758979404 0 0.011162037557964742 3.3115249081418323e-05 0 0.013152662773489312 4.5500622987225543e-05 0 0.012255898506238162 -0.00039912799703413021 0 0.011811183741793867 0.00038034932172592887 0 0.011162037557964742 3.3115249081418323e-05 0 0.012255898506238162 -0.00039912799703413021 0 0.011811183741793867 0.00038034932172592887 0 0.013152662773489312 4.5500622987225543e-05 0 0.012521406803674778 0.00032707400914578141 0 0.011811183741793867 0.00038034932172592887 0 0.013152662773489312 4.5500622987225543e-05 0 0.013825046151060961 -0.00038040832315118896 0 0.012255898506238162 -0.00039912799703413021 0 0.013152662773489312 4.5500622987225543e-05 0 0.013825046151060961 -0.00038040832315118896 0 0.014199102388199306 -1.0072211649756353e-05 0 0.012007111521161998 -0.0014917707857893805 0 0.012255898506238162 -0.00039912799703413021 0 0.013914003045778084 -0.0012048573060081714 0 0.013825046151060961 -0.00038040832315118896 0 0.012255898506238162 -0.00039912799703413021 0 0.013914003045778084 -0.0012048573060081714 0 0.013825046151060961 -0.00038040832315118896 0 0.013914003045778084 -0.0012048573060081714 0 0.015268564301831844 -0.00028873682339466885 0 0.013914003045778084 -0.0012048573060081714 0 0.015295431732214787 -0.00063371421200844277 0 0.014821248271002599 -0.00093095631318271341 0 0.013914003045778084 -0.0012048573060081714 0 0.015295431732214787 -0.00063371421200844277 0 0.015268564301831844 -0.00028873682339466885 0 0.013914003045778084 -0.0012048573060081714 0 0.014590298412898535 -0.0010315951409478467 0 0.014821248271002599 -0.00093095631318271341 0 0.015128150532476424 -0.0011730853804469445 0 0.013914003045778084 -0.0012048573060081714 0 0.014590298412898535 -0.0010315951409478467 0 0.011418559752091726 -0.0029416048484024841 0 0.012007111521161998 -0.0014917707857893805 0 0.013914003045778084 -0.0012048573060081714 0 0.013180328416323243 -0.0021399595651000877 0 0.013961735806692554 -0.0012592437712787921 0 0.01700388771832503 -4.9620080854514668e-07 0 0.015268564301831844 -0.00028873682339466885 0 0.01688623880768831 -0.00026490249322527959 0 0.015295431732214787 -0.00063371421200844277 0 0.015268564301831844 -0.00028873682339466885 0 0.01688623880768831 -0.00026490249322527959 0 0.013825046151060961 -0.00038040832315118896 0 0.015268564301831844 -0.00028873682339466885 0 0.014199102388199306 -1.0072211649756353e-05 0 0.015268564301831844 -0.00028873682339466885 0 0.015318316834473485 9.2803098415527883e-09 0 0.014199102388199306 -1.0072211649756353e-05 0 0.01700388771832503 -4.9620080854514668e-07 0 0.015268564301831844 -0.00028873682339466885 0 0.015318316834473485 9.2803098415527883e-09 0 0.015318316834473485 9.2803098415527883e-09 0 0.014199102388199306 -1.0072211649756353e-05 0 0.013631102479536597 4.2630008273056214e-07 0 0.013152662773489312 4.5500622987225543e-05 0 0.014199102388199306 -1.0072211649756353e-05 0 0.013321329363722807 0.00023042810903733951 0 0.013152662773489312 4.5500622987225543e-05 0 0.013321329363722807 0.00023042810903733951 0 0.012521406803674778 0.00032707400914578141 0 0.014199102388199306 -1.0072211649756353e-05 0 0.013321329363722807 0.00023042810903733951 0 0.013631102479536597 4.2630008273056214e-07 0 0.013321329363722807 0.00023042810903733951 0 0.013631102479536597 4.2630008273056214e-07 0 0.011948836458671014 2.2182551719826864e-07 0 0.013321329363722807 0.00023042810903733951 0 0.011948836458671014 2.2182551719826864e-07 0 0.012943821751660393 0.00037929020709598772 0 0.011941772553910639 -7.7835574677323247e-07 0 0.010190888545979307 0.00035135269160333995 0 0.0098646330974838138 5.5097647049565814e-07 0 0.011945266214466871 1.5711282825711132e-07 0 0.011563602494602579 0.0003970080498643947 0 0.013321329363722807 0.00023042810903733951 0 0.012943821751660393 0.00037929020709598772 0 0.012521406803674778 0.00032707400914578141 0 0.012521406803674778 0.00032707400914578141 0 0.011811183741793867 0.00038034932172592887 0 0.011309991102183845 0.00090178935289945256 0 0.010638928853016415 0.00050642270478260139 0 0.011811183741793867 0.00038034932172592887 0 0.011163947310870821 0.0008928799697163637 0 0.011163947310870821 0.0008928799697163637 0 0.011309991102183845 0.00090178935289945256 0 0.011129096111399851 0.00049001920102488192 0 0.011811183741793867 0.00038034932172592887 0 0.011163947310870821 0.0008928799697163637 0 0.011309991102183845 0.00090178935289945256 0 0.010190888545979307 0.00035135269160333995 0 0.011309991102183845 0.00090178935289945256 0 0.0098186682696992655 0.0002753651556919182 0 0.011563602494602579 0.0003970080498643947 0 0.011352113882624939 0.00077235173523764291 0 0.012943821751660393 0.00037929020709598772 0 0.012521406803674778 0.00032707400914578141 0 0.011309991102183845 0.00090178935289945256 0 0.011129096111399851 0.00049001920102488192 0 0.0088130181517983089 -0.00012226208111240096 0 0.0098186682696992655 0.0002753651556919182 0 0.011309991102183845 0.00090178935289945256 0 0.011129096111399851 0.00049001920102488192 0 0.0098186682696992655 0.0002753651556919182 0 0.0065849380035370953 0.00032152853047930845 0 0.0068238055724330589 -0.00026981311489000494 0 0.0072913412733630204 0.0001870374245956692 0 0.0089508139840663806 0.00015901510599468914 0 0.0088686571296878926 -8.6135395448996968e-05 0 0.0068238055724330589 -0.00026981311489000494 0 0.0072913412733630204 0.0001870374245956692 0 0.0088130181517983089 -0.00012226208111240096 0 0.0077838680582924379 2.0154747167456257e-07 0 0.0088130181517983089 -0.00012226208111240096 0 0.0098646330974838138 5.5097647049565814e-07 0 0.0088130181517983089 -0.00012226208111240096 0 0.0098646330974838138 5.5097647049565814e-07 0 0.0098186682696992655 0.0002753651556919182 0 0.010190888545979307 0.00035135269160333995 0 0.0098646330974838138 5.5097647049565814e-07 0 0.0098186682696992655 0.0002753651556919182 0 0.025756526661045342 0.00022336528938133736 0 0.026425286895782947 0.00026677181105883528 0 0.026379041595064719 0.00018395974072582945 0 0.025756526661045342 0.00022336528938133736 0 0.026007474841079868 -4.1203564430034922e-05 0 0.024936228623493616 2.2180007890063234e-05 0 0.025756526661045342 0.00022336528938133736 0 0.024936228623493616 2.2180007890063234e-05 0 0.023982799738511484 1.2336727248666624e-06 0 0.025756526661045342 0.00022336528938133736 0 0.0258060419440828 1.6070781928101622e-07 0 0.023982799738511484 1.2336727248666624e-06 0 0.025756526661045342 0.00022336528938133736 0 0.0258060419440828 1.6070781928101622e-07 0 0.026559377145221059 0.00020620648220875026 0 0.025756526661045342 0.00022336528938133736 0 0.026559377145221059 0.00020620648220875026 0 0.026425286895782947 0.00026677181105883528 0 0.026559377145221059 0.00020620648220875026 0 0.026425286895782947 0.00026677181105883528 0 0.026951360555406659 0.00030070058577135052 0 0.026425286895782947 0.00026677181105883528 0 0.026742230613579436 0.00028144739950395221 0 0.026951360555406659 0.00030070058577135052 0 0.026742230613579436 0.00028144739950395221 0 0.027140477355636038 0.00032172924423589538 0 0.026951360555406659 0.00030070058577135052 0 0.026742230613579436 0.00028144739950395221 0 0.026977020606947795 0.00030440121201174382 0 0.026689307810310103 0.00025177914422123607 0 0.026742230613579436 0.00028144739950395221 0 0.026977020606947795 0.00030440121201174382 0 0.027140477355636038 0.00032172924423589538 0 0.026742230613579436 0.00028144739950395221 0 0.026689307810310103 0.00025177914422123607 0 0.026379041595064719 0.00018395974072582945 0 0.026425286895782947 0.00026677181105883528 0 0.026742230613579436 0.00028144739950395221 0 0.026379041595064719 0.00018395974072582945 0 0.026977020606947795 0.00030440121201174382 0 0.026689307810310103 0.00025177914422123607 0 0.026761441876405785 0.00028049829785614194 0 0.026689307810310103 0.00025177914422123607 0 0.026761441876405785 0.00028049829785614194 0 0.026574404661039885 0.00015899903761526843 0 0.026574404661039885 0.00015899903761526843 0 0.025902615987555007 -0.00015827719484398078 0 0.026273867283704167 -0.00023327024506310546 0 0.026263188305918349 -0.00035378168307494237 0 0.026273867283704167 -0.00023327024506310546 0 0.026230733539364535 -0.00031479405914872159 0 0.026761441876405785 0.00028049829785614194 0 0.026574404661039885 0.00015899903761526843 0 0.026273867283704167 -0.00023327024506310546 0 0.026499524721447485 -6.2871813183767937e-05 0 0.026317491913463713 -0.00017301547489850054 0 0.026574404661039885 0.00015899903761526843 0 0.026379041595064719 0.00018395974072582945 0 0.026007474841079868 -4.1203564430034922e-05 0 0.026508328947174597 0.00018349958434430222 0 0.025912492697120572 -0.00012001572717328113 0 0.025756526661045342 0.00022336528938133736 0 0.026379041595064719 0.00018395974072582945 0 0.026007474841079868 -4.1203564430034922e-05 0 0.026689307810310103 0.00025177914422123607 0 0.026574404661039885 0.00015899903761526843 0 0.026379041595064719 0.00018395974072582945 0 0.025902615987555007 -0.00015827719484398078 0 0.026273867283704167 -0.00023327024506310546 0 0.025912895312461687 -0.00042705172195430045 0 0.026273867283704167 -0.00023327024506310546 0 0.025912895312461687 -0.00042705172195430045 0 0.026119733315926541 -0.00056155724411988388 0 0.025912895312461687 -0.00042705172195430045 0 0.025445980512684142 -0.00045510527938662893 0 0.025671084612175731 -0.00082895310129894482 0 0.025912895312461687 -0.00042705172195430045 0 0.025671084612175731 -0.00082895310129894482 0 0.026119733315926541 -0.00056155724411988388 0 0.025902615987555007 -0.00015827719484398078 0 0.025912895312461687 -0.00042705172195430045 0 0.025445980512684142 -0.00045510527938662893 0 0.024805352170388404 -0.00050661881536403911 0 0.024936228623493616 2.2180007890063234e-05 0 0.023796498934080746 1.8129992895977512e-05 0 0.026007474841079868 -4.1203564430034922e-05 0 0.024805352170388404 -0.00050661881536403911 0 0.024936228623493616 2.2180007890063234e-05 0 0.025912492697120572 -0.00012001572717328113 0 0.025454956907574738 -0.00037989342016897894 0 0.024936228623493616 2.2180007890063234e-05 0 0.023982799738511484 1.2336727248666624e-06 0 0.023796498934080746 1.8129992895977512e-05 0 0.023982799738511484 1.2336727248666624e-06 0 0.023796498934080746 1.8129992895977512e-05 0 0.022162734779682083 -3.4211550604400095e-06 0 0.023796498934080746 1.8129992895977512e-05 0 0.022162734779682083 -3.4211550604400095e-06 0 0.023295613212070798 -0.0013789992087760181 0 0.024805352170388404 -0.00050661881536403911 0 0.023796498934080746 1.8129992895977512e-05 0 0.023295613212070798 -0.0013789992087760181 0 0.021805132683129256 2.1528551785860761e-07 0 0.020337615699040187 -0.00094475783386192011 0 0.025445980512684142 -0.00045510527938662893 0 0.024939201220599533 -0.00096061193632224738 0 0.024990953455693132 -0.0010350813132005026 0 0.022157127938353716 4.7456453749535895e-08 0 0.021808181953855921 -5.9816210730415058e-08 0 0.02140500299261823 8.9294269614967399e-05 0 0.022159333428975775 -2.8457838325223792e-07 0 0.021655521532987027 -0.00078620795459029746 0 0.021655521532987027 -0.00078620795459029746 0 0.019914568074213192 -0.0011358170533017371 0 0.021655521532987027 -0.00078620795459029746 0 0.020337615699040187 -0.00094475783386192011 0 0.020980256660832929 -0.0009654839272761717 0 0.021116195350585839 -0.0011651670311866973 0 0.020738675648040356 -0.0012689910287761129 0 0.019914568074213192 -0.0011358170533017371 0 0.020337615699040187 -0.00094475783386192011 0 0.021804661457502195 -1.2518152505512907e-09 0 0.020932892517938041 -1.9997127825586429e-06 0 0.020814252459374533 -5.8538678283715455e-09 0 0.021808181953855921 -5.9816210730415058e-08 0 0.02140500299261823 8.9294269614967399e-05 0 0.021484317848854864 0.00019012081257312533 0 0.020337615699040187 -0.00094475783386192011 0 0.020813030164849554 -1.0469805697874069e-06 0 0.019914568074213192 -0.0011358170533017371 0 0.020319546032472945 -0.00079415636127284277 0 0.015068616047428018 -0.00084110076693585294 0 0.015047378876192707 -0.0008484110529385499 0 0.015071870869305051 -0.00079034778689831685 0 0.025454956907574738 -0.00037989342016897894 0 0.021655521532987027 -0.00078620795459029746 0 0.025445980512684142 -0.00045510527938662893 0 0.024990953455693132 -0.0010350813132005026 0 0.025671084612175731 -0.00082895310129894482 0 0.019914568074213192 -0.0011358170533017371 0 0.014992517041965711 -0.001521577439958391 0 0.015047378876192707 -0.0008484110529385499 0 0.015032468102473925 -0.00086957719001355476 0 0.015071870869305051 -0.00079034778689831685 0 0.017168614430374939 -0.0035313647758578913 0 0.016911978244721529 -0.0021462496800746631 0 0.016099309718502149 -0.0021465868259002915 0 0.015068616047428018 -0.00084110076693585294 0 0.015047378876192707 -0.0008484110529385499 0 0.015018243117398468 -0.00088203891076157784 0 0.015047378876192707 -0.0008484110529385499 0 0.015018243117398468 -0.00088203891076157784 0 0.015032468102473925 -0.00086957719001355476 0 0.019954127572109143 -0.00053573294183209791 0 0.020375118967237864 -1.7040143813808096e-06 0 0.018505188443752197 -0.00018686512598105231 0 0.017168614430374939 -0.0035313647758578913 0 0.017485415686509902 -0.0034422403222930716 0 0.016911978244721529 -0.0021462496800746631 0 0.020337615699040187 -0.00094475783386192011 0 0.017504722773506249 -0.0012139893528877641 0 0.020926320008139324 -3.3157641957069768e-06 0 0.020811607747850271 -1.4786440194621725e-08 0 0.020379049671884815 1.0021732875901073e-08 0 0.020337615699040187 -0.00094475783386192011 0 0.020378147152130124 -1.6775876346260689e-07 0 0.020375118967237864 -1.7040143813808096e-06 0 0.018690808750633496 -2.5079509959161064e-07 0 0.018505188443752197 -0.00018686512598105231 0 0.018690808750633496 -2.5079509959161064e-07 0 0.018505188443752197 -0.00018686512598105231 0 0.017630660615847712 -0.00033785994046813277 0 0.017504722773506249 -0.0012139893528877641 0 0.016549203315164865 -0.00055236577706896069 0 0.016911978244721529 -0.0021462496800746631 0 0.016099309718502149 -0.0021465868259002915 0 0.016310324583319692 -0.00076313025602285493 0 0.018505188443752197 -0.00018686512598105231 0 0.016310324583319692 -0.00076313025602285493 0 0.017630660615847712 -0.00033785994046813277 0 0.016310324583319692 -0.00076313025602285493 0 0.01688623880768831 -0.00026490249322527959 0 0.017630660615847712 -0.00033785994046813277 0 0.015295431732214787 -0.00063371421200844277 0 0.016310324583319692 -0.00076313025602285493 0 0.01688623880768831 -0.00026490249322527959 0 0.016099309718502149 -0.0021465868259002915 0 0.016310324583319692 -0.00076313025602285493 0 0.014821248271002599 -0.00093095631318271341 0 0.015295431732214787 -0.00063371421200844277 0 0.016310324583319692 -0.00076313025602285493 0 0.014821248271002599 -0.00093095631318271341 0 0.01700388771832503 -4.9620080854514668e-07 0 0.018690808750633496 -2.5079509959161064e-07 0 0.01688623880768831 -0.00026490249322527959 0 0.018690808750633496 -2.5079509959161064e-07 0 0.01688623880768831 -0.00026490249322527959 0 0.017630660615847712 -0.00033785994046813277 0 0.015128150532476424 -0.0011730853804469445 0 0.014868317932364367 -0.00093614977246249159 0 0.014590298412898535 -0.0010315951409478467 0 0.014868317932364367 -0.00093614977246249159 0 0.014590298412898535 -0.0010315951409478467 0 0.014821248271002599 -0.00093095631318271341 0 0.014868317932364367 -0.00093614977246249159 0 0.014821248271002599 -0.00093095631318271341 0 0.014956753198889429 -0.00090820495672479912 0 0.015018243117398468 -0.00088203891076157784 0 0.014956753198889429 -0.00090820495672479912 0 0.015032468102473925 -0.00086957719001355476 0 0.014992517041965711 -0.001521577439958391 0 0.015047285892723063 -0.00097868111430898233 0 0.015018243117398468 -0.00088203891076157784 0 0.014821248271002599 -0.00093095631318271341 0 0.014956753198889429 -0.00090820495672479912 0 0.014868317932364367 -0.00093614977246249159 0 0.014956753198889429 -0.00090820495672479912 0 0.015120223243267263 -0.00089060965626736781 0 0.014956753198889429 -0.00090820495672479912 0 0.015120223243267263 -0.00089060965626736781 0 0.015077477636576858 -0.00085704643148866813 0 0.015120223243267263 -0.00089060965626736781 0 0.015255162909968903 -0.00084537635226724706 0 0.015077477636576858 -0.00085704643148866813 0 0.015255162909968903 -0.00084537635226724706 0 0.015077477636576858 -0.00085704643148866813 0 0.015144639477743534 -0.00078720103123096536 0 0.015032468102473925 -0.00086957719001355476 0 0.015077477636576858 -0.00085704643148866813 0 0.015071870869305051 -0.00079034778689831685 0 0.014956753198889429 -0.00090820495672479912 0 0.015032468102473925 -0.00086957719001355476 0 0.015077477636576858 -0.00085704643148866813 0 0.015071870869305051 -0.00079034778689831685 0 0.015144639477743534 -0.00078720103123096536 0 0.015229244065863399 -0.00067421970659645159 0 0.020319546032472945 -0.00079415636127284277 0 0.021066242808185007 -0.00060224325199800962 0 0.015077477636576858 -0.00085704643148866813 0 0.015071870869305051 -0.00079034778689831685 0 0.015144639477743534 -0.00078720103123096536 0 0.015255162909968903 -0.00084537635226724706 0 0.015144639477743534 -0.00078720103123096536 0 0.015229244065863399 -0.00067421970659645159 0 0.015229244065863399 -0.00067421970659645159 0 0.015505979061604043 -0.00080201287333488396 0 0.015616970643428964 -0.00055752662792082864 0 0.015255162909968903 -0.00084537635226724706 0 0.015229244065863399 -0.00067421970659645159 0 0.015505979061604043 -0.00080201287333488396 0 0.015505979061604043 -0.00080201287333488396 0 0.015728914713699606 -0.00083844425944111154 0 0.015696965191521604 -0.0007238579481030537 0 0.015771851035360773 -0.0013211763907432525 0 0.018821401380282047 -2.1401461513034841e-05 0 0.015505979061604043 -0.00080201287333488396 0 0.015661283173775058 -0.00087962116410995178 0 0.015462698092380307 -0.00087046580283010389 0 0.015255162909968903 -0.00084537635226724706 0 0.015505979061604043 -0.00080201287333488396 0 0.015462698092380307 -0.00087046580283010389 0 0.015505979061604043 -0.00080201287333488396 0 0.015728914713699606 -0.00083844425944111154 0 0.015661283173775058 -0.00087962116410995178 0 0.015894210132970717 -0.00093685776947393783 0 0.015728914713699606 -0.00083844425944111154 0 0.015661283173775058 -0.00087962116410995178 0 0.015894210132970717 -0.00093685776947393783 0 0.015661283173775058 -0.00087962116410995178 0 0.015626279880692023 -0.00088266882708483028 0 0.015661283173775058 -0.00087962116410995178 0 0.015543756620844356 -0.00087220464450332854 0 0.015626279880692023 -0.00088266882708483028 0 0.015661283173775058 -0.00087962116410995178 0 0.015543756620844356 -0.00087220464450332854 0 0.015462698092380307 -0.00087046580283010389 0 0.015416530844787365 -0.00088266002765448423 0 0.015543756620844356 -0.00087220464450332854 0 0.015439231460728734 -0.00089988390866619023 0 0.015416530844787365 -0.00088266002765448423 0 0.015543756620844356 -0.00087220464450332854 0 0.015462698092380307 -0.00087046580283010389 0 0.015120223243267263 -0.00089060965626736781 0 0.015255162909968903 -0.00084537635226724706 0 0.015307108291690331 -0.00087978631678164738 0 0.015255162909968903 -0.00084537635226724706 0 0.015462698092380307 -0.00087046580283010389 0 0.015307108291690331 -0.00087978631678164738 0 0.015416530844787365 -0.00088266002765448423 0 0.015462698092380307 -0.00087046580283010389 0 0.015307108291690331 -0.00087978631678164738 0 0.014868317932364367 -0.00093614977246249159 0 0.015120223243267263 -0.00089060965626736781 0 0.015177475582216972 -0.00098021695906017037 0 0.015120223243267263 -0.00089060965626736781 0 0.015307108291690331 -0.00087978631678164738 0 0.015306916389760396 -0.00091015822361009344 0 0.015120223243267263 -0.00089060965626736781 0 0.015306916389760396 -0.00091015822361009344 0 0.015177475582216972 -0.00098021695906017037 0 0.015306916389760396 -0.00091015822361009344 0 0.015331725296305304 -0.00093762878844407893 0 0.015177475582216972 -0.00098021695906017037 0 0.015416530844787365 -0.00088266002765448423 0 0.015307108291690331 -0.00087978631678164738 0 0.015306916389760396 -0.00091015822361009344 0 0.015416530844787365 -0.00088266002765448423 0 0.015306916389760396 -0.00091015822361009344 0 0.015439231460728734 -0.00089988390866619023 0 0.015543756620844356 -0.00087220464450332854 0 0.015439231460728734 -0.00089988390866619023 0 0.015503166162307453 -0.00087983825678285862 0 0.015439231460728734 -0.00089988390866619023 0 0.015460316126636944 -0.00092017017459894055 0 0.015503166162307453 -0.00087983825678285862 0 0.015439231460728734 -0.00089988390866619023 0 0.015460316126636944 -0.00092017017459894055 0 0.015402211387707261 -0.0009699252906844991 0 0.015306916389760396 -0.00091015822361009344 0 0.015439231460728734 -0.00089988390866619023 0 0.015331725296305304 -0.00093762878844407893 0 0.015439231460728734 -0.00089988390866619023 0 0.015331725296305304 -0.00093762878844407893 0 0.015402211387707261 -0.0009699252906844991 0 0.011418559752091726 -0.0029416048484024841 0 0.010169651005462663 -0.0028151249018089491 0 0.0097431692182821245 -0.0036878325209893752 0 0.013180328416323243 -0.0021399595651000877 0 0.012892440664710529 -0.0014752433576100325 0 0.015128150532476424 -0.0011730853804469445 0 0.015402211387707261 -0.0009699252906844991 0 0.015528166335582912 -0.0010281960416383264 0 0.015331725296305304 -0.00093762878844407893 0 0.015402211387707261 -0.0009699252906844991 0 0.015177475582216972 -0.00098021695906017037 0 0.015329432311331876 -0.0015851395984539231 0 0.012892440664710529 -0.0014752433576100325 0 0.015460316126636944 -0.00092017017459894055 0 0.015402211387707261 -0.0009699252906844991 0 0.015483415047338524 -0.00093903923671265514 0 0.010169651005462663 -0.0028151249018089491 0 0.0096426088973965412 -0.0030379879681622346 0 0.0097431692182821245 -0.0036878325209893752 0 0.015128150532476424 -0.0011730853804469445 0 0.015402211387707261 -0.0009699252906844991 0 0.015177475582216972 -0.00098021695906017037 0 0.015128150532476424 -0.0011730853804469445 0 0.014868317932364367 -0.00093614977246249159 0 0.015177475582216972 -0.00098021695906017037 0 0.011529821190056789 -0.00063561494350902021 0 0.012236282051871602 -0.00091101744421765568 0 0.011480467771483848 -0.001300890122550292 0 0.0091711748051435307 -0.0029350667983779064 0 0.0082888437696683453 -0.0029903128403391166 0 0.0097431692182821245 -0.0036878325209893752 0 0.0095125912753410702 -0.0017008287376590943 0 0.012892440664710529 -0.0014752433576100325 0 0.0091711748051435307 -0.0029350667983779064 0 0.0096426088973965412 -0.0030379879681622346 0 0.0097431692182821245 -0.0036878325209893752 0 0.012892440664710529 -0.0014752433576100325 0 0.013662720627920387 -0.00092490808028681431 0 0.015483415047338524 -0.00093903923671265514 0 0.015503166162307453 -0.00087983825678285862 0 0.015436479200507053 -0.00078419418858083649 0 0.015503166162307453 -0.00087983825678285862 0 0.015436479200507053 -0.00078419418858083649 0 0.015536559149591421 -0.00086765606913014753 0 0.015460316126636944 -0.00092017017459894055 0 0.015483415047338524 -0.00093903923671265514 0 0.015503166162307453 -0.00087983825678285862 0 0.015461815210842255 -0.00086946304639397905 0 0.015552032015235022 -0.00092799880563517096 0 0.015325836171254388 -0.00095131970094721689 0 0.015436479200507053 -0.00078419418858083649 0 0.015461815210842255 -0.00086946304639397905 0 0.015536559149591421 -0.00086765606913014753 0 0.015436479200507053 -0.00078419418858083649 0 0.015461815210842255 -0.00086946304639397905 0 0.015325836171254388 -0.00095131970094721689 0 0.015461815210842255 -0.00086946304639397905 0 0.015536559149591421 -0.00086765606913014753 0 0.015552032015235022 -0.00092799880563517096 0 0.015543756620844356 -0.00087220464450332854 0 0.015503166162307453 -0.00087983825678285862 0 0.015536559149591421 -0.00086765606913014753 0 0.015536559149591421 -0.00086765606913014753 0 0.015626279880692023 -0.00088266882708483028 0 0.015552032015235022 -0.00092799880563517096 0 0.015543756620844356 -0.00087220464450332854 0 0.015536559149591421 -0.00086765606913014753 0 0.015626279880692023 -0.00088266882708483028 0 0.015626279880692023 -0.00088266882708483028 0 0.015552032015235022 -0.00092799880563517096 0 0.015630304306595434 -0.00097885486990280683 0 0.015894210132970717 -0.00093685776947393783 0 0.015626279880692023 -0.00088266882708483028 0 0.015630304306595434 -0.00097885486990280683 0 0.015552032015235022 -0.00092799880563517096 0 0.015456054072369897 -0.0010780333401206798 0 0.015325836171254388 -0.00095131970094721689 0 0.015552032015235022 -0.00092799880563517096 0 0.015630304306595434 -0.00097885486990280683 0 0.015456054072369897 -0.0010780333401206798 0 0.015456054072369897 -0.0010780333401206798 0 0.015558040144063043 -0.0012174198182696857 0 0.015328784030871515 -0.0012176466708059125 0 0.016206670646265513 -0.00088972388485784762 0 0.01627125156176281 -0.0011792338489862988 0 0.015558040144063043 -0.0012174198182696857 0 0.015355807366976009 -0.0013469930242272466 0 0.015328784030871515 -0.0012176466708059125 0 0.015630304306595434 -0.00097885486990280683 0 0.015456054072369897 -0.0010780333401206798 0 0.015558040144063043 -0.0012174198182696857 0 0.017047098600095976 -0.00023362257815584257 0 0.016875162005346833 -0.00065892316040566342 0 0.01717386900573566 -0.00034245112580838841 0 0.017047098600095976 -0.00023362257815584257 0 0.016977556940924034 -0.00027295158530276205 0 0.01717386900573566 -0.00034245112580838841 0 0.017047098600095976 -0.00023362257815584257 0 0.016550505080606015 -0.00044637922650801076 0 0.016991175379828177 -0.00011467827019034817 0 0.016550505080606015 -0.00044637922650801076 0 0.016991175379828177 -0.00011467827019034817 0 0.016119857677190919 -0.00018142550454209442 0 0.017047098600095976 -0.00023362257815584257 0 0.016550505080606015 -0.00044637922650801076 0 0.016875162005346833 -0.00065892316040566342 0 0.015937145656536637 -0.00096347544250985448 0 0.016206670646265513 -0.00088972388485784762 0 0.015894210132970717 -0.00093685776947393783 0 0.016550505080606015 -0.00044637922650801076 0 0.016875162005346833 -0.00065892316040566342 0 0.015894210132970717 -0.00093685776947393783 0 0.015630304306595434 -0.00097885486990280683 0 0.015558040144063043 -0.0012174198182696857 0 0.015894210132970717 -0.00093685776947393783 0 0.016550505080606015 -0.00044637922650801076 0 0.015911920254604393 -0.00069354600500591025 0 0.015911920254604393 -0.00069354600500591025 0 0.015721514846229794 -0.00074233371583611073 0 0.016119857677190919 -0.00018142550454209442 0 0.015894210132970717 -0.00093685776947393783 0 0.015728914713699606 -0.00083844425944111154 0 0.015911920254604393 -0.00069354600500591025 0 0.015728914713699606 -0.00083844425944111154 0 0.015911920254604393 -0.00069354600500591025 0 0.015696965191521604 -0.0007238579481030537 0 0.016221493548535824 -0.00068119979002255579 0 0.018821401380282047 -2.1401461513034841e-05 0 0.026273867283704167 -0.00023327024506310546 0 0.026119733315926541 -0.00056155724411988388 0 0.026236040026398299 -0.00038481181509560634 0 0.021066242808185007 -0.00060224325199800962 0 0.018821401380282047 -2.1401461513034841e-05 0 0.026273867283704167 -0.00023327024506310546 0 0.026236040026398299 -0.00038481181509560634 0 0.026178630428163006 -0.00028420962123953426 0 0.026273867283704167 -0.00023327024506310546 0 0.026178630428163006 -0.00028420962123953426 0 0.026192424646441653 -0.00030685001029483259 0 0.018821401380282047 -2.1401461513034841e-05 0 0.021441110957094396 -0.00016025579228206858 0 0.016550505080606015 -0.00044637922650801076 0 0.015911920254604393 -0.00069354600500591025 0 0.016119857677190919 -0.00018142550454209442 0 0.021441110957094396 -0.00016025579228206858 0 0.019748015201169058 -8.6676966026810257e-05 0 0.026178630428163006 -0.00028420962123953426 0 0.026192424646441653 -0.00030685001029483259 0 0.026086395879620021 -0.0003352308038712571 0 0.016991175379828177 -0.00011467827019034817 0 0.016119857677190919 -0.00018142550454209442 0 0.016488316477404012 0.00067676394476006492 0 0.026273867283704167 -0.00023327024506310546 0 0.026192424646441653 -0.00030685001029483259 0 0.026230733539364535 -0.00031479405914872159 0 0.026192424646441653 -0.00030685001029483259 0 0.026230733539364535 -0.00031479405914872159 0 0.026194278064755123 -0.00036396479119216277 0 0.026263188305918349 -0.00035378168307494237 0 0.026230733539364535 -0.00031479405914872159 0 0.026194278064755123 -0.00036396479119216277 0 0.026194278064755123 -0.00036396479119216277 0 0.026135884499110841 -0.00042438600368058379 0 0.026213941558071469 -0.00042023393776022917 0 0.026263188305918349 -0.00035378168307494237 0 0.026194278064755123 -0.00036396479119216277 0 0.026213941558071469 -0.00042023393776022917 0 0.026194278064755123 -0.00036396479119216277 0 0.026086395879620021 -0.0003352308038712571 0 0.026135884499110841 -0.00042438600368058379 0 0.026192424646441653 -0.00030685001029483259 0 0.026194278064755123 -0.00036396479119216277 0 0.026086395879620021 -0.0003352308038712571 0 0.019748015201169058 -8.6676966026810257e-05 0 0.023824192086637851 -0.00059684763787196452 0 0.019646502992395485 0.0010095967626780999 0 0.018984166985970205 -0.00089788576889796219 0 0.020750943705679842 -0.00056261707504528255 0 0.017860321327038055 -0.00051944457428388313 0 0.017284803091777812 -0.0010454978242017258 0 0.017161019660238388 -0.00058981431093265541 0 0.017860321327038055 -0.00051944457428388313 0 0.017284803091777812 -0.0010454978242017258 0 0.017993366752979155 -0.0014752392292958669 0 0.019748015201169058 -8.6676966026810257e-05 0 0.018386448513688865 -0.0012254419208829932 0 0.017284803091777812 -0.0010454978242017258 0 0.016929695447430011 -0.00077942745433702922 0 0.017161019660238388 -0.00058981431093265541 0 0.016929695447430011 -0.00077942745433702922 0 0.017161019660238388 -0.00058981431093265541 0 0.016977556940924034 -0.00027295158530276205 0 0.01686044782849673 -0.0012580783313186749 0 0.01722773564732507 -0.002316195048263399 0 0.017161019660238388 -0.00058981431093265541 0 0.017129558300989018 -0.00032329514466040277 0 0.016977556940924034 -0.00027295158530276205 0 0.01722773564732507 -0.002316195048263399 0 0.016995844569172653 -0.0011446000813202398 0 0.017047098600095976 -0.00023362257815584257 0 0.017129558300989018 -0.00032329514466040277 0 0.016977556940924034 -0.00027295158530276205 0 0.016566521742141918 0.0002792341181612533 0 0.019748015201169058 -8.6676966026810257e-05 0 0.017860321327038055 -0.00051944457428388313 0 0.017161019660238388 -0.00058981431093265541 0 0.017129558300989018 -0.00032329514466040277 0 0.017047098600095976 -0.00023362257815584257 0 0.016991175379828177 -0.00011467827019034817 0 0.017129558300989018 -0.00032329514466040277 0 0.016991175379828177 -0.00011467827019034817 0 0.017860321327038055 -0.00051944457428388313 0 0.017129558300989018 -0.00032329514466040277 0 0.017372190902012172 -0.0035773626589664306 0 0.016324513013121451 -0.0029613365374360242 0 0.017817051016953123 -0.0044684305475402863 0 0.017466309824077708 -0.0044620707191335282 0 0.017390070475089045 -0.0040370155424289504 0 0.016649855384842052 -0.0023834665892284689 0 0.016234510531669938 -0.0021214869292375013 0 0.016578995715095725 -0.0019351659914253094 0 0.017062462277154175 -0.00264392949869876 0 0.016994659132876296 -0.0021978854416726148 0 0.016649855384842052 -0.0023834665892284689 0 0.016994659132876296 -0.0021978854416726148 0 0.016649855384842052 -0.0023834665892284689 0 0.016578995715095725 -0.0019351659914253094 0 0.017817051016953123 -0.0044684305475402863 0 0.017728629553500141 -0.0045086950830041453 0 0.017824932168330056 -0.0046262211866382099 0 0.01722773564732507 -0.002316195048263399 0 0.017372190902012172 -0.0035773626589664306 0 0.017520614913093452 -0.0045263762844105432 0 0.017817051016953123 -0.0044684305475402863 0 0.017728629553500141 -0.0045086950830041453 0 0.017520614913093452 -0.0045263762844105432 0 0.017728629553500141 -0.0045086950830041453 0 0.017680454866077056 -0.0042692210779187644 0 0.017728629553500141 -0.0045086950830041453 0 0.017824932168330056 -0.0046262211866382099 0 0.017680454866077056 -0.0042692210779187644 0 0.017824932168330056 -0.0046262211866382099 0 0.017466309824077708 -0.0044620707191335282 0 0.017201527221871422 -0.0049114412687516736 0 0.017817051016953123 -0.0044684305475402863 0 0.017824932168330056 -0.0046262211866382099 0 0.017466309824077708 -0.0044620707191335282 0 0.017466309824077708 -0.0044620707191335282 0 0.017201527221871422 -0.0049114412687516736 0 0.016848465689638423 -0.0042782102656481634 0 0.017201527221871422 -0.0049114412687516736 0 0.016455493104700403 -0.0048059260301182797 0 0.016848465689638423 -0.0042782102656481634 0 0.016848465689638423 -0.0042782102656481634 0 0.01651039306339205 -0.003483706847143823 0 0.016116596409020609 -0.0041173719453156008 0 0.016455493104700403 -0.0048059260301182797 0 0.016848465689638423 -0.0042782102656481634 0 0.016116596409020609 -0.0041173719453156008 0 0.017466309824077708 -0.0044620707191335282 0 0.016848465689638423 -0.0042782102656481634 0 0.017390070475089045 -0.0040370155424289504 0 0.017007548589694967 -0.0041303667667114 0 0.016324513013121451 -0.0029613365374360242 0 0.014905969087461448 -0.001751905393998322 0 0.014516675846848558 -0.0015265973734394694 0 0.01492343640653093 -0.001489624927274972 0 0.016848465689638423 -0.0042782102656481634 0 0.01736382872170129 -0.0039972973931867621 0 0.01651039306339205 -0.003483706847143823 0 0.016324513013121451 -0.0029613365374360242 0 0.015787450759520445 -0.002528367097413668 0 0.014516675846848558 -0.0015265973734394694 0 0.014577956514157442 -0.0010360968715394359 0 0.014103995060854999 -0.0012897639601731486 0 0.014516675846848558 -0.0015265973734394694 0 0.014905409772474227 -0.0012223064539832369 0 0.01492343640653093 -0.001489624927274972 0 0.014516675846848558 -0.0015265973734394694 0 0.014905409772474227 -0.0012223064539832369 0 0.014577956514157442 -0.0010360968715394359 0 0.014905409772474227 -0.0012223064539832369 0 0.015136641943280621 -0.0013435904464372535 0 0.015149123339071112 -0.0010956252979478511 0 0.014905409772474227 -0.0012223064539832369 0 0.015136641943280621 -0.0013435904464372535 0 0.01492343640653093 -0.001489624927274972 0 0.015136641943280621 -0.0013435904464372535 0 0.01492343640653093 -0.001489624927274972 0 0.015142130814651317 -0.0016085453444799407 0 0.014905969087461448 -0.001751905393998322 0 0.01492343640653093 -0.001489624927274972 0 0.015142130814651317 -0.0016085453444799407 0 0.016324513013121451 -0.0029613365374360242 0 0.015797470040524949 -0.0018241098174035524 0 0.016994659132876296 -0.0021978854416726148 0 0.016578995715095725 -0.0019351659914253094 0 0.016924471646084526 -0.0017485887627575836 0 0.016995844569172653 -0.0011446000813202398 0 0.01627125156176281 -0.0011792338489862988 0 0.015797470040524949 -0.0018241098174035524 0 0.01627125156176281 -0.0011792338489862988 0 0.015136641943280621 -0.0013435904464372535 0 0.015142130814651317 -0.0016085453444799407 0 0.015381835266149254 -0.0014626942502472184 0 0.015136641943280621 -0.0013435904464372535 0 0.015328784030871515 -0.0012176466708059125 0 0.015149123339071112 -0.0010956252979478511 0 0.01627125156176281 -0.0011792338489862988 0 0.015526291130208595 -0.0012456957175798165 0 0.015136641943280621 -0.0013435904464372535 0 0.015381835266149254 -0.0014626942502472184 0 0.015328784030871515 -0.0012176466708059125 0 0.015328784030871515 -0.0012176466708059125 0 0.015325836171254388 -0.00095131970094721689 0 0.015149123339071112 -0.0010956252979478511 0 0.015456054072369897 -0.0010780333401206798 0 0.015328784030871515 -0.0012176466708059125 0 0.015325836171254388 -0.00095131970094721689 0 0.015325836171254388 -0.00095131970094721689 0 0.015149123339071112 -0.0010956252979478511 0 0.015050480937677553 -0.00083472027806804727 0 0.014905409772474227 -0.0012223064539832369 0 0.015149123339071112 -0.0010956252979478511 0 0.015050480937677553 -0.00083472027806804727 0 0.013662720627920387 -0.00092490808028681431 0 0.012895398701407268 -0.0012847977313568773 0 0.015436479200507053 -0.00078419418858083649 0 0.015325836171254388 -0.00095131970094721689 0 0.015050480937677553 -0.00083472027806804727 0 0.011480467771483848 -0.001300890122550292 0 0.010735122609196833 -0.0016782916575047808 0 0.010630231163449005 -0.0011738469138315691 0 0.011480467771483848 -0.001300890122550292 0 0.010630231163449005 -0.0011738469138315691 0 0.011019237402569318 -0.00085555287830178773 0 0.010834328693781139 -0.0003720753743628281 0 0.010535054859601923 -0.00068130162362237871 0 0.011019237402569318 -0.00085555287830178773 0 0.010630231163449005 -0.0011738469138315691 0 0.010535054859601923 -0.00068130162362237871 0 0.011019237402569318 -0.00085555287830178773 0 0.011284127280786295 -0.00054123651126843661 0 0.011529821190056789 -0.00063561494350902021 0 0.011019237402569318 -0.00085555287830178773 0 0.011529821190056789 -0.00063561494350902021 0 0.011480467771483848 -0.001300890122550292 0 0.011019237402569318 -0.00085555287830178773 0 0.009587497967510801 -0.00043674588063475614 0 0.010046339120049411 -0.00083323395724274726 0 0.0094198044561791712 -0.00097471209632251548 0 0.010630231163449005 -0.0011738469138315691 0 0.010535054859601923 -0.00068130162362237871 0 0.010046339120049411 -0.00083323395724274726 0 0.010735122609196833 -0.0016782916575047808 0 0.010630231163449005 -0.0011738469138315691 0 0.0099122066281056333 -0.0014238054155197512 0 0.010630231163449005 -0.0011738469138315691 0 0.010046339120049411 -0.00083323395724274726 0 0.0099122066281056333 -0.0014238054155197512 0 0.010046339120049411 -0.00083323395724274726 0 0.0099122066281056333 -0.0014238054155197512 0 0.0094198044561791712 -0.00097471209632251548 0 0.0099122066281056333 -0.0014238054155197512 0 0.010015661600578462 -0.0020419060735285747 0 0.0094124826162057772 -0.0018347323192224338 0 0.010735122609196833 -0.0016782916575047808 0 0.0099122066281056333 -0.0014238054155197512 0 0.010015661600578462 -0.0020419060735285747 0 0.012895398701407268 -0.0012847977313568773 0 0.012039302653541528 -0.0015037968566711619 0 0.014905409772474227 -0.0012223064539832369 0 0.015050480937677553 -0.00083472027806804727 0 0.014577956514157442 -0.0010360968715394359 0 0.010015661600578462 -0.0020419060735285747 0 0.0094124826162057772 -0.0018347323192224338 0 0.0093316459679311046 -0.0024117071003228845 0 0.0091572080949878752 -0.0020497300089024153 0 0.0094124826162057772 -0.0018347323192224338 0 0.0093316459679311046 -0.0024117071003228845 0 0.012039302653541528 -0.0015037968566711619 0 0.01306584541102122 -0.0023278281943127917 0 0.0091572080949878752 -0.0020497300089024153 0 0.0087623522050110699 -0.0020552252063875797 0 0.0093316459679311046 -0.0024117071003228845 0 0.011538843536843407 -0.0022239392879270753 0 0.01306584541102122 -0.0023278281943127917 0 0.0091572080949878752 -0.0020497300089024153 0 0.0089675769683035065 -0.0017002880348469889 0 0.0087623522050110699 -0.0020552252063875797 0 0.0091572080949878752 -0.0020497300089024153 0 0.0089675769683035065 -0.0017002880348469889 0 0.0094124826162057772 -0.0018347323192224338 0 0.0089675769683035065 -0.0017002880348469889 0 0.0094124826162057772 -0.0018347323192224338 0 0.0091692035648347058 -0.0013567914897264553 0 0.0099122066281056333 -0.0014238054155197512 0 0.0094124826162057772 -0.0018347323192224338 0 0.0091692035648347058 -0.0013567914897264553 0 0.0099122066281056333 -0.0014238054155197512 0 0.0091692035648347058 -0.0013567914897264553 0 0.0094198044561791712 -0.00097471209632251548 0 0.0091692035648347058 -0.0013567914897264553 0 0.0094198044561791712 -0.00097471209632251548 0 0.0087642220853346563 -0.00084515429480160964 0 0.0091692035648347058 -0.0013567914897264553 0 0.0087642220853346563 -0.00084515429480160964 0 0.0087582691067055705 -0.001298875855938277 0 0.0089675769683035065 -0.0017002880348469889 0 0.0091692035648347058 -0.0013567914897264553 0 0.0087582691067055705 -0.001298875855938277 0 0.0089902540400499473 -0.00033811970681793562 0 0.0094198044561791712 -0.00097471209632251548 0 0.0087642220853346563 -0.00084515429480160964 0 0.0083074155711249618 -0.00075130808781992127 0 0.0084094040595543065 -0.0011059360892903087 0 0.0079969156514938782 -0.00088520265678367234 0 0.0080518932011237766 -0.00058217609145929067 0 0.0083074155711249618 -0.00075130808781992127 0 0.0079969156514938782 -0.00088520265678367234 0 0.0083387369386874934 -0.00036306534654066382 0 0.0083074155711249618 -0.00075130808781992127 0 0.0087642220853346563 -0.00084515429480160964 0 0.0083074155711249618 -0.00075130808781992127 0 0.0087642220853346563 -0.00084515429480160964 0 0.0084094040595543065 -0.0011059360892903087 0 0.0087642220853346563 -0.00084515429480160964 0 0.0084094040595543065 -0.0011059360892903087 0 0.0087582691067055705 -0.001298875855938277 0 0.0084094040595543065 -0.0011059360892903087 0 0.0087582691067055705 -0.001298875855938277 0 0.0085293985699852297 -0.0015143300605553042 0 0.0084094040595543065 -0.0011059360892903087 0 0.0080873389921983473 -0.0012644656244639404 0 0.0085293985699852297 -0.0015143300605553042 0 0.0084094040595543065 -0.0011059360892903087 0 0.0080873389921983473 -0.0012644656244639404 0 0.0079969156514938782 -0.00088520265678367234 0 0.0080873389921983473 -0.0012644656244639404 0 0.0082118590206589261 -0.0016796615122654406 0 0.0085293985699852297 -0.0015143300605553042 0 0.0082118590206589261 -0.0016796615122654406 0 0.0085293985699852297 -0.0015143300605553042 0 0.0087623522050110699 -0.0020552252063875797 0 0.0089675769683035065 -0.0017002880348469889 0 0.0087582691067055705 -0.001298875855938277 0 0.0085293985699852297 -0.0015143300605553042 0 0.0089675769683035065 -0.0017002880348469889 0 0.0085293985699852297 -0.0015143300605553042 0 0.0087623522050110699 -0.0020552252063875797 0 0.014539994081591259 -0.002386951586819733 0 0.013706532801165978 -0.0027617066773220752 0 0.01423382284120255 -0.0031934143049463246 0 0.010935769960084048 -0.0018247789847816115 0 0.011538843536843407 -0.0022239392879270753 0 0.013453052986845605 -0.0018168478746214689 0 0.014539994081591259 -0.002386951586819733 0 0.013706532801165978 -0.0027617066773220752 0 0.013453052986845605 -0.0018168478746214689 0 0.013706532801165978 -0.0027617066773220752 0 0.012908059437853938 -0.0024428830592674315 0 0.013706532801165978 -0.0027617066773220752 0 0.013197348325082287 -0.0030538552385544373 0 0.012908059437853938 -0.0024428830592674315 0 0.013706532801165978 -0.0027617066773220752 0 0.013197348325082287 -0.0030538552385544373 0 0.013814229256513011 -0.0034351174779452833 0 0.013706532801165978 -0.0027617066773220752 0 0.013814229256513011 -0.0034351174779452833 0 0.01423382284120255 -0.0031934143049463246 0 0.013197348325082287 -0.0030538552385544373 0 0.013814229256513011 -0.0034351174779452833 0 0.013186838880311422 -0.0037017784820063946 0 0.022227698697005843 -0.0034587306444064064 0 0.012798140365039009 -0.0047838575333062098 0 0.013882826834582501 -0.0038947403393128199 0 0.013927519257656357 -0.0045063806101570273 0 0.013186838880311422 -0.0037017784820063946 0 0.013814229256513011 -0.0034351174779452833 0 0.013882826834582501 -0.0038947403393128199 0 0.013186838880311422 -0.0037017784820063946 0 0.01551979322362259 -0.0077016441144449159 0 0.013629828929668825 -0.0066619445264928506 0 0.014098723705508879 -0.0056298748887946325 0 0.013814229256513011 -0.0034351174779452833 0 0.013882826834582501 -0.0038947403393128199 0 0.014338327850847423 -0.0036391666340655593 0 0.014338327850847423 -0.0036391666340655593 0 0.014717701931630359 -0.0034108965662101361 0 0.014768539206219214 -0.0040868077501950957 0 0.014229451233732553 -0.0040337512831111746 0 0.014338327850847423 -0.0036391666340655593 0 0.014768539206219214 -0.0040868077501950957 0 0.013882826834582501 -0.0038947403393128199 0 0.014229451233732553 -0.0040337512831111746 0 0.014338327850847423 -0.0036391666340655593 0 0.014539994081591259 -0.002386951586819733 0 0.01423382284120255 -0.0031934143049463246 0 0.014750106445469093 -0.00305509185365305 0 0.014717701931630359 -0.0034108965662101361 0 0.01423382284120255 -0.0031934143049463246 0 0.014750106445469093 -0.00305509185365305 0 0.014338327850847423 -0.0036391666340655593 0 0.014717701931630359 -0.0034108965662101361 0 0.01423382284120255 -0.0031934143049463246 0 0.013814229256513011 -0.0034351174779452833 0 0.014338327850847423 -0.0036391666340655593 0 0.01423382284120255 -0.0031934143049463246 0 0.014539994081591259 -0.002386951586819733 0 0.015361144964769211 -0.0030196911291668176 0 0.015527865152940384 -0.0029255713647967979 0 0.014539994081591259 -0.002386951586819733 0 0.014750106445469093 -0.00305509185365305 0 0.015361144964769211 -0.0030196911291668176 0 0.015361144964769211 -0.0030196911291668176 0 0.015070216954793303 -0.0033050100513756179 0 0.015424831040734817 -0.0033928005401772945 0 0.015361144964769211 -0.0030196911291668176 0 0.015531698403411877 -0.0029264334691366536 0 0.015424831040734817 -0.0033928005401772945 0 0.014750106445469093 -0.00305509185365305 0 0.015361144964769211 -0.0030196911291668176 0 0.015070216954793303 -0.0033050100513756179 0 0.014717701931630359 -0.0034108965662101361 0 0.014750106445469093 -0.00305509185365305 0 0.015070216954793303 -0.0033050100513756179 0 0.015787450759520445 -0.002528367097413668 0 0.01306584541102122 -0.0023278281943127917 0 0.01651039306339205 -0.003483706847143823 0 0.015531698403411877 -0.0029264334691366536 0 0.015799732364030376 -0.0035426139052961839 0 0.013953348866690231 -0.0021629089071820312 0 0.01306584541102122 -0.0023278281943127917 0 0.015531698403411877 -0.0029264334691366536 0 0.015799732364030376 -0.0035426139052961839 0 0.015424831040734817 -0.0033928005401772945 0 0.01651039306339205 -0.003483706847143823 0 0.015799732364030376 -0.0035426139052961839 0 0.016116596409020609 -0.0041173719453156008 0 0.015799732364030376 -0.0035426139052961839 0 0.015424831040734817 -0.0033928005401772945 0 0.01542013640718563 -0.0040329403663240939 0 0.015799732364030376 -0.0035426139052961839 0 0.01542013640718563 -0.0040329403663240939 0 0.016116596409020609 -0.0041173719453156008 0 0.015091042210440282 -0.0036370876473117344 0 0.015424831040734817 -0.0033928005401772945 0 0.01542013640718563 -0.0040329403663240939 0 0.014717701931630359 -0.0034108965662101361 0 0.015091042210440282 -0.0036370876473117344 0 0.014768539206219214 -0.0040868077501950957 0 0.014717701931630359 -0.0034108965662101361 0 0.015070216954793303 -0.0033050100513756179 0 0.015091042210440282 -0.0036370876473117344 0 0.015070216954793303 -0.0033050100513756179 0 0.015091042210440282 -0.0036370876473117344 0 0.015424831040734817 -0.0033928005401772945 0 0.015091042210440282 -0.0036370876473117344 0 0.01542013640718563 -0.0040329403663240939 0 0.014768539206219214 -0.0040868077501950957 0 0.01542013640718563 -0.0040329403663240939 0 0.01579135494154699 -0.0046394200043811682 0 0.014975121769187614 -0.0049270509757918029 0 0.01542013640718563 -0.0040329403663240939 0 0.014975121769187614 -0.0049270509757918029 0 0.014768539206219214 -0.0040868077501950957 0 0.016455493104700403 -0.0048059260301182797 0 0.016116596409020609 -0.0041173719453156008 0 0.01579135494154699 -0.0046394200043811682 0 0.01542013640718563 -0.0040329403663240939 0 0.016116596409020609 -0.0041173719453156008 0 0.01579135494154699 -0.0046394200043811682 0 0.016455493104700403 -0.0048059260301182797 0 0.01579135494154699 -0.0046394200043811682 0 0.015952045488994981 -0.0052784732719799634 0 0.01579135494154699 -0.0046394200043811682 0 0.014975121769187614 -0.0049270509757918029 0 0.015952045488994981 -0.0052784732719799634 0 0.021803386852714098 -0.0027202936209946237 0 0.022065492887353724 -0.0028011700903570864 0 0.021803386852714098 -0.0027202936209946237 0 0.022227698697005843 -0.0034587306444064064 0 0.029854666868452912 -0.00039571399640655488 0 0.029856945922524167 -0.00089003060701322971 0 0.029274307656927515 -0.00024414506294875323 0 0.028930783863442916 -0.00074545627921963518 0 0.029598468761243057 -0.0012510118618894112 0 0.029274307656927515 -0.00024414506294875323 0 0.022227698697005843 -0.0034587306444064064 0 0.031527256150782196 0.0001781625867577311 0 0.029854666868452912 -0.00039571399640655488 0 0.029856945922524167 -0.00089003060701322971 0 0.030174825967055598 -0.00046331786710548793 0 0.022227698697005843 -0.0034587306444064064 0 0.021637004035930635 -0.0038822108432962389 0 0.029856945922524167 -0.00089003060701322971 0 0.030229864214782562 -0.0010986006303647154 0 0.030174825967055598 -0.00046331786710548793 0 0.013882826834582501 -0.0038947403393128199 0 0.014229451233732553 -0.0040337512831111746 0 0.013927519257656357 -0.0045063806101570273 0 0.014229451233732553 -0.0040337512831111746 0 0.013927519257656357 -0.0045063806101570273 0 0.014768539206219214 -0.0040868077501950957 0 0.014975121769187614 -0.0049270509757918029 0 0.013927519257656357 -0.0045063806101570273 0 0.014768539206219214 -0.0040868077501950957 0 0.030751600306233164 0.0002911475303156163 0 0.030092161040626234 0.00010106703182090487 0 0.030534713171298009 0.00019179835263086618 0 0.029247224270391763 0.00089427188583949581 0 0.030092161040626234 0.00010106703182090487 0 0.029357846902449612 0.00024465375925708998 0 0.030061780408243338 0.00050148452463458974 0 0.030118876344736905 0.00015080586394664101 0 0.029247224270391763 0.00089427188583949581 0 0.029357846902449612 0.00024465375925708998 0 0.028837322836209267 0.00022983070491778025 0 0.030092161040626234 0.00010106703182090487 0 0.030382224624234198 0.00020357396843864704 0 0.030363178697074691 0.00016465492414584131 0 0.030092161040626234 0.00010106703182090487 0 0.030534713171298009 0.00019179835263086618 0 0.030382224624234198 0.00020357396843864704 0 0.029854666868452912 -0.00039571399640655488 0 0.030092161040626234 0.00010106703182090487 0 0.030174825967055598 -0.00046331786710548793 0 0.029854666868452912 -0.00039571399640655488 0 0.030092161040626234 0.00010106703182090487 0 0.029274307656927515 -0.00024414506294875323 0 0.030092161040626234 0.00010106703182090487 0 0.029357846902449612 0.00024465375925708998 0 0.029274307656927515 -0.00024414506294875323 0 0.028930783863442916 -0.00074545627921963518 0 0.029274307656927515 -0.00024414506294875323 0 0.028837322836209267 0.00022983070491778025 0 0.029357846902449612 0.00024465375925708998 0 0.029274307656927515 -0.00024414506294875323 0 0.028837322836209267 0.00022983070491778025 0 0.028930783863442916 -0.00074545627921963518 0 0.028837322836209267 0.00022983070491778025 0 0.027968869332037107 -0.00022637888726919744 0 0.027968869332037107 -0.00022637888726919744 0 0.028223911699327271 0.00085315588775179631 0 0.027491630746916296 0.00089142750052705023 0 0.028837322836209267 0.00022983070491778025 0 0.028223911699327271 0.00085315588775179631 0 0.028705701399403396 0.0009076952172312738 0 0.028837322836209267 0.00022983070491778025 0 0.027968869332037107 -0.00022637888726919744 0 0.028223911699327271 0.00085315588775179631 0 0.029247224270391763 0.00089427188583949581 0 0.028837322836209267 0.00022983070491778025 0 0.028705701399403396 0.0009076952172312738 0 0.030751600306233164 0.0002911475303156163 0 0.03167649036645822 -0.0001152489808533669 0 0.031039194503259045 9.3447539013031083e-05 0 0.030061780408243338 0.00050148452463458974 0 0.029935522829180907 0.00096278968851242809 0 0.029247224270391763 0.00089427188583949581 0 0.028705701399403396 0.0009076952172312738 0 0.028515553844227135 0.0016355814640977495 0 0.028223911699327271 0.00085315588775179631 0 0.028705701399403396 0.0009076952172312738 0 0.028515553844227135 0.0016355814640977495 0 0.028223911699327271 0.00085315588775179631 0 0.027763907863168066 0.0016129498813426942 0 0.028515553844227135 0.0016355814640977495 0 0.028223911699327271 0.00085315588775179631 0 0.027763907863168066 0.0016129498813426942 0 0.027491630746916296 0.00089142750052705023 0 0.029935522829180907 0.00096278968851242809 0 0.030790866984836986 -0.0002528210982420521 0 0.027763907863168066 0.0016129498813426942 0 0.028515553844227135 0.0016355814640977495 0 0.027825126935000576 0.0023997713593136307 0 0.03167649036645822 -0.0001152489808533669 0 0.031920286275520363 -0.00068797616448647617 0 0.032447359195619564 -0.00074147940659026121 0 0.03167649036645822 -0.0001152489808533669 0 0.031515729552915345 -0.00058547921533223498 0 0.031920286275520363 -0.00068797616448647617 0 0.03167649036645822 -0.0001152489808533669 0 0.031235496921673805 -0.00033070252422719973 0 0.031039194503259045 9.3447539013031083e-05 0 0.03167649036645822 -0.0001152489808533669 0 0.031515729552915345 -0.00058547921533223498 0 0.031235496921673805 -0.00033070252422719973 0 0.031515729552915345 -0.00058547921533223498 0 0.031235496921673805 -0.00033070252422719973 0 0.031201714478623868 -0.00063033757532592407 0 0.030896751686811712 -0.00043650165029307048 0 0.031235496921673805 -0.00033070252422719973 0 0.031039194503259045 9.3447539013031083e-05 0 0.030512300562300143 -0.00064404889395074322 0 0.031110296853468281 0.00017126887498317383 0 0.030896751686811712 -0.00043650165029307048 0 0.031235496921673805 -0.00033070252422719973 0 0.031201714478623868 -0.00063033757532592407 0 0.030650599424332566 -0.00040495316890736091 0 0.030585607626584944 -1.1356979313197763e-05 0 0.031039194503259045 9.3447539013031083e-05 0 0.030585607626584944 -1.1356979313197763e-05 0 0.030534713171298009 0.00019179835263086618 0 0.030722564916359225 0.00014948501031523002 0 0.030751600306233164 0.0002911475303156163 0 0.030534713171298009 0.00019179835263086618 0 0.030722564916359225 0.00014948501031523002 0 0.030585607626584944 -1.1356979313197763e-05 0 0.030722564916359225 0.00014948501031523002 0 0.031039194503259045 9.3447539013031083e-05 0 0.030751600306233164 0.0002911475303156163 0 0.030722564916359225 0.00014948501031523002 0 0.031039194503259045 9.3447539013031083e-05 0 0.030382224624234198 0.00020357396843864704 0 0.030588561740475213 0.00040096561986663055 0 0.030509569565531969 0.00028435051731474969 0 0.030585607626584944 -1.1356979313197763e-05 0 0.030382224624234198 0.00020357396843864704 0 0.030362906374916315 -0.00031744616142535359 0 0.030382224624234198 0.00020357396843864704 0 0.030363178697074691 0.00016465492414584131 0 0.030509569565531969 0.00028435051731474969 0 0.030422378289523159 0.00015554156962982571 0 0.030350813150855586 8.408474224267847e-05 0 0.030585607626584944 -1.1356979313197763e-05 0 0.030534713171298009 0.00019179835263086618 0 0.030382224624234198 0.00020357396843864704 0 0.030588561740475213 0.00040096561986663055 0 0.030824036364008767 0.00057733516704657492 0 0.030509569565531969 0.00028435051731474969 0 0.030650599424332566 -0.00040495316890736091 0 0.030585607626584944 -1.1356979313197763e-05 0 0.030362906374916315 -0.00031744616142535359 0 0.030650599424332566 -0.00040495316890736091 0 0.030362906374916315 -0.00031744616142535359 0 0.030459723208081674 -0.00058650539777284848 0 0.030350813150855586 8.408474224267847e-05 0 0.032317081755897488 -0.00027706885436196594 0 0.030650599424332566 -0.00040495316890736091 0 0.030459723208081674 -0.00058650539777284848 0 0.030402590433990243 -0.00080999020969944326 0 0.030512300562300143 -0.00064404889395074322 0 0.032317081755897488 -0.00027706885436196594 0 0.030362906374916315 -0.00031744616142535359 0 0.030459723208081674 -0.00058650539777284848 0 0.030402590433990243 -0.00080999020969944326 0 0.030588561740475213 0.00040096561986663055 0 0.030824036364008767 0.00057733516704657492 0 0.030763630086544737 0.00067818395489971264 0 0.032317081755897488 -0.00027706885436196594 0 0.03345855253810967 -0.00014754242677426528 0 0.033063565278934524 0.00014154913243702731 0 0.033014912851660479 0.00014771273226185425 0 0.033056134597500147 9.4963401072973734e-05 0 0.031896648418025461 0.00033445132637093179 0 0.03345855253810967 -0.00014754242677426528 0 0.032317081755897488 -0.00027706885436196594 0 0.031896648418025461 0.00033445132637093179 0 0.030824036364008767 0.00057733516704657492 0 0.030783315446436182 0.00067889056967141651 0 0.03092732950448546 0.00055560235704289653 0 0.031896648418025461 0.00033445132637093179 0 0.031064756927753467 0.00082671530417525931 0 0.030824036364008767 0.00057733516704657492 0 0.030763630086544737 0.00067818395489971264 0 0.030783315446436182 0.00067889056967141651 0 0.030456373928984086 -0.0011017668930612074 0 0.031037689842904535 -0.00091737073767085065 0 0.031492131604759124 -0.0013004236484072374 0 0.030896751686811712 -0.00043650165029307048 0 0.030456373928984086 -0.0011017668930612074 0 0.031037689842904535 -0.00091737073767085065 0 0.032317081755897488 -0.00027706885436196594 0 0.033473824535920821 -0.0012703456075734037 0 0.031201714478623868 -0.00063033757532592407 0 0.031037689842904535 -0.00091737073767085065 0 0.031395651480981675 -0.00085986664225452065 0 0.030896751686811712 -0.00043650165029307048 0 0.031201714478623868 -0.00063033757532592407 0 0.031037689842904535 -0.00091737073767085065 0 0.031037689842904535 -0.00091737073767085065 0 0.031492131604759124 -0.0013004236484072374 0 0.031395651480981675 -0.00085986664225452065 0 0.03345855253810967 -0.00014754242677426528 0 0.035489744407994052 -0.00033143226299198918 0 0.035726937371549534 -0.00098958221206410361 0 0.035318787438424162 -0.00039461174727553459 0 0.035124357211904496 -0.0010198385874320964 0 0.03571484240218694 -0.0010397624350782506 0 0.035726937371549534 -0.00098958221206410361 0 0.035124357211904496 -0.0010198385874320964 0 0.03493757294463893 7.6032603164616743e-05 0 0.034954479903553874 5.2830855579638259e-05 0 0.034932404827145998 4.3956775736675759e-05 0 0.03345855253810967 -0.00014754242677426528 0 0.034998966585713512 5.9555235996495378e-05 0 0.034961603616380489 3.6520271829085773e-05 0 0.03497527836692229 1.748568982659714e-05 0 0.034998074702927547 1.1980120308902649e-05 0 0.031344593166578082 0.00069639329778620185 0 0.031316338128267215 0.00073307079026605718 0 0.031472969728241124 0.00083443814811692265 0 0.034998966585713512 5.9555235996495378e-05 0 0.034978749424918777 4.0653754510893468e-06 0 0.034954479903553874 5.2830855579638259e-05 0 0.034944959030887526 4.3183096360634373e-05 0 0.034932404827145998 4.3956775736675759e-05 0 0.034987574815173186 1.1898288390880047e-05 0 0.03497527836692229 1.748568982659714e-05 0 0.034985764378091241 1.1647898029009894e-05 0 0.034960113208014058 3.2411643044691068e-05 0 0.034954479903553874 5.2830855579638259e-05 0 0.034985764378091241 1.1647898029009894e-05 0 0.034960113208014058 3.2411643044691068e-05 0 0.034954479903553874 5.2830855579638259e-05 0 0.034944959030887526 4.3183096360634373e-05 0 0.034960113208014058 3.2411643044691068e-05 0 0.034953057003622078 1.9433149310257824e-05 0 0.034944959030887526 4.3183096360634373e-05 0 0.034987574815173186 1.1898288390880047e-05 0 0.03497527836692229 1.748568982659714e-05 0 0.034998074702927547 1.1980120308902649e-05 0 0.034987574815173186 1.1898288390880047e-05 0 0.034998074702927547 1.1980120308902649e-05 0 0.034997159381355766 5.2269136296747313e-06 0 0.034998074702927547 1.1980120308902649e-05 0 0.034997159381355766 5.2269136296747313e-06 0 0.035000007017199665 -1.1830363768555332e-08 0 0.035000010064324044 1.9159686387298331e-08 0 0.034997159381355766 5.2269136296747313e-06 0 0.034999924089715494 -3.8892467466846399e-08 0 0.035000010064324044 1.9159686387298331e-08 0 0.034997159381355766 5.2269136296747313e-06 0 0.035000007017199665 -1.1830363768555332e-08 0 0.034997159381355766 5.2269136296747313e-06 0 0.034999924089715494 -3.8892467466846399e-08 0 0.034985764378091241 1.1647898029009894e-05 0 0.034999924089715494 -3.8892467466846399e-08 0 0.034985764378091241 1.1647898029009894e-05 0 0.034953057003622078 1.9433149310257824e-05 0 0.034960113208014058 3.2411643044691068e-05 0 0.034985764378091241 1.1647898029009894e-05 0 0.034953057003622078 1.9433149310257824e-05 0 0.034987574815173186 1.1898288390880047e-05 0 0.034997159381355766 5.2269136296747313e-06 0 0.034985764378091241 1.1647898029009894e-05 0 0.034970404244682576 -1.3314750337712305e-05 0 0.034681211175989421 -0.00039813483622852763 0 0.034642538081693194 -0.00027572366050852436 0 0.034970404244682576 -1.3314750337712305e-05 0 0.034642538081693194 -0.00027572366050852436 0 0.034447057805705311 -0.00022009043164068596 0 0.035489744407994052 -0.00033143226299198918 0 0.034999623553515317 3.2747068477342801e-07 0 0.034970404244682576 -1.3314750337712305e-05 0 0.034999293342011129 6.0462313600753988e-08 0 0.034838423720293631 -0.00037660788946780203 0 0.035318787438424162 -0.00039461174727553459 0 0.034999293342011129 6.0462313600753988e-08 0 0.034838423720293631 -0.00037660788946780203 0 0.035318787438424162 -0.00039461174727553459 0 0.034838423720293631 -0.00037660788946780203 0 0.035124357211904496 -0.0010198385874320964 0 0.034970404244682576 -1.3314750337712305e-05 0 0.034838423720293631 -0.00037660788946780203 0 0.034681211175989421 -0.00039813483622852763 0 0.034838423720293631 -0.00037660788946780203 0 0.034681211175989421 -0.00039813483622852763 0 0.034546455839125703 -0.00059572390701002691 0 0.034681211175989421 -0.00039813483622852763 0 0.034642538081693194 -0.00027572366050852436 0 0.034488018435183919 -0.00042936886596790802 0 0.034681211175989421 -0.00039813483622852763 0 0.034511612142044734 -0.00054818988767366486 0 0.034546455839125703 -0.00059572390701002691 0 0.034681211175989421 -0.00039813483622852763 0 0.034511612142044734 -0.00054818988767366486 0 0.034488018435183919 -0.00042936886596790802 0 0.034414803871334089 -0.00077241505335183774 0 0.033759574826260866 -0.00066573695438925903 0 0.034838423720293631 -0.00037660788946780203 0 0.034546455839125703 -0.00059572390701002691 0 0.034466537317791937 -0.00077306090070260289 0 0.033473824535920821 -0.0012703456075734037 0 0.032923222099680377 -0.0010908261155654247 0 0.034466537317791937 -0.00077306090070260289 0 0.035124357211904496 -0.0010198385874320964 0 0.033027555679310018 -0.0011251419172923921 0 0.034546455839125703 -0.00059572390701002691 0 0.034466537317791937 -0.00077306090070260289 0 0.03448098473266497 -0.00061688205577750113 0 0.031492131604759124 -0.0013004236484072374 0 0.032190784717915422 -0.0010829343856743696 0 0.033027555679310018 -0.0011251419172923921 0 0.034466537317791937 -0.00077306090070260289 0 0.033027555679310018 -0.0011251419172923921 0 0.033006220014799012 -0.00071779216711001005 0 0.034511612142044734 -0.00054818988767366486 0 0.034546455839125703 -0.00059572390701002691 0 0.03448098473266497 -0.00061688205577750113 0 0.032766155101598915 -0.0010180897289231723 0 0.032190784717915422 -0.0010829343856743696 0 0.033027555679310018 -0.0011251419172923921 0 0.034838423720293631 -0.00037660788946780203 0 0.034466537317791937 -0.00077306090070260289 0 0.035124357211904496 -0.0010198385874320964 0 0.031492131604759124 -0.0013004236484072374 0 0.031762531794315922 -0.00092394339256102957 0 0.031395651480981675 -0.00085986664225452065 0 0.031492131604759124 -0.0013004236484072374 0 0.031762531794315922 -0.00092394339256102957 0 0.032190784717915422 -0.0010829343856743696 0 0.031762531794315922 -0.00092394339256102957 0 0.031920286275520363 -0.00068797616448647617 0 0.032190784717915422 -0.0010829343856743696 0 0.031515729552915345 -0.00058547921533223498 0 0.031762531794315922 -0.00092394339256102957 0 0.031920286275520363 -0.00068797616448647617 0 0.031515729552915345 -0.00058547921533223498 0 0.031201714478623868 -0.00063033757532592407 0 0.031395651480981675 -0.00085986664225452065 0 0.031515729552915345 -0.00058547921533223498 0 0.031762531794315922 -0.00092394339256102957 0 0.031395651480981675 -0.00085986664225452065 0 0.032766155101598915 -0.0010180897289231723 0 0.032773917588825287 -0.00070214060902411746 0 0.03290640547763065 -0.0011141046880233424 0 0.032766155101598915 -0.0010180897289231723 0 0.032190784717915422 -0.0010829343856743696 0 0.032773917588825287 -0.00070214060902411746 0 0.032334884301843454 -0.00072839565051026139 0 0.030790866984836986 -0.0002528210982420521 0 0.031920286275520363 -0.00068797616448647617 0 0.032190784717915422 -0.0010829343856743696 0 0.032447359195619564 -0.00074147940659026121 0 0.034970404244682576 -1.3314750337712305e-05 0 0.034999293342011129 6.0462313600753988e-08 0 0.035000048624979012 -4.1398222689811035e-08 0 0.033157022141317598 -0.0014075833009730371 0 0.032435014136697887 -0.0014410667457068322 0 0.03290640547763065 -0.0011141046880233424 0 0.034970404244682576 -1.3314750337712305e-05 0 0.034983809342118713 -1.0689770369251969e-05 0 0.035000048624979012 -4.1398222689811035e-08 0 0.032435014136697887 -0.0014410667457068322 0 0.03290640547763065 -0.0011141046880233424 0 0.032587987674356202 -0.0009605408825112884 0 0.032766155101598915 -0.0010180897289231723 0 0.03290640547763065 -0.0011141046880233424 0 0.033027555679310018 -0.0011251419172923921 0 0.030790866984836986 -0.0002528210982420521 0 0.032677829104995879 -0.0014719302494509165 0 0.032435014136697887 -0.0014410667457068322 0 0.032587987674356202 -0.0009605408825112884 0 0.03173920846752834 -0.001282843322905874 0 0.032435014136697887 -0.0014410667457068322 0 0.03173920846752834 -0.001282843322905874 0 0.031830366537503055 -0.0018517814942012371 0 0.032365528504747859 -0.00056557094664581463 0 0.032587987674356202 -0.0009605408825112884 0 0.03173920846752834 -0.001282843322905874 0 0.033419734808413086 -0.0004933058158624982 0 0.032895256544683935 -0.00050988213214979265 0 0.033558957847902235 -2.8269698572539343e-05 0 0.033902694897659361 0.00011802655639622744 0 0.033806516842577614 0.00030979434926248364 0 0.032365528504747859 -0.00056557094664581463 0 0.032587987674356202 -0.0009605408825112884 0 0.033006220014799012 -0.00071779216711001005 0 0.034181832912935202 -0.00059513824942994745 0 0.03448098473266497 -0.00061688205577750113 0 0.034423869084554977 -0.00054625712198338409 0 0.033419734808413086 -0.0004933058158624982 0 0.033759574826260866 -0.00066573695438925903 0 0.03290640547763065 -0.0011141046880233424 0 0.033027555679310018 -0.0011251419172923921 0 0.032587987674356202 -0.0009605408825112884 0 0.033027555679310018 -0.0011251419172923921 0 0.032587987674356202 -0.0009605408825112884 0 0.033006220014799012 -0.00071779216711001005 0 0.034511612142044734 -0.00054818988767366486 0 0.03448098473266497 -0.00061688205577750113 0 0.034423869084554977 -0.00054625712198338409 0 0.034181832912935202 -0.00059513824942994745 0 0.034488018435183919 -0.00042936886596790802 0 0.034447057805705311 -0.00022009043164068596 0 0.034181832912935202 -0.00059513824942994745 0 0.034423869084554977 -0.00054625712198338409 0 0.034488018435183919 -0.00042936886596790802 0 0.033419734808413086 -0.0004933058158624982 0 0.034587322316060889 -0.00022902629465950734 0 0.034511612142044734 -0.00054818988767366486 0 0.034423869084554977 -0.00054625712198338409 0 0.034488018435183919 -0.00042936886596790802 0 0.034015211146199056 -0.00072978083301068384 0 0.034108933108609671 -0.00027883071518876529 0 0.034447057805705311 -0.00022009043164068596 0 0.034642538081693194 -0.00027572366050852436 0 0.034488018435183919 -0.00042936886596790802 0 0.034447057805705311 -0.00022009043164068596 0 0.034554304725181444 -0.0001677300355772572 0 0.034172838575315528 -0.00020855363161504517 0 0.034015211146199056 -0.00072978083301068384 0 0.034108933108609671 -0.00027883071518876529 0 0.033421855618094208 -0.00061346243922000255 0 0.033419734808413086 -0.0004933058158624982 0 0.034172838575315528 -0.00020855363161504517 0 0.034939954747907925 -9.7711698039130604e-06 0 0.034554304725181444 -0.0001677300355772572 0 0.034970404244682576 -1.3314750337712305e-05 0 0.034108933108609671 -0.00027883071518876529 0 0.034447057805705311 -0.00022009043164068596 0 0.034983809342118713 -1.0689770369251969e-05 0 0.035000048624979012 -4.1398222689811035e-08 0 0.034985105764592829 -3.4368095068028591e-05 0 0.034172838575315528 -0.00020855363161504517 0 0.03470693800598481 -7.2940678068454144e-05 0 0.035000048624979012 -4.1398222689811035e-08 0 0.034985105764592829 -3.4368095068028591e-05 0 0.034951231847580658 -5.3742552243716896e-05 0 0.033979480586534182 -6.5764148880546552e-05 0 0.034342674029617597 -0.00012410374083117917 0 0.034247002360224037 6.5383156627155074e-05 0 0.034172838575315528 -0.00020855363161504517 0 0.034171551178962534 3.5469251584088024e-05 0 0.034247002360224037 6.5383156627155074e-05 0 0.034074334615854476 0.0002438212666190159 0 0.034454524001816492 0.00026253126406229258 0 0.034247002360224037 6.5383156627155074e-05 0 0.033902694897659361 0.00011802655639622744 0 0.034074334615854476 0.0002438212666190159 0 0.033942704196839354 -9.7865752778192631e-05 0 0.034247002360224037 6.5383156627155074e-05 0 0.033902694897659361 0.00011802655639622744 0 0.033558957847902235 -2.8269698572539343e-05 0 0.033942704196839354 -9.7865752778192631e-05 0 0.033902694897659361 0.00011802655639622744 0 0.033806516842577614 0.00030979434926248364 0 0.034074334615854476 0.0002438212666190159 0 0.033993493984662317 0.00059348753196047542 0 0.033902694897659361 0.00011802655639622744 0 0.033806516842577614 0.00030979434926248364 0 0.034074334615854476 0.0002438212666190159 0 0.034716384538165251 0.00055957764896864457 0 0.0310426807315013 -0.00020145673968542001 0 0.034074334615854476 0.0002438212666190159 0 0.034191961607160135 0.00049270304837650619 0 0.034454524001816492 0.00026253126406229258 0 0.034191961607160135 0.00049270304837650619 0 0.034029625739162572 0.00076489824545514543 0 0.034434930333908362 0.00055205332320285212 0 0.034191961607160135 0.00049270304837650619 0 0.033964648001251603 0.00063746912225447466 0 0.034029625739162572 0.00076489824545514543 0 0.034074334615854476 0.0002438212666190159 0 0.034191961607160135 0.00049270304837650619 0 0.033964648001251603 0.00063746912225447466 0 0.027037841235533155 -0.0010143024169745774 0 0.026137724498617641 -0.0022827046108485163 0 0.027174121493540777 -0.0029206413252910804 0 0.0310426807315013 -0.00020145673968542001 0 0.025239630957711416 -0.0022614719872387098 0 0.025239630957711416 -0.0022614719872387098 0 0.023561736707709672 -0.0036976063950140445 0 0.025239630957711416 -0.0022614719872387098 0 0.02187478843425757 -0.0044952309971790644 0 0.017692798116120335 -0.0035322506890005136 0 0.017879388111251119 -0.0034497181434206083 0 0.017781015695003788 -0.0036958887753885308 0 0.01768949393840594 -0.0033289076871693191 0 0.017692798116120335 -0.0035322506890005136 0 0.017533245863198585 -0.0035025161472312773 0 0.01768949393840594 -0.0033289076871693191 0 0.017692798116120335 -0.0035322506890005136 0 0.017879388111251119 -0.0034497181434206083 0 0.017692798116120335 -0.0035322506890005136 0 0.017533245863198585 -0.0035025161472312773 0 0.017619711206828058 -0.0035865989608083052 0 0.01735673455465167 -0.0036115217036326482 0 0.017581025779846066 -0.0035011978737974759 0 0.017533245863198585 -0.0035025161472312773 0 0.017581025779846066 -0.0035011978737974759 0 0.017603399983430374 -0.0036346083891276256 0 0.017619711206828058 -0.0035865989608083052 0 0.017581025779846066 -0.0035011978737974759 0 0.017533245863198585 -0.0035025161472312773 0 0.017619711206828058 -0.0035865989608083052 0 0.031476444695258725 -0.002891820475102579 0 0.031049352480985757 -0.0026247979385562513 0 0.031560474967428434 -0.0023132525260433916 0 0.024226151800139747 -0.0024854850824865124 0 0.023561736707709672 -0.0036976063950140445 0 0.01780124046136649 -0.0059760053599928449 0 0.018103528939780185 -0.006174561428732718 0 0.017942705563821115 -0.005819315958281915 0 0.0310426807315013 -0.00020145673968542001 0 0.023561736707709672 -0.0036976063950140445 0 0.031040498889506812 -0.0021033682218440509 0 0.031049352480985757 -0.0026247979385562513 0 0.031560474967428434 -0.0023132525260433916 0 0.032895256544683935 -0.00050988213214979265 0 0.0310426807315013 -0.00020145673968542001 0 0.031040498889506812 -0.0021033682218440509 0 0.031560474967428434 -0.0023132525260433916 0 0.031830366537503055 -0.0018517814942012371 0 0.03173920846752834 -0.001282843322905874 0 0.031040498889506812 -0.0021033682218440509 0 0.031830366537503055 -0.0018517814942012371 0 0.032435014136697887 -0.0014410667457068322 0 0.032350134668306128 -0.0021372577944608964 0 0.031830366537503055 -0.0018517814942012371 0 0.031560474967428434 -0.0023132525260433916 0 0.032350134668306128 -0.0021372577944608964 0 0.031830366537503055 -0.0018517814942012371 0 0.033157022141317598 -0.0014075833009730371 0 0.032435014136697887 -0.0014410667457068322 0 0.032350134668306128 -0.0021372577944608964 0 0.027763907863168066 0.0016129498813426942 0 0.027825126935000576 0.0023997713593136307 0 0.026962727457972839 0.0016576735859788519 0 0.030790866984836986 -0.0002528210982420521 0 0.030474399962291419 0.00031517815834252702 0 0.027763907863168066 0.0016129498813426942 0 0.026962727457972839 0.0016576735859788519 0 0.027491630746916296 0.00089142750052705023 0 0.026962727457972839 0.0016576735859788519 0 0.027491630746916296 0.00089142750052705023 0 0.026828027151061151 0.00094762127677566852 0 0.026067850170605249 0.00085298382617083148 0 0.026962727457972839 0.0016576735859788519 0 0.026828027151061151 0.00094762127677566852 0 0.024226151800139747 -0.0024854850824865124 0 0.030474399962291419 0.00031517815834252702 0 0.031476444695258725 -0.002891820475102579 0 0.031560474967428434 -0.0023132525260433916 0 0.032350134668306128 -0.0021372577944608964 0 0.017696827143499169 -0.0060527887178696759 0 0.017468952522772013 -0.0055374548592943048 0 0.016818495115124333 -0.0056234902163893015 0 0.024226151800139747 -0.0024854850824865124 0 0.021466333854467608 -0.0025566483244401192 0 0.026067850170605249 0.00085298382617083148 0 0.026828027151061151 0.00094762127677566852 0 0.027025353832986067 0.00030802085089859155 0 0.027968869332037107 -0.00022637888726919744 0 0.027491630746916296 0.00089142750052705023 0 0.027025353832986067 0.00030802085089859155 0 0.027491630746916296 0.00089142750052705023 0 0.026828027151061151 0.00094762127677566852 0 0.027025353832986067 0.00030802085089859155 0 0.017201527221871422 -0.0049114412687516736 0 0.016455493104700403 -0.0048059260301182797 0 0.016818495115124333 -0.0056234902163893015 0 0.022065492887353724 -0.0028011700903570864 0 0.021466333854467608 -0.0025566483244401192 0 0.016455493104700403 -0.0048059260301182797 0 0.015952045488994981 -0.0052784732719799634 0 0.016818495115124333 -0.0056234902163893015 0 0.017201527221871422 -0.0049114412687516736 0 0.017468952522772013 -0.0055374548592943048 0 0.017619197924715543 -0.00514672828962377 0 0.017201527221871422 -0.0049114412687516736 0 0.017468952522772013 -0.0055374548592943048 0 0.016818495115124333 -0.0056234902163893015 0 0.017824932168330056 -0.0046262211866382099 0 0.017201527221871422 -0.0049114412687516736 0 0.017619197924715543 -0.00514672828962377 0 0.017895949422548654 -0.0045733097849128069 0 0.017632383220789163 -0.0049024191836749666 0 0.017824932168330056 -0.0046262211866382099 0 0.017619197924715543 -0.00514672828962377 0 0.017990616950120542 -0.0055464448050686829 0 0.017468952522772013 -0.0055374548592943048 0 0.017619197924715543 -0.00514672828962377 0 0.017990616950120542 -0.0055464448050686829 0 0.017824932168330056 -0.0046262211866382099 0 0.017680454866077056 -0.0042692210779187644 0 0.017948905477734586 -0.0039419699771753537 0 0.017680454866077056 -0.0042692210779187644 0 0.017682545677660318 -0.0038773689072854407 0 0.017385359858997879 -0.0039784860468079037 0 0.017680454866077056 -0.0042692210779187644 0 0.017682545677660318 -0.0038773689072854407 0 0.017948905477734586 -0.0039419699771753537 0 0.017682545677660318 -0.0038773689072854407 0 0.017781015695003788 -0.0036958887753885308 0 0.017948905477734586 -0.0039419699771753537 0 0.017879388111251119 -0.0034497181434206083 0 0.017781015695003788 -0.0036958887753885308 0 0.017948905477734586 -0.0039419699771753537 0 0.017682545677660318 -0.0038773689072854407 0 0.017665851756464037 -0.0037027189567657571 0 0.017781015695003788 -0.0036958887753885308 0 0.017682545677660318 -0.0038773689072854407 0 0.017603399983430374 -0.0036346083891276256 0 0.017385359858997879 -0.0039784860468079037 0 0.017682545677660318 -0.0038773689072854407 0 0.017603399983430374 -0.0036346083891276256 0 0.017665851756464037 -0.0037027189567657571 0 0.017603399983430374 -0.0036346083891276256 0 0.017665851756464037 -0.0037027189567657571 0 0.017619711206828058 -0.0035865989608083052 0 0.017692798116120335 -0.0035322506890005136 0 0.017619711206828058 -0.0035865989608083052 0 0.017781015695003788 -0.0036958887753885308 0 0.017665851756464037 -0.0037027189567657571 0 0.017619711206828058 -0.0035865989608083052 0 0.017781015695003788 -0.0036958887753885308 0 0.023561736707709672 -0.0036976063950140445 0 0.017632383220789163 -0.0049024191836749666 0 0.018103528939780185 -0.006174561428732718 0 0.017942705563821115 -0.005819315958281915 0 0.017990616950120542 -0.0055464448050686829 0 0.024226151800139747 -0.0024854850824865124 0 0.018506197399112568 -0.0065424135620909419 0 0.017696827143499169 -0.0060527887178696759 0 0.017468952522772013 -0.0055374548592943048 0 0.017942705563821115 -0.005819315958281915 0 0.017468952522772013 -0.0055374548592943048 0 0.017942705563821115 -0.005819315958281915 0 0.017990616950120542 -0.0055464448050686829 0 0.019870208476975477 -0.0022784315163260579 0 0.018255167531939353 -0.0029650927610494634 0 0.019223159636465474 -0.003274202241545828 0 0.018984166985970205 -0.00089788576889796219 0 0.019870208476975477 -0.0022784315163260579 0 0.018255167531939353 -0.0029650927610494634 0 0.017759386437600645 -0.0021917355777655127 0 0.017993366752979155 -0.0014752392292958669 0 0.018255167531939353 -0.0029650927610494634 0 0.018386448513688865 -0.0012254419208829932 0 0.018230689160864556 -0.0028746322744157087 0 0.017759386437600645 -0.0021917355777655127 0 0.018255167531939353 -0.0029650927610494634 0 0.017676992639256539 -0.0033466745821949485 0 0.017293688603998575 -0.0029667922247762057 0 0.017567639569780528 -0.0032916945862121192 0 0.017603399983430374 -0.0036346083891276256 0 0.017385359858997879 -0.0039784860468079037 0 0.017676992639256539 -0.0033466745821949485 0 0.017759386437600645 -0.0021917355777655127 0 0.017085203965344055 -0.0018061660928938212 0 0.017676992639256539 -0.0033466745821949485 0 0.017520614913093452 -0.0045263762844105432 0 0.017680454866077056 -0.0042692210779187644 0 0.017385359858997879 -0.0039784860468079037 0 0.017284803091777812 -0.0010454978242017258 0 0.016859998291900664 -0.00077966562803443145 0 0.017085203965344055 -0.0018061660928938212 0 0.017759386437600645 -0.0021917355777655127 0 0.017558961859705464 -0.0015646663180537816 0 0.017085203965344055 -0.0018061660928938212 0 0.01722773564732507 -0.002316195048263399 0 0.017293688603998575 -0.0029667922247762057 0 0.017284803091777812 -0.0010454978242017258 0 0.017558961859705464 -0.0015646663180537816 0 0.017085203965344055 -0.0018061660928938212 0 0.017284803091777812 -0.0010454978242017258 0 0.017558961859705464 -0.0015646663180537816 0 0.017993366752979155 -0.0014752392292958669 0 0.017759386437600645 -0.0021917355777655127 0 0.017558961859705464 -0.0015646663180537816 0 0.017993366752979155 -0.0014752392292958669 0 0.018984166985970205 -0.00089788576889796219 0 0.020750943705679842 -0.00056261707504528255 0 0.019870208476975477 -0.0022784315163260579 0 0.026135884499110841 -0.00042438600368058379 0 0.02620183698724364 -0.00046741984410391199 0 0.026191922234300218 -0.00053819532112306552 0 0.023824192086637851 -0.00059684763787196452 0 0.023832307757429037 -0.001374613496642298 0 0.026135884499110841 -0.00042438600368058379 0 0.026213941558071469 -0.00042023393776022917 0 0.02620183698724364 -0.00046741984410391199 0 0.020750943705679842 -0.00056261707504528255 0 0.02183337455935927 -0.0021218006858552615 0 0.019870208476975477 -0.0022784315163260579 0 0.02183337455935927 -0.0021218006858552615 0 0.019870208476975477 -0.0022784315163260579 0 0.020432689552374466 -0.0037167944767476369 0 0.019870208476975477 -0.0022784315163260579 0 0.020432689552374466 -0.0037167944767476369 0 0.019223159636465474 -0.003274202241545828 0 0.020432689552374466 -0.0037167944767476369 0 0.019033191098022467 -0.0040079989947738948 0 0.019223159636465474 -0.003274202241545828 0 0.02183337455935927 -0.0021218006858552615 0 0.020432689552374466 -0.0037167944767476369 0 0.022910863664941637 -0.0036072279419975136 0 0.020432689552374466 -0.0037167944767476369 0 0.021559128142170206 -0.0050756999128911736 0 0.022910863664941637 -0.0036072279419975136 0 0.020432689552374466 -0.0037167944767476369 0 0.019033191098022467 -0.0040079989947738948 0 0.019755493490539098 -0.0056778066877083526 0 0.020432689552374466 -0.0037167944767476369 0 0.021559128142170206 -0.0050756999128911736 0 0.019755493490539098 -0.0056778066877083526 0 0.019033191098022467 -0.0040079989947738948 0 0.018008971785235889 -0.0044810836205212458 0 0.019755493490539098 -0.0056778066877083526 0 0.026304649809638897 -0.0018809787618952651 0 0.027254310970339698 -0.0026739073511250402 0 0.019033191098022467 -0.0040079989947738948 0 0.018414594876861527 -0.0036145853491975767 0 0.018008971785235889 -0.0044810836205212458 0 0.019033191098022467 -0.0040079989947738948 0 0.018414594876861527 -0.0036145853491975767 0 0.019223159636465474 -0.003274202241545828 0 0.018414594876861527 -0.0036145853491975767 0 0.018255167531939353 -0.0029650927610494634 0 0.019223159636465474 -0.003274202241545828 0 0.018414594876861527 -0.0036145853491975767 0 0.017676992639256539 -0.0033466745821949485 0 0.018008971785235889 -0.0044810836205212458 0 0.017581025779846066 -0.0035011978737974759 0 0.017676992639256539 -0.0033466745821949485 0 0.018008971785235889 -0.0044810836205212458 0 0.01735673455465167 -0.0036115217036326482 0 0.017581025779846066 -0.0035011978737974759 0 0.018008971785235889 -0.0044810836205212458 0 0.017581025779846066 -0.0035011978737974759 0 0.017603399983430374 -0.0036346083891276256 0 0.017676992639256539 -0.0033466745821949485 0 0.018414594876861527 -0.0036145853491975767 0 0.018255167531939353 -0.0029650927610494634 0 0.017676992639256539 -0.0033466745821949485 0 0.025239630957711416 -0.0022614719872387098 0 0.026304649809638897 -0.0018809787618952651 0 0.034191961607160135 0.00049270304837650619 0 0.034434930333908362 0.00055205332320285212 0 0.034454524001816492 0.00026253126406229258 0 0.034434930333908362 0.00055205332320285212 0 0.034454524001816492 0.00026253126406229258 0 0.034787785305682432 0.00029732699361962288 0 0.034454524001816492 0.00026253126406229258 0 0.034786880341772339 0.00011493154608294524 0 0.034787785305682432 0.00029732699361962288 0 0.034786880341772339 0.00011493154608294524 0 0.034540947227536957 7.0177559021052663e-05 0 0.03486058890093556 -4.6085934226228201e-05 0 0.034454524001816492 0.00026253126406229258 0 0.034786880341772339 0.00011493154608294524 0 0.034540947227536957 7.0177559021052663e-05 0 0.034247002360224037 6.5383156627155074e-05 0 0.034454524001816492 0.00026253126406229258 0 0.034540947227536957 7.0177559021052663e-05 0 0.034342674029617597 -0.00012410374083117917 0 0.034247002360224037 6.5383156627155074e-05 0 0.034540947227536957 7.0177559021052663e-05 0 0.034342674029617597 -0.00012410374083117917 0 0.034540947227536957 7.0177559021052663e-05 0 0.03486058890093556 -4.6085934226228201e-05 0 0.035000048624979012 -4.1398222689811035e-08 0 0.03486058890093556 -4.6085934226228201e-05 0 0.034999643171263015 -5.2295318487481988e-08 0 0.03470693800598481 -7.2940678068454144e-05 0 0.034805911405319259 -5.9714573648848812e-05 0 0.034786880341772339 0.00011493154608294524 0 0.03486058890093556 -4.6085934226228201e-05 0 0.034904921423568498 2.3709642463469499e-05 0 0.035000048624979012 -4.1398222689811035e-08 0 0.034951231847580658 -5.3742552243716896e-05 0 0.03486058890093556 -4.6085934226228201e-05 0 0.03486058890093556 -4.6085934226228201e-05 0 0.034999643171263015 -5.2295318487481988e-08 0 0.034904921423568498 2.3709642463469499e-05 0 0.034999643171263015 -5.2295318487481988e-08 0 0.034904921423568498 2.3709642463469499e-05 0 0.034957897874017763 2.7336562715439851e-05 0 0.034999643171263015 -5.2295318487481988e-08 0 0.034957897874017763 2.7336562715439851e-05 0 0.034965682330663987 1.6004668991616205e-05 0 0.034904921423568498 2.3709642463469499e-05 0 0.034957897874017763 2.7336562715439851e-05 0 0.034939122176660529 9.7159296545531481e-05 0 0.034786880341772339 0.00011493154608294524 0 0.034904921423568498 2.3709642463469499e-05 0 0.034939122176660529 9.7159296545531481e-05 0 0.034786880341772339 0.00011493154608294524 0 0.034939122176660529 9.7159296545531481e-05 0 0.034787785305682432 0.00029732699361962288 0 0.028253871433056837 -0.0034169122591626859 0 0.027254310970339698 -0.0026739073511250402 0 0.021559128142170206 -0.0050756999128911736 0 0.021582149129616795 -0.0066992076872565221 0 0.019755493490539098 -0.0056778066877083526 0 0.021559128142170206 -0.0050756999128911736 0 0.021582149129616795 -0.0066992076872565221 0 0.023108926956702434 -0.0056610247905672408 0 0.034999643171263015 -5.2295318487481988e-08 0 0.035000105972132475 3.8456219482299711e-08 0 0.034986616910958765 4.7149577181350652e-06 0 0.029337322357682733 0.00018446198194838268 0 0.030764257650962475 3.1151654489149604e-05 0 0.029549210010798858 0.00022011597562387908 0 0.029337322357682733 0.00018446198194838268 0 0.029924027576172782 -0.00045134907974571722 0 0.030764257650962475 3.1151654489149604e-05 0 0.034957897874017763 2.7336562715439851e-05 0 0.034939122176660529 9.7159296545531481e-05 0 0.034964200100587622 1.6787151154208589e-05 0 0.025846903651582556 -0.0030412825637246938 0 0.02938808908200129 -0.002856383378387649 0 0.028253871433056837 -0.0034169122591626859 0 0.02938808908200129 -0.002856383378387649 0 0.021582149129616795 -0.0066992076872565221 0 0.023108926956702434 -0.0056610247905672408 0 0.023345497429538887 -0.0076706520354532818 0 0.034957897874017763 2.7336562715439851e-05 0 0.034965682330663987 1.6004668991616205e-05 0 0.034964200100587622 1.6787151154208589e-05 0 0.034999643171263015 -5.2295318487481988e-08 0 0.034965682330663987 1.6004668991616205e-05 0 0.034986616910958765 4.7149577181350652e-06 0 0.029523623117697771 -0.0025977965115001923 0 0.02938808908200129 -0.002856383378387649 0 0.029924027576172782 -0.00045134907974571722 0 0.031633602558133245 -0.00067108640309534887 0 0.030764257650962475 3.1151654489149604e-05 0 0.034965682330663987 1.6004668991616205e-05 0 0.034962996912030982 1.6009833222076806e-05 0 0.034986616910958765 4.7149577181350652e-06 0 0.02938808908200129 -0.002856383378387649 0 0.033755583884609759 4.1535506689791884e-05 0 0.034996868533273551 -2.3196726593933778e-06 0 0.031633602558133245 -0.00067108640309534887 0 0.033097944450103216 2.5734402777015994e-07 0 0.034998661672074743 -2.8296325480038431e-08 0 0.033755583884609759 4.1535506689791884e-05 0 0.031633602558133245 -0.00067108640309534887 0 0.033097944450103216 2.5734402777015994e-07 0 0.030764257650962475 3.1151654489149604e-05 0 0.033097944450103216 2.5734402777015994e-07 0 0.030764257650962475 3.1151654489149604e-05 0 0.031274518332982906 2.7486779901990536e-07 0 0.030764257650962475 3.1151654489149604e-05 0 0.031274518332982906 2.7486779901990536e-07 0 0.029549210010798858 0.00022011597562387908 0 0.031274518332982906 2.7486779901990536e-07 0 0.029451865239732755 3.6114272476165097e-07 0 0.029549210010798858 0.00022011597562387908 0 0.029451865239732755 3.6114272476165097e-07 0 0.028467797193794768 0.00020144461440452664 0 0.027628805971489846 5.0483850419943236e-07 0 0.029451865239732755 3.6114272476165097e-07 0 0.028467797193794768 0.00020144461440452664 0 0.029549210010798858 0.00022011597562387908 0 0.028467797193794768 0.00020144461440452664 0 0.029549210010798858 0.00022011597562387908 0 0.028632813215046678 0.00028357720017917014 0 0.028467797193794768 0.00020144461440452664 0 0.028632813215046678 0.00028357720017917014 0 0.028050386824893005 0.00028872401190802331 0 0.029549210010798858 0.00022011597562387908 0 0.028858965409517292 0.00028267663681364185 0 0.028632813215046678 0.00028357720017917014 0 0.029337322357682733 0.00018446198194838268 0 0.029549210010798858 0.00022011597562387908 0 0.028858965409517292 0.00028267663681364185 0 0.029337322357682733 0.00018446198194838268 0 0.028858965409517292 0.00028267663681364185 0 0.028473724586398602 0.00029544631471759041 0 0.025846903651582556 -0.0030412825637246938 0 0.026097260330795447 -0.0011430283161502242 0 0.021559128142170206 -0.0050756999128911736 0 0.023108926956702434 -0.0056610247905672408 0 0.022910863664941637 -0.0036072279419975136 0 0.023832307757429037 -0.001374613496642298 0 0.026097260330795447 -0.0011430283161502242 0 0.028473724586398602 0.00029544631471759041 0 0.028306823913048302 0.0003091760147731181 0 0.027945255361887529 0.00032131151516058001 0 0.028858965409517292 0.00028267663681364185 0 0.028632813215046678 0.00028357720017917014 0 0.028547500367355937 0.00029373849858920664 0 0.028858965409517292 0.00028267663681364185 0 0.028473724586398602 0.00029544631471759041 0 0.028547500367355937 0.00029373849858920664 0 0.028473724586398602 0.00029544631471759041 0 0.028547500367355937 0.00029373849858920664 0 0.028306823913048302 0.0003091760147731181 0 0.028632813215046678 0.00028357720017917014 0 0.028547500367355937 0.00029373849858920664 0 0.028306823913048302 0.0003091760147731181 0 0.028632813215046678 0.00028357720017917014 0 0.028306823913048302 0.0003091760147731181 0 0.028050386824893005 0.00028872401190802331 0 0.028306823913048302 0.0003091760147731181 0 0.027945255361887529 0.00032131151516058001 0 0.028050386824893005 0.00028872401190802331 0 0.027945255361887529 0.00032131151516058001 0 0.027512400760137157 0.00033952220561983413 0 0.02751239143193043 0.00031790465363702085 0 0.027945255361887529 0.00032131151516058001 0 0.02751239143193043 0.00031790465363702085 0 0.028050386824893005 0.00028872401190802331 0 0.028473724586398602 0.00029544631471759041 0 0.027945255361887529 0.00032131151516058001 0 0.027512400760137157 0.00033952220561983413 0 0.026097260330795447 -0.0011430283161502242 0 0.027039473939582115 0.00017915392743427094 0 0.026191922234300218 -0.00053819532112306552 0 0.026276610590360308 -0.0006751829407372125 0 0.026268307513208935 -0.000487748066925151 0 0.02620183698724364 -0.00046741984410391199 0 0.026191922234300218 -0.00053819532112306552 0 0.026268307513208935 -0.000487748066925151 0 0.026263188305918349 -0.00035378168307494237 0 0.026213941558071469 -0.00042023393776022917 0 0.026268307513208935 -0.000487748066925151 0 0.026977020606947795 0.00030440121201174382 0 0.026761441876405785 0.00028049829785614194 0 0.027512400760137157 0.00033952220561983413 0 0.026977020606947795 0.00030440121201174382 0 0.027512400760137157 0.00033952220561983413 0 0.027140477355636038 0.00032172924423589538 0 0.026499524721447485 -6.2871813183767937e-05 0 0.027039473939582115 0.00017915392743427094 0 0.026213941558071469 -0.00042023393776022917 0 0.02620183698724364 -0.00046741984410391199 0 0.026268307513208935 -0.000487748066925151 0 0.027512400760137157 0.00033952220561983413 0 0.02751239143193043 0.00031790465363702085 0 0.027140477355636038 0.00032172924423589538 0 0.02751239143193043 0.00031790465363702085 0 0.027140477355636038 0.00032172924423589538 0 0.026951360555406659 0.00030070058577135052 0 0.026559377145221059 0.00020620648220875026 0 0.026951360555406659 0.00030070058577135052 0 0.027495636698293469 0.00023501659829812925 0 0.02751239143193043 0.00031790465363702085 0 0.026951360555406659 0.00030070058577135052 0 0.027495636698293469 0.00023501659829812925 0 0.026559377145221059 0.00020620648220875026 0 0.027628805971489846 5.0483850419943236e-07 0 0.027495636698293469 0.00023501659829812925 0 0.0258060419440828 1.6070781928101622e-07 0 0.026559377145221059 0.00020620648220875026 0 0.027628805971489846 5.0483850419943236e-07 0 0.028467797193794768 0.00020144461440452664 0 0.027628805971489846 5.0483850419943236e-07 0 0.027495636698293469 0.00023501659829812925 0 0.02751239143193043 0.00031790465363702085 0 0.027495636698293469 0.00023501659829812925 0 0.028050386824893005 0.00028872401190802331 0 0.028467797193794768 0.00020144461440452664 0 0.027495636698293469 0.00023501659829812925 0 0.028050386824893005 0.00028872401190802331 0 0.032620705102535702 6.7762541060247867e-05 0 0.032964824181326929 -0.00013966834580435818 0 0.032813606362316526 -0.00012449920363427497 0 0.032691956431371856 -0.000131441374067321 0 0.032620705102535702 6.7762541060247867e-05 0 0.032813606362316526 -0.00012449920363427497 0 0.032691956431371856 -0.000131441374067321 0 0.032620152436403108 -0.0001977315321734534 0 0.032620705102535702 6.7762541060247867e-05 0 0.032620152436403108 -0.0001977315321734534 0 0.032620705102535702 6.7762541060247867e-05 0 0.032450112655423594 -0.00019037876301379388 0 0.032620705102535702 6.7762541060247867e-05 0 0.032011138643316436 -6.5209235352405213e-05 0 0.032450112655423594 -0.00019037876301379388 0 0.032620705102535702 6.7762541060247867e-05 0 0.032011138643316436 -6.5209235352405213e-05 0 0.031614934158449057 0.00074338221790163543 0 0.032011138643316436 -6.5209235352405213e-05 0 0.031614934158449057 0.00074338221790163543 0 0.031228432019592436 -0.00035439672547737857 0 0.031614934158449057 0.00074338221790163543 0 0.031228432019592436 -0.00035439672547737857 0 0.030510101372701222 0.00038752821533595089 0 0.033008869649595991 -2.2129658089372978e-07 0 0.033148579413695034 -0.00014029436169059252 0 0.033150641233564725 -0.00020130103200419154 0 0.031614934158449057 0.00074338221790163543 0 0.030181085510647208 0.0013009759058700242 0 0.030510101372701222 0.00038752821533595089 0 0.032253555890844519 0.00035890176097858539 0 0.031757036126377244 0.00057620760992292642 0 0.032620705102535702 6.7762541060247867e-05 0 0.033008869649595991 -2.2129658089372978e-07 0 0.032964824181326929 -0.00013966834580435818 0 0.032593130905140447 0.00013098463207210988 0 0.032253555890844519 0.00035890176097858539 0 0.033008869649595991 -2.2129658089372978e-07 0 0.032964824181326929 -0.00013966834580435818 0 0.033131373084753855 -0.00021558792501431113 0 0.032964824181326929 -0.00013966834580435818 0 0.033131373084753855 -0.00021558792501431113 0 0.033044954120178577 -0.00018483582839684561 0 0.033008869649595991 -2.2129658089372978e-07 0 0.033131373084753855 -0.00021558792501431113 0 0.033150641233564725 -0.00020130103200419154 0 0.033131373084753855 -0.00021558792501431113 0 0.033183639974262109 -0.00024280362222541091 0 0.033044954120178577 -0.00018483582839684561 0 0.033131373084753855 -0.00021558792501431113 0 0.033183639974262109 -0.00024280362222541091 0 0.033223263455652109 -0.00031202611878280485 0 0.033044954120178577 -0.00018483582839684561 0 0.032813606362316526 -0.00012449920363427497 0 0.032945121855402153 -0.00012019883689601019 0 0.032964824181326929 -0.00013966834580435818 0 0.033044954120178577 -0.00018483582839684561 0 0.032813606362316526 -0.00012449920363427497 0 0.032691956431371856 -0.000131441374067321 0 0.032813606362316526 -0.00012449920363427497 0 0.032890378423292087 -9.7415045922602948e-05 0 0.032813606362316526 -0.00012449920363427497 0 0.032890378423292087 -9.7415045922602948e-05 0 0.032945121855402153 -0.00012019883689601019 0 0.032890378423292087 -9.7415045922602948e-05 0 0.033171927126590478 -1.5994246034844766e-05 0 0.033018960976011508 -3.8841094722796436e-05 0 0.033171927126590478 -1.5994246034844766e-05 0 0.032901364287750007 -0.00010176581717177929 0 0.033161216331450638 -5.0582501683395237e-05 0 0.032890378423292087 -9.7415045922602948e-05 0 0.033171927126590478 -1.5994246034844766e-05 0 0.032901364287750007 -0.00010176581717177929 0 0.032901364287750007 -0.00010176581717177929 0 0.033161216331450638 -5.0582501683395237e-05 0 0.033027437271624507 -0.0001504215038240159 0 0.032691956431371856 -0.000131441374067321 0 0.032890378423292087 -9.7415045922602948e-05 0 0.032901364287750007 -0.00010176581717177929 0 0.033319323432746316 -7.1644855478361367e-06 0 0.033161216331450638 -5.0582501683395237e-05 0 0.033344665042113579 5.2538064361542521e-05 0 0.033171927126590478 -1.5994246034844766e-05 0 0.033161216331450638 -5.0582501683395237e-05 0 0.033344665042113579 5.2538064361542521e-05 0 0.033161216331450638 -5.0582501683395237e-05 0 0.033241093878683702 -0.00012363391546390881 0 0.033027437271624507 -0.0001504215038240159 0 0.033319323432746316 -7.1644855478361367e-06 0 0.033241093878683702 -0.00012363391546390881 0 0.033318309055084518 -6.4627471814279503e-05 0 0.033319323432746316 -7.1644855478361367e-06 0 0.033161216331450638 -5.0582501683395237e-05 0 0.033241093878683702 -0.00012363391546390881 0 0.033241093878683702 -0.00012363391546390881 0 0.033027437271624507 -0.0001504215038240159 0 0.033126093910787968 -0.00030433134306397732 0 0.032416508209480825 -0.0002781704013830673 0 0.032397575578021372 -3.8121206079031657e-05 0 0.031695125605474044 -0.00030445405415764745 0 0.03160624355499609 -7.3894497394759204e-05 0 0.031475805789418075 6.7295709622986713e-05 0 0.033241093878683702 -0.00012363391546390881 0 0.033126093910787968 -0.00030433134306397732 0 0.033298232673836733 -0.00013559576170034705 0 0.032691956431371856 -0.000131441374067321 0 0.032901364287750007 -0.00010176581717177929 0 0.032573128124461982 -0.00031649629042392708 0 0.032901364287750007 -0.00010176581717177929 0 0.033027437271624507 -0.0001504215038240159 0 0.032573128124461982 -0.00031649629042392708 0 0.033027437271624507 -0.0001504215038240159 0 0.033126093910787968 -0.00030433134306397732 0 0.032573128124461982 -0.00031649629042392708 0 0.032416508209480825 -0.0002781704013830673 0 0.03254450439346436 -0.00032066072138012416 0 0.031695125605474044 -0.00030445405415764745 0 0.032573128124461982 -0.00031649629042392708 0 0.032061293705957346 -0.00015759016903307501 0 0.032691956431371856 -0.000131441374067321 0 0.032620152436403108 -0.0001977315321734534 0 0.032573128124461982 -0.00031649629042392708 0 0.032620152436403108 -0.0001977315321734534 0 0.032573128124461982 -0.00031649629042392708 0 0.032352224250211795 -0.00014589204055700156 0 0.032573128124461982 -0.00031649629042392708 0 0.032352224250211795 -0.00014589204055700156 0 0.032061293705957346 -0.00015759016903307501 0 0.032352224250211795 -0.00014589204055700156 0 0.032061293705957346 -0.00015759016903307501 0 0.031771036957523445 -2.0225734301481924e-05 0 0.031771036957523445 -2.0225734301481924e-05 0 0.031489441391204277 0.00010389523135657046 0 0.031968900679702615 0.00016635483800147945 0 0.032352224250211795 -0.00014589204055700156 0 0.031771036957523445 -2.0225734301481924e-05 0 0.031968900679702615 0.00016635483800147945 0 0.032352224250211795 -0.00014589204055700156 0 0.032406215230289449 0.00016304152110398361 0 0.031968900679702615 0.00016635483800147945 0 0.032352224250211795 -0.00014589204055700156 0 0.032406215230289449 0.00016304152110398361 0 0.032551704212830428 -2.6991568422048881e-05 0 0.03160624355499609 -7.3894497394759204e-05 0 0.031335208938543864 2.1488564564388171e-05 0 0.031475805789418075 6.7295709622986713e-05 0 0.031695125605474044 -0.00030445405415764745 0 0.032061293705957346 -0.00015759016903307501 0 0.03160624355499609 -7.3894497394759204e-05 0 0.032061293705957346 -0.00015759016903307501 0 0.031771036957523445 -2.0225734301481924e-05 0 0.03160624355499609 -7.3894497394759204e-05 0 0.031771036957523445 -2.0225734301481924e-05 0 0.03160624355499609 -7.3894497394759204e-05 0 0.031335208938543864 2.1488564564388171e-05 0 0.031771036957523445 -2.0225734301481924e-05 0 0.031335208938543864 2.1488564564388171e-05 0 0.031489441391204277 0.00010389523135657046 0 0.031335208938543864 2.1488564564388171e-05 0 0.030964347350667658 9.4637877630572445e-05 0 0.031484468716947649 -0.00023963572248699003 0 0.030948189498312496 3.8281875955799718e-05 0 0.030204111591134796 -0.00017557535870557059 0 0.031335208938543864 2.1488564564388171e-05 0 0.030964347350667658 9.4637877630572445e-05 0 0.031489441391204277 0.00010389523135657046 0 0.030964347350667658 9.4637877630572445e-05 0 0.031489441391204277 0.00010389523135657046 0 0.031750407823212576 0.00060535705943103046 0 0.031117493522835812 0.0012924967243590629 0 0.030964347350667658 9.4637877630572445e-05 0 0.031750407823212576 0.00060535705943103046 0 0.029652463547060786 0.0011192272084081325 0 0.031117493522835812 0.0012924967243590629 0 0.030964347350667658 9.4637877630572445e-05 0 0.029652463547060786 0.0011192272084081325 0 0.030964347350667658 9.4637877630572445e-05 0 0.028954448332046825 -0.00017210701593774297 0 0.031968900679702615 0.00016635483800147945 0 0.031750407823212576 0.00060535705943103046 0 0.032371327984844378 0.0006267130429162092 0 0.032406215230289449 0.00016304152110398361 0 0.031968900679702615 0.00016635483800147945 0 0.032371327984844378 0.0006267130429162092 0 0.031489441391204277 0.00010389523135657046 0 0.031968900679702615 0.00016635483800147945 0 0.031750407823212576 0.00060535705943103046 0 0.032318155569663824 0.0015165958786243516 0 0.031750407823212576 0.00060535705943103046 0 0.032371327984844378 0.0006267130429162092 0 0.032371327984844378 0.0006267130429162092 0 0.032799870439150794 0.00089670671872461188 0 0.032834700539998311 0.00032491327394629005 0 0.032318155569663824 0.0015165958786243516 0 0.032371327984844378 0.0006267130429162092 0 0.032799870439150794 0.00089670671872461188 0 0.020304961103947635 -0.0024966986149248462 0 0.021399818889257662 -0.0026298078457978481 0 0.02146396013425041 -0.0024033041746454147 0 0.020304961103947635 -0.0024966986149248462 0 0.021399818889257662 -0.0026298078457978481 0 0.02165869559738564 -0.003359639396034409 0 0.026749607164042632 -0.00085310345951376549 0 0.026287862984018098 -0.0013511360478441314 0 0.032799870439150794 0.00089670671872461188 0 0.032834700539998311 0.00032491327394629005 0 0.033175055842720944 0.00042803168777396489 0 0.032799870439150794 0.00089670671872461188 0 0.033213221992646015 0.00050413993118138191 0 0.033175055842720944 0.00042803168777396489 0 0.017905418477218316 -0.0012564908928023781 0 0.017428900273967221 -0.00093741366953390781 0 0.032673534856922447 0.00018975799375670473 0 0.032804490234857438 1.1453052136884533e-05 0 0.03291988705787572 0.00024357271870368506 0 0.033182840190614848 0.00036339303278254295 0 0.030419205554096832 4.8338735989733239e-05 0 0.032588517215597079 -0.00043454499009620677 0 0.030419205554096832 4.8338735989733239e-05 0 0.032326167337019901 -0.0010300119881177759 0 0.03178491475787016 -0.0011408703366056173 0 0.031974425878151629 -0.0015941388886261732 0 0.032406215230289449 0.00016304152110398361 0 0.032371327984844378 0.0006267130429162092 0 0.032834700539998311 0.00032491327394629005 0 0.032406215230289449 0.00016304152110398361 0 0.032673534856922447 0.00018975799375670473 0 0.032551704212830428 -2.6991568422048881e-05 0 0.032295133073731247 0.00013895062778908292 0 0.033182840190614848 0.00036339303278254295 0 0.032352224250211795 -0.00014589204055700156 0 0.032551704212830428 -2.6991568422048881e-05 0 0.032617735348932281 -0.00032660957097552901 0 0.032551704212830428 -2.6991568422048881e-05 0 0.032804490234857438 1.1453052136884533e-05 0 0.032617735348932281 -0.00032660957097552901 0 0.032673534856922447 0.00018975799375670473 0 0.032551704212830428 -2.6991568422048881e-05 0 0.032804490234857438 1.1453052136884533e-05 0 0.032326167337019901 -0.0010300119881177759 0 0.032617735348932281 -0.00032660957097552901 0 0.032003251615186822 -0.00054534470533638914 0 0.032326167337019901 -0.0010300119881177759 0 0.032003251615186822 -0.00054534470533638914 0 0.03178491475787016 -0.0011408703366056173 0 0.032588517215597079 -0.00043454499009620677 0 0.032601032808020174 -0.00038650466182895636 0 0.032011138643316436 -6.5209235352405213e-05 0 0.032450112655423594 -0.00019037876301379388 0 0.032003251615186822 -0.00054534470533638914 0 0.032450112655423594 -0.00019037876301379388 0 0.032617735348932281 -0.00032660957097552901 0 0.032003251615186822 -0.00054534470533638914 0 0.032620152436403108 -0.0001977315321734534 0 0.032450112655423594 -0.00019037876301379388 0 0.032617735348932281 -0.00032660957097552901 0 0.032620152436403108 -0.0001977315321734534 0 0.032352224250211795 -0.00014589204055700156 0 0.032617735348932281 -0.00032660957097552901 0 0.031228432019592436 -0.00035439672547737857 0 0.031354683571767281 -0.00082946908654803685 0 0.030668430805027735 -0.00092246553819651104 0 0.031228432019592436 -0.00035439672547737857 0 0.032003251615186822 -0.00054534470533638914 0 0.031354683571767281 -0.00082946908654803685 0 0.032011138643316436 -6.5209235352405213e-05 0 0.031228432019592436 -0.00035439672547737857 0 0.032003251615186822 -0.00054534470533638914 0 0.032003251615186822 -0.00054534470533638914 0 0.03178491475787016 -0.0011408703366056173 0 0.031354683571767281 -0.00082946908654803685 0 0.03178491475787016 -0.0011408703366056173 0 0.031354683571767281 -0.00082946908654803685 0 0.031205154407448556 -0.0012726520542197903 0 0.031354683571767281 -0.00082946908654803685 0 0.031205154407448556 -0.0012726520542197903 0 0.030668430805027735 -0.00092246553819651104 0 0.027197093147499352 -0.0012928032484583627 0 0.023136759088454483 -0.00083085157458544754 0 0.022159891076511319 -0.00078021018711613057 0 0.022287373450941891 -0.0016348230264889925 0 0.023295877807769545 -0.0015154214167881889 0 0.022159891076511319 -0.00078021018711613057 0 0.021526200278113344 -0.001437638787773672 0 0.021100073986447431 -7.0131610704923504e-05 0 0.022159891076511319 -0.00078021018711613057 0 0.022287373450941891 -0.0016348230264889925 0 0.021954538421618361 -0.0014278222185503523 0 0.018379193763392584 -0.0014912674907229812 0 0.018237596206117708 -0.001385136330127501 0 0.022287373450941891 -0.0016348230264889925 0 0.021954538421618361 -0.0014278222185503523 0 0.022101610647242746 -0.0017976176196784679 0 0.022287373450941891 -0.0016348230264889925 0 0.022101610647242746 -0.0017976176196784679 0 0.022310315769943887 -0.0017486699210372591 0 0.013379836183955135 -0.00065170651154407516 0 0.013481112899388286 -0.00095552933160221508 0 0.013775990996827457 -0.00088364930652115039 0 0.022159891076511319 -0.00078021018711613057 0 0.021526200278113344 -0.001437638787773672 0 0.021954538421618361 -0.0014278222185503523 0 0.021526200278113344 -0.001437638787773672 0 0.021954538421618361 -0.0014278222185503523 0 0.022101610647242746 -0.0017976176196784679 0 0.014230997426567507 -0.0011196018015728886 0 0.01650395692073978 -0.0014150514799168264 0 0.014230997426567507 -0.0011196018015728886 0 0.010069031205468438 -0.0011930966113645851 0 0.03178491475787016 -0.0011408703366056173 0 0.031205154407448556 -0.0012726520542197903 0 0.031776220354687273 -0.0016427557431530375 0 0.027197093147499352 -0.0012928032484583627 0 0.026475560005427223 -0.0012022006415443214 0 0.03178491475787016 -0.0011408703366056173 0 0.031776220354687273 -0.0016427557431530375 0 0.031974425878151629 -0.0015941388886261732 0 0.026475560005427223 -0.0012022006415443214 0 0.018237596206117708 -0.001385136330127501 0 0.022425601847817677 -0.00033155085079307657 0 0.021100721178603111 -0.0015723179806502268 0 0.019129674587896026 -0.0011337014103829472 0 0.022287373450941891 -0.0016348230264889925 0 0.023295877807769545 -0.0015154214167881889 0 0.022315827352669383 -0.001753962290737564 0 0.022425601847817677 -0.00033155085079307657 0 0.023192432220050529 -0.00085443357083511381 0 0.021100721178603111 -0.0015723179806502268 0 0.026475560005427223 -0.0012022006415443214 0 0.026287862984018098 -0.0013511360478441314 0 0.027247200907402694 -0.0011839217305621766 0 0.027508186664373914 -0.0013596075747166476 0 0.027689828671245094 -0.0010727563910841466 0 0.026475560005427223 -0.0012022006415443214 0 0.030419205554096832 4.8338735989733239e-05 0 0.026287862984018098 -0.0013511360478441314 0 0.030419205554096832 4.8338735989733239e-05 0 0.026287862984018098 -0.0013511360478441314 0 0.018709165100121505 -0.0022262289904980762 0 0.023192432220050529 -0.00085443357083511381 0 0.021100721178603111 -0.0015723179806502268 0 0.021659859719601039 -0.0032858187784943747 0 0.021399818889257662 -0.0026298078457978481 0 0.02165869559738564 -0.003359639396034409 0 0.022016018086156223 -0.0027413526136240516 0 0.021100721178603111 -0.0015723179806502268 0 0.021659859719601039 -0.0032858187784943747 0 0.019308682519854108 -0.0018560619977603817 0 0.018709165100121505 -0.0022262289904980762 0 0.016948923759279855 -0.0014684104995319406 0 0.013722606175912795 -0.00094877055222271985 0 0.018709165100121505 -0.0022262289904980762 0 0.015516667217080444 -0.00075474381579096104 0 0.015040449734335069 -0.00088753485282334194 0 0.015338275274306725 -0.001068914056763599 0 0.016183335938225313 -0.001461680922290889 0 0.01607384591425351 -0.0016569425116712212 0 0.016271164984869444 -0.001776960420397969 0 0.021399818889257662 -0.0026298078457978481 0 0.021458531793223996 -0.002405142986704197 0 0.022016018086156223 -0.0027413526136240516 0 0.017428900273967221 -0.00093741366953390781 0 0.018709165100121505 -0.0022262289904980762 0 0.011917553881252842 -0.0010189612231641632 0 0.012513428309845982 -0.0017077042783543686 0 0.012097786090817962 -0.0016765038051506167 0 0.0063428244650007605 -0.00045236229277861335 0 0.006040909588765464 -0.00021192513842338022 0 0.0062316959205075415 -0.00076256164213148691 0 0.0086650050705545049 -0.0005210329856736158 0 0.010069031205468438 -0.0011930966113645851 0 0.010069031205468438 -0.0011930966113645851 0 0.01650395692073978 -0.0014150514799168264 0 0.012513428309845982 -0.0017077042783543686 0 0.012255292019182932 -0.0017736100622143987 0 0.012097786090817962 -0.0016765038051506167 0 0.021100721178603111 -0.0015723179806502268 0 0.019129674587896026 -0.0011337014103829472 0 0.019308682519854108 -0.0018560619977603817 0 0.017614627506895117 -0.0018749956288924357 0 0.017225876355334024 -0.0019700882686133295 0 0.017128324724225177 -0.001576664201010393 0 0.01650395692073978 -0.0014150514799168264 0 0.016948923759279855 -0.0014684104995319406 0 0.01650395692073978 -0.0014150514799168264 0 0.018237596206117708 -0.001385136330127501 0 0.018237596206117708 -0.001385136330127501 0 0.016948923759279855 -0.0014684104995319406 0 0.013722606175912795 -0.00094877055222271985 0 0.016948923759279855 -0.0014684104995319406 0 0.010069031205468438 -0.0011930966113645851 0 0.0060609182652061576 -0.0008423941391339575 0 0.0064657742738361236 -0.0010214873790351368 0 0.0064282029564800541 -0.00088303203045464625 0 0.0067713827655997635 -0.00076347899937213794 0 0.0063428244650007605 -0.00045236229277861335 0 0.0062316959205075415 -0.00076256164213148691 0 0.0066160438626863471 -0.00067520816311362997 0 0.014230997426567507 -0.0011196018015728886 0 0.023136759088454483 -0.00083085157458544754 0 0.014230997426567507 -0.0011196018015728886 0 0.011084766661079245 -0.0011426720144906031 0 0.0064657742738361236 -0.0010214873790351368 0 0.0067713827655997635 -0.00076347899937213794 0 0.0070330762208427747 -0.00099392637089005024 0 0.0064657742738361236 -0.0010214873790351368 0 0.0070330762208427747 -0.00099392637089005024 0 0.0069476968502750107 -0.0014264536594004844 0 0.0070330762208427747 -0.00099392637089005024 0 0.0074588005424488946 -0.0013909689847066212 0 0.0069476968502750107 -0.0014264536594004844 0 0.00687559179572007 -0.00027654198459832301 0 0.0066160438626863471 -0.00067520816311362997 0 0.0071293877110216383 -0.00056351528726237003 0 0.0067713827655997635 -0.00076347899937213794 0 0.0070330762208427747 -0.00099392637089005024 0 0.0071293877110216383 -0.00056351528726237003 0 0.0060609182652061576 -0.0008423941391339575 0 0.007319175931747423 -0.0005334072035200584 0 0.0070330762208427747 -0.00099392637089005024 0 0.0071293877110216383 -0.00056351528726237003 0 0.0075070215413387143 -0.00091837409995776614 0 0.0071293877110216383 -0.00056351528726237003 0 0.0076930423977300318 -0.0004627546122010364 0 0.0075070215413387143 -0.00091837409995776614 0 0.007963288956448723 -8.8257688728825455e-05 0 0.0076930423977300318 -0.0004627546122010364 0 0.0082007075779553778 -0.00045464596901732265 0 0.0076930423977300318 -0.0004627546122010364 0 0.007984061496369264 -0.00086495378545992812 0 0.0075070215413387143 -0.00091837409995776614 0 0.0076930423977300318 -0.0004627546122010364 0 0.007984061496369264 -0.00086495378545992812 0 0.0082007075779553778 -0.00045464596901732265 0 0.007984061496369264 -0.00086495378545992812 0 0.0078848701233160297 -0.0012859172674922574 0 0.0075070215413387143 -0.00091837409995776614 0 0.007984061496369264 -0.00086495378545992812 0 0.0078848701233160297 -0.0012859172674922574 0 0.0082232631497402078 -0.0012174044080419028 0 0.0078848701233160297 -0.0012859172674922574 0 0.0082232631497402078 -0.0012174044080419028 0 0.0083202056270443477 -0.0016081629496221108 0 0.0070330762208427747 -0.00099392637089005024 0 0.0075070215413387143 -0.00091837409995776614 0 0.0074588005424488946 -0.0013909689847066212 0 0.0078848701233160297 -0.0012859172674922574 0 0.0075070215413387143 -0.00091837409995776614 0 0.0074588005424488946 -0.0013909689847066212 0 0.0074588005424488946 -0.0013909689847066212 0 0.0077109670369244748 -0.0020700780712099758 0 0.0069476968502750107 -0.0014264536594004844 0 0.017076958111466058 -0.0013180955051192804 0 0.017129873988134106 -0.001308137389481358 0 0.017099161165438467 -0.0012992304452893821 0 0.014790325106203706 -0.0019756082920574965 0 0.011084766661079245 -0.0011426720144906031 0 0.0074588005424488946 -0.0013909689847066212 0 0.0079665599266288429 -0.0016670375976037904 0 0.0077109670369244748 -0.0020700780712099758 0 0.0079665599266288429 -0.0016670375976037904 0 0.0077109670369244748 -0.0020700780712099758 0 0.0086399064467335904 -0.00192716450584701 0 0.0078848701233160297 -0.0012859172674922574 0 0.0079665599266288429 -0.0016670375976037904 0 0.0083202056270443477 -0.0016081629496221108 0 0.0078848701233160297 -0.0012859172674922574 0 0.0074588005424488946 -0.0013909689847066212 0 0.0079665599266288429 -0.0016670375976037904 0 0.0079665599266288429 -0.0016670375976037904 0 0.0083202056270443477 -0.0016081629496221108 0 0.0086399064467335904 -0.00192716450584701 0 0.014790325106203706 -0.0019756082920574965 0 0.0061410390434920295 -0.0022461368606586144 0 0.0088057342445005196 -0.0019896598842699311 0 0.0086849388382826704 -0.0019766252885012312 0 0.0086399064467335904 -0.00192716450584701 0 0.014790325106203706 -0.0019756082920574965 0 0.018696413746544408 -0.0023027988082544074 0 0.02514246222599293 -0.0034652447967999512 0 0.024908742701086756 -0.0017842089559191429 0 0.023152779427970775 -0.0022560372455349264 0 0.02514246222599293 -0.0034652447967999512 0 0.026229015134294896 -0.0016851368550815031 0 0.027317494816030359 -0.0023121259731797269 0 0.02514246222599293 -0.0034652447967999512 0 0.027317494816030359 -0.0023121259731797269 0 0.028158213724264702 -0.0028872027085971213 0 0.014790325106203706 -0.0019756082920574965 0 0.024257213441596984 -0.0014486811375259505 0 0.02514246222599293 -0.0034652447967999512 0 0.024908742701086756 -0.0017842089559191429 0 0.026229015134294896 -0.0016851368550815031 0 0.026229015134294896 -0.0016851368550815031 0 0.027317494816030359 -0.0023121259731797269 0 0.027368154789116899 -0.0012552994346414729 0 0.027317494816030359 -0.0023121259731797269 0 0.028178337558756372 -0.0028812021893672374 0 0.028246510359541385 -0.0011495514969440629 0 0.027042953306188472 -0.0028290242119204142 0 0.024257213441596984 -0.0014486811375259505 0 0.024257213441596984 -0.0014486811375259505 0 0.02891688983251214 -0.0010866259021333553 0 0.028178337558756372 -0.0028812021893672374 0 0.029969823677029585 -0.0025320441084127976 0 0.028246510359541385 -0.0011495514969440629 0 0.031614376317886737 -0.00027185999664831634 0 0.02891688983251214 -0.0010866259021333553 0 0.031228432019592436 -0.00035439672547737857 0 0.030505300038987538 -0.00045455656385648782 0 0.030668430805027735 -0.00092246553819651104 0 0.025579704699323857 -0.0013692711565956627 0 0.025145994258375281 -0.0014492048457847404 0 0.02496817373972721 -0.00094772747291986678 0 0.02891688983251214 -0.0010866259021333553 0 0.023136759088454483 -0.00083085157458544754 0 0.017046842118340653 -0.0012531621897491864 0 0.017098371980993201 -0.0013036681577364903 0 0.017099161165438467 -0.0012992304452893821 0 0.024257213441596984 -0.0014486811375259505 0 0.023136759088454483 -0.00083085157458544754 0 0.017129873988134106 -0.001308137389481358 0 0.017098371980993201 -0.0013036681577364903 0 0.017099161165438467 -0.0012992304452893821 0 0.0080873389921983473 -0.0012644656244639404 0 0.0076941958347812485 -0.0013076302348116577 0 0.0078205213955306538 -0.0010331112858959664 0 0.0080873389921983473 -0.0012644656244639404 0 0.0082118590206589261 -0.0016796615122654406 0 0.0076941958347812485 -0.0013076302348116577 0 0.0080873389921983473 -0.0012644656244639404 0 0.0078205213955306538 -0.0010331112858959664 0 0.0079969156514938782 -0.00088520265678367234 0 0.0078205213955306538 -0.0010331112858959664 0 0.0079969156514938782 -0.00088520265678367234 0 0.007520232191992866 -0.00068713934924154445 0 0.0077573893693692426 -0.00051817126480397074 0 0.0079969156514938782 -0.00088520265678367234 0 0.007520232191992866 -0.00068713934924154445 0 0.0076941958347812485 -0.0013076302348116577 0 0.0078205213955306538 -0.0010331112858959664 0 0.007520232191992866 -0.00068713934924154445 0 0.0077573893693692426 -0.00051817126480397074 0 0.0080518932011237766 -0.00058217609145929067 0 0.0079969156514938782 -0.00088520265678367234 0 0.0084890628615412102 -0.00019901277811541724 0 0.0084517074655145238 -0.00013050092149683899 0 0.0084201875660000411 -0.00014992096154723867 0 0.0095953491709858344 -0.00084436048972371975 0 0.0077937342966975121 -0.0003442868446826202 0 0.0083755765913683632 -0.00011760513279500819 0 0.0084517074655145238 -0.00013050092149683899 0 0.0084201875660000411 -0.00014992096154723867 0 0.012169567387414299 -0.001149168988284656 0 0.010632414885902922 -0.00043620754599856763 0 0.011836700300069987 -0.0013097251304986638 0 0.0095953491709858344 -0.00084436048972371975 0 0.0096265966544060184 -0.00037378482218268819 0 0.011836700300069987 -0.0013097251304986638 0 0.010912171118675091 -0.0013341956059710045 0 0.011510267299003688 -0.0016143836725515408 0 0.010632414885902922 -0.00043620754599856763 0 0.011836700300069987 -0.0013097251304986638 0 0.010912171118675091 -0.0013341956059710045 0 0.010078601348228466 -0.00048854371235951786 0 0.0078940273129686628 -0.0025756473137757137 0 0.0097635715673966526 -0.00079350507503906818 0 0.0094879353247854029 -0.0020214355973527795 0 0.010307397576485924 -0.0017303681923834984 0 0.010912171118675091 -0.0013341956059710045 0 0.0097635715673966526 -0.00079350507503906818 0 0.010307397576485924 -0.0017303681923834984 0 0.010632414885902922 -0.00043620754599856763 0 0.010912171118675091 -0.0013341956059710045 0 0.0097635715673966526 -0.00079350507503906818 0 0.0096265966544060184 -0.00037378482218268819 0 0.0086738448026066964 -0.00010697975730766354 0 0.0083755765913683632 -0.00011760513279500819 0 0.0084201875660000411 -0.00014992096154723867 0 0.0085281007337403777 -0.00014117778377470167 0 0.010632414885902922 -0.00043620754599856763 0 0.0097635715673966526 -0.00079350507503906818 0 0.0085281007337403777 -0.00014117778377470167 0 0.0097635715673966526 -0.00079350507503906818 0 0.0087422208378506554 -0.00064202114549349041 0 0.0085281007337403777 -0.00014117778377470167 0 0.007963288956448723 -8.8257688728825455e-05 0 0.0085281007337403777 -0.00014117778377470167 0 0.0082007075779553778 -0.00045464596901732265 0 0.0087422208378506554 -0.00064202114549349041 0 0.0085281007337403777 -0.00014117778377470167 0 0.0082007075779553778 -0.00045464596901732265 0 0.0087422208378506554 -0.00064202114549349041 0 0.0082007075779553778 -0.00045464596901732265 0 0.0084522144697183887 -0.00093907652523618392 0 0.007984061496369264 -0.00086495378545992812 0 0.0082007075779553778 -0.00045464596901732265 0 0.0084522144697183887 -0.00093907652523618392 0 0.007984061496369264 -0.00086495378545992812 0 0.0082232631497402078 -0.0012174044080419028 0 0.0084522144697183887 -0.00093907652523618392 0 0.0097635715673966526 -0.00079350507503906818 0 0.0088137079114549346 -0.0011267689775420699 0 0.0086536696937092629 -0.001886967822242136 0 0.0087422208378506554 -0.00064202114549349041 0 0.0084522144697183887 -0.00093907652523618392 0 0.0088137079114549346 -0.0011267689775420699 0 0.0097635715673966526 -0.00079350507503906818 0 0.0087422208378506554 -0.00064202114549349041 0 0.0088137079114549346 -0.0011267689775420699 0 0.0088137079114549346 -0.0011267689775420699 0 0.0085177723284552316 -0.0013675945665703555 0 0.0086536696937092629 -0.001886967822242136 0 0.0084522144697183887 -0.00093907652523618392 0 0.0088137079114549346 -0.0011267689775420699 0 0.0085177723284552316 -0.0013675945665703555 0 0.0082232631497402078 -0.0012174044080419028 0 0.0084522144697183887 -0.00093907652523618392 0 0.0085177723284552316 -0.0013675945665703555 0 0.0082232631497402078 -0.0012174044080419028 0 0.0085177723284552316 -0.0013675945665703555 0 0.0083202056270443477 -0.0016081629496221108 0 0.0085177723284552316 -0.0013675945665703555 0 0.0083202056270443477 -0.0016081629496221108 0 0.0086536696937092629 -0.001886967822242136 0 0.0094879353247854029 -0.0020214355973527795 0 0.0095658522439601937 -0.0030703825727269045 0 0.01036092384834135 -0.0027204012677801213 0 0.0083202056270443477 -0.0016081629496221108 0 0.0086536696937092629 -0.001886967822242136 0 0.0086399064467335904 -0.00192716450584701 0 0.018696413746544408 -0.0023027988082544074 0 0.0078940273129686628 -0.0025756473137757137 0 0.0086835005544856174 -0.003483307931096686 0 0.0095658522439601937 -0.0030703825727269045 0 0.010131033561483611 -0.0044693002854609473 0 0.0086835005544856174 -0.003483307931096686 0 0.0094879353247854029 -0.0020214355973527795 0 0.0095658522439601937 -0.0030703825727269045 0 0.0086849388382826704 -0.0019766252885012312 0 0.0086536696937092629 -0.001886967822242136 0 0.0086399064467335904 -0.00192716450584701 0 0.0095658522439601937 -0.0030703825727269045 0 0.01036092384834135 -0.0027204012677801213 0 0.010131033561483611 -0.0044693002854609473 0 0.01036092384834135 -0.0027204012677801213 0 0.011326600845486173 -0.0020111494465582243 0 0.011240565079076052 -0.0037798483867760475 0 0.01036092384834135 -0.0027204012677801213 0 0.011240565079076052 -0.0037798483867760475 0 0.010131033561483611 -0.0044693002854609473 0 0.01036092384834135 -0.0027204012677801213 0 0.010307397576485924 -0.0017303681923834984 0 0.011326600845486173 -0.0020111494465582243 0 0.0094879353247854029 -0.0020214355973527795 0 0.01036092384834135 -0.0027204012677801213 0 0.010307397576485924 -0.0017303681923834984 0 0.011326600845486173 -0.0020111494465582243 0 0.012349954804214759 -0.0028821364437212932 0 0.012095013687359667 -0.0018960374889829708 0 0.010912171118675091 -0.0013341956059710045 0 0.011510267299003688 -0.0016143836725515408 0 0.011326600845486173 -0.0020111494465582243 0 0.010912171118675091 -0.0013341956059710045 0 0.010307397576485924 -0.0017303681923834984 0 0.011326600845486173 -0.0020111494465582243 0 0.011510267299003688 -0.0016143836725515408 0 0.011326600845486173 -0.0020111494465582243 0 0.012095013687359667 -0.0018960374889829708 0 0.011836700300069987 -0.0013097251304986638 0 0.011510267299003688 -0.0016143836725515408 0 0.012095013687359667 -0.0018960374889829708 0 0.011326600845486173 -0.0020111494465582243 0 0.011240565079076052 -0.0037798483867760475 0 0.012726513636976735 -0.0037078901641362386 0 0.011423584989946273 -0.0020427073407606341 0 0.012611065397487147 -0.0033045444098679538 0 0.012349954804214759 -0.0028821364437212932 0 0.012908059437853938 -0.0024428830592674315 0 0.012095013687359667 -0.0018960374889829708 0 0.013197348325082287 -0.0030538552385544373 0 0.012349954804214759 -0.0028821364437212932 0 0.012908059437853938 -0.0024428830592674315 0 0.013453052986845605 -0.0018168478746214689 0 0.012908059437853938 -0.0024428830592674315 0 0.012095013687359667 -0.0018960374889829708 0 0.010935769960084048 -0.0018247789847816115 0 0.0095953491709858344 -0.00084436048972371975 0 0.013453052986845605 -0.0018168478746214689 0 0.012169567387414299 -0.001149168988284656 0 0.012095013687359667 -0.0018960374889829708 0 0.012169567387414299 -0.001149168988284656 0 0.011836700300069987 -0.0013097251304986638 0 0.012095013687359667 -0.0018960374889829708 0 0.013629828929668825 -0.0066619445264928506 0 0.014098723705508879 -0.0056298748887946325 0 0.011863368491570533 -0.0055912371585465437 0 0.012611065397487147 -0.0033045444098679538 0 0.012798140365039009 -0.0047838575333062098 0 0.013197348325082287 -0.0030538552385544373 0 0.012349954804214759 -0.0028821364437212932 0 0.013186838880311422 -0.0037017784820063946 0 0.012726513636976735 -0.0037078901641362386 0 0.014098723705508879 -0.0056298748887946325 0 0.011863368491570533 -0.0055912371585465437 0 0.011240565079076052 -0.0037798483867760475 0 0.012726513636976735 -0.0037078901641362386 0 0.011863368491570533 -0.0055912371585465437 0 0.021637004035930635 -0.0038822108432962389 0 0.02437389847369827 -0.0022958665155133856 0 0.031574467291050318 -0.00087379125381547586 0 0.031735952555301095 -0.00086962638737883005 0 0.031673276472227709 -0.00084490110644235385 0 0.031574281641263753 -0.00088190232630540029 0 0.031574467291050318 -0.00087379125381547586 0 0.031673276472227709 -0.00084490110644235385 0 0.02437389847369827 -0.0022958665155133856 0 0.020692946530026114 -0.0026888271374713182 0 0.011240565079076052 -0.0037798483867760475 0 0.011863368491570533 -0.0055912371585465437 0 0.010131033561483611 -0.0044693002854609473 0 0.031518454165138675 -0.0008555131527841752 0 0.031574467291050318 -0.00087379125381547586 0 0.031604666950801413 -0.00085764264118721068 0 0.018696413746544408 -0.0023027988082544074 0 0.020692946530026114 -0.0026888271374713182 0 0.031574467291050318 -0.00087379125381547586 0 0.031604666950801413 -0.00085764264118721068 0 0.031735952555301095 -0.00086962638737883005 0 0.031735952555301095 -0.00086962638737883005 0 0.031813003233106193 -0.00075573488783370194 0 0.031897924913275429 -0.00076495364626311048 0 0.031735952555301095 -0.00086962638737883005 0 0.031813003233106193 -0.00075573488783370194 0 0.031673276472227709 -0.00084490110644235385 0 0.031813003233106193 -0.00075573488783370194 0 0.031996455218259036 -0.00062948461195629611 0 0.031785312478593647 -0.00066193646296385509 0 0.031813003233106193 -0.00075573488783370194 0 0.031897924913275429 -0.00076495364626311048 0 0.031996455218259036 -0.00062948461195629611 0 0.031813003233106193 -0.00075573488783370194 0 0.031673276472227709 -0.00084490110644235385 0 0.031785312478593647 -0.00066193646296385509 0 0.030229864214782562 -0.0010986006303647154 0 0.030547883101561576 -0.0013334160495387427 0 0.030534377567463598 -0.00068413683593315062 0 0.02437389847369827 -0.0022958665155133856 0 0.032008209730612434 -0.00060251773536610851 0 0.031574281641263753 -0.00088190232630540029 0 0.031673276472227709 -0.00084490110644235385 0 0.031592002109841137 -0.00080909574975793794 0 0.031673276472227709 -0.00084490110644235385 0 0.031592002109841137 -0.00080909574975793794 0 0.031785312478593647 -0.00066193646296385509 0 0.032008209730612434 -0.00060251773536610851 0 0.030834414310222436 -0.00026825481463671973 0 0.030534377567463598 -0.00068413683593315062 0 0.030174825967055598 -0.00046331786710548793 0 0.030463102404837693 5.3053223141573871e-05 0 0.030229864214782562 -0.0010986006303647154 0 0.030534377567463598 -0.00068413683593315062 0 0.030174825967055598 -0.00046331786710548793 0 0.028800823863910734 0.0012128343983001078 0 0.028141084663866962 0.0017703317152331774 0 0.030181085510647208 0.0013009759058700242 0 0.033182822520740979 -0.0002642367774089109 0 0.033148579413695034 -0.00014029436169059252 0 0.033172257680179028 -0.00024880654474137382 0 0.030053778631532139 0.00061868932001479435 0 0.031757036126377244 0.00057620760992292642 0 0.028800823863910734 0.0012128343983001078 0 0.028288467839160499 0.00098191845600650407 0 0.028426886403532959 0.0013564674886439357 0 0.027674520169534145 0.00097342527674840879 0 0.028288467839160499 0.00098191845600650407 0 0.028190956534879751 0.00037720704754606383 0 0.028800823863910734 0.0012128343983001078 0 0.028288467839160499 0.00098191845600650407 0 0.028190956534879751 0.00037720704754606383 0 0.027674520169534145 0.00097342527674840879 0 0.027468425082579451 0.00020348105257382562 0 0.028190956534879751 0.00037720704754606383 0 0.027674520169534145 0.00097342527674840879 0 0.027849244458594269 0.0014658276956929321 0 0.027055066840426169 0.001635648532077919 0 0.027674520169534145 0.00097342527674840879 0 0.028426886403532959 0.0013564674886439357 0 0.027849244458594269 0.0014658276956929321 0 0.027674520169534145 0.00097342527674840879 0 0.028288467839160499 0.00098191845600650407 0 0.028426886403532959 0.0013564674886439357 0 0.029125207650281513 0.0014485430467541514 0 0.030053778631532139 0.00061868932001479435 0 0.028800823863910734 0.0012128343983001078 0 0.028426886403532959 0.0013564674886439357 0 0.028141084663866962 0.0017703317152331774 0 0.028426886403532959 0.0013564674886439357 0 0.027895011819443077 0.0020168694327317074 0 0.027849244458594269 0.0014658276956929321 0 0.027895011819443077 0.0020168694327317074 0 0.027849244458594269 0.0014658276956929321 0 0.027055066840426169 0.001635648532077919 0 0.028800823863910734 0.0012128343983001078 0 0.030181085510647208 0.0013009759058700242 0 0.02982897742259168 0.00082388999489655854 0 0.033148579413695034 -0.00014029436169059252 0 0.033150641233564725 -0.00020130103200419154 0 0.033172257680179028 -0.00024880654474137382 0 0.030181085510647208 0.0013009759058700242 0 0.02982897742259168 0.00082388999489655854 0 0.030510101372701222 0.00038752821533595089 0 0.028800823863910734 0.0012128343983001078 0 0.02982897742259168 0.00082388999489655854 0 0.029741521011653636 0.00042459659053350937 0 0.031228432019592436 -0.00035439672547737857 0 0.029737949431550132 -0.00084231909530120888 0 0.030510101372701222 0.00038752821533595089 0 0.029737949431550132 -0.00084231909530120888 0 0.029741521011653636 0.00042459659053350937 0 0.030510101372701222 0.00038752821533595089 0 0.029737949431550132 -0.00084231909530120888 0 0.028800823863910734 0.0012128343983001078 0 0.029741521011653636 0.00042459659053350937 0 0.02982897742259168 0.00082388999489655854 0 0.029741521011653636 0.00042459659053350937 0 0.030510101372701222 0.00038752821533595089 0 0.029969823677029585 -0.0025320441084127976 0 0.028800823863910734 0.0012128343983001078 0 0.028246510359541385 -0.0011495514969440629 0 0.02891688983251214 -0.0010866259021333553 0 0.02915410441348917 0.00081824856208375112 0 0.028800823863910734 0.0012128343983001078 0 0.028190956534879751 0.00037720704754606383 0 0.028246510359541385 -0.0011495514969440629 0 0.028190956534879751 0.00037720704754606383 0 0.027714321182600244 -0.00056879144649222223 0 0.028246510359541385 -0.0011495514969440629 0 0.027468425082579451 0.00020348105257382562 0 0.028190956534879751 0.00037720704754606383 0 0.027714321182600244 -0.00056879144649222223 0 0.027317494816030359 -0.0023121259731797269 0 0.028246510359541385 -0.0011495514969440629 0 0.027368154789116899 -0.0012552994346414729 0 0.027714321182600244 -0.00056879144649222223 0 0.028246510359541385 -0.0011495514969440629 0 0.027368154789116899 -0.0012552994346414729 0 0.026229015134294896 -0.0016851368550815031 0 0.027368154789116899 -0.0012552994346414729 0 0.026853154792132284 -0.00049033945923512704 0 0.026229015134294896 -0.0016851368550815031 0 0.025779435463865557 -0.00081247880000293244 0 0.026853154792132284 -0.00049033945923512704 0 0.027714321182600244 -0.00056879144649222223 0 0.027368154789116899 -0.0012552994346414729 0 0.026853154792132284 -0.00049033945923512704 0 0.024908742701086756 -0.0017842089559191429 0 0.026229015134294896 -0.0016851368550815031 0 0.025779435463865557 -0.00081247880000293244 0 0.025779435463865557 -0.00081247880000293244 0 0.025986477394263265 8.1011837382684285e-05 0 0.024602391406890828 4.1317688931905919e-05 0 0.025779435463865557 -0.00081247880000293244 0 0.025986477394263265 8.1011837382684285e-05 0 0.026853154792132284 -0.00049033945923512704 0 0.025986477394263265 8.1011837382684285e-05 0 0.026853154792132284 -0.00049033945923512704 0 0.026852189665294627 0.0007782374667327554 0 0.027468425082579451 0.00020348105257382562 0 0.026853154792132284 -0.00049033945923512704 0 0.026852189665294627 0.0007782374667327554 0 0.027468425082579451 0.00020348105257382562 0 0.027714321182600244 -0.00056879144649222223 0 0.026853154792132284 -0.00049033945923512704 0 0.024908742701086756 -0.0017842089559191429 0 0.023152779427970775 -0.0022560372455349264 0 0.024602391406890828 4.1317688931905919e-05 0 0.031518454165138675 -0.0008555131527841752 0 0.031604666950801413 -0.00085764264118721068 0 0.031587950499171603 -0.00084150970088742053 0 0.018696413746544408 -0.0023027988082544074 0 0.028798315308293056 0.00032808841491794189 0 0.024908742701086756 -0.0017842089559191429 0 0.025779435463865557 -0.00081247880000293244 0 0.024602391406890828 4.1317688931905919e-05 0 0.031604666950801413 -0.00085764264118721068 0 0.031735952555301095 -0.00086962638737883005 0 0.031587950499171603 -0.00084150970088742053 0 0.031735952555301095 -0.00086962638737883005 0 0.031587950499171603 -0.00084150970088742053 0 0.03155875970429433 -0.00089150863967667529 0 0.028798315308293056 0.00032808841491794189 0 0.030104781126703131 -0.00039122534709424108 0 0.025986477394263265 8.1011837382684285e-05 0 0.024602391406890828 4.1317688931905919e-05 0 0.026029472395700744 0.0023304874413656931 0 0.025986477394263265 8.1011837382684285e-05 0 0.026852189665294627 0.0007782374667327554 0 0.026029472395700744 0.0023304874413656931 0 0.027674520169534145 0.00097342527674840879 0 0.026852189665294627 0.0007782374667327554 0 0.027055066840426169 0.001635648532077919 0 0.027674520169534145 0.00097342527674840879 0 0.027468425082579451 0.00020348105257382562 0 0.026852189665294627 0.0007782374667327554 0 0.030053778631532139 0.00061868932001479435 0 0.030104781126703131 -0.00039122534709424108 0 0.027895011819443077 0.0020168694327317074 0 0.026029472395700744 0.0023304874413656931 0 0.027055066840426169 0.001635648532077919 0 0.026852189665294627 0.0007782374667327554 0 0.026029472395700744 0.0023304874413656931 0 0.027055066840426169 0.001635648532077919 0 0.030053778631532139 0.00061868932001479435 0 0.03179308328141571 -0.0006279816284164261 0 0.030104781126703131 -0.00039122534709424108 0 0.03179308328141571 -0.0006279816284164261 0 0.030369523150340902 0.00013323569643413746 0 0.030987332568465031 2.0612689497045337e-05 0 0.030759129262300042 -0.00035317585705372839 0 0.033182822520740979 -0.0002642367774089109 0 0.033179279583801277 -0.00035228259177350421 0 0.033172426845924613 -0.00036431115006050138 0 0.032025039238649994 -0.00093230243345869372 0 0.032067954992534273 -0.00084548912741529147 0 0.031945858524803028 -0.00083025522877040248 0 0.032067954992534273 -0.00084548912741529147 0 0.031945858524803028 -0.00083025522877040248 0 0.03199216182425231 -0.00076618146770319096 0 0.03179308328141571 -0.0006279816284164261 0 0.032510600712746661 -0.00067850489859033183 0 0.033179279583801277 -0.00035228259177350421 0 0.033129656546098632 -0.00045779725957004923 0 0.033172426845924613 -0.00036431115006050138 0 0.031735952555301095 -0.00086962638737883005 0 0.032025039238649994 -0.00093230243345869372 0 0.031945858524803028 -0.00083025522877040248 0 0.031735952555301095 -0.00086962638737883005 0 0.031945858524803028 -0.00083025522877040248 0 0.031897924913275429 -0.00076495364626311048 0 0.032444574331246784 -0.0010478575690568849 0 0.030104781126703131 -0.00039122534709424108 0 0.031945858524803028 -0.00083025522877040248 0 0.031897924913275429 -0.00076495364626311048 0 0.03199216182425231 -0.00076618146770319096 0 0.031897924913275429 -0.00076495364626311048 0 0.03199216182425231 -0.00076618146770319096 0 0.031996455218259036 -0.00062948461195629611 0 0.033129656546098632 -0.00045779725957004923 0 0.033028733111580173 -0.00048693910476679201 0 0.032796143678722384 -0.00057906016231072427 0 0.032510600712746661 -0.00067850489859033183 0 0.032379095012689436 -0.00056038395432864792 0 0.033129656546098632 -0.00045779725957004923 0 0.033146468502779039 -0.0004331052392101231 0 0.033028733111580173 -0.00048693910476679201 0 0.033129656546098632 -0.00045779725957004923 0 0.033146468502779039 -0.0004331052392101231 0 0.033172426845924613 -0.00036431115006050138 0 0.033146468502779039 -0.0004331052392101231 0 0.03321261383079533 -0.000377973474184707 0 0.033152083843522688 -0.00041503107378819187 0 0.03321261383079533 -0.000377973474184707 0 0.033181311608140196 -0.00035297336731892113 0 0.033193024346673407 -0.0003009196946310407 0 0.033146468502779039 -0.0004331052392101231 0 0.03321261383079533 -0.000377973474184707 0 0.033181311608140196 -0.00035297336731892113 0 0.033146468502779039 -0.0004331052392101231 0 0.033172426845924613 -0.00036431115006050138 0 0.033181311608140196 -0.00035297336731892113 0 0.033172426845924613 -0.00036431115006050138 0 0.033181311608140196 -0.00035297336731892113 0 0.033178525043557457 -0.0003085010161540626 0 0.033178525043557457 -0.0003085010161540626 0 0.033172257680179028 -0.00024880654474137382 0 0.033193024346673407 -0.0003009196946310407 0 0.033181311608140196 -0.00035297336731892113 0 0.033178525043557457 -0.0003085010161540626 0 0.033193024346673407 -0.0003009196946310407 0 0.033182822520740979 -0.0002642367774089109 0 0.033178525043557457 -0.0003085010161540626 0 0.033172257680179028 -0.00024880654474137382 0 0.033182822520740979 -0.0002642367774089109 0 0.033172426845924613 -0.00036431115006050138 0 0.033178525043557457 -0.0003085010161540626 0 0.033131373084753855 -0.00021558792501431113 0 0.033150641233564725 -0.00020130103200419154 0 0.033193024346673407 -0.0003009196946310407 0 0.033150641233564725 -0.00020130103200419154 0 0.033172257680179028 -0.00024880654474137382 0 0.033193024346673407 -0.0003009196946310407 0 0.033131373084753855 -0.00021558792501431113 0 0.033193024346673407 -0.0003009196946310407 0 0.033223263455652109 -0.00031202611878280485 0 0.03321261383079533 -0.000377973474184707 0 0.033193024346673407 -0.0003009196946310407 0 0.033223263455652109 -0.00031202611878280485 0 0.03321261383079533 -0.000377973474184707 0 0.033223263455652109 -0.00031202611878280485 0 0.033343941211168328 -0.00034754950595263163 0 0.033223263455652109 -0.00031202611878280485 0 0.033343941211168328 -0.00034754950595263163 0 0.033282165461893366 -0.00024478619614295516 0 0.033343941211168328 -0.00034754950595263163 0 0.033624118361196983 -0.000320752759718523 0 0.033282165461893366 -0.00024478619614295516 0 0.033343941211168328 -0.00034754950595263163 0 0.033152083843522688 -0.00041503107378819187 0 0.03316852036705633 -0.00026907115659687984 0 0.033343941211168328 -0.00034754950595263163 0 0.03316852036705633 -0.00026907115659687984 0 0.033472549834826969 -0.00017745874520632262 0 0.03321261383079533 -0.000377973474184707 0 0.033343941211168328 -0.00034754950595263163 0 0.033152083843522688 -0.00041503107378819187 0 0.033152083843522688 -0.00041503107378819187 0 0.033028733111580173 -0.00048693910476679201 0 0.032879653288614599 -0.00039628728337780055 0 0.033146468502779039 -0.0004331052392101231 0 0.033152083843522688 -0.00041503107378819187 0 0.033028733111580173 -0.00048693910476679201 0 0.033028733111580173 -0.00048693910476679201 0 0.032796143678722384 -0.00057906016231072427 0 0.032879653288614599 -0.00039628728337780055 0 0.032879653288614599 -0.00039628728337780055 0 0.03316852036705633 -0.00026907115659687984 0 0.032747492079820847 -5.5975534656871468e-05 0 0.032796143678722384 -0.00057906016231072427 0 0.032879653288614599 -0.00039628728337780055 0 0.032161828046393039 -0.00040607764276214242 0 0.032879653288614599 -0.00039628728337780055 0 0.032747492079820847 -5.5975534656871468e-05 0 0.032161828046393039 -0.00040607764276214242 0 0.033152083843522688 -0.00041503107378819187 0 0.032879653288614599 -0.00039628728337780055 0 0.03316852036705633 -0.00026907115659687984 0 0.03316852036705633 -0.00026907115659687984 0 0.032747492079820847 -5.5975534656871468e-05 0 0.033178462164431474 -1.4839004294803828e-05 0 0.032747492079820847 -5.5975534656871468e-05 0 0.032928205854887482 0.00012142310791133538 0 0.032693352785865444 0.0002827997187493353 0 0.032747492079820847 -5.5975534656871468e-05 0 0.032693352785865444 0.0002827997187493353 0 0.032330150942020922 6.8019917617615424e-05 0 0.032747492079820847 -5.5975534656871468e-05 0 0.032928205854887482 0.00012142310791133538 0 0.033178462164431474 -1.4839004294803828e-05 0 0.032928205854887482 0.00012142310791133538 0 0.032693352785865444 0.0002827997187493353 0 0.033084585434390128 0.00029231464132640497 0 0.033178462164431474 -1.4839004294803828e-05 0 0.033326019706908273 0.00021835080579401836 0 0.033084585434390128 0.00029231464132640497 0 0.032928205854887482 0.00012142310791133538 0 0.033178462164431474 -1.4839004294803828e-05 0 0.033084585434390128 0.00029231464132640497 0 0.033178462164431474 -1.4839004294803828e-05 0 0.033452534755939532 6.7441106448522963e-05 0 0.033326019706908273 0.00021835080579401836 0 0.033178462164431474 -1.4839004294803828e-05 0 0.033452534755939532 6.7441106448522963e-05 0 0.033472549834826969 -0.00017745874520632262 0 0.033452534755939532 6.7441106448522963e-05 0 0.033472549834826969 -0.00017745874520632262 0 0.033815258185068711 8.4796662448705977e-05 0 0.033472549834826969 -0.00017745874520632262 0 0.033815258185068711 8.4796662448705977e-05 0 0.033915102580771288 -8.3448032308318582e-05 0 0.033472549834826969 -0.00017745874520632262 0 0.033915102580771288 -8.3448032308318582e-05 0 0.033624118361196983 -0.000320752759718523 0 0.033343941211168328 -0.00034754950595263163 0 0.033472549834826969 -0.00017745874520632262 0 0.033624118361196983 -0.000320752759718523 0 0.03316852036705633 -0.00026907115659687984 0 0.033178462164431474 -1.4839004294803828e-05 0 0.033472549834826969 -0.00017745874520632262 0 0.030363178697074691 0.00016465492414584131 0 0.030463102404837693 5.3053223141573871e-05 0 0.030509569565531969 0.00028435051731474969 0 0.031482367350147665 -0.00056625769245729389 0 0.031695789184897093 -0.0002953159415536335 0 0.031239970173192785 -0.00012016605889605488 0 0.030834414310222436 -0.00026825481463671973 0 0.03089601423688234 0.00011101111693344494 0 0.030092161040626234 0.00010106703182090487 0 0.030363178697074691 0.00016465492414584131 0 0.030463102404837693 5.3053223141573871e-05 0 0.030092161040626234 0.00010106703182090487 0 0.030174825967055598 -0.00046331786710548793 0 0.030463102404837693 5.3053223141573871e-05 0 0.031592002109841137 -0.00080909574975793794 0 0.031482367350147665 -0.00056625769245729389 0 0.031785312478593647 -0.00066193646296385509 0 0.031482367350147665 -0.00056625769245729389 0 0.031691610829465651 -0.00051151257517451575 0 0.031785312478593647 -0.00066193646296385509 0 0.031482367350147665 -0.00056625769245729389 0 0.031695789184897093 -0.0002953159415536335 0 0.031691610829465651 -0.00051151257517451575 0 0.031695789184897093 -0.0002953159415536335 0 0.032161828046393039 -0.00040607764276214242 0 0.032006782885505555 -0.00014247469589484814 0 0.031695789184897093 -0.0002953159415536335 0 0.031691610829465651 -0.00051151257517451575 0 0.032161828046393039 -0.00040607764276214242 0 0.031691610829465651 -0.00051151257517451575 0 0.031785312478593647 -0.00066193646296385509 0 0.032161828046393039 -0.00040607764276214242 0 0.032379095012689436 -0.00056038395432864792 0 0.032161663310070115 -0.00039291590888027836 0 0.031996455218259036 -0.00062948461195629611 0 0.031785312478593647 -0.00066193646296385509 0 0.032161828046393039 -0.00040607764276214242 0 0.032747492079820847 -5.5975534656871468e-05 0 0.032161828046393039 -0.00040607764276214242 0 0.032330150942020922 6.8019917617615424e-05 0 0.032161828046393039 -0.00040607764276214242 0 0.032330150942020922 6.8019917617615424e-05 0 0.032006782885505555 -0.00014247469589484814 0 0.032330150942020922 6.8019917617615424e-05 0 0.031956565901899096 0.00016294340724003109 0 0.032357524951278638 0.00042850192446559844 0 0.032693352785865444 0.0002827997187493353 0 0.032330150942020922 6.8019917617615424e-05 0 0.032357524951278638 0.00042850192446559844 0 0.031956565901899096 0.00016294340724003109 0 0.031709623756973906 0.00031965707541682349 0 0.032011203558078793 0.00058109606381682207 0 0.032330150942020922 6.8019917617615424e-05 0 0.031956565901899096 0.00016294340724003109 0 0.032006782885505555 -0.00014247469589484814 0 0.031956565901899096 0.00016294340724003109 0 0.032006782885505555 -0.00014247469589484814 0 0.031611534163647918 -2.6916692559649709e-05 0 0.031695789184897093 -0.0002953159415536335 0 0.031611534163647918 -2.6916692559649709e-05 0 0.031239970173192785 -0.00012016605889605488 0 0.031695789184897093 -0.0002953159415536335 0 0.032006782885505555 -0.00014247469589484814 0 0.031611534163647918 -2.6916692559649709e-05 0 0.031956565901899096 0.00016294340724003109 0 0.031611534163647918 -2.6916692559649709e-05 0 0.031709623756973906 0.00031965707541682349 0 0.031709623756973906 0.00031965707541682349 0 0.031440117204266371 0.00014505544585964833 0 0.031307707710907753 0.00042685831895117267 0 0.031611534163647918 -2.6916692559649709e-05 0 0.031709623756973906 0.00031965707541682349 0 0.031440117204266371 0.00014505544585964833 0 0.031440117204266371 0.00014505544585964833 0 0.031239970173192785 -0.00012016605889605488 0 0.031307707710907753 0.00042685831895117267 0 0.030824036364008767 0.00057733516704657492 0 0.031239970173192785 -0.00012016605889605488 0 0.03092732950448546 0.00055560235704289653 0 0.031239970173192785 -0.00012016605889605488 0 0.03092732950448546 0.00055560235704289653 0 0.031307707710907753 0.00042685831895117267 0 0.030805668501315778 0.00058022075288252477 0 0.03089601423688234 0.00011101111693344494 0 0.031611534163647918 -2.6916692559649709e-05 0 0.031440117204266371 0.00014505544585964833 0 0.031239970173192785 -0.00012016605889605488 0 0.03345855253810967 -0.00014754242677426528 0 0.03366811686076672 0.00036587656614362683 0 0.031316338128267215 0.00073307079026605718 0 0.031472969728241124 0.00083443814811692265 0 0.031504196976334907 0.0011411650272764738 0 0.031615095986785184 0.00095120185942103991 0 0.031472969728241124 0.00083443814811692265 0 0.031504196976334907 0.0011411650272764738 0 0.031615095986785184 0.00095120185942103991 0 0.031472969728241124 0.00083443814811692265 0 0.031673320311373127 0.00079801361138312824 0 0.031472969728241124 0.00083443814811692265 0 0.031570439654927424 0.00067772896702092292 0 0.031673320311373127 0.00079801361138312824 0 0.031344593166578082 0.00069639329778620185 0 0.031472969728241124 0.00083443814811692265 0 0.031570439654927424 0.00067772896702092292 0 0.030737805053047972 0.00082446988264480163 0 0.031083728534628478 0.0006279687784827595 0 0.031277928009359135 0.00074926773834934441 0 0.030737805053047972 0.00082446988264480163 0 0.031083728534628478 0.0006279687784827595 0 0.03092732950448546 0.00055560235704289653 0 0.031896648418025461 0.00033445132637093179 0 0.03128349143723156 0.00071183412221989333 0 0.031083728534628478 0.0006279687784827595 0 0.03092732950448546 0.00055560235704289653 0 0.031307707710907753 0.00042685831895117267 0 0.031083728534628478 0.0006279687784827595 0 0.031307707710907753 0.00042685831895117267 0 0.031277928009359135 0.00074926773834934441 0 0.031570439654927424 0.00067772896702092292 0 0.031768772137071376 0.00063318298095444954 0 0.031673320311373127 0.00079801361138312824 0 0.03128349143723156 0.00071183412221989333 0 0.031762188835299104 0.00064818243347022084 0 0.031709623756973906 0.00031965707541682349 0 0.031307707710907753 0.00042685831895117267 0 0.031768772137071376 0.00063318298095444954 0 0.031307707710907753 0.00042685831895117267 0 0.031277928009359135 0.00074926773834934441 0 0.031768772137071376 0.00063318298095444954 0 0.031709623756973906 0.00031965707541682349 0 0.031768772137071376 0.00063318298095444954 0 0.032011203558078793 0.00058109606381682207 0 0.031768772137071376 0.00063318298095444954 0 0.031850481188120283 0.00079470825955666174 0 0.032011203558078793 0.00058109606381682207 0 0.031768772137071376 0.00063318298095444954 0 0.031850481188120283 0.00079470825955666174 0 0.031673320311373127 0.00079801361138312824 0 0.031850481188120283 0.00079470825955666174 0 0.031673320311373127 0.00079801361138312824 0 0.031755978645822559 0.00092216819759384809 0 0.031615095986785184 0.00095120185942103991 0 0.031755978645822559 0.00092216819759384809 0 0.03170775262205406 0.0010169597791630921 0 0.031615095986785184 0.00095120185942103991 0 0.031673320311373127 0.00079801361138312824 0 0.031755978645822559 0.00092216819759384809 0 0.031755978645822559 0.00092216819759384809 0 0.031910574551530388 0.00096028864483269126 0 0.03179482253453584 0.0010305229207254541 0 0.031850481188120283 0.00079470825955666174 0 0.031755978645822559 0.00092216819759384809 0 0.031910574551530388 0.00096028864483269126 0 0.031850481188120283 0.00079470825955666174 0 0.031910574551530388 0.00096028864483269126 0 0.032060888396908127 0.00083920119456190861 0 0.031910574551530388 0.00096028864483269126 0 0.032088167818545607 0.00099726614451312121 0 0.032060888396908127 0.00083920119456190861 0 0.032088167818545607 0.00099726614451312121 0 0.032060888396908127 0.00083920119456190861 0 0.032320384365553005 0.00081213020675533214 0 0.032060888396908127 0.00083920119456190861 0 0.032011203558078793 0.00058109606381682207 0 0.032320384365553005 0.00081213020675533214 0 0.031850481188120283 0.00079470825955666174 0 0.032060888396908127 0.00083920119456190861 0 0.032011203558078793 0.00058109606381682207 0 0.031956565901899096 0.00016294340724003109 0 0.032011203558078793 0.00058109606381682207 0 0.032357524951278638 0.00042850192446559844 0 0.032357524951278638 0.00042850192446559844 0 0.032555252932938004 0.0006154011122882964 0 0.032320384365553005 0.00081213020675533214 0 0.032011203558078793 0.00058109606381682207 0 0.032357524951278638 0.00042850192446559844 0 0.032320384365553005 0.00081213020675533214 0 0.032693352785865444 0.0002827997187493353 0 0.032357524951278638 0.00042850192446559844 0 0.032555252932938004 0.0006154011122882964 0 0.032555252932938004 0.0006154011122882964 0 0.032320384365553005 0.00081213020675533214 0 0.032711010930738818 0.00097091641178368034 0 0.032320384365553005 0.00081213020675533214 0 0.032268430791606462 0.0011367894661285375 0 0.032711010930738818 0.00097091641178368034 0 0.032088167818545607 0.00099726614451312121 0 0.032320384365553005 0.00081213020675533214 0 0.032268430791606462 0.0011367894661285375 0 0.033049745716556181 0.00080084834757834615 0 0.032730528161673884 0.00097194696299227751 0 0.033949105203148436 0.00033216824965922703 0 0.034976230216735314 -5.0388767752247901e-06 0 0.034409947909333778 -2.08606210209306e-05 0 0.034234797188282998 6.0548644307959758e-05 0 0.034648010246200553 5.9083055485072954e-05 0 0.035000005889943654 1.029065385879901e-08 0 0.034994256765435605 3.8721471400464369e-06 0 0.034998582836011913 6.9728817823905914e-06 0 0.035000005889943654 1.029065385879901e-08 0 0.034994256765435605 3.8721471400464369e-06 0 0.034999984476924394 -1.5468238544493841e-09 0 0.032703885145158748 0.0010072976649424742 0 0.032333809445257891 0.0011739639772968852 0 0.032158310495410375 0.0010631542250427405 0 0.033049745716556181 0.00080084834757834615 0 0.031943126323811959 0.0011006320607441355 0 0.032088167818545607 0.00099726614451312121 0 0.032268430791606462 0.0011367894661285375 0 0.031922331595332136 0.001121739952743057 0 0.033049745716556181 0.00080084834757834615 0 0.033949105203148436 0.00033216824965922703 0 0.031910574551530388 0.00096028864483269126 0 0.032088167818545607 0.00099726614451312121 0 0.031922331595332136 0.001121739952743057 0 0.031943126323811959 0.0011006320607441355 0 0.031764500694174538 0.001112362514352402 0 0.031922331595332136 0.001121739952743057 0 0.03179482253453584 0.0010305229207254541 0 0.031687968230335796 0.0011171406470197294 0 0.032158310495410375 0.0010631542250427405 0 0.031871927520545851 0.001161423404079703 0 0.031687968230335796 0.0011171406470197294 0 0.033673583162940897 0.00033330745562346249 0 0.033765240796578389 0.00033361749548054784 0 0.033820843591764085 0.00026424681584769999 0 0.031910574551530388 0.00096028864483269126 0 0.031922331595332136 0.001121739952743057 0 0.03179482253453584 0.0010305229207254541 0 0.03179482253453584 0.0010305229207254541 0 0.03170775262205406 0.0010169597791630921 0 0.031687968230335796 0.0011171406470197294 0 0.031755978645822559 0.00092216819759384809 0 0.03179482253453584 0.0010305229207254541 0 0.03170775262205406 0.0010169597791630921 0 0.033949105203148436 0.00033216824965922703 0 0.032543377799221368 0.0007028051497049852 0 0.032333809445257891 0.0011739639772968852 0 0.032158310495410375 0.0010631542250427405 0 0.031871927520545851 0.001161423404079703 0 0.033949105203148436 0.00033216824965922703 0 0.03468062327218676 1.6740514962388425e-05 0 0.034994256765435605 3.8721471400464369e-06 0 0.034999984476924394 -1.5468238544493841e-09 0 0.034997400510416485 1.4957082846908125e-06 0 0.034999904078810491 1.1041971442961778e-07 0 0.03468062327218676 1.6740514962388425e-05 0 0.034999999419652941 -1.1824485533630554e-10 0 0.034999996283686281 1.4222433281852822e-10 0 0.03499901256697184 6.0061894725518419e-08 0 0.034999924089715494 -3.8892467466846399e-08 0 0.034906414963762254 7.7099566436378347e-06 0 0.034953057003622078 1.9433149310257824e-05 0 0.035000330729910586 -1.0937590786596456e-07 0 0.03468062327218676 1.6740514962388425e-05 0 0.034906414963762254 7.7099566436378347e-06 0 0.034953057003622078 1.9433149310257824e-05 0 0.034927146809517556 4.5526162039518357e-05 0 0.034953057003622078 1.9433149310257824e-05 0 0.034944959030887526 4.3183096360634373e-05 0 0.034927146809517556 4.5526162039518357e-05 0 0.034729973978781428 0.00026634323146228217 0 0.03366811686076672 0.00036587656614362683 0 0.032543377799221368 0.0007028051497049852 0 0.03366811686076672 0.00036587656614362683 0 0.031871927520545851 0.001161423404079703 0 0.031504196976334907 0.0011411650272764738 0 0.031687968230335796 0.0011171406470197294 0 0.03468062327218676 1.6740514962388425e-05 0 0.03366811686076672 0.00036587656614362683 0 0.033765240796578389 0.00033361749548054784 0 0.033820843591764085 0.00026424681584769999 0 0.033858408177268616 0.00033452017375654424 0 0.031615095986785184 0.00095120185942103991 0 0.03170775262205406 0.0010169597791630921 0 0.031687968230335796 0.0011171406470197294 0 0.031615095986785184 0.00095120185942103991 0 0.031504196976334907 0.0011411650272764738 0 0.031687968230335796 0.0011171406470197294 0 0.033398418461871381 0.00037307033792206444 0 0.033757698673882459 0.0002826549185933416 0 0.033728672701487966 0.00059876376700686903 0 0.033400697692274876 0.00068278888387134703 0 0.033225209252139343 0.00074231161439138201 0 0.033636653126314107 0.00094876182779468046 0 0.03333989513051195 0.00050952345166447081 0 0.034280345300937085 0.00047418199529362964 0 0.033728672701487966 0.00059876376700686903 0 0.034482115701126942 0.00029950214314987037 0 0.034146980355274033 0.00020028611894686718 0 0.033757698673882459 0.0002826549185933416 0 0.033728672701487966 0.00059876376700686903 0 0.034146980355274033 0.00020028611894686718 0 0.034280345300937085 0.00047418199529362964 0 0.034474532241080269 0.00032640613314257401 0 0.033757698673882459 0.0002826549185933416 0 0.033815258185068711 8.4796662448705977e-05 0 0.033543391915086672 0.0002249300297811723 0 0.033757698673882459 0.0002826549185933416 0 0.033815258185068711 8.4796662448705977e-05 0 0.034146980355274033 0.00020028611894686718 0 0.033398418461871381 0.00037307033792206444 0 0.033757698673882459 0.0002826549185933416 0 0.033543391915086672 0.0002249300297811723 0 0.033452534755939532 6.7441106448522963e-05 0 0.033815258185068711 8.4796662448705977e-05 0 0.033543391915086672 0.0002249300297811723 0 0.033398418461871381 0.00037307033792206444 0 0.033543391915086672 0.0002249300297811723 0 0.033326019706908273 0.00021835080579401836 0 0.033452534755939532 6.7441106448522963e-05 0 0.033543391915086672 0.0002249300297811723 0 0.033326019706908273 0.00021835080579401836 0 0.033400697692274876 0.00068278888387134703 0 0.033084585434390128 0.00029231464132640497 0 0.033225209252139343 0.00074231161439138201 0 0.033084585434390128 0.00029231464132640497 0 0.03285091416563047 0.000622047911826606 0 0.033225209252139343 0.00074231161439138201 0 0.033398418461871381 0.00037307033792206444 0 0.033326019706908273 0.00021835080579401836 0 0.033084585434390128 0.00029231464132640497 0 0.03333989513051195 0.00050952345166447081 0 0.033125847418043072 0.00030317572532070669 0 0.032693352785865444 0.0002827997187493353 0 0.032555252932938004 0.0006154011122882964 0 0.03285091416563047 0.000622047911826606 0 0.032693352785865444 0.0002827997187493353 0 0.033084585434390128 0.00029231464132640497 0 0.03285091416563047 0.000622047911826606 0 0.03285091416563047 0.000622047911826606 0 0.032711010930738818 0.00097091641178368034 0 0.033225209252139343 0.00074231161439138201 0 0.032730528161673884 0.00097194696299227751 0 0.033237095283392991 0.00074102397946598526 0 0.032555252932938004 0.0006154011122882964 0 0.03285091416563047 0.000622047911826606 0 0.032711010930738818 0.00097091641178368034 0 0.033225209252139343 0.00074231161439138201 0 0.033104306603361083 0.00097122839169851334 0 0.033636653126314107 0.00094876182779468046 0 0.032961447358092665 0.00088695914942129358 0 0.033225209252139343 0.00074231161439138201 0 0.033104306603361083 0.00097122839169851334 0 0.034964777507472192 9.7583553171824035e-06 0 0.034845032722147097 -5.9187907176789724e-05 0 0.034648010246200553 5.9083055485072954e-05 0 0.034964777507472192 9.7583553171824035e-06 0 0.034845032722147097 -5.9187907176789724e-05 0 0.03502404030866231 -3.1398167945583113e-05 0 0.032724424326157936 0.00098129667424861158 0 0.032961447358092665 0.00088695914942129358 0 0.033104306603361083 0.00097122839169851334 0 0.033049745716556181 0.00080084834757834615 0 0.034100562917813028 0.00040575579906307178 0 0.034888666133956546 2.257197747817856e-05 0 0.034976230216735314 -5.0388767752247901e-06 0 0.034409947909333778 -2.08606210209306e-05 0 0.034845032722147097 -5.9187907176789724e-05 0 0.034648010246200553 5.9083055485072954e-05 0 0.035000005889943654 1.029065385879901e-08 0 0.034998582836011913 6.9728817823905914e-06 0 0.03499996313913057 -1.1302800746200153e-08 0 0.034964777507472192 9.7583553171824035e-06 0 0.034998582836011913 6.9728817823905914e-06 0 0.03499996313913057 -1.1302800746200153e-08 0 0.034964777507472192 9.7583553171824035e-06 0 0.03499996313913057 -1.1302800746200153e-08 0 0.034999989642252052 2.0394598733141522e-08 0 0.034964777507472192 9.7583553171824035e-06 0 0.034999989642252052 2.0394598733141522e-08 0 0.035002750679299227 -1.3294273272434248e-06 0 0.034100562917813028 0.00040575579906307178 0 0.034280345300937085 0.00047418199529362964 0 0.034964777507472192 9.7583553171824035e-06 0 0.035002750679299227 -1.3294273272434248e-06 0 0.03502404030866231 -3.1398167945583113e-05 0 0.034906736334165529 0.00030642254024706891 0 0.03473512643709778 9.0490069431315077e-05 0 0.034482115701126942 0.00029950214314987037 0 0.034280345300937085 0.00047418199529362964 0 0.03494349151850544 3.6562721136885395e-05 0 0.035002750679299227 -1.3294273272434248e-06 0 0.03502404030866231 -3.1398167945583113e-05 0 0.035006220593565035 -4.7730905371123396e-07 0 0.034999989642252052 2.0394598733141522e-08 0 0.035002750679299227 -1.3294273272434248e-06 0 0.035006220593565035 -4.7730905371123396e-07 0 0.034999989642252052 2.0394598733141522e-08 0 0.035006220593565035 -4.7730905371123396e-07 0 0.03500001535818479 -6.2613301025311941e-09 0 0.03494349151850544 3.6562721136885395e-05 0 0.03494221679222257 -4.9632586220757777e-06 0 0.035006220593565035 -4.7730905371123396e-07 0 0.034999985272375092 3.270820230339616e-09 0 0.03500001535818479 -6.2613301025311941e-09 0 0.03473512643709778 9.0490069431315077e-05 0 0.034772246855790716 9.2071502749981437e-05 0 0.034999303320755695 1.8067213511757924e-07 0 0.034999303320755695 1.8067213511757924e-07 0 0.034882688191367556 5.1091405040127953e-05 0 0.034999726090378734 7.4329034088670646e-08 0 0.034772246855790716 9.2071502749981437e-05 0 0.034882688191367556 5.1091405040127953e-05 0 0.034756705915114247 8.8244407817254349e-05 0 0.034882688191367556 5.1091405040127953e-05 0 0.034756705915114247 8.8244407817254349e-05 0 0.034999726090378734 7.4329034088670646e-08 0 0.034772246855790716 9.2071502749981437e-05 0 0.034999303320755695 1.8067213511757924e-07 0 0.034882688191367556 5.1091405040127953e-05 0 0.034772246855790716 9.2071502749981437e-05 0 0.034756705915114247 8.8244407817254349e-05 0 0.034482115701126942 0.00029950214314987037 0 0.034756705915114247 8.8244407817254349e-05 0 0.03462933488683341 7.9990176050746231e-05 0 0.034482115701126942 0.00029950214314987037 0 0.03473512643709778 9.0490069431315077e-05 0 0.034772246855790716 9.2071502749981437e-05 0 0.034482115701126942 0.00029950214314987037 0 0.034999726090378734 7.4329034088670646e-08 0 0.034716022055036488 1.054846775039843e-05 0 0.034999717859889146 -1.3679570694797617e-08 0 0.034756705915114247 8.8244407817254349e-05 0 0.034716022055036488 1.054846775039843e-05 0 0.03462933488683341 7.9990176050746231e-05 0 0.034756705915114247 8.8244407817254349e-05 0 0.034999726090378734 7.4329034088670646e-08 0 0.034716022055036488 1.054846775039843e-05 0 0.034716022055036488 1.054846775039843e-05 0 0.03462933488683341 7.9990176050746231e-05 0 0.034568533481887903 -6.0102340246384725e-05 0 0.03462933488683341 7.9990176050746231e-05 0 0.034538007104657015 9.6334663267675442e-06 0 0.034423717397743255 0.00012357738265213758 0 0.03462933488683341 7.9990176050746231e-05 0 0.034538007104657015 9.6334663267675442e-06 0 0.034568533481887903 -6.0102340246384725e-05 0 0.034538007104657015 9.6334663267675442e-06 0 0.034568533481887903 -6.0102340246384725e-05 0 0.034434486926675334 -3.5051782878454291e-05 0 0.034482115701126942 0.00029950214314987037 0 0.034146980355274033 0.00020028611894686718 0 0.034423717397743255 0.00012357738265213758 0 0.03462933488683341 7.9990176050746231e-05 0 0.034482115701126942 0.00029950214314987037 0 0.034423717397743255 0.00012357738265213758 0 0.034538007104657015 9.6334663267675442e-06 0 0.034423717397743255 0.00012357738265213758 0 0.034328890828700026 1.8847041730419876e-06 0 0.034423717397743255 0.00012357738265213758 0 0.034132025455239863 7.4913117146432087e-05 0 0.034328890828700026 1.8847041730419876e-06 0 0.033815258185068711 8.4796662448705977e-05 0 0.034146980355274033 0.00020028611894686718 0 0.034132025455239863 7.4913117146432087e-05 0 0.034146980355274033 0.00020028611894686718 0 0.034423717397743255 0.00012357738265213758 0 0.034132025455239863 7.4913117146432087e-05 0 0.034132025455239863 7.4913117146432087e-05 0 0.033915102580771288 -8.3448032308318582e-05 0 0.034328890828700026 1.8847041730419876e-06 0 0.033815258185068711 8.4796662448705977e-05 0 0.034132025455239863 7.4913117146432087e-05 0 0.033915102580771288 -8.3448032308318582e-05 0 0.033915102580771288 -8.3448032308318582e-05 0 0.033624118361196983 -0.000320752759718523 0 0.034313121841994067 -0.00025108198494370321 0 0.033623708210587043 -0.00031229319765934739 0 0.033730306584749757 -0.00026406047581908101 0 0.034313121841994067 -0.00025108198494370321 0 0.034328890828700026 1.8847041730419876e-06 0 0.034460346000520017 -5.5002870455246835e-05 0 0.033915102580771288 -8.3448032308318582e-05 0 0.034313121841994067 -0.00025108198494370321 0 0.034328890828700026 1.8847041730419876e-06 0 0.034538007104657015 9.6334663267675442e-06 0 0.034328890828700026 1.8847041730419876e-06 0 0.034460346000520017 -5.5002870455246835e-05 0 0.034538007104657015 9.6334663267675442e-06 0 0.034460346000520017 -5.5002870455246835e-05 0 0.034434486926675334 -3.5051782878454291e-05 0 0.034460346000520017 -5.5002870455246835e-05 0 0.034434486926675334 -3.5051782878454291e-05 0 0.034462396163853791 -2.6442790480245598e-06 0 0.034434486926675334 -3.5051782878454291e-05 0 0.034462396163853791 -2.6442790480245598e-06 0 0.034216176662913753 0.00021073849093129602 0 0.034313121841994067 -0.00025108198494370321 0 0.034460346000520017 -5.5002870455246835e-05 0 0.034462396163853791 -2.6442790480245598e-06 0 0.033730306584749757 -0.00026406047581908101 0 0.033726924341525452 -6.6076598850438268e-05 0 0.033174195621616429 -0.00031410129737032097 0 0.032996888280678011 -0.0001284754737743463 0 0.033064946865473732 -0.00019041716921931702 0 0.032996888280678011 -0.0001284754737743463 0 0.032945121855402153 -0.00012019883689601019 0 0.033064946865473732 -0.00019041716921931702 0 0.032996888280678011 -0.0001284754737743463 0 0.032945121855402153 -0.00012019883689601019 0 0.033070355695203744 9.0892643018342236e-05 0 0.033726924341525452 -6.6076598850438268e-05 0 0.033647374545675901 0.00013143330449006204 0 0.032890378423292087 -9.7415045922602948e-05 0 0.032945121855402153 -0.00012019883689601019 0 0.033018960976011508 -3.8841094722796436e-05 0 0.033044954120178577 -0.00018483582839684561 0 0.032945121855402153 -0.00012019883689601019 0 0.033064946865473732 -0.00019041716921931702 0 0.033044954120178577 -0.00018483582839684561 0 0.033064946865473732 -0.00019041716921931702 0 0.033282165461893366 -0.00024478619614295516 0 0.033183639974262109 -0.00024280362222541091 0 0.033223263455652109 -0.00031202611878280485 0 0.033282165461893366 -0.00024478619614295516 0 0.033183639974262109 -0.00024280362222541091 0 0.033044954120178577 -0.00018483582839684561 0 0.033282165461893366 -0.00024478619614295516 0 0.033624118361196983 -0.000320752759718523 0 0.033174195621616429 -0.00031410129737032097 0 0.033282165461893366 -0.00024478619614295516 0 0.033174195621616429 -0.00031410129737032097 0 0.033064946865473732 -0.00019041716921931702 0 0.033282165461893366 -0.00024478619614295516 0 0.033521916198962401 0.00019373086078370731 0 0.033465283669030017 0.00012637870689460786 0 0.033344665042113579 5.2538064361542521e-05 0 0.033521916198962401 0.00019373086078370731 0 0.033465283669030017 0.00012637870689460786 0 0.033614993949287075 0.00011264670879651311 0 0.033465283669030017 0.00012637870689460786 0 0.033501160974458953 9.5565525227110635e-05 0 0.033431641756856874 8.4926788705019419e-05 0 0.033465283669030017 0.00012637870689460786 0 0.033392111253803362 6.0511473888970495e-05 0 0.033431641756856874 8.4926788705019419e-05 0 0.033319323432746316 -7.1644855478361367e-06 0 0.033392111253803362 6.0511473888970495e-05 0 0.033344665042113579 5.2538064361542521e-05 0 0.033465283669030017 0.00012637870689460786 0 0.033392111253803362 6.0511473888970495e-05 0 0.033344665042113579 5.2538064361542521e-05 0 0.033171927126590478 -1.5994246034844766e-05 0 0.033521916198962401 0.00019373086078370731 0 0.033344665042113579 5.2538064361542521e-05 0 0.033171927126590478 -1.5994246034844766e-05 0 0.033521916198962401 0.00019373086078370731 0 0.033018960976011508 -3.8841094722796436e-05 0 0.032945121855402153 -0.00012019883689601019 0 0.033018960976011508 -3.8841094722796436e-05 0 0.033070355695203744 9.0892643018342236e-05 0 0.033546249671929915 0.00018800693789668946 0 0.033647374545675901 0.00013143330449006204 0 0.033521916198962401 0.00019373086078370731 0 0.033018960976011508 -3.8841094722796436e-05 0 0.033070355695203744 9.0892643018342236e-05 0 0.033521916198962401 0.00019373086078370731 0 0.034216176662913753 0.00021073849093129602 0 0.03397760471175653 5.0324793241818654e-05 0 0.034434486926675334 -3.5051782878454291e-05 0 0.034216176662913753 0.00021073849093129602 0 0.03397760471175653 5.0324793241818654e-05 0 0.034434486926675334 -3.5051782878454291e-05 0 0.03397760471175653 5.0324793241818654e-05 0 0.034256004334509545 -6.6178757088242713e-05 0 0.034568533481887903 -6.0102340246384725e-05 0 0.034434486926675334 -3.5051782878454291e-05 0 0.034256004334509545 -6.6178757088242713e-05 0 0.03397760471175653 5.0324793241818654e-05 0 0.034256004334509545 -6.6178757088242713e-05 0 0.033848126914178385 5.2995937730106288e-06 0 0.034256004334509545 -6.6178757088242713e-05 0 0.033848126914178385 5.2995937730106288e-06 0 0.033873758265311839 -0.00023704772529516412 0 0.033848126914178385 5.2995937730106288e-06 0 0.033610055280189281 2.5478892014910984e-05 0 0.033873758265311839 -0.00023704772529516412 0 0.033848126914178385 5.2995937730106288e-06 0 0.033614993949287075 0.00011264670879651311 0 0.033610055280189281 2.5478892014910984e-05 0 0.03397760471175653 5.0324793241818654e-05 0 0.033848126914178385 5.2995937730106288e-06 0 0.033614993949287075 0.00011264670879651311 0 0.033521916198962401 0.00019373086078370731 0 0.03397760471175653 5.0324793241818654e-05 0 0.033614993949287075 0.00011264670879651311 0 0.033614993949287075 0.00011264670879651311 0 0.033501160974458953 9.5565525227110635e-05 0 0.033610055280189281 2.5478892014910984e-05 0 0.033465283669030017 0.00012637870689460786 0 0.033614993949287075 0.00011264670879651311 0 0.033501160974458953 9.5565525227110635e-05 0 0.033610055280189281 2.5478892014910984e-05 0 0.033529615596725897 -7.9570805988628878e-05 0 0.033490290270402692 5.4911729170977108e-05 0 0.033501160974458953 9.5565525227110635e-05 0 0.033610055280189281 2.5478892014910984e-05 0 0.033490290270402692 5.4911729170977108e-05 0 0.034817091978172669 6.2734457060715433e-05 0 0.034859855750639226 -9.895267165931425e-05 0 0.034829568624925082 -5.6143818192384593e-05 0 0.034173771641597586 -4.9609343622841645e-06 0 0.034360313111183961 -0.00014684549127347188 0 0.033610055280189281 2.5478892014910984e-05 0 0.033529615596725897 -7.9570805988628878e-05 0 0.033873758265311839 -0.00023704772529516412 0 0.034859855750639226 -9.895267165931425e-05 0 0.034834354416420014 -1.4340262245999937e-05 0 0.03490573024243003 -5.7027642152237656e-05 0 0.034859855750639226 -9.895267165931425e-05 0 0.034829568624925082 -5.6143818192384593e-05 0 0.03490573024243003 -5.7027642152237656e-05 0 0.034716022055036488 1.054846775039843e-05 0 0.03454897090174204 -0.00014990764401833656 0 0.034834354416420014 -1.4340262245999937e-05 0 0.034568533481887903 -6.0102340246384725e-05 0 0.034256004334509545 -6.6178757088242713e-05 0 0.03454897090174204 -0.00014990764401833656 0 0.034256004334509545 -6.6178757088242713e-05 0 0.033873758265311839 -0.00023704772529516412 0 0.03454897090174204 -0.00014990764401833656 0 0.034360313111183961 -0.00014684549127347188 0 0.034512210194574733 -0.00015765094748585449 0 0.034859855750639226 -9.895267165931425e-05 0 0.03454897090174204 -0.00014990764401833656 0 0.034834354416420014 -1.4340262245999937e-05 0 0.034716022055036488 1.054846775039843e-05 0 0.034568533481887903 -6.0102340246384725e-05 0 0.03454897090174204 -0.00014990764401833656 0 0.034716022055036488 1.054846775039843e-05 0 0.034834354416420014 -1.4340262245999937e-05 0 0.034999717859889146 -1.3679570694797617e-08 0 0.034834354416420014 -1.4340262245999937e-05 0 0.034999717859889146 -1.3679570694797617e-08 0 0.034999863682087684 4.5784432183145696e-08 0 0.034829568624925082 -5.6143818192384593e-05 0 0.03490573024243003 -5.7027642152237656e-05 0 0.034840429459831949 -0.00014135508018658821 0 0.034834354416420014 -1.4340262245999937e-05 0 0.03490573024243003 -5.7027642152237656e-05 0 0.034999863682087684 4.5784432183145696e-08 0 0.03490573024243003 -5.7027642152237656e-05 0 0.03499976083478594 -1.503322588365662e-07 0 0.034840429459831949 -0.00014135508018658821 0 0.03490573024243003 -5.7027642152237656e-05 0 0.034999863682087684 4.5784432183145696e-08 0 0.03499976083478594 -1.503322588365662e-07 0 0.03499976083478594 -1.503322588365662e-07 0 0.034840429459831949 -0.00014135508018658821 0 0.034999956817040614 1.12109673486539e-08 0 0.034840429459831949 -0.00014135508018658821 0 0.03423854596633108 -0.00032343203071679403 0 0.034416195548205707 -0.0001104871498586242 0 0.034799916545166697 -0.00016240824758582725 0 0.034591010115413698 -0.00018672621503936589 0 0.034840429459831949 -0.00014135508018658821 0 0.034999956817040614 1.12109673486539e-08 0 0.034978129312236469 -9.222146216446277e-05 0 0.034999956817040614 1.12109673486539e-08 0 0.035000251032189553 -3.403425269986414e-05 0 0.034978129312236469 -9.222146216446277e-05 0 0.034999956817040614 1.12109673486539e-08 0 0.035000017936368061 -4.0549776951874189e-08 0 0.035000251032189553 -3.403425269986414e-05 0 0.035000017936368061 -4.0549776951874189e-08 0 0.035000251032189553 -3.403425269986414e-05 0 0.035002045966130449 -1.8659819054138723e-05 0 0.035000251032189553 -3.403425269986414e-05 0 0.035002045966130449 -1.8659819054138723e-05 0 0.035001272419099921 -3.2061500769953055e-05 0 0.035000251032189553 -3.403425269986414e-05 0 0.034998776397265473 -4.6734935098708098e-05 0 0.034978129312236469 -9.222146216446277e-05 0 0.035000251032189553 -3.403425269986414e-05 0 0.034998776397265473 -4.6734935098708098e-05 0 0.035001272419099921 -3.2061500769953055e-05 0 0.034469410705968144 -0.00016383263821707794 0 0.034591010115413698 -0.00018672621503936589 0 0.03423854596633108 -0.00032343203071679403 0 0.034030497088948418 -4.880069327233233e-05 0 0.034416195548205707 -0.0001104871498586242 0 0.033821642230123843 -0.00025151243901662098 0 0.03423854596633108 -0.00032343203071679403 0 0.034030497088948418 -4.880069327233233e-05 0 0.034030497088948418 -4.880069327233233e-05 0 0.034317319645916326 5.4965287739427879e-05 0 0.034416195548205707 -0.0001104871498586242 0 0.033821642230123843 -0.00025151243901662098 0 0.034030497088948418 -4.880069327233233e-05 0 0.033743199471512331 1.4796290673827407e-05 0 0.034030497088948418 -4.880069327233233e-05 0 0.033743199471512331 1.4796290673827407e-05 0 0.033778371211854376 0.00019479760809336022 0 0.034030497088948418 -4.880069327233233e-05 0 0.034317319645916326 5.4965287739427879e-05 0 0.033778371211854376 0.00019479760809336022 0 0.034317319645916326 5.4965287739427879e-05 0 0.034456070880855713 0.00025971588606307446 0 0.033778371211854376 0.00019479760809336022 0 0.034317319645916326 5.4965287739427879e-05 0 0.03463736310021219 4.3683622465175861e-05 0 0.034622909165832209 -5.0123959999274703e-05 0 0.034317319645916326 5.4965287739427879e-05 0 0.03463736310021219 4.3683622465175861e-05 0 0.034456070880855713 0.00025971588606307446 0 0.034817091978172669 6.2734457060715433e-05 0 0.03463736310021219 4.3683622465175861e-05 0 0.034456070880855713 0.00025971588606307446 0 0.034817091978172669 6.2734457060715433e-05 0 0.034829568624925082 -5.6143818192384593e-05 0 0.03463736310021219 4.3683622465175861e-05 0 0.034173771641597586 -4.9609343622841645e-06 0 0.033981433601794044 0.00016313894542399946 0 0.034829568624925082 -5.6143818192384593e-05 0 0.03463736310021219 4.3683622465175861e-05 0 0.034622909165832209 -5.0123959999274703e-05 0 0.034829568624925082 -5.6143818192384593e-05 0 0.034840429459831949 -0.00014135508018658821 0 0.034622909165832209 -5.0123959999274703e-05 0 0.034840429459831949 -0.00014135508018658821 0 0.034416195548205707 -0.0001104871498586242 0 0.034622909165832209 -5.0123959999274703e-05 0 0.034317319645916326 5.4965287739427879e-05 0 0.034416195548205707 -0.0001104871498586242 0 0.034622909165832209 -5.0123959999274703e-05 0 0.034974625298474685 2.5605900781494639e-05 0 0.034992285974943367 6.3800676409999796e-06 0 0.034947254656791715 1.8374937121925978e-05 0 0.034999962958560824 4.2606480707568951e-08 0 0.034995681644101696 -1.4485349976507911e-06 0 0.03499992641507213 -9.1739901572010731e-09 0 0.034992285974943367 6.3800676409999796e-06 0 0.034947254656791715 1.8374937121925978e-05 0 0.034992285974943367 6.3800676409999796e-06 0 0.034994663673327313 1.0065486011416221e-05 0 0.035000021666254287 6.4327289388604985e-09 0 0.03499992641507213 -9.1739901572010731e-09 0 0.034992285974943367 6.3800676409999796e-06 0 0.035000021666254287 6.4327289388604985e-09 0 0.034974625298474685 2.5605900781494639e-05 0 0.034992285974943367 6.3800676409999796e-06 0 0.034988404348266215 1.687625333261275e-05 0 0.034994663673327313 1.0065486011416221e-05 0 0.034988404348266215 1.687625333261275e-05 0 0.034993228189425393 2.0579280922315277e-05 0 0.034994663673327313 1.0065486011416221e-05 0 0.034993228189425393 2.0579280922315277e-05 0 0.034996976748182897 1.3815269930554473e-05 0 0.034992285974943367 6.3800676409999796e-06 0 0.034994663673327313 1.0065486011416221e-05 0 0.034988404348266215 1.687625333261275e-05 0 0.034974625298474685 2.5605900781494639e-05 0 0.034988404348266215 1.687625333261275e-05 0 0.034985085529731688 2.7474338087686155e-05 0 0.034988404348266215 1.687625333261275e-05 0 0.034993228189425393 2.0579280922315277e-05 0 0.034985085529731688 2.7474338087686155e-05 0 0.033734370789527415 -0.00016687983905293782 0 0.033634417040661259 -4.5279435562498895e-05 0 0.03361939061080773 -3.6823593885776158e-05 0 0.034998556240520985 1.8752784598845332e-05 0 0.035006163669294862 5.3845168396320251e-06 0 0.034995905671524032 3.5099688915013493e-05 0 0.034542044685145594 -8.7519130740089341e-05 0 0.034272693843246591 1.1054959640165324e-05 0 0.033734370789527415 -0.00016687983905293782 0 0.033720620056395978 -5.6647419352750511e-05 0 0.033634417040661259 -4.5279435562498895e-05 0 0.034993228189425393 2.0579280922315277e-05 0 0.034998556240520985 1.8752784598845332e-05 0 0.034995905671524032 3.5099688915013493e-05 0 0.034993228189425393 2.0579280922315277e-05 0 0.034998556240520985 1.8752784598845332e-05 0 0.034996976748182897 1.3815269930554473e-05 0 0.035000061809279302 1.204680360359922e-05 0 0.035001162268584997 6.0651685598204039e-06 0 0.035006163669294862 5.3845168396320251e-06 0 0.034998556240520985 1.8752784598845332e-05 0 0.035000061809279302 1.204680360359922e-05 0 0.035006163669294862 5.3845168396320251e-06 0 0.035000061809279302 1.204680360359922e-05 0 0.034998074240230409 7.637351268894287e-06 0 0.035001162268584997 6.0651685598204039e-06 0 0.035000061809279302 1.204680360359922e-05 0 0.034996976748182897 1.3815269930554473e-05 0 0.034998074240230409 7.637351268894287e-06 0 0.034998556240520985 1.8752784598845332e-05 0 0.035000061809279302 1.204680360359922e-05 0 0.034996976748182897 1.3815269930554473e-05 0 0.034994663673327313 1.0065486011416221e-05 0 0.034996976748182897 1.3815269930554473e-05 0 0.034998074240230409 7.637351268894287e-06 0 0.034998074240230409 7.637351268894287e-06 0 0.035000021666254287 6.4327289388604985e-09 0 0.035000325099614017 3.7741064429763963e-06 0 0.034994663673327313 1.0065486011416221e-05 0 0.034998074240230409 7.637351268894287e-06 0 0.035000021666254287 6.4327289388604985e-09 0 0.034998074240230409 7.637351268894287e-06 0 0.035000325099614017 3.7741064429763963e-06 0 0.035001162268584997 6.0651685598204039e-06 0 0.035000021666254287 6.4327289388604985e-09 0 0.035002591747788019 1.1941290759739378e-06 0 0.035000325099614017 3.7741064429763963e-06 0 0.035000021666254287 6.4327289388604985e-09 0 0.035002591747788019 1.1941290759739378e-06 0 0.035004214993291038 -4.5755082665091775e-06 0 0.035002591747788019 1.1941290759739378e-06 0 0.035000325099614017 3.7741064429763963e-06 0 0.035001162268584997 6.0651685598204039e-06 0 0.035002591747788019 1.1941290759739378e-06 0 0.035001162268584997 6.0651685598204039e-06 0 0.035006163669294862 5.3845168396320251e-06 0 0.034542044685145594 -8.7519130740089341e-05 0 0.034755944003247052 -2.4989016068469998e-05 0 0.035000017936368061 -4.0549776951874189e-08 0 0.035000021666254287 6.4327289388604985e-09 0 0.035004214993291038 -4.5755082665091775e-06 0 0.035002591747788019 1.1941290759739378e-06 0 0.035006163669294862 5.3845168396320251e-06 0 0.035004214993291038 -4.5755082665091775e-06 0 0.035004966885598586 -1.5069212242022747e-05 0 0.035004214993291038 -4.5755082665091775e-06 0 0.035002045966130449 -1.8659819054138723e-05 0 0.035000017936368061 -4.0549776951874189e-08 0 0.035004214993291038 -4.5755082665091775e-06 0 0.035002045966130449 -1.8659819054138723e-05 0 0.035010103578810257 -2.2435539517438288e-05 0 0.035004966885598586 -1.5069212242022747e-05 0 0.035004214993291038 -4.5755082665091775e-06 0 0.034542044685145594 -8.7519130740089341e-05 0 0.034672281527177808 -0.00013680377881328056 0 0.035008961127021732 -2.4578699058900262e-05 0 0.035004966885598586 -1.5069212242022747e-05 0 0.035003940476775762 -2.6037844419250548e-05 0 0.035004966885598586 -1.5069212242022747e-05 0 0.035002045966130449 -1.8659819054138723e-05 0 0.035003940476775762 -2.6037844419250548e-05 0 0.035008961127021732 -2.4578699058900262e-05 0 0.03500306141516954 -3.4161230163352448e-05 0 0.03500202816807893 -3.9166216013184049e-05 0 0.035002045966130449 -1.8659819054138723e-05 0 0.035001272419099921 -3.2061500769953055e-05 0 0.035003940476775762 -2.6037844419250548e-05 0 0.034542044685145594 -8.7519130740089341e-05 0 0.03402539274449614 -1.5512427244429329e-05 0 0.034998776397265473 -4.6734935098708098e-05 0 0.03500306141516954 -3.4161230163352448e-05 0 0.03500202816807893 -3.9166216013184049e-05 0 0.035001272419099921 -3.2061500769953055e-05 0 0.035003940476775762 -2.6037844419250548e-05 0 0.03500306141516954 -3.4161230163352448e-05 0 0.035008961127021732 -2.4578699058900262e-05 0 0.035003940476775762 -2.6037844419250548e-05 0 0.03500306141516954 -3.4161230163352448e-05 0 0.034998776397265473 -4.6734935098708098e-05 0 0.035001272419099921 -3.2061500769953055e-05 0 0.03500306141516954 -3.4161230163352448e-05 0 0.033821642230123843 -0.00025151243901662098 0 0.033743199471512331 1.4796290673827407e-05 0 0.033584370646817664 -0.00016800371230003472 0 0.034469410705968144 -0.00016383263821707794 0 0.03402539274449614 -1.5512427244429329e-05 0 0.033743199471512331 1.4796290673827407e-05 0 0.033606645753445935 8.286567936337308e-05 0 0.033663750353094109 0.00011784159426416916 0 0.033743199471512331 1.4796290673827407e-05 0 0.033606645753445935 8.286567936337308e-05 0 0.033584370646817664 -0.00016800371230003472 0 0.033638099983613994 1.2987568982855365e-05 0 0.033634417040661259 -4.5279435562498895e-05 0 0.033610933795702562 7.2536342607956717e-07 0 0.033569121880092159 2.3073511222565342e-05 0 0.03402539274449614 -1.5512427244429329e-05 0 0.033638099983613994 1.2987568982855365e-05 0 0.033660401396272292 -4.9134844723949529e-05 0 0.033634417040661259 -4.5279435562498895e-05 0 0.033634417040661259 -4.5279435562498895e-05 0 0.03361939061080773 -3.6823593885776158e-05 0 0.033610933795702562 7.2536342607956717e-07 0 0.03402539274449614 -1.5512427244429329e-05 0 0.033571321661132594 -1.4565918567935603e-05 0 0.034995905671524032 3.5099688915013493e-05 0 0.034966059065843241 7.8302312944518522e-05 0 0.034973578842528413 4.1732210247409332e-05 0 0.034995905671524032 3.5099688915013493e-05 0 0.034985085529731688 2.7474338087686155e-05 0 0.034973578842528413 4.1732210247409332e-05 0 0.034993228189425393 2.0579280922315277e-05 0 0.034995905671524032 3.5099688915013493e-05 0 0.034985085529731688 2.7474338087686155e-05 0 0.034974625298474685 2.5605900781494639e-05 0 0.034985085529731688 2.7474338087686155e-05 0 0.034973578842528413 4.1732210247409332e-05 0 0.03361939061080773 -3.6823593885776158e-05 0 0.033610933795702562 7.2536342607956717e-07 0 0.033582008262509719 1.5415593211887365e-05 0 0.034272693843246591 1.1054959640165324e-05 0 0.034313532905456211 3.5194747959029364e-05 0 0.034966059065843241 7.8302312944518522e-05 0 0.034954446540145706 4.7450000308509892e-05 0 0.034938623536952929 7.2151907185346735e-05 0 0.034966059065843241 7.8302312944518522e-05 0 0.034954446540145706 4.7450000308509892e-05 0 0.034973578842528413 4.1732210247409332e-05 0 0.034974625298474685 2.5605900781494639e-05 0 0.034954446540145706 4.7450000308509892e-05 0 0.034947254656791715 1.8374937121925978e-05 0 0.034974625298474685 2.5605900781494639e-05 0 0.034954446540145706 4.7450000308509892e-05 0 0.034973578842528413 4.1732210247409332e-05 0 0.03357911089293629 3.5653551200319754e-05 0 0.033580625803873207 4.125738942377494e-05 0 0.033573328831864861 2.6366507829464757e-05 0 0.03357911089293629 3.5653551200319754e-05 0 0.033573328831864861 2.6366507829464757e-05 0 0.033576235645073838 3.5142903216660172e-05 0 0.034313532905456211 3.5194747959029364e-05 0 0.034055425707263817 7.743076694926417e-05 0 0.033582008262509719 1.5415593211887365e-05 0 0.03357911089293629 3.5653551200319754e-05 0 0.033576235645073838 3.5142903216660172e-05 0 0.034966059065843241 7.8302312944518522e-05 0 0.034925527448993895 0.00012193592105744367 0 0.034938623536952929 7.2151907185346735e-05 0 0.033610933795702562 7.2536342607956717e-07 0 0.033582008262509719 1.5415593211887365e-05 0 0.033587433918167119 3.8356847745009923e-05 0 0.033582008262509719 1.5415593211887365e-05 0 0.03357911089293629 3.5653551200319754e-05 0 0.033587433918167119 3.8356847745009923e-05 0 0.033587433918167119 3.8356847745009923e-05 0 0.033580625803873207 4.125738942377494e-05 0 0.033609266117536243 7.2904211966885374e-05 0 0.03357911089293629 3.5653551200319754e-05 0 0.033587433918167119 3.8356847745009923e-05 0 0.033580625803873207 4.125738942377494e-05 0 0.033638099983613994 1.2987568982855365e-05 0 0.033587433918167119 3.8356847745009923e-05 0 0.033609266117536243 7.2904211966885374e-05 0 0.033569121880092159 2.3073511222565342e-05 0 0.033624412163182293 8.0059082338481194e-05 0 0.033638099983613994 1.2987568982855365e-05 0 0.033610933795702562 7.2536342607956717e-07 0 0.033587433918167119 3.8356847745009923e-05 0 0.033606645753445935 8.286567936337308e-05 0 0.033609266117536243 7.2904211966885374e-05 0 0.033663750353094109 0.00011784159426416916 0 0.033609266117536243 7.2904211966885374e-05 0 0.033663750353094109 0.00011784159426416916 0 0.033636678464394935 9.5555916213177866e-05 0 0.033609266117536243 7.2904211966885374e-05 0 0.033578082278579335 5.5139724215390784e-05 0 0.033636678464394935 9.5555916213177866e-05 0 0.033578082278579335 5.5139724215390784e-05 0 0.033636678464394935 9.5555916213177866e-05 0 0.033512464498735586 3.3551044394110232e-05 0 0.033539604864337852 1.8489232884853856e-05 0 0.033512464498735586 3.3551044394110232e-05 0 0.033467320545449521 -9.7678388236944271e-06 0 0.033578082278579335 5.5139724215390784e-05 0 0.033539604864337852 1.8489232884853856e-05 0 0.033512464498735586 3.3551044394110232e-05 0 0.033578082278579335 5.5139724215390784e-05 0 0.033539604864337852 1.8489232884853856e-05 0 0.033569110162957105 2.614730231535233e-05 0 0.033539604864337852 1.8489232884853856e-05 0 0.033569110162957105 2.614730231535233e-05 0 0.033548202176560425 -8.7704278665109836e-06 0 0.033609266117536243 7.2904211966885374e-05 0 0.033578082278579335 5.5139724215390784e-05 0 0.033580588410812545 4.2289304657807772e-05 0 0.033578082278579335 5.5139724215390784e-05 0 0.033580588410812545 4.2289304657807772e-05 0 0.033569110162957105 2.614730231535233e-05 0 0.033580625803873207 4.125738942377494e-05 0 0.033609266117536243 7.2904211966885374e-05 0 0.033580588410812545 4.2289304657807772e-05 0 0.033580625803873207 4.125738942377494e-05 0 0.033580588410812545 4.2289304657807772e-05 0 0.033573024891691866 2.886494105122195e-05 0 0.033580588410812545 4.2289304657807772e-05 0 0.033571843378407108 2.6684546415625306e-05 0 0.033573024891691866 2.886494105122195e-05 0 0.033580588410812545 4.2289304657807772e-05 0 0.033569110162957105 2.614730231535233e-05 0 0.033571843378407108 2.6684546415625306e-05 0 0.033569110162957105 2.614730231535233e-05 0 0.033564770472381544 1.2619947623839298e-05 0 0.033561689818914442 3.8727406485724328e-06 0 0.033569110162957105 2.614730231535233e-05 0 0.033564770472381544 1.2619947623839298e-05 0 0.033571843378407108 2.6684546415625306e-05 0 0.033564770472381544 1.2619947623839298e-05 0 0.033571843378407108 2.6684546415625306e-05 0 0.033566600595592272 2.0076642867328888e-05 0 0.033564770472381544 1.2619947623839298e-05 0 0.033559215185621452 1.1221003769177256e-05 0 0.033566600595592272 2.0076642867328888e-05 0 0.033559215185621452 1.1221003769177256e-05 0 0.033566600595592272 2.0076642867328888e-05 0 0.033561163052406015 1.6744400931869004e-05 0 0.033566600595592272 2.0076642867328888e-05 0 0.033567389532712363 2.1908655470066527e-05 0 0.033561163052406015 1.6744400931869004e-05 0 0.033566600595592272 2.0076642867328888e-05 0 0.033567389532712363 2.1908655470066527e-05 0 0.033573024891691866 2.886494105122195e-05 0 0.033580625803873207 4.125738942377494e-05 0 0.033573024891691866 2.886494105122195e-05 0 0.033573328831864861 2.6366507829464757e-05 0 0.033571843378407108 2.6684546415625306e-05 0 0.033566600595592272 2.0076642867328888e-05 0 0.033573024891691866 2.886494105122195e-05 0 0.033567389532712363 2.1908655470066527e-05 0 0.033573024891691866 2.886494105122195e-05 0 0.033573328831864861 2.6366507829464757e-05 0 0.033498735346198717 9.4500398974987562e-05 0 0.033487473159949807 5.886392474640173e-05 0 0.033463760619664017 7.9902889042916266e-05 0 0.033500978560377863 9.0675163991396277e-05 0 0.033437933674611522 7.2198034458249529e-05 0 0.033500978560377863 9.0675163991396277e-05 0 0.033626747620162538 9.62385834559014e-05 0 0.033547040845866988 4.6134563958096554e-05 0 0.033501160974458953 9.5565525227110635e-05 0 0.033463760619664017 7.9902889042916266e-05 0 0.033431641756856874 8.4926788705019419e-05 0 0.033501160974458953 9.5565525227110635e-05 0 0.033463760619664017 7.9902889042916266e-05 0 0.033490290270402692 5.4911729170977108e-05 0 0.033463760619664017 7.9902889042916266e-05 0 0.033490290270402692 5.4911729170977108e-05 0 0.033500978560377863 9.0675163991396277e-05 0 0.033529615596725897 -7.9570805988628878e-05 0 0.033490290270402692 5.4911729170977108e-05 0 0.03349528697726465 0.00011088955042948021 0 0.033490290270402692 5.4911729170977108e-05 0 0.03349528697726465 0.00011088955042948021 0 0.033500978560377863 9.0675163991396277e-05 0 0.03349528697726465 0.00011088955042948021 0 0.033500978560377863 9.0675163991396277e-05 0 0.033626747620162538 9.62385834559014e-05 0 0.03349528697726465 0.00011088955042948021 0 0.033778371211854376 0.00019479760809336022 0 0.033626747620162538 9.62385834559014e-05 0 0.033778371211854376 0.00019479760809336022 0 0.033626747620162538 9.62385834559014e-05 0 0.033636678464394935 9.5555916213177866e-05 0 0.033981433601794044 0.00016313894542399946 0 0.033815774658840531 0.0001976445625945611 0 0.033663750353094109 0.00011784159426416916 0 0.033778371211854376 0.00019479760809336022 0 0.033636678464394935 9.5555916213177866e-05 0 0.033743199471512331 1.4796290673827407e-05 0 0.033663750353094109 0.00011784159426416916 0 0.033778371211854376 0.00019479760809336022 0 0.033626747620162538 9.62385834559014e-05 0 0.033636678464394935 9.5555916213177866e-05 0 0.033547040845866988 4.6134563958096554e-05 0 0.033636678464394935 9.5555916213177866e-05 0 0.033512464498735586 3.3551044394110232e-05 0 0.033547040845866988 4.6134563958096554e-05 0 0.033487473159949807 5.886392474640173e-05 0 0.033392372964937959 -1.4375424888142396e-05 0 0.033512464498735586 3.3551044394110232e-05 0 0.033547040845866988 4.6134563958096554e-05 0 0.033424223638610154 -3.9524354271626942e-06 0 0.033379601242125273 1.897005844015801e-05 0 0.033437933674611522 7.2198034458249529e-05 0 0.033378365867024459 -1.1392727415567612e-05 0 0.033379601242125273 1.897005844015801e-05 0 0.033437933674611522 7.2198034458249529e-05 0 0.033431641756856874 8.4926788705019419e-05 0 0.033463760619664017 7.9902889042916266e-05 0 0.033437933674611522 7.2198034458249529e-05 0 0.033431641756856874 8.4926788705019419e-05 0 0.033392111253803362 6.0511473888970495e-05 0 0.033379601242125273 1.897005844015801e-05 0 0.033431641756856874 8.4926788705019419e-05 0 0.033319323432746316 -7.1644855478361367e-06 0 0.033392111253803362 6.0511473888970495e-05 0 0.033379601242125273 1.897005844015801e-05 0 0.033319323432746316 -7.1644855478361367e-06 0 0.033379601242125273 1.897005844015801e-05 0 0.033318309055084518 -6.4627471814279503e-05 0 0.033379601242125273 1.897005844015801e-05 0 0.0333105090440751 -6.9918552677375223e-05 0 0.033318309055084518 -6.4627471814279503e-05 0 0.033379601242125273 1.897005844015801e-05 0 0.0333105090440751 -6.9918552677375223e-05 0 0.033378365867024459 -1.1392727415567612e-05 0 0.0333105090440751 -6.9918552677375223e-05 0 0.033280222129767965 -8.8823835428161383e-05 0 0.033238358603043 -9.379622879343306e-05 0 0.0333105090440751 -6.9918552677375223e-05 0 0.033318309055084518 -6.4627471814279503e-05 0 0.033280222129767965 -8.8823835428161383e-05 0 0.033241093878683702 -0.00012363391546390881 0 0.033295010086635039 -9.9185923588791837e-05 0 0.033298232673836733 -0.00013559576170034705 0 0.033318309055084518 -6.4627471814279503e-05 0 0.033295010086635039 -9.9185923588791837e-05 0 0.033280222129767965 -8.8823835428161383e-05 0 0.033241093878683702 -0.00012363391546390881 0 0.033318309055084518 -6.4627471814279503e-05 0 0.033295010086635039 -9.9185923588791837e-05 0 0.033280222129767965 -8.8823835428161383e-05 0 0.033275475797023626 -5.4540680573625541e-05 0 0.033161728904326553 -3.2866351219916242e-05 0 0.033295010086635039 -9.9185923588791837e-05 0 0.033280222129767965 -8.8823835428161383e-05 0 0.033275475797023626 -5.4540680573625541e-05 0 0.033275475797023626 -5.4540680573625541e-05 0 0.033298232673836733 -0.00013559576170034705 0 0.033226242094179681 9.8114716553225964e-05 0 0.033275475797023626 -5.4540680573625541e-05 0 0.033161728904326553 -3.2866351219916242e-05 0 0.033226242094179681 9.8114716553225964e-05 0 0.032397575578021372 -3.8121206079031657e-05 0 0.032563523383281084 0.0001705253710129848 0 0.033295010086635039 -9.9185923588791837e-05 0 0.033275475797023626 -5.4540680573625541e-05 0 0.033298232673836733 -0.00013559576170034705 0 0.032972093649724414 3.1727517589026668e-05 0 0.032835332004395465 0.0001145514663268349 0 0.032723852292831285 0.00021010860265610045 0 0.032972093649724414 3.1727517589026668e-05 0 0.033161728904326553 -3.2866351219916242e-05 0 0.032723852292831285 0.00021010860265610045 0 0.032972093649724414 3.1727517589026668e-05 0 0.032882494284292275 4.0229801889287553e-05 0 0.032835332004395465 0.0001145514663268349 0 0.033161728904326553 -3.2866351219916242e-05 0 0.033226242094179681 9.8114716553225964e-05 0 0.032723852292831285 0.00021010860265610045 0 0.032972093649724414 3.1727517589026668e-05 0 0.033161728904326553 -3.2866351219916242e-05 0 0.033142981750854311 -6.7383283039816697e-05 0 0.033161728904326553 -3.2866351219916242e-05 0 0.033142981750854311 -6.7383283039816697e-05 0 0.033238358603043 -9.379622879343306e-05 0 0.033280222129767965 -8.8823835428161383e-05 0 0.033161728904326553 -3.2866351219916242e-05 0 0.033238358603043 -9.379622879343306e-05 0 0.033142981750854311 -6.7383283039816697e-05 0 0.033238358603043 -9.379622879343306e-05 0 0.033228540462149778 -0.00012071704225430927 0 0.033142981750854311 -6.7383283039816697e-05 0 0.033130883943738802 -9.5063892457904488e-05 0 0.033228540462149778 -0.00012071704225430927 0 0.033142981750854311 -6.7383283039816697e-05 0 0.033130883943738802 -9.5063892457904488e-05 0 0.032997766168877667 -3.2086376655517882e-05 0 0.032972093649724414 3.1727517589026668e-05 0 0.033142981750854311 -6.7383283039816697e-05 0 0.032997766168877667 -3.2086376655517882e-05 0 0.032972093649724414 3.1727517589026668e-05 0 0.032882494284292275 4.0229801889287553e-05 0 0.032997766168877667 -3.2086376655517882e-05 0 0.032882494284292275 4.0229801889287553e-05 0 0.032997766168877667 -3.2086376655517882e-05 0 0.032842411175817425 -5.6488936727978847e-05 0 0.033130883943738802 -9.5063892457904488e-05 0 0.032997766168877667 -3.2086376655517882e-05 0 0.032999658822545248 -0.00010926716136055268 0 0.032997766168877667 -3.2086376655517882e-05 0 0.032999658822545248 -0.00010926716136055268 0 0.032842411175817425 -5.6488936727978847e-05 0 0.032999658822545248 -0.00010926716136055268 0 0.033251070839295647 -0.00014033225949716186 0 0.03280615660328666 -0.00025020340226664318 0 0.033176010095382992 -0.00015155242078844128 0 0.033294786139180868 -0.00016433735331069772 0 0.033251070839295647 -0.00014033225949716186 0 0.033411674288429775 -5.4124201765105659e-05 0 0.033498639663665876 -0.0001093731918985923 0 0.033251070839295647 -0.00014033225949716186 0 0.033228540462149778 -0.00012071704225430927 0 0.03336700072874875 -4.3455264165532415e-05 0 0.033130883943738802 -9.5063892457904488e-05 0 0.032999658822545248 -0.00010926716136055268 0 0.033251070839295647 -0.00014033225949716186 0 0.033130883943738802 -9.5063892457904488e-05 0 0.033251070839295647 -0.00014033225949716186 0 0.033228540462149778 -0.00012071704225430927 0 0.033251070839295647 -0.00014033225949716186 0 0.033411674288429775 -5.4124201765105659e-05 0 0.03336700072874875 -4.3455264165532415e-05 0 0.0333105090440751 -6.9918552677375223e-05 0 0.033228540462149778 -0.00012071704225430927 0 0.033378365867024459 -1.1392727415567612e-05 0 0.0333105090440751 -6.9918552677375223e-05 0 0.033238358603043 -9.379622879343306e-05 0 0.033228540462149778 -0.00012071704225430927 0 0.033228540462149778 -0.00012071704225430927 0 0.033424223638610154 -3.9524354271626942e-06 0 0.03336700072874875 -4.3455264165532415e-05 0 0.033258655452666486 -0.00011053184138080481 0 0.033392372964937959 -1.4375424888142396e-05 0 0.033512464498735586 3.3551044394110232e-05 0 0.033424223638610154 -3.9524354271626942e-06 0 0.03336700072874875 -4.3455264165532415e-05 0 0.033512464498735586 3.3551044394110232e-05 0 0.03336700072874875 -4.3455264165532415e-05 0 0.033467320545449521 -9.7678388236944271e-06 0 0.033411674288429775 -5.4124201765105659e-05 0 0.03336700072874875 -4.3455264165532415e-05 0 0.033467320545449521 -9.7678388236944271e-06 0 0.033539604864337852 1.8489232884853856e-05 0 0.033467320545449521 -9.7678388236944271e-06 0 0.033508762663290829 -2.7842823985762992e-05 0 0.033411674288429775 -5.4124201765105659e-05 0 0.033467320545449521 -9.7678388236944271e-06 0 0.033508762663290829 -2.7842823985762992e-05 0 0.033539604864337852 1.8489232884853856e-05 0 0.033508762663290829 -2.7842823985762992e-05 0 0.033548202176560425 -8.7704278665109836e-06 0 0.033569110162957105 2.614730231535233e-05 0 0.033548202176560425 -8.7704278665109836e-06 0 0.033561689818914442 3.8727406485724328e-06 0 0.033548202176560425 -8.7704278665109836e-06 0 0.033561689818914442 3.8727406485724328e-06 0 0.033553746179505566 -1.7540544649311398e-05 0 0.033548202176560425 -8.7704278665109836e-06 0 0.033548225804271775 -2.7940815167045248e-05 0 0.033553746179505566 -1.7540544649311398e-05 0 0.033548202176560425 -8.7704278665109836e-06 0 0.033536408687536504 -4.6465465769464247e-05 0 0.033548225804271775 -2.7940815167045248e-05 0 0.033508762663290829 -2.7842823985762992e-05 0 0.033548202176560425 -8.7704278665109836e-06 0 0.033536408687536504 -4.6465465769464247e-05 0 0.033536408687536504 -4.6465465769464247e-05 0 0.033549086608054127 -5.2268873281052481e-05 0 0.033498639663665876 -0.0001093731918985923 0 0.032495410147670434 -0.00023905100152959847 0 0.03280615660328666 -0.00025020340226664318 0 0.032667328122914702 -0.00013285779228335937 0 0.032271935560117267 -0.00031524550988888108 0 0.033294786139180868 -0.00016433735331069772 0 0.033548225804271775 -2.7940815167045248e-05 0 0.033550627947087734 -3.5009872419515302e-05 0 0.033553746179505566 -1.7540544649311398e-05 0 0.033536408687536504 -4.6465465769464247e-05 0 0.033548225804271775 -2.7940815167045248e-05 0 0.033550627947087734 -3.5009872419515302e-05 0 0.033536408687536504 -4.6465465769464247e-05 0 0.033550627947087734 -3.5009872419515302e-05 0 0.033549086608054127 -5.2268873281052481e-05 0 0.032612449999137032 -1.8951737202453632e-05 0 0.032271935560117267 -0.00031524550988888108 0 0.033411674288429775 -5.4124201765105659e-05 0 0.033508762663290829 -2.7842823985762992e-05 0 0.033498639663665876 -0.0001093731918985923 0 0.033508762663290829 -2.7842823985762992e-05 0 0.033536408687536504 -4.6465465769464247e-05 0 0.033498639663665876 -0.0001093731918985923 0 0.033551054896831058 2.6205395892523558e-06 0 0.033547728219467741 -5.6245229137997894e-06 0 0.033542920077779419 1.38464077238381e-06 0 0.033559215185621452 1.1221003769177256e-05 0 0.033551054896831058 2.6205395892523558e-06 0 0.03355361557069933 8.5533822262348846e-06 0 0.033559215185621452 1.1221003769177256e-05 0 0.033551054896831058 2.6205395892523558e-06 0 0.033557293027186776 2.0389516294176284e-06 0 0.033564770472381544 1.2619947623839298e-05 0 0.033559215185621452 1.1221003769177256e-05 0 0.033557293027186776 2.0389516294176284e-06 0 0.033551054896831058 2.6205395892523558e-06 0 0.033557293027186776 2.0389516294176284e-06 0 0.033547728219467741 -5.6245229137997894e-06 0 0.033557293027186776 2.0389516294176284e-06 0 0.033555095790896092 -8.3758620936011267e-06 0 0.033547728219467741 -5.6245229137997894e-06 0 0.033557293027186776 2.0389516294176284e-06 0 0.033555095790896092 -8.3758620936011267e-06 0 0.033561689818914442 3.8727406485724328e-06 0 0.033564770472381544 1.2619947623839298e-05 0 0.033557293027186776 2.0389516294176284e-06 0 0.033561689818914442 3.8727406485724328e-06 0 0.033555095790896092 -8.3758620936011267e-06 0 0.033561689818914442 3.8727406485724328e-06 0 0.033553746179505566 -1.7540544649311398e-05 0 0.033555095790896092 -8.3758620936011267e-06 0 0.033553746179505566 -1.7540544649311398e-05 0 0.033549959920283069 -2.0612381968049084e-05 0 0.033547250188902561 -3.4259721249252168e-05 0 0.033549959920283069 -2.0612381968049084e-05 0 0.033541227965450879 -1.1078716267407053e-05 0 0.032271935560117267 -0.00031524550988888108 0 0.031547530708833371 -0.00035213577437672697 0 0.030126408361640464 -0.00070839844193335 0 0.029597633446419653 -0.00069410007502042413 0 0.029748328164850985 -0.0003478068044919039 0 0.033550627947087734 -3.5009872419515302e-05 0 0.033547250188902561 -3.4259721249252168e-05 0 0.033549959920283069 -2.0612381968049084e-05 0 0.033550627947087734 -3.5009872419515302e-05 0 0.033553746179505566 -1.7540544649311398e-05 0 0.033549959920283069 -2.0612381968049084e-05 0 0.033555095790896092 -8.3758620936011267e-06 0 0.033549959920283069 -2.0612381968049084e-05 0 0.033547728219467741 -5.6245229137997894e-06 0 0.033549959920283069 -2.0612381968049084e-05 0 0.033547728219467741 -5.6245229137997894e-06 0 0.033541227965450879 -1.1078716267407053e-05 0 0.033547728219467741 -5.6245229137997894e-06 0 0.033541227965450879 -1.1078716267407053e-05 0 0.033533245933319397 -2.9818564256266079e-06 0 0.031547530708833371 -0.00035213577437672697 0 0.030981063495353761 -0.00041082680135644126 0 0.029597633446419653 -0.00069410007502042413 0 0.029227787060231658 -0.00056326840546607566 0 0.029068778943837859 -0.00067253785565300024 0 0.033547728219467741 -5.6245229137997894e-06 0 0.033533245933319397 -2.9818564256266079e-06 0 0.033542920077779419 1.38464077238381e-06 0 0.024924687064488645 -0.00054107026165968073 0 0.024885713839445905 -0.00043660031686940153 0 0.02493918517384016 -0.00058681922541767696 0 0.024924687064488645 -0.00054107026165968073 0 0.025030427247393173 -0.0006152596692729095 0 0.024900570326290266 -0.00054885666261812879 0 0.027042316569625857 -0.00052388216936197988 0 0.026874135321728557 -0.00052800032532109855 0 0.029227787060231658 -0.00056326840546607566 0 0.029748328164850985 -0.0003478068044919039 0 0.029137014707711448 -0.0004933921224984923 0 0.029597633446419653 -0.00069410007502042413 0 0.029227787060231658 -0.00056326840546607566 0 0.029748328164850985 -0.0003478068044919039 0 0.024924687064488645 -0.00054107026165968073 0 0.025030427247393173 -0.0006152596692729095 0 0.024885713839445905 -0.00043660031686940153 0 0.025217323154212073 -0.00030979238411026159 0 0.024885713839445905 -0.00043660031686940153 0 0.024860941967239522 -2.0514455762758531e-05 0 0.025030427247393173 -0.0006152596692729095 0 0.025217323154212073 -0.00030979238411026159 0 0.024885713839445905 -0.00043660031686940153 0 0.024885713839445905 -0.00043660031686940153 0 0.024296113765131095 -0.00016194686076088601 0 0.024257611156821242 -0.00050214023339814693 0 0.025006005148523903 -0.00041682652687509154 0 0.024160020681164757 -0.00078921239909392953 0 0.024885713839445905 -0.00043660031686940153 0 0.024860941967239522 -2.0514455762758531e-05 0 0.024296113765131095 -0.00016194686076088601 0 0.024885713839445905 -0.00043660031686940153 0 0.024257611156821242 -0.00050214023339814693 0 0.024042705315302511 -0.00091103071308489274 0 0.032842411175817425 -5.6488936727978847e-05 0 0.032667328122914702 -0.00013285779228335937 0 0.032629900190500348 3.8940343087906849e-05 0 0.032842411175817425 -5.6488936727978847e-05 0 0.032629900190500348 3.8940343087906849e-05 0 0.032789640157527895 6.5992523422115276e-05 0 0.032882494284292275 4.0229801889287553e-05 0 0.032842411175817425 -5.6488936727978847e-05 0 0.032789640157527895 6.5992523422115276e-05 0 0.032999658822545248 -0.00010926716136055268 0 0.03280615660328666 -0.00025020340226664318 0 0.032842411175817425 -5.6488936727978847e-05 0 0.03280615660328666 -0.00025020340226664318 0 0.032842411175817425 -5.6488936727978847e-05 0 0.032667328122914702 -0.00013285779228335937 0 0.032271935560117267 -0.00031524550988888108 0 0.029944355859916005 -0.00042460237645844455 0 0.032495410147670434 -0.00023905100152959847 0 0.032667328122914702 -0.00013285779228335937 0 0.032629900190500348 3.8940343087906849e-05 0 0.030126408361640464 -0.00070839844193335 0 0.029748328164850985 -0.0003478068044919039 0 0.030347369177959192 -0.00019232808371547443 0 0.027042316569625857 -0.00052388216936197988 0 0.029944355859916005 -0.00042460237645844455 0 0.025030427247393173 -0.0006152596692729095 0 0.025217323154212073 -0.00030979238411026159 0 0.025502395475675191 -0.00052676595883959583 0 0.025502395475675191 -0.00052676595883959583 0 0.025432365991734245 -0.00027393665180653541 0 0.025648566605946579 -0.00014690776296963609 0 0.025217323154212073 -0.00030979238411026159 0 0.025502395475675191 -0.00052676595883959583 0 0.025432365991734245 -0.00027393665180653541 0 0.025217323154212073 -0.00030979238411026159 0 0.025432365991734245 -0.00027393665180653541 0 0.025398566350364776 -0.00011170247291776469 0 0.032686571249845926 4.0671796481852901e-05 0 0.032789640157527895 6.5992523422115276e-05 0 0.032791447224937958 0.00016899359309093353 0 0.032835332004395465 0.0001145514663268349 0 0.032789640157527895 6.5992523422115276e-05 0 0.032791447224937958 0.00016899359309093353 0 0.029944355859916005 -0.00042460237645844455 0 0.029157082088155352 -1.5428463696255521e-05 0 0.029944355859916005 -0.00042460237645844455 0 0.033151165447262695 0.00024986898656137219 0 0.032882494284292275 4.0229801889287553e-05 0 0.032835332004395465 0.0001145514663268349 0 0.032789640157527895 6.5992523422115276e-05 0 0.025648566605946579 -0.00014690776296963609 0 0.02547854660272204 0.0001082441983706435 0 0.025750881321286299 0.00017130994975722956 0 0.029157082088155352 -1.5428463696255521e-05 0 0.029326615002843233 6.2058673130112015e-05 0 0.032835332004395465 0.0001145514663268349 0 0.032791447224937958 0.00016899359309093353 0 0.032723852292831285 0.00021010860265610045 0 0.032791447224937958 0.00016899359309093353 0 0.03279580154447298 -4.2198889558266591e-06 0 0.032723852292831285 0.00021010860265610045 0 0.025432365991734245 -0.00027393665180653541 0 0.025648566605946579 -0.00014690776296963609 0 0.025398566350364776 -0.00011170247291776469 0 0.025648566605946579 -0.00014690776296963609 0 0.025398566350364776 -0.00011170247291776469 0 0.02547854660272204 0.0001082441983706435 0 0.025217323154212073 -0.00030979238411026159 0 0.025398566350364776 -0.00011170247291776469 0 0.025186664342797684 4.1964483829418309e-05 0 0.025398566350364776 -0.00011170247291776469 0 0.02547854660272204 0.0001082441983706435 0 0.025186664342797684 4.1964483829418309e-05 0 0.02547854660272204 0.0001082441983706435 0 0.025186664342797684 4.1964483829418309e-05 0 0.025175416215041935 0.00031195733171464894 0 0.02547854660272204 0.0001082441983706435 0 0.025405248369882085 0.00033945121583975758 0 0.025175416215041935 0.00031195733171464894 0 0.025405248369882085 0.00033945121583975758 0 0.025175416215041935 0.00031195733171464894 0 0.02525701439550098 0.00046325848946234059 0 0.02547854660272204 0.0001082441983706435 0 0.025405248369882085 0.00033945121583975758 0 0.025611195999393453 0.00030435629397582419 0 0.02547854660272204 0.0001082441983706435 0 0.025750881321286299 0.00017130994975722956 0 0.025611195999393453 0.00030435629397582419 0 0.025750881321286299 0.00017130994975722956 0 0.025611195999393453 0.00030435629397582419 0 0.025763807818292982 0.00035322641795563765 0 0.024860941967239522 -2.0514455762758531e-05 0 0.024555589245932558 0.00035392658509632557 0 0.024296113765131095 -0.00016194686076088601 0 0.024860941967239522 -2.0514455762758531e-05 0 0.024967874982520327 0.00025163205571570972 0 0.024555589245932558 0.00035392658509632557 0 0.025217323154212073 -0.00030979238411026159 0 0.024860941967239522 -2.0514455762758531e-05 0 0.025186664342797684 4.1964483829418309e-05 0 0.024860941967239522 -2.0514455762758531e-05 0 0.025186664342797684 4.1964483829418309e-05 0 0.024967874982520327 0.00025163205571570972 0 0.025186664342797684 4.1964483829418309e-05 0 0.025175416215041935 0.00031195733171464894 0 0.024967874982520327 0.00025163205571570972 0 0.025175416215041935 0.00031195733171464894 0 0.024967874982520327 0.00025163205571570972 0 0.024998751836660383 0.00048706713815298064 0 0.024967874982520327 0.00025163205571570972 0 0.024555589245932558 0.00035392658509632557 0 0.024998751836660383 0.00048706713815298064 0 0.024527502496543147 0.00029764878891901054 0 0.025175647932626138 0.00087168365183757442 0 0.024555589245932558 0.00035392658509632557 0 0.024429138430059491 0.00090960028032526419 0 0.025012635924965398 0.00099997120836101258 0 0.024710479073335165 0.0013530316736534446 0 0.024429138430059491 0.00090960028032526419 0 0.025012635924965398 0.00099997120836101258 0 0.024710479073335165 0.0013530316736534446 0 0.025012635924965398 0.00099997120836101258 0 0.025431477671234382 0.0015079120987122234 0 0.025175647932626138 0.00087168365183757442 0 0.023964969110399383 0.00076483592574769037 0 0.024998751836660383 0.00048706713815298064 0 0.02525701439550098 0.00046325848946234059 0 0.025255364664348936 0.00064656288416421509 0 0.025175416215041935 0.00031195733171464894 0 0.024998751836660383 0.00048706713815298064 0 0.02525701439550098 0.00046325848946234059 0 0.022087115590953357 0.0012007797508773921 0 0.021830881842311002 0.00097925554580306686 0 0.021458245411212318 0.0010875003024862194 0 0.023302099974342991 0.0013112926335116432 0 0.023964969110399383 0.00076483592574769037 0 0.021830881842311002 0.00097925554580306686 0 0.021458245411212318 0.0010875003024862194 0 0.021646295039938264 0.00066893279044191506 0 0.018484393319595532 0.0017440509649522314 0 0.0182846466492745 0.0016608347302058863 0 0.021830881842311002 0.00097925554580306686 0 0.022363216985706421 0.00086680123983060671 0 0.021646295039938264 0.00066893279044191506 0 0.022087115590953357 0.0012007797508773921 0 0.021830881842311002 0.00097925554580306686 0 0.022363216985706421 0.00086680123983060671 0 0.025509847090132806 0.00047625297705597072 0 0.025763807818292982 0.00035322641795563765 0 0.02574972701679502 0.00054457169789473309 0 0.025763807818292982 0.00035322641795563765 0 0.02574972701679502 0.00054457169789473309 0 0.025883274383201593 0.0003748026471602698 0 0.025611195999393453 0.00030435629397582419 0 0.025509847090132806 0.00047625297705597072 0 0.025763807818292982 0.00035322641795563765 0 0.025405248369882085 0.00033945121583975758 0 0.025509847090132806 0.00047625297705597072 0 0.02525701439550098 0.00046325848946234059 0 0.025405248369882085 0.00033945121583975758 0 0.025611195999393453 0.00030435629397582419 0 0.025509847090132806 0.00047625297705597072 0 0.025509847090132806 0.00047625297705597072 0 0.02525701439550098 0.00046325848946234059 0 0.025255364664348936 0.00064656288416421509 0 0.023964969110399383 0.00076483592574769037 0 0.02506336520646333 0.00059381297519511312 0 0.025509847090132806 0.00047625297705597072 0 0.025255364664348936 0.00064656288416421509 0 0.02554232329233453 0.00067342270516908113 0 0.023964969110399383 0.00076483592574769037 0 0.019685037842389518 0.0019724666063175703 0 0.023114290325587233 0.00015516123019515752 0 0.024495271093545615 0.00048611398473611393 0 0.024339997493443885 0.00094299675431203729 0 0.023114290325587233 0.00015516123019515752 0 0.024339997493443885 0.00094299675431203729 0 0.024559331751911901 0.0018110796682072911 0 0.02554232329233453 0.00067342270516908113 0 0.02574972701679502 0.00054457169789473309 0 0.025923188110676183 0.00086531208290431484 0 0.024495271093545615 0.00048611398473611393 0 0.024339997493443885 0.00094299675431203729 0 0.02520613388678912 0.0013252829914362201 0 0.024495271093545615 0.00048611398473611393 0 0.025923188110676183 0.00086531208290431484 0 0.02520613388678912 0.0013252829914362201 0 0.02506336520646333 0.00059381297519511312 0 0.02582901364085147 0.0008233277665278708 0 0.025509847090132806 0.00047625297705597072 0 0.02554232329233453 0.00067342270516908113 0 0.02574972701679502 0.00054457169789473309 0 0.026381423266136739 0.0009010463815569866 0 0.026215995121176141 0.00058301094732108737 0 0.026704002754230013 0.0006298322586475348 0 0.025923188110676183 0.00086531208290431484 0 0.026381423266136739 0.0009010463815569866 0 0.026344301031867221 0.0013593786498161146 0 0.025923188110676183 0.00086531208290431484 0 0.026381423266136739 0.0009010463815569866 0 0.026215995121176141 0.00058301094732108737 0 0.026215995121176141 0.00058301094732108737 0 0.025950290685243849 0.00052150396433499845 0 0.026049693241782385 0.00026769265219554132 0 0.026215995121176141 0.00058301094732108737 0 0.026448211241972042 0.00026729210369070926 0 0.026704002754230013 0.0006298322586475348 0 0.026215995121176141 0.00058301094732108737 0 0.026448211241972042 0.00026729210369070926 0 0.026049693241782385 0.00026769265219554132 0 0.02574972701679502 0.00054457169789473309 0 0.025923188110676183 0.00086531208290431484 0 0.025950290685243849 0.00052150396433499845 0 0.025923188110676183 0.00086531208290431484 0 0.026215995121176141 0.00058301094732108737 0 0.025950290685243849 0.00052150396433499845 0 0.02574972701679502 0.00054457169789473309 0 0.025950290685243849 0.00052150396433499845 0 0.025883274383201593 0.0003748026471602698 0 0.025750881321286299 0.00017130994975722956 0 0.025763807818292982 0.00035322641795563765 0 0.025855612941647236 0.00036052648678533243 0 0.025763807818292982 0.00035322641795563765 0 0.025883274383201593 0.0003748026471602698 0 0.025954645615612257 0.00026329478881168688 0 0.028161731764633227 0.00041035179101002716 0 0.027437126968970056 -3.1491990026078608e-05 0 0.025883274383201593 0.0003748026471602698 0 0.025954645615612257 0.00026329478881168688 0 0.026049693241782385 0.00026769265219554132 0 0.025950290685243849 0.00052150396433499845 0 0.025883274383201593 0.0003748026471602698 0 0.026049693241782385 0.00026769265219554132 0 0.025922669586090456 -4.1044333254234452e-05 0 0.026448211241972042 0.00026729210369070926 0 0.026049693241782385 0.00026769265219554132 0 0.026046959641019645 0.0002807078620929317 0 0.028161731764633227 0.00041035179101002716 0 0.028161731764633227 0.00041035179101002716 0 0.029917763227630415 -0.00032510044810370138 0 0.032551586965516209 -0.00042780623845260031 0 0.031996747601757129 -0.00041904446757853642 0 0.032288190254392418 -8.3841887952849174e-05 0 0.025922669586090456 -4.1044333254234452e-05 0 0.026448211241972042 0.00026729210369070926 0 0.02735477656022842 -0.0001557976825871565 0 0.02735477656022842 -0.0001557976825871565 0 0.026704002754230013 0.0006298322586475348 0 0.027314651516193587 0.00087097607454170395 0 0.026448211241972042 0.00026729210369070926 0 0.02735477656022842 -0.0001557976825871565 0 0.026704002754230013 0.0006298322586475348 0 0.026381423266136739 0.0009010463815569866 0 0.026704002754230013 0.0006298322586475348 0 0.026745954348834474 0.0011349412036134761 0 0.026704002754230013 0.0006298322586475348 0 0.027314651516193587 0.00087097607454170395 0 0.026745954348834474 0.0011349412036134761 0 0.02735477656022842 -0.0001557976825871565 0 0.028255525554772436 0.00073843424421842928 0 0.028954448332046825 -0.00017210701593774297 0 0.027314651516193587 0.00087097607454170395 0 0.028255525554772436 0.00073843424421842928 0 0.027914017089657614 0.0012429494328296501 0 0.02735477656022842 -0.0001557976825871565 0 0.027314651516193587 0.00087097607454170395 0 0.028255525554772436 0.00073843424421842928 0 0.029652463547060786 0.0011192272084081325 0 0.028255525554772436 0.00073843424421842928 0 0.028954448332046825 -0.00017210701593774297 0 0.029917763227630415 -0.00032510044810370138 0 0.030204111591134796 -0.00017557535870557059 0 0.031996747601757129 -0.00041904446757853642 0 0.031484468716947649 -0.00023963572248699003 0 0.031663362082578722 -2.9411350365215271e-05 0 0.031335208938543864 2.1488564564388171e-05 0 0.031484468716947649 -0.00023963572248699003 0 0.031663362082578722 -2.9411350365215271e-05 0 0.031335208938543864 2.1488564564388171e-05 0 0.031475805789418075 6.7295709622986713e-05 0 0.031663362082578722 -2.9411350365215271e-05 0 0.031663362082578722 -2.9411350365215271e-05 0 0.031899058950399121 0.00027886010680060164 0 0.032288190254392418 -8.3841887952849174e-05 0 0.031475805789418075 6.7295709622986713e-05 0 0.031663362082578722 -2.9411350365215271e-05 0 0.031899058950399121 0.00027886010680060164 0 0.032563523383281084 0.0001705253710129848 0 0.032717820706357974 0.00020569488056536276 0 0.031899058950399121 0.00027886010680060164 0 0.032723852292831285 0.00021010860265610045 0 0.032288190254392418 -8.3841887952849174e-05 0 0.03279580154447298 -4.2198889558266591e-06 0 0.032551586965516209 -0.00042780623845260031 0 0.032288190254392418 -8.3841887952849174e-05 0 0.03279580154447298 -4.2198889558266591e-06 0 0.032723852292831285 0.00021010860265610045 0 0.032288190254392418 -8.3841887952849174e-05 0 0.029326615002843233 6.2058673130112015e-05 0 0.028161731764633227 0.00041035179101002716 0 0.031996747601757129 -0.00041904446757853642 0 0.031663362082578722 -2.9411350365215271e-05 0 0.032288190254392418 -8.3841887952849174e-05 0 0.021533376240029697 0.00019583152346781913 0 0.020711827337219855 0.00076451314339867659 0 0.02156127860158848 0.0015047895618046246 0 0.021533376240029697 0.00019583152346781913 0 0.021175176142388816 -6.3075273809533899e-05 0 0.020711827337219855 0.00076451314339867659 0 0.022041216284767538 0.00042522723488753588 0 0.02156127860158848 0.0015047895618046246 0 0.022278480812507412 0.00092377455917510795 0 0.022041216284767538 0.00042522723488753588 0 0.021533376240029697 0.00019583152346781913 0 0.02156127860158848 0.0015047895618046246 0 0.022041216284767538 0.00042522723488753588 0 0.022432739145475219 0.00051281281615010255 0 0.022278480812507412 0.00092377455917510795 0 0.022041216284767538 0.00042522723488753588 0 0.021889850292399596 -0.0001838884738869642 0 0.021533376240029697 0.00019583152346781913 0 0.022041216284767538 0.00042522723488753588 0 0.021889850292399596 -0.0001838884738869642 0 0.02227417446175442 -9.631820327512199e-05 0 0.021889850292399596 -0.0001838884738869642 0 0.02227417446175442 -9.631820327512199e-05 0 0.021900134088595785 -0.00050789726182319734 0 0.021533376240029697 0.00019583152346781913 0 0.021175176142388816 -6.3075273809533899e-05 0 0.021656353798475275 -0.00067819028779073022 0 0.021889850292399596 -0.0001838884738869642 0 0.021533376240029697 0.00019583152346781913 0 0.021656353798475275 -0.00067819028779073022 0 0.021175176142388816 -6.3075273809533899e-05 0 0.021656353798475275 -0.00067819028779073022 0 0.021676285938174819 -0.0010904124174046699 0 0.021086980336481001 -0.00091826909135534417 0 0.020959977195474756 -0.00044854498535883288 0 0.021676285938174819 -0.0010904124174046699 0 0.021175176142388816 -6.3075273809533899e-05 0 0.019674669696794905 0.00087046435805920625 0 0.021676285938174819 -0.0010904124174046699 0 0.020355751129533098 0.00021712974323621009 0 0.021467482516491315 -0.0010040071760437795 0 0.021086980336481001 -0.00091826909135534417 0 0.021676524096418182 -0.0011371204495153862 0 0.019994960756807432 -0.0014351692829406369 0 0.021086980336481001 -0.00091826909135534417 0 0.02017798028008851 -0.00052224309587048585 0 0.019994960756807432 -0.0014351692829406369 0 0.021086980336481001 -0.00091826909135534417 0 0.02017798028008851 -0.00052224309587048585 0 0.020959977195474756 -0.00044854498535883288 0 0.02017798028008851 -0.00052224309587048585 0 0.020959977195474756 -0.00044854498535883288 0 0.019885448500421572 -4.5520560152716296e-05 0 0.02017798028008851 -0.00052224309587048585 0 0.019885448500421572 -4.5520560152716296e-05 0 0.019404048490709664 -0.00014017537148877673 0 0.020711827337219855 0.00076451314339867659 0 0.019290004829397661 0.0014281380726398709 0 0.02156127860158848 0.0015047895618046246 0 0.021175176142388816 -6.3075273809533899e-05 0 0.020711827337219855 0.00076451314339867659 0 0.019674669696794905 0.00087046435805920625 0 0.020711827337219855 0.00076451314339867659 0 0.019674669696794905 0.00087046435805920625 0 0.019290004829397661 0.0014281380726398709 0 0.019186427036924438 0.0015274666557416555 0 0.019342768057626213 0.0020646718663403277 0 0.019674669696794905 0.00087046435805920625 0 0.019290004829397661 0.0014281380726398709 0 0.018667195700830773 0.0019879016646447692 0 0.019290004829397661 0.0014281380726398709 0 0.0185371163001373 0.0018667996148230487 0 0.017359887843671831 0.0027915979093576467 0 0.019290004829397661 0.0014281380726398709 0 0.0185371163001373 0.0018667996148230487 0 0.018667195700830773 0.0019879016646447692 0 0.020355751129533098 0.00021712974323621009 0 0.019287649981746535 0.0011438078189523234 0 0.019885448500421572 -4.5520560152716296e-05 0 0.01987919364611198 0.00041354558774137204 0 0.019155429377082294 0.00044101524932420625 0 0.020959977195474756 -0.00044854498535883288 0 0.019885448500421572 -4.5520560152716296e-05 0 0.01987919364611198 0.00041354558774137204 0 0.019287649981746535 0.0011438078189523234 0 0.018869678120096017 0.00097445564695109788 0 0.018667195700830773 0.0019879016646447692 0 0.018433259606252417 0.001354909040300506 0 0.018766640681759369 0.00095936938760254203 0 0.01987919364611198 0.00041354558774137204 0 0.019155429377082294 0.00044101524932420625 0 0.018766640681759369 0.00095936938760254203 0 0.0185371163001373 0.0018667996148230487 0 0.018433259606252417 0.001354909040300506 0 0.018023991551715871 0.0014127457750969916 0 0.0185371163001373 0.0018667996148230487 0 0.018667195700830773 0.0019879016646447692 0 0.018433259606252417 0.001354909040300506 0 0.018023991551715871 0.0014127457750969916 0 0.017094557995455981 0.0013555954775128288 0 0.017359887843671831 0.0027915979093576467 0 0.0185371163001373 0.0018667996148230487 0 0.018023991551715871 0.0014127457750969916 0 0.017359887843671831 0.0027915979093576467 0 0.02156127860158848 0.0015047895618046246 0 0.022532790055569983 0.0012997036035476695 0 0.022278480812507412 0.00092377455917510795 0 0.017359887843671831 0.0027915979093576467 0 0.015789297996556369 0.002026746812262913 0 0.014181589016429026 0.0027962783944029176 0 0.019342768057626213 0.0020646718663403277 0 0.018371045683349071 0.0020225957537967831 0 0.017094557995455981 0.0013555954775128288 0 0.017359887843671831 0.0027915979093576467 0 0.015789297996556369 0.002026746812262913 0 0.017094557995455981 0.0013555954775128288 0 0.015789297996556369 0.002026746812262913 0 0.016073543057216512 0.00077866222458062857 0 0.015789297996556369 0.002026746812262913 0 0.013697086415719047 0.0024341231820478996 0 0.014181589016429026 0.0027962783944029176 0 0.013710331139690543 0.0024008138440997522 0 0.014248886780077651 0.0021572235042614241 0 0.013697086415719047 0.0024341231820478996 0 0.012961518516269338 0.00303991715352213 0 0.012283599143745343 0.0034171885388157852 0 0.015789297996556369 0.002026746812262913 0 0.013697086415719047 0.0024341231820478996 0 0.016073543057216512 0.00077866222458062857 0 0.013697086415719047 0.0024341231820478996 0 0.013564001762784151 0.0027181363273820073 0 0.012961518516269338 0.00303991715352213 0 0.018371045683349071 0.0020225957537967831 0 0.018209691747163755 0.0017973266709561987 0 0.013697086415719047 0.0024341231820478996 0 0.014181589016429026 0.0027962783944029176 0 0.013568252407536336 0.0024782943474346195 0 0.013697086415719047 0.0024341231820478996 0 0.013564001762784151 0.0027181363273820073 0 0.013568252407536336 0.0024782943474346195 0 0.013564001762784151 0.0027181363273820073 0 0.013568252407536336 0.0024782943474346195 0 0.013609512200118513 0.0028971922711034212 0 0.022930205900308774 0.001039787823635366 0 0.022532790055569983 0.0012997036035476695 0 0.022869329665851996 0.0010971813185139934 0 0.022930205900308774 0.001039787823635366 0 0.022532790055569983 0.0012997036035476695 0 0.022609547754075247 0.00091071057265508482 0 0.022532790055569983 0.0012997036035476695 0 0.022278480812507412 0.00092377455917510795 0 0.022609547754075247 0.00091071057265508482 0 0.014506154803270303 0.0025855495677792905 0 0.013568252407536336 0.0024782943474346195 0 0.014005385342789292 0.0028233568738858911 0 0.022087115590953357 0.0012007797508773921 0 0.022363216985706421 0.00086680123983060671 0 0.022650785530387275 0.0012409076786986928 0 0.018484393319595532 0.0017440509649522314 0 0.018209691747163755 0.0017973266709561987 0 0.022363216985706421 0.00086680123983060671 0 0.022869329665851996 0.0010971813185139934 0 0.022650785530387275 0.0012409076786986928 0 0.013568252407536336 0.0024782943474346195 0 0.014005385342789292 0.0028233568738858911 0 0.013609512200118513 0.0028971922711034212 0 0.022926921960144949 0.0010640781462171341 0 0.023257410312730022 0.0012068632210484413 0 0.022930205900308774 0.001039787823635366 0 0.022869329665851996 0.0010971813185139934 0 0.022650785530387275 0.0012409076786986928 0 0.022930205900308774 0.001039787823635366 0 0.023873007006807282 0.0012078011712787957 0 0.02343870311570323 0.00067652513497679046 0 0.024710479073335165 0.0013530316736534446 0 0.024429138430059491 0.00090960028032526419 0 0.023873007006807282 0.0012078011712787957 0 0.023302099974342991 0.0013112926335116432 0 0.023257410312730022 0.0012068632210484413 0 0.024429138430059491 0.00090960028032526419 0 0.023873007006807282 0.0012078011712787957 0 0.023959606529067833 0.00060423840375899444 0 0.024555589245932558 0.00035392658509632557 0 0.023959606529067833 0.00060423840375899444 0 0.024008070600571634 0.00016872652914595235 0 0.024555589245932558 0.00035392658509632557 0 0.024429138430059491 0.00090960028032526419 0 0.023959606529067833 0.00060423840375899444 0 0.02343870311570323 0.00067652513497679046 0 0.023555845752795266 0.00021375864211823256 0 0.022919197752224094 0.00038850662382720468 0 0.023873007006807282 0.0012078011712787957 0 0.023959606529067833 0.00060423840375899444 0 0.02343870311570323 0.00067652513497679046 0 0.023959606529067833 0.00060423840375899444 0 0.02343870311570323 0.00067652513497679046 0 0.023555845752795266 0.00021375864211823256 0 0.023221783991756173 -0.00014631780675518769 0 0.023555845752795266 0.00021375864211823256 0 0.022919197752224094 0.00038850662382720468 0 0.023221783991756173 -0.00014631780675518769 0 0.023659434415121978 -0.00015524144379641485 0 0.023555845752795266 0.00021375864211823256 0 0.023659434415121978 -0.00015524144379641485 0 0.023555845752795266 0.00021375864211823256 0 0.024008070600571634 0.00016872652914595235 0 0.023659434415121978 -0.00015524144379641485 0 0.024008070600571634 0.00016872652914595235 0 0.024296113765131095 -0.00016194686076088601 0 0.024555589245932558 0.00035392658509632557 0 0.024008070600571634 0.00016872652914595235 0 0.024296113765131095 -0.00016194686076088601 0 0.023959606529067833 0.00060423840375899444 0 0.023555845752795266 0.00021375864211823256 0 0.024008070600571634 0.00016872652914595235 0 0.022432739145475219 0.00051281281615010255 0 0.022609547754075247 0.00091071057265508482 0 0.022919197752224094 0.00038850662382720468 0 0.022432739145475219 0.00051281281615010255 0 0.022278480812507412 0.00092377455917510795 0 0.022609547754075247 0.00091071057265508482 0 0.022930205900308774 0.001039787823635366 0 0.02343870311570323 0.00067652513497679046 0 0.022919197752224094 0.00038850662382720468 0 0.022930205900308774 0.001039787823635366 0 0.022609547754075247 0.00091071057265508482 0 0.022919197752224094 0.00038850662382720468 0 0.022919197752224094 0.00038850662382720468 0 0.022593976236355465 0.00015263433060157887 0 0.022721698634787735 -0.00019016426392931359 0 0.023221783991756173 -0.00014631780675518769 0 0.022919197752224094 0.00038850662382720468 0 0.022721698634787735 -0.00019016426392931359 0 0.022593976236355465 0.00015263433060157887 0 0.02227417446175442 -9.631820327512199e-05 0 0.022721698634787735 -0.00019016426392931359 0 0.022432739145475219 0.00051281281615010255 0 0.022919197752224094 0.00038850662382720468 0 0.022593976236355465 0.00015263433060157887 0 0.022041216284767538 0.00042522723488753588 0 0.022432739145475219 0.00051281281615010255 0 0.02227417446175442 -9.631820327512199e-05 0 0.022432739145475219 0.00051281281615010255 0 0.022593976236355465 0.00015263433060157887 0 0.02227417446175442 -9.631820327512199e-05 0 0.02227417446175442 -9.631820327512199e-05 0 0.022210352436845129 -0.00045126871107698083 0 0.022721698634787735 -0.00019016426392931359 0 0.022210352436845129 -0.00045126871107698083 0 0.022528534626535431 -0.00059455396453228331 0 0.022198693677678096 -0.00066186030974373718 0 0.022210352436845129 -0.00045126871107698083 0 0.022528534626535431 -0.00059455396453228331 0 0.022721698634787735 -0.00019016426392931359 0 0.023221783991756173 -0.00014631780675518769 0 0.02296020050899214 -0.00051669103851041665 0 0.023400811905685028 -0.00051612460448998288 0 0.023221783991756173 -0.00014631780675518769 0 0.022721698634787735 -0.00019016426392931359 0 0.02296020050899214 -0.00051669103851041665 0 0.02296020050899214 -0.00051669103851041665 0 0.023200146779008477 -0.0007975755293656954 0 0.023400811905685028 -0.00051612460448998288 0 0.022528534626535431 -0.00059455396453228331 0 0.022721698634787735 -0.00019016426392931359 0 0.02296020050899214 -0.00051669103851041665 0 0.022528534626535431 -0.00059455396453228331 0 0.02296020050899214 -0.00051669103851041665 0 0.022792664129480208 -0.000818693989058949 0 0.022792664129480208 -0.000818693989058949 0 0.022448217601079287 -0.00088057994289614347 0 0.023229451861111174 -0.0013074386833344651 0 0.02296020050899214 -0.00051669103851041665 0 0.022792664129480208 -0.000818693989058949 0 0.023200146779008477 -0.0007975755293656954 0 0.022792664129480208 -0.000818693989058949 0 0.023200146779008477 -0.0007975755293656954 0 0.023229451861111174 -0.0013074386833344651 0 0.022448217601079287 -0.00088057994289614347 0 0.023229451861111174 -0.0013074386833344651 0 0.022155623701497561 -0.0011124743196124246 0 0.022448217601079287 -0.00088057994289614347 0 0.022155623701497561 -0.0011124743196124246 0 0.022060152111371883 -0.00077635965761899486 0 0.022448217601079287 -0.00088057994289614347 0 0.022198693677678096 -0.00066186030974373718 0 0.022060152111371883 -0.00077635965761899486 0 0.022528534626535431 -0.00059455396453228331 0 0.022448217601079287 -0.00088057994289614347 0 0.022198693677678096 -0.00066186030974373718 0 0.022528534626535431 -0.00059455396453228331 0 0.022792664129480208 -0.000818693989058949 0 0.022448217601079287 -0.00088057994289614347 0 0.023659434415121978 -0.00015524144379641485 0 0.024296113765131095 -0.00016194686076088601 0 0.023801188388377366 -0.00050475086783852065 0 0.024296113765131095 -0.00016194686076088601 0 0.024257611156821242 -0.00050214023339814693 0 0.023801188388377366 -0.00050475086783852065 0 0.024257611156821242 -0.00050214023339814693 0 0.023801188388377366 -0.00050475086783852065 0 0.024042705315302511 -0.00091103071308489274 0 0.023801188388377366 -0.00050475086783852065 0 0.023400811905685028 -0.00051612460448998288 0 0.023534523356754981 -0.00080614033297626733 0 0.023659434415121978 -0.00015524144379641485 0 0.023801188388377366 -0.00050475086783852065 0 0.023400811905685028 -0.00051612460448998288 0 0.023221783991756173 -0.00014631780675518769 0 0.023659434415121978 -0.00015524144379641485 0 0.023400811905685028 -0.00051612460448998288 0 0.023534523356754981 -0.00080614033297626733 0 0.024042705315302511 -0.00091103071308489274 0 0.023229451861111174 -0.0013074386833344651 0 0.024160020681164757 -0.00078921239909392953 0 0.025952046977740229 -0.0010897561800834689 0 0.02493918517384016 -0.00058681922541767696 0 0.025097080933495195 -0.00047079482642894711 0 0.025192511189794136 -0.00047979964745579155 0 0.023200146779008477 -0.0007975755293656954 0 0.023400811905685028 -0.00051612460448998288 0 0.023534523356754981 -0.00080614033297626733 0 0.023200146779008477 -0.0007975755293656954 0 0.023534523356754981 -0.00080614033297626733 0 0.023229451861111174 -0.0013074386833344651 0 0.02493918517384016 -0.00058681922541767696 0 0.024900570326290266 -0.00054885666261812879 0 0.025097080933495195 -0.00047079482642894711 0 0.024924687064488645 -0.00054107026165968073 0 0.02493918517384016 -0.00058681922541767696 0 0.024900570326290266 -0.00054885666261812879 0 0.023801188388377366 -0.00050475086783852065 0 0.023534523356754981 -0.00080614033297626733 0 0.024042705315302511 -0.00091103071308489274 0 0.030981063495353761 -0.00041082680135644126 0 0.027877842196696114 -0.00075873319619995249 0 0.030981063495353761 -0.00041082680135644126 0 0.032334213799097657 -0.0001708526162746979 0 0.026874135321728557 -0.00052800032532109855 0 0.027877842196696114 -0.00075873319619995249 0 0.033533245933319397 -2.9818564256266079e-06 0 0.033539444733091617 6.2141378382191136e-06 0 0.033542920077779419 1.38464077238381e-06 0 0.029137014707711448 -0.0004933921224984923 0 0.02902935473287074 -0.00071858257343684895 0 0.02832146012830656 -0.00068556648440249248 0 0.029633613310962759 -0.00092932535942202583 0 0.030981063495353761 -0.00041082680135644126 0 0.029227787060231658 -0.00056326840546607566 0 0.029137014707711448 -0.0004933921224984923 0 0.02902935473287074 -0.00071858257343684895 0 0.030624004147021235 -0.00064518555040536814 0 0.030683292307744414 -0.00058969234679529306 0 0.030755068935214947 -0.0006128627967552612 0 0.027877842196696114 -0.00075873319619995249 0 0.029931338214866182 -0.00049189918096293557 0 0.030489519881544826 -0.00064150943617713994 0 0.030624004147021235 -0.00064518555040536814 0 0.03064389252951041 -0.00053619133485347025 0 0.02714457060057655 -0.00098090917631413004 0 0.028079290021608534 -0.00099804691060157357 0 0.02897384068611317 -0.00047495338756057593 0 0.027877842196696114 -0.00075873319619995249 0 0.025952046977740229 -0.0010897561800834689 0 0.030624004147021235 -0.00064518555040536814 0 0.030683292307744414 -0.00058969234679529306 0 0.03064389252951041 -0.00053619133485347025 0 0.030683292307744414 -0.00058969234679529306 0 0.03064389252951041 -0.00053619133485347025 0 0.030722049848377897 -0.00055614950790561799 0 0.033539444733091617 6.2141378382191136e-06 0 0.033541154553489314 8.7489902472947568e-06 0 0.033534691424180432 9.3818225692037509e-06 0 0.033539444733091617 6.2141378382191136e-06 0 0.033541154553489314 8.7489902472947568e-06 0 0.033547658603809122 9.9985397242811689e-06 0 0.033539444733091617 6.2141378382191136e-06 0 0.033548033821776208 6.9718041330709241e-06 0 0.033547658603809122 9.9985397242811689e-06 0 0.033539444733091617 6.2141378382191136e-06 0 0.033548033821776208 6.9718041330709241e-06 0 0.033542920077779419 1.38464077238381e-06 0 0.033548033821776208 6.9718041330709241e-06 0 0.033554959338292674 1.2095761752406547e-05 0 0.033547658603809122 9.9985397242811689e-06 0 0.033551054896831058 2.6205395892523558e-06 0 0.033548033821776208 6.9718041330709241e-06 0 0.03355361557069933 8.5533822262348846e-06 0 0.033548033821776208 6.9718041330709241e-06 0 0.03355361557069933 8.5533822262348846e-06 0 0.033554959338292674 1.2095761752406547e-05 0 0.033551054896831058 2.6205395892523558e-06 0 0.033548033821776208 6.9718041330709241e-06 0 0.033542920077779419 1.38464077238381e-06 0 0.030481354332500592 -0.00061841204792352934 0 0.029931338214866182 -0.00049189918096293557 0 0.03079354704555225 -0.00061899834569534361 0 0.030547245967122896 -0.00067723300723506298 0 0.030787854459450557 -0.00056024839750721373 0 0.029931338214866182 -0.00049189918096293557 0 0.030952210937671719 -0.00051819580942960737 0 0.030229538240474491 -0.00056502991372671223 0 0.030309745146064319 -0.0010593461693175726 0 0.029177553339223467 -0.00079832052826268234 0 0.030755068935214947 -0.0006128627967552612 0 0.030827949585433681 -0.00052656718569990069 0 0.030894915995979853 -0.00053562763691708797 0 0.030229538240474491 -0.00056502991372671223 0 0.030309745146064319 -0.0010593461693175726 0 0.030630589052011371 -0.000724679564192039 0 0.025952046977740229 -0.0010897561800834689 0 0.026239661631918269 -0.0010658769489076379 0 0.028704143524826645 -0.0010799874183122493 0 0.030309745146064319 -0.0010593461693175726 0 0.029177553339223467 -0.00079832052826268234 0 0.025952046977740229 -0.0010897561800834689 0 0.029931338214866182 -0.00049189918096293557 0 0.030755068935214947 -0.0006128627967552612 0 0.030722049848377897 -0.00055614950790561799 0 0.030777941048398101 -0.00053422093810858611 0 0.030683292307744414 -0.00058969234679529306 0 0.030755068935214947 -0.0006128627967552612 0 0.030722049848377897 -0.00055614950790561799 0 0.030755068935214947 -0.0006128627967552612 0 0.030777941048398101 -0.00053422093810858611 0 0.030827949585433681 -0.00052656718569990069 0 0.030777941048398101 -0.00053422093810858611 0 0.030750803697271956 -0.00051172513680543036 0 0.030806971073337949 -0.00049316795919639004 0 0.030777941048398101 -0.00053422093810858611 0 0.030806971073337949 -0.00049316795919639004 0 0.030827949585433681 -0.00052656718569990069 0 0.03064389252951041 -0.00053619133485347025 0 0.030750803697271956 -0.00051172513680543036 0 0.030757969664368341 -0.00046778373105431728 0 0.03064389252951041 -0.00053619133485347025 0 0.030722049848377897 -0.00055614950790561799 0 0.030750803697271956 -0.00051172513680543036 0 0.032334213799097657 -0.0001708526162746979 0 0.031683016779961826 -7.8106263727447013e-05 0 0.030722049848377897 -0.00055614950790561799 0 0.030777941048398101 -0.00053422093810858611 0 0.030750803697271956 -0.00051172513680543036 0 0.033541154553489314 8.7489902472947568e-06 0 0.033534691424180432 9.3818225692037509e-06 0 0.033538786079522626 9.1921730469189144e-06 0 0.031683016779961826 -7.8106263727447013e-05 0 0.03246581248183298 -0.00026526064104567419 0 0.030750803697271956 -0.00051172513680543036 0 0.030757969664368341 -0.00046778373105431728 0 0.030797145084088502 -0.00044476075480788681 0 0.030750803697271956 -0.00051172513680543036 0 0.030806971073337949 -0.00049316795919639004 0 0.030797145084088502 -0.00044476075480788681 0 0.031008695181118286 -0.00033712908785431554 0 0.031012969764985285 -0.00035421514373763606 0 0.030991642508734634 -0.00034824256386191562 0 0.031683016779961826 -7.8106263727447013e-05 0 0.030975296335233746 -0.00041340901117255843 0 0.030806971073337949 -0.00049316795919639004 0 0.030831057389080787 -0.00046977545888701993 0 0.030797145084088502 -0.00044476075480788681 0 0.030831057389080787 -0.00046977545888701993 0 0.030868999664032101 -0.0004621783903499551 0 0.030797145084088502 -0.00044476075480788681 0 0.030831057389080787 -0.00046977545888701993 0 0.030868999664032101 -0.0004621783903499551 0 0.030853460939134943 -0.00048690964723066777 0 0.030868999664032101 -0.0004621783903499551 0 0.030853460939134943 -0.00048690964723066777 0 0.030897509007330116 -0.00048976546852974904 0 0.030853460939134943 -0.00048690964723066777 0 0.030869035621287164 -0.00050934833227833274 0 0.030897509007330116 -0.00048976546852974904 0 0.030806971073337949 -0.00049316795919639004 0 0.030831057389080787 -0.00046977545888701993 0 0.030853460939134943 -0.00048690964723066777 0 0.030806971073337949 -0.00049316795919639004 0 0.030853460939134943 -0.00048690964723066777 0 0.030827949585433681 -0.00052656718569990069 0 0.030869035621287164 -0.00050934833227833274 0 0.030827949585433681 -0.00052656718569990069 0 0.030894915995979853 -0.00053562763691708797 0 0.030853460939134943 -0.00048690964723066777 0 0.030869035621287164 -0.00050934833227833274 0 0.030827949585433681 -0.00052656718569990069 0 0.030869035621287164 -0.00050934833227833274 0 0.030894915995979853 -0.00053562763691708797 0 0.030897509007330116 -0.00048976546852974904 0 0.030894915995979853 -0.00053562763691708797 0 0.030897509007330116 -0.00048976546852974904 0 0.03093345314919712 -0.00047983601474359602 0 0.030868999664032101 -0.0004621783903499551 0 0.030897509007330116 -0.00048976546852974904 0 0.03092266068010276 -0.00045309597301999735 0 0.030897509007330116 -0.00048976546852974904 0 0.03093345314919712 -0.00047983601474359602 0 0.03092266068010276 -0.00045309597301999735 0 0.030787854459450557 -0.00056024839750721373 0 0.030989165586129817 -0.00048517484046103275 0 0.030963615279410859 -0.00056262008173360285 0 0.03093345314919712 -0.00047983601474359602 0 0.030989165586129817 -0.00048517484046103275 0 0.030963612196195592 -0.00042804306984512076 0 0.030894915995979853 -0.00053562763691708797 0 0.03093345314919712 -0.00047983601474359602 0 0.030989165586129817 -0.00048517484046103275 0 0.030952210937671719 -0.00051819580942960737 0 0.030935131180209352 -0.00050666508922744358 0 0.03079354704555225 -0.00061899834569534361 0 0.030787854459450557 -0.00056024839750721373 0 0.030963615279410859 -0.00056262008173360285 0 0.031164077672158886 -0.00054906865777800686 0 0.031300357241579729 -0.00054811719466881035 0 0.031128251487695473 -0.00046837932326145086 0 0.030989165586129817 -0.00048517484046103275 0 0.031164077672158886 -0.00054906865777800686 0 0.031128251487695473 -0.00046837932326145086 0 0.030989165586129817 -0.00048517484046103275 0 0.030963615279410859 -0.00056262008173360285 0 0.031164077672158886 -0.00054906865777800686 0 0.030963615279410859 -0.00056262008173360285 0 0.031164077672158886 -0.00054906865777800686 0 0.03114388767542137 -0.00064973088778266666 0 0.03114388767542137 -0.00064973088778266666 0 0.031180505862658778 -0.00082104864297312939 0 0.031337019461856172 -0.00061984353811060091 0 0.030963615279410859 -0.00056262008173360285 0 0.03114388767542137 -0.00064973088778266666 0 0.030897442355228611 -0.00073646151454310181 0 0.03114388767542137 -0.00064973088778266666 0 0.031180505862658778 -0.00082104864297312939 0 0.030897442355228611 -0.00073646151454310181 0 0.030229538240474491 -0.00056502991372671223 0 0.030963615279410859 -0.00056262008173360285 0 0.030630589052011371 -0.000724679564192039 0 0.030309745146064319 -0.0010593461693175726 0 0.031180505862658778 -0.00082104864297312939 0 0.030897442355228611 -0.00073646151454310181 0 0.030309745146064319 -0.0010593461693175726 0 0.030630589052011371 -0.000724679564192039 0 0.030897442355228611 -0.00073646151454310181 0 0.030481354332500592 -0.00061841204792352934 0 0.030913746954182302 -0.00054854650650847201 0 0.026239661631918269 -0.0010658769489076379 0 0.026422156297302865 -0.0004434584423179147 0 0.030963615279410859 -0.00056262008173360285 0 0.030630589052011371 -0.000724679564192039 0 0.030897442355228611 -0.00073646151454310181 0 0.022155623701497561 -0.0011124743196124246 0 0.021489515283805594 -0.00013667722320119717 0 0.021781938642907155 -0.0006224709465096213 0 0.022155623701497561 -0.0011124743196124246 0 0.022060152111371883 -0.00077635965761899486 0 0.021781938642907155 -0.0006224709465096213 0 0.022060152111371883 -0.00077635965761899486 0 0.02191821966069555 -0.00063389002667283236 0 0.021781938642907155 -0.0006224709465096213 0 0.022198693677678096 -0.00066186030974373718 0 0.022060152111371883 -0.00077635965761899486 0 0.02191821966069555 -0.00063389002667283236 0 0.02191821966069555 -0.00063389002667283236 0 0.021781938642907155 -0.0006224709465096213 0 0.021653551175518027 -0.00071205207276462323 0 0.021489515283805594 -0.00013667722320119717 0 0.021653551175518027 -0.00071205207276462323 0 0.022145983462259006 -0.00059162765287971053 0 0.021489515283805594 -0.00013667722320119717 0 0.021781938642907155 -0.0006224709465096213 0 0.021653551175518027 -0.00071205207276462323 0 0.021653551175518027 -0.00071205207276462323 0 0.021851088801818595 -0.0010156580972787914 0 0.022145983462259006 -0.00059162765287971053 0 0.021653551175518027 -0.00071205207276462323 0 0.021656353798475275 -0.00067819028779073022 0 0.021900134088595785 -0.00050789726182319734 0 0.021653551175518027 -0.00071205207276462323 0 0.021656353798475275 -0.00067819028779073022 0 0.021851088801818595 -0.0010156580972787914 0 0.021656353798475275 -0.00067819028779073022 0 0.021676285938174819 -0.0010904124174046699 0 0.021851088801818595 -0.0010156580972787914 0 0.021889850292399596 -0.0001838884738869642 0 0.021656353798475275 -0.00067819028779073022 0 0.021900134088595785 -0.00050789726182319734 0 0.02227417446175442 -9.631820327512199e-05 0 0.022210352436845129 -0.00045126871107698083 0 0.021900134088595785 -0.00050789726182319734 0 0.022210352436845129 -0.00045126871107698083 0 0.02191821966069555 -0.00063389002667283236 0 0.021900134088595785 -0.00050789726182319734 0 0.022210352436845129 -0.00045126871107698083 0 0.022198693677678096 -0.00066186030974373718 0 0.02191821966069555 -0.00063389002667283236 0 0.02191821966069555 -0.00063389002667283236 0 0.021653551175518027 -0.00071205207276462323 0 0.021900134088595785 -0.00050789726182319734 0 0.021676524096418182 -0.0011371204495153862 0 0.022422702087158471 -0.0015379958883704932 0 0.019994960756807432 -0.0014351692829406369 0 0.022422702087158471 -0.0015379958883704932 0 0.027598011944017179 -0.0028293521567060321 0 0.027587991799349173 -0.00096429952034591268 0 0.02243240934027458 -0.0015699407980932242 0 0.023724871146634834 -0.0019854388134253869 0 0.021086980336481001 -0.00091826909135534417 0 0.021676524096418182 -0.0011371204495153862 0 0.021676285938174819 -0.0010904124174046699 0 0.021676524096418182 -0.0011371204495153862 0 0.021676285938174819 -0.0010904124174046699 0 0.022422702087158471 -0.0015379958883704932 0 0.021851088801818595 -0.0010156580972787914 0 0.022422702087158471 -0.0015379958883704932 0 0.022145983462259006 -0.00059162765287971053 0 0.021676285938174819 -0.0010904124174046699 0 0.021851088801818595 -0.0010156580972787914 0 0.022422702087158471 -0.0015379958883704932 0 0.022422702087158471 -0.0015379958883704932 0 0.022145983462259006 -0.00059162765287971053 0 0.024772276143016636 0.001241526276645303 0 0.021489515283805594 -0.00013667722320119717 0 0.022145983462259006 -0.00059162765287971053 0 0.024772276143016636 0.001241526276645303 0 0.022422702087158471 -0.0015379958883704932 0 0.024772276143016636 0.001241526276645303 0 0.027587991799349173 -0.00096429952034591268 0 0.031351197344392817 -0.0004916567701988932 0 0.031337019461856172 -0.00061984353811060091 0 0.03121022302303713 -0.00068246768797271381 0 0.026422156297302865 -0.0004434584423179147 0 0.028086612231169483 0.00024098093571795818 0 0.031180505862658778 -0.00082104864297312939 0 0.031351197344392817 -0.0004916567701988932 0 0.031337019461856172 -0.00061984353811060091 0 0.031164077672158886 -0.00054906865777800686 0 0.031337019461856172 -0.00061984353811060091 0 0.031300357241579729 -0.00054811719466881035 0 0.031164077672158886 -0.00054906865777800686 0 0.03114388767542137 -0.00064973088778266666 0 0.031337019461856172 -0.00061984353811060091 0 0.031337019461856172 -0.00061984353811060091 0 0.031412573468035117 -0.00062934022767964948 0 0.031300357241579729 -0.00054811719466881035 0 0.031337019461856172 -0.00061984353811060091 0 0.031412573468035117 -0.00062934022767964948 0 0.03121022302303713 -0.00068246768797271381 0 0.031412573468035117 -0.00062934022767964948 0 0.031505688926130739 -0.00040751160740234646 0 0.031300357241579729 -0.00054811719466881035 0 0.031412573468035117 -0.00062934022767964948 0 0.031505688926130739 -0.00040751160740234646 0 0.031675222697749951 -0.00045862865587904258 0 0.03206071175057934 -1.9595615975809359e-07 0 0.032121507946366305 3.7211067098761023e-05 0 0.031505688926130739 -0.00040751160740234646 0 0.032054522278771452 -2.1019889174629684e-05 0 0.031675222697749951 -0.00045862865587904258 0 0.031505688926130739 -0.00040751160740234646 0 0.031244284681438105 -9.5424733086508259e-05 0 0.032054522278771452 -2.1019889174629684e-05 0 0.03206071175057934 -1.9595615975809359e-07 0 0.031088057224550693 -0.00057127501868064611 0 0.03130715029983315 -0.00014071599066103107 0 0.031300357241579729 -0.00054811719466881035 0 0.031189044886157955 -0.00035359597159151694 0 0.031505688926130739 -0.00040751160740234646 0 0.031244284681438105 -9.5424733086508259e-05 0 0.031300357241579729 -0.00054811719466881035 0 0.031128251487695473 -0.00046837932326145086 0 0.031189044886157955 -0.00035359597159151694 0 0.031015870608132989 -0.0004045000760647596 0 0.031189044886157955 -0.00035359597159151694 0 0.031015870608132989 -0.0004045000760647596 0 0.030970435652866779 -0.00032509148304569091 0 0.031300357241579729 -0.00054811719466881035 0 0.031128251487695473 -0.00046837932326145086 0 0.031189044886157955 -0.00035359597159151694 0 0.030989165586129817 -0.00048517484046103275 0 0.031128251487695473 -0.00046837932326145086 0 0.031015870608132989 -0.0004045000760647596 0 0.030959145077524952 -0.00035444270341426635 0 0.030970435652866779 -0.00032509148304569091 0 0.030970313062729203 -0.00036062669197340854 0 0.03093345314919712 -0.00047983601474359602 0 0.030963612196195592 -0.00042804306984512076 0 0.03092266068010276 -0.00045309597301999735 0 0.030963612196195592 -0.00042804306984512076 0 0.030959145077524952 -0.00035444270341426635 0 0.030904221153973208 -0.0004272336512316996 0 0.030963612196195592 -0.00042804306984512076 0 0.030904221153973208 -0.0004272336512316996 0 0.03092266068010276 -0.00045309597301999735 0 0.030989165586129817 -0.00048517484046103275 0 0.030963612196195592 -0.00042804306984512076 0 0.031015870608132989 -0.0004045000760647596 0 0.031015870608132989 -0.0004045000760647596 0 0.030959145077524952 -0.00035444270341426635 0 0.030970435652866779 -0.00032509148304569091 0 0.030963612196195592 -0.00042804306984512076 0 0.031015870608132989 -0.0004045000760647596 0 0.030959145077524952 -0.00035444270341426635 0 0.034119017013865612 0.00048498773076382438 0 0.032780975020035213 0.00022149916280990499 0 0.033101282124750393 0.00010485586384524653 0 0.033018077145758398 0.0003009695308578207 0 0.032604321568465926 8.2387524726041788e-05 0 0.031768485347087996 -0.00020787961799707827 0 0.032780975020035213 0.00022149916280990499 0 0.03130715029983315 -0.00014071599066103107 0 0.031189044886157955 -0.00035359597159151694 0 0.031145425946288233 -0.00016171132047190095 0 0.031189044886157955 -0.00035359597159151694 0 0.030962194298086235 -0.00026872155313734835 0 0.031145425946288233 -0.00016171132047190095 0 0.030883320943346709 -0.00031347925881152134 0 0.031768485347087996 -0.00020787961799707827 0 0.03206071175057934 -1.9595615975809359e-07 0 0.032780975020035213 0.00022149916280990499 0 0.032780975020035213 0.00022149916280990499 0 0.033084761186441658 0.00041516148994287977 0 0.034434241095576544 0.00080094677155786716 0 0.03443818106974348 0.0006399172626040849 0 0.034279431266811995 0.00072127942533816065 0 0.034434241095576544 0.00080094677155786716 0 0.03443818106974348 0.0006399172626040849 0 0.034572333488502034 0.00070769045821156491 0 0.03443818106974348 0.0006399172626040849 0 0.034572333488502034 0.00070769045821156491 0 0.034628552695938689 0.00054088393395632713 0 0.034572333488502034 0.00070769045821156491 0 0.034628552695938689 0.00054088393395632713 0 0.034813343906471811 0.00070952794994433505 0 0.034686133984860715 0.00080245813753498279 0 0.034434241095576544 0.00080094677155786716 0 0.034572333488502034 0.00070769045821156491 0 0.034686133984860715 0.00080245813753498279 0 0.034572333488502034 0.00070769045821156491 0 0.034813343906471811 0.00070952794994433505 0 0.034628552695938689 0.00054088393395632713 0 0.034883452572475535 0.00055139149829628665 0 0.034789943688956083 0.00038766530019733263 0 0.034628552695938689 0.00054088393395632713 0 0.034789943688956083 0.00038766530019733263 0 0.034600333201206673 0.00029239058588612099 0 0.03443818106974348 0.0006399172626040849 0 0.034628552695938689 0.00054088393395632713 0 0.034280335945736706 0.00042353132006831413 0 0.034628552695938689 0.00054088393395632713 0 0.034280335945736706 0.00042353132006831413 0 0.034600333201206673 0.00029239058588612099 0 0.03443818106974348 0.0006399172626040849 0 0.034280335945736706 0.00042353132006831413 0 0.034279431266811995 0.00072127942533816065 0 0.033855386988330204 0.00017624954390600353 0 0.033084761186441658 0.00041516148994287977 0 0.033256004650093214 2.4247969689544376e-05 0 0.032903851095603273 -2.6813415572434046e-06 0 0.032715137322841377 -8.3954073779897776e-06 0 0.033256004650093214 2.4247969689544376e-05 0 0.032903851095603273 -2.6813415572434046e-06 0 0.033165463325935479 5.1033699947552593e-05 0 0.032903851095603273 -2.6813415572434046e-06 0 0.033165463325935479 5.1033699947552593e-05 0 0.032483338074998973 -2.9619271337348686e-05 0 0.032903851095603273 -2.6813415572434046e-06 0 0.032715137322841377 -8.3954073779897776e-06 0 0.032483338074998973 -2.9619271337348686e-05 0 0.033046704992875542 0.00036025309956235819 0 0.032715137322841377 -8.3954073779897776e-06 0 0.032054522278771452 -2.1019889174629684e-05 0 0.032715137322841377 -8.3954073779897776e-06 0 0.032054522278771452 -2.1019889174629684e-05 0 0.032483338074998973 -2.9619271337348686e-05 0 0.033046704992875542 0.00036025309956235819 0 0.032715137322841377 -8.3954073779897776e-06 0 0.033055013392102824 0.00017772101801739274 0 0.033256004650093214 2.4247969689544376e-05 0 0.032715137322841377 -8.3954073779897776e-06 0 0.032857516732369703 7.0511790411756692e-05 0 0.032621205112417825 0.00014210850956814186 0 0.032728384733109024 0.00014749257312052884 0 0.032624161076871688 9.2925446890997185e-05 0 0.03206071175057934 -1.9595615975809359e-07 0 0.033084761186441658 0.00041516148994287977 0 0.032693372418876515 3.3577929385639412e-05 0 0.033084761186441658 0.00041516148994287977 0 0.033567389532712363 2.1908655470066527e-05 0 0.033573328831864861 2.6366507829464757e-05 0 0.033565384794152484 1.9800789741078787e-05 0 0.033573328831864861 2.6366507829464757e-05 0 0.033565384794152484 1.9800789741078787e-05 0 0.033563861986106107 1.4562534682826674e-05 0 0.033565384794152484 1.9800789741078787e-05 0 0.033560259586197884 1.5942064525251838e-05 0 0.033563861986106107 1.4562534682826674e-05 0 0.033560259586197884 1.5942064525251838e-05 0 0.03355978640628602 1.3608765141415895e-05 0 0.033563861986106107 1.4562534682826674e-05 0 0.033560259586197884 1.5942064525251838e-05 0 0.033560779362504088 1.7207459853535906e-05 0 0.033555163283314308 1.3930713600388314e-05 0 0.033565384794152484 1.9800789741078787e-05 0 0.033560259586197884 1.5942064525251838e-05 0 0.033560779362504088 1.7207459853535906e-05 0 0.033567389532712363 2.1908655470066527e-05 0 0.033560779362504088 1.7207459853535906e-05 0 0.033561163052406015 1.6744400931869004e-05 0 0.033567389532712363 2.1908655470066527e-05 0 0.033565384794152484 1.9800789741078787e-05 0 0.033560779362504088 1.7207459853535906e-05 0 0.033559215185621452 1.1221003769177256e-05 0 0.033561163052406015 1.6744400931869004e-05 0 0.033554959338292674 1.2095761752406547e-05 0 0.033559215185621452 1.1221003769177256e-05 0 0.03355361557069933 8.5533822262348846e-06 0 0.033554959338292674 1.2095761752406547e-05 0 0.033554959338292674 1.2095761752406547e-05 0 0.033554104269919144 1.3135618147147008e-05 0 0.033547658603809122 9.9985397242811689e-06 0 0.033560779362504088 1.7207459853535906e-05 0 0.033561163052406015 1.6744400931869004e-05 0 0.033554104269919144 1.3135618147147008e-05 0 0.033561163052406015 1.6744400931869004e-05 0 0.033554959338292674 1.2095761752406547e-05 0 0.033554104269919144 1.3135618147147008e-05 0 0.033560779362504088 1.7207459853535906e-05 0 0.033554104269919144 1.3135618147147008e-05 0 0.033555163283314308 1.3930713600388314e-05 0 0.033554104269919144 1.3135618147147008e-05 0 0.033550232214719526 1.1841782723766841e-05 0 0.033555163283314308 1.3930713600388314e-05 0 0.033550232214719526 1.1841782723766841e-05 0 0.03354938350843046 1.1479695467987717e-05 0 0.033555163283314308 1.3930713600388314e-05 0 0.03354938350843046 1.1479695467987717e-05 0 0.033551346238059027 1.0854349969766555e-05 0 0.033538786079522626 9.1921730469189144e-06 0 0.033554104269919144 1.3135618147147008e-05 0 0.033550232214719526 1.1841782723766841e-05 0 0.033547658603809122 9.9985397242811689e-06 0 0.033550232214719526 1.1841782723766841e-05 0 0.033547658603809122 9.9985397242811689e-06 0 0.033545519265416858 1.0353521478554832e-05 0 0.033541154553489314 8.7489902472947568e-06 0 0.033547658603809122 9.9985397242811689e-06 0 0.033545519265416858 1.0353521478554832e-05 0 0.033541154553489314 8.7489902472947568e-06 0 0.033545519265416858 1.0353521478554832e-05 0 0.033538786079522626 9.1921730469189144e-06 0 0.033545519265416858 1.0353521478554832e-05 0 0.03354938350843046 1.1479695467987717e-05 0 0.033538786079522626 9.1921730469189144e-06 0 0.033550232214719526 1.1841782723766841e-05 0 0.033545519265416858 1.0353521478554832e-05 0 0.03354938350843046 1.1479695467987717e-05 0 0.03354938350843046 1.1479695467987717e-05 0 0.033556084450927767 1.3175058266280106e-05 0 0.033551346238059027 1.0854349969766555e-05 0 0.03354938350843046 1.1479695467987717e-05 0 0.033555163283314308 1.3930713600388314e-05 0 0.033556084450927767 1.3175058266280106e-05 0 0.033560259586197884 1.5942064525251838e-05 0 0.033555163283314308 1.3930713600388314e-05 0 0.033556084450927767 1.3175058266280106e-05 0 0.033556084450927767 1.3175058266280106e-05 0 0.033556141100677409 1.2320786963259373e-05 0 0.03355978640628602 1.3608765141415895e-05 0 0.033560259586197884 1.5942064525251838e-05 0 0.033556084450927767 1.3175058266280106e-05 0 0.03355978640628602 1.3608765141415895e-05 0 0.033498486599410321 -6.7692385978560055e-05 0 0.033934552381463791 0.00012129350049671607 0 0.03355488170507416 -2.8921032492966718e-05 0 0.033498486599410321 -6.7692385978560055e-05 0 0.033556084450927767 1.3175058266280106e-05 0 0.03355583420202491 1.2747274164801147e-05 0 0.033556141100677409 1.2320786963259373e-05 0 0.033152103098051944 -0.0003067278354449364 0 0.032823945152409349 -0.00032646583133302148 0 0.032909590306298336 -0.00011323247314681726 0 0.033498486599410321 -6.7692385978560055e-05 0 0.033723297637053708 8.2406618828289715e-05 0 0.033745564058691439 8.4295566280698553e-05 0 0.033706075538831648 8.2480822175532039e-05 0 0.033751883503471594 6.7115354330270511e-05 0 0.033723297637053708 8.2406618828289715e-05 0 0.033934552381463791 0.00012129350049671607 0 0.032823945152409349 -0.00032646583133302148 0 0.032909590306298336 -0.00011323247314681726 0 0.032767755393345394 -0.00013504244891184464 0 0.033152103098051944 -0.0003067278354449364 0 0.032909590306298336 -0.00011323247314681726 0 0.032993646904632024 0.00013958981670240177 0 0.033498486599410321 -6.7692385978560055e-05 0 0.03246581248183298 -0.00026526064104567419 0 0.031012969764985285 -0.00035421514373763606 0 0.030991642508734634 -0.00034824256386191562 0 0.030970313062729203 -0.00036062669197340854 0 0.03246581248183298 -0.00026526064104567419 0 0.031730261974993026 -0.00022443803062256233 0 0.032909590306298336 -0.00011323247314681726 0 0.032993646904632024 0.00013958981670240177 0 0.032668576080930128 -2.7253815618323173e-05 0 0.032247309072437134 -0.00024379108835824272 0 0.032668667961842555 -6.8012906330920591e-05 0 0.032668576080930128 -2.7253815618323173e-05 0 0.030959145077524952 -0.00035444270341426635 0 0.030991642508734634 -0.00034824256386191562 0 0.030970313062729203 -0.00036062669197340854 0 0.030959145077524952 -0.00035444270341426635 0 0.030797145084088502 -0.00044476075480788681 0 0.030904221153973208 -0.0004272336512316996 0 0.030927159225522891 -0.00036130882364059823 0 0.030975296335233746 -0.00041340901117255843 0 0.032909590306298336 -0.00011323247314681726 0 0.032668576080930128 -2.7253815618323173e-05 0 0.032767755393345394 -0.00013504244891184464 0 0.032668667961842555 -6.8012906330920591e-05 0 0.032668576080930128 -2.7253815618323173e-05 0 0.032767755393345394 -0.00013504244891184464 0 0.030868999664032101 -0.0004621783903499551 0 0.030797145084088502 -0.00044476075480788681 0 0.030904221153973208 -0.0004272336512316996 0 0.030868999664032101 -0.0004621783903499551 0 0.030904221153973208 -0.0004272336512316996 0 0.03092266068010276 -0.00045309597301999735 0 0.033101282124750393 0.00010485586384524653 0 0.033018077145758398 0.0003009695308578207 0 0.033605234389898667 0.00012995088064703006 0 0.031768485347087996 -0.00020787961799707827 0 0.033787106877860226 0.00014490403764688063 0 0.034686133984860715 0.00080245813753498279 0 0.03492141296830395 0.00080182165463048587 0 0.034813343906471811 0.00070952794994433505 0 0.032247309072437134 -0.00024379108835824272 0 0.032668667961842555 -6.8012906330920591e-05 0 0.032806887117785372 -0.00040459040463294881 0 0.034119017013865612 0.00048498773076382438 0 0.033787106877860226 0.00014490403764688063 0 0.031768485347087996 -0.00020787961799707827 0 0.031730261974993026 -0.00022443803062256233 0 0.032823945152409349 -0.00032646583133302148 0 0.032668667961842555 -6.8012906330920591e-05 0 0.032767755393345394 -0.00013504244891184464 0 0.03286489407819821 -0.00040091913083059182 0 0.032668667961842555 -6.8012906330920591e-05 0 0.032806887117785372 -0.00040459040463294881 0 0.033723297637053708 8.2406618828289715e-05 0 0.032737764689813244 -6.5002993133097948e-05 0 0.034949013828885961 0.00080251592730640783 0 0.03492141296830395 0.00080182165463048587 0 0.034813343906471811 0.00070952794994433505 0 0.033723297637053708 8.2406618828289715e-05 0 0.033787106877860226 0.00014490403764688063 0 0.034628552695938689 0.00054088393395632713 0 0.034813343906471811 0.00070952794994433505 0 0.034883452572475535 0.00055139149829628665 0 0.034949013828885961 0.00080251592730640783 0 0.034813343906471811 0.00070952794994433505 0 0.034883452572475535 0.00055139149829628665 0 0.034883452572475535 0.00055139149829628665 0 0.034994690990496284 0.00030267804590753035 0 0.034789943688956083 0.00038766530019733263 0 0.034883452572475535 0.00055139149829628665 0 0.035100383939035452 0.00051878724907040638 0 0.034994690990496284 0.00030267804590753035 0 0.034949013828885961 0.00080251592730640783 0 0.034883452572475535 0.00055139149829628665 0 0.035100383939035452 0.00051878724907040638 0 0.033723297637053708 8.2406618828289715e-05 0 0.034792263752859091 0.00041384343893242887 0 0.034182294953860694 0.00035500564913322063 0 0.034297501764089057 0.0001681563981598354 0 0.034350221251154389 0.00030218518617957258 0 0.034297501764089057 0.0001681563981598354 0 0.034350221251154389 0.00030218518617957258 0 0.034395290757484077 0.00018023384604670786 0 0.03419288894707511 0.00014452498224642505 0 0.034204332265919214 0.00011699525668276411 0 0.034234287809434868 0.00013242201765984574 0 0.033934552381463791 0.00012129350049671607 0 0.034295622549111296 0.00015904394724461889 0 0.034792263752859091 0.00041384343893242887 0 0.034846134505830836 9.6595004419542687e-05 0 0.034297501764089057 0.0001681563981598354 0 0.034395290757484077 0.00018023384604670786 0 0.034440411629964078 5.9682915942431271e-05 0 0.034295622549111296 0.00015904394724461889 0 0.03466388987231582 9.8419497892902248e-05 0 0.034925527448993895 0.00012193592105744367 0 0.034938623536952929 7.2151907185346735e-05 0 0.034912088129666285 7.8148696111793111e-05 0 0.034055425707263817 7.743076694926417e-05 0 0.03466388987231582 9.8419497892902248e-05 0 0.034204332265919214 0.00011699525668276411 0 0.034234287809434868 0.00013242201765984574 0 0.034216268945536636 8.9668562964627575e-05 0 0.033556141100677409 1.2320786963259373e-05 0 0.03355978640628602 1.3608765141415895e-05 0 0.033568214767405215 1.1031117836461671e-05 0 0.033934552381463791 0.00012129350049671607 0 0.034055425707263817 7.743076694926417e-05 0 0.03355978640628602 1.3608765141415895e-05 0 0.033568214767405215 1.1031117836461671e-05 0 0.033563861986106107 1.4562534682826674e-05 0 0.033573328831864861 2.6366507829464757e-05 0 0.033570397057341959 8.936001942649765e-06 0 0.033563861986106107 1.4562534682826674e-05 0 0.033591575957268791 -7.2055766145598149e-05 0 0.034055425707263817 7.743076694926417e-05 0 0.034055425707263817 7.743076694926417e-05 0 0.033718512694785992 0.00013838520096727297 0 0.034926891520225781 5.3095890761158132e-05 0 0.034905257549068487 6.3526762588297483e-05 0 0.034947254656791715 1.8374937121925978e-05 0 0.034846134505830836 9.6595004419542687e-05 0 0.034995681644101696 -1.4485349976507911e-06 0 0.034954446540145706 4.7450000308509892e-05 0 0.034926891520225781 5.3095890761158132e-05 0 0.034947254656791715 1.8374937121925978e-05 0 0.034954446540145706 4.7450000308509892e-05 0 0.034926891520225781 5.3095890761158132e-05 0 0.034938623536952929 7.2151907185346735e-05 0 0.034926891520225781 5.3095890761158132e-05 0 0.034938623536952929 7.2151907185346735e-05 0 0.034912088129666285 7.8148696111793111e-05 0 0.034926891520225781 5.3095890761158132e-05 0 0.034905257549068487 6.3526762588297483e-05 0 0.034913829795285255 8.155814569842115e-05 0 0.034912787783305865 2.3300141828316853e-05 0 0.03466388987231582 9.8419497892902248e-05 0 0.034297501764089057 0.0001681563981598354 0 0.034405353353855223 -8.6877040543469239e-06 0 0.034440411629964078 5.9682915942431271e-05 0 0.035215786989016451 0.00026663030108178078 0 0.035127985377045416 0.00012752568136035905 0 0.034994690990496284 0.00030267804590753035 0 0.034846134505830836 9.6595004419542687e-05 0 0.03466388987231582 9.8419497892902248e-05 0 0.035008491179497545 3.6229274677188979e-06 0 0.035010877373329266 5.7234378516472732e-06 0 0.035005246508501155 7.5825184325866556e-06 0 0.034846134505830836 9.6595004419542687e-05 0 0.035070932134645516 9.5397581251587262e-05 0 0.035070932134645516 9.5397581251587262e-05 0 0.03502806032929328 1.7350758502890337e-05 0 0.035127985377045416 0.00012752568136035905 0 0.034978254539236739 0.0001247631986207514 0 0.034994690990496284 0.00030267804590753035 0 0.035127985377045416 0.00012752568136035905 0 0.034978254539236739 0.0001247631986207514 0 0.035018897195224517 1.4317021287644265e-05 0 0.035100383939035452 0.00051878724907040638 0 0.035215786989016451 0.00026663030108178078 0 0.034994690990496284 0.00030267804590753035 0 0.034994690990496284 0.00030267804590753035 0 0.034789943688956083 0.00038766530019733263 0 0.034830460169207711 0.0001848694673862676 0 0.034978254539236739 0.0001247631986207514 0 0.034830460169207711 0.0001848694673862676 0 0.034905325442460083 3.3106305322149824e-06 0 0.034978254539236739 0.0001247631986207514 0 0.034994690990496284 0.00030267804590753035 0 0.034830460169207711 0.0001848694673862676 0 0.034905325442460083 3.3106305322149824e-06 0 0.034999957675047523 -1.0755375623932841e-08 0 0.035018897195224517 1.4317021287644265e-05 0 0.034905325442460083 3.3106305322149824e-06 0 0.034999957675047523 -1.0755375623932841e-08 0 0.034999724291189915 -1.2560010793040341e-07 0 0.034999957675047523 -1.0755375623932841e-08 0 0.035018897195224517 1.4317021287644265e-05 0 0.035000032750352357 1.8085870458421999e-08 0 0.034978254539236739 0.0001247631986207514 0 0.034905325442460083 3.3106305322149824e-06 0 0.035018897195224517 1.4317021287644265e-05 0 0.035018897195224517 1.4317021287644265e-05 0 0.03500827706043913 8.7756186982033635e-06 0 0.035000032750352357 1.8085870458421999e-08 0 0.035010877373329266 5.7234378516472732e-06 0 0.03500827706043913 8.7756186982033635e-06 0 0.035005246508501155 7.5825184325866556e-06 0 0.035010877373329266 5.7234378516472732e-06 0 0.035018897195224517 1.4317021287644265e-05 0 0.03500827706043913 8.7756186982033635e-06 0 0.034999993790793743 -5.7866859357959738e-09 0 0.035000032750352357 1.8085870458421999e-08 0 0.035005246508501155 7.5825184325866556e-06 0 0.03500827706043913 8.7756186982033635e-06 0 0.035000032750352357 1.8085870458421999e-08 0 0.035005246508501155 7.5825184325866556e-06 0 0.034206046246488639 3.8516590581730962e-05 0 0.033759900594141037 -5.3913160900631059e-05 0 0.034312021549389608 -0.0001066065689748394 0 0.033759900594141037 -5.3913160900631059e-05 0 0.033165463325935479 5.1033699947552593e-05 0 0.03297761557909696 -3.4131577961132305e-06 0 0.034206046246488639 3.8516590581730962e-05 0 0.033759900594141037 -5.3913160900631059e-05 0 0.033165463325935479 5.1033699947552593e-05 0 0.033855386988330204 0.00017624954390600353 0 0.034107871061682483 -5.9054620122579083e-06 0 0.033256004650093214 2.4247969689544376e-05 0 0.034206046246488639 3.8516590581730962e-05 0 0.033165463325935479 5.1033699947552593e-05 0 0.034280335945736706 0.00042353132006831413 0 0.034206046246488639 3.8516590581730962e-05 0 0.034600333201206673 0.00029239058588612099 0 0.034789943688956083 0.00038766530019733263 0 0.034830460169207711 0.0001848694673862676 0 0.034600333201206673 0.00029239058588612099 0 0.034830460169207711 0.0001848694673862676 0 0.034600333201206673 0.00029239058588612099 0 0.034711541086075874 -1.0536237546509946e-05 0 0.034830460169207711 0.0001848694673862676 0 0.034905325442460083 3.3106305322149824e-06 0 0.034711541086075874 -1.0536237546509946e-05 0 0.034206046246488639 3.8516590581730962e-05 0 0.034600333201206673 0.00029239058588612099 0 0.034711541086075874 -1.0536237546509946e-05 0 0.034206046246488639 3.8516590581730962e-05 0 0.034711541086075874 -1.0536237546509946e-05 0 0.034635451168156917 -0.00011221182672568204 0 0.034905325442460083 3.3106305322149824e-06 0 0.034711541086075874 -1.0536237546509946e-05 0 0.034999724291189915 -1.2560010793040341e-07 0 0.034711541086075874 -1.0536237546509946e-05 0 0.034999724291189915 -1.2560010793040341e-07 0 0.034635451168156917 -0.00011221182672568204 0 0.034999724291189915 -1.2560010793040341e-07 0 0.034998757243794663 -3.5957308882634095e-07 0 0.034635451168156917 -0.00011221182672568204 0 0.034998757243794663 -3.5957308882634095e-07 0 0.034635451168156917 -0.00011221182672568204 0 0.034664766586398547 -0.0001806781487129532 0 0.034312021549389608 -0.0001066065689748394 0 0.034635451168156917 -0.00011221182672568204 0 0.034664766586398547 -0.0001806781487129532 0 0.034206046246488639 3.8516590581730962e-05 0 0.034312021549389608 -0.0001066065689748394 0 0.034635451168156917 -0.00011221182672568204 0 0.033759900594141037 -5.3913160900631059e-05 0 0.034312021549389608 -0.0001066065689748394 0 0.034664766586398547 -0.0001806781487129532 0 0.033759900594141037 -5.3913160900631059e-05 0 0.034664766586398547 -0.0001806781487129532 0 0.033101575007685811 -0.00034172676152608599 0 0.034998757243794663 -3.5957308882634095e-07 0 0.034664766586398547 -0.0001806781487129532 0 0.035000150213713242 7.8422902491188347e-08 0 0.034664766586398547 -0.0001806781487129532 0 0.035000150213713242 7.8422902491188347e-08 0 0.034976352872482262 -0.00010188295540306817 0 0.035000150213713242 7.8422902491188347e-08 0 0.034999937204270103 -6.662552506008431e-08 0 0.034998358997591746 -2.2748005642613096e-05 0 0.035000150213713242 7.8422902491188347e-08 0 0.034976352872482262 -0.00010188295540306817 0 0.034998358997591746 -2.2748005642613096e-05 0 0.034042718916856826 -0.00017699187219938654 0 0.033747264772106822 2.9938853057988018e-05 0 0.034976352872482262 -0.00010188295540306817 0 0.034985778309168783 5.1325149479829225e-05 0 0.034998358997591746 -2.2748005642613096e-05 0 0.034557255080184271 -0.00019949598308846599 0 0.034042718916856826 -0.00017699187219938654 0 0.033759900594141037 -5.3913160900631059e-05 0 0.033101575007685811 -0.00034172676152608599 0 0.03297761557909696 -3.4131577961132305e-06 0 0.03297761557909696 -3.4131577961132305e-06 0 0.032580258233694592 3.3663297638534824e-05 0 0.032489698268083893 7.045141025880532e-06 0 0.033101575007685811 -0.00034172676152608599 0 0.03297761557909696 -3.4131577961132305e-06 0 0.032489698268083893 7.045141025880532e-06 0 0.032580258233694592 3.3663297638534824e-05 0 0.032582016302537861 2.2814633275533188e-05 0 0.032338362600819522 -1.254168864688417e-06 0 0.03297761557909696 -3.4131577961132305e-06 0 0.032580258233694592 3.3663297638534824e-05 0 0.032582016302537861 2.2814633275533188e-05 0 0.033165463325935479 5.1033699947552593e-05 0 0.03297761557909696 -3.4131577961132305e-06 0 0.032582016302537861 2.2814633275533188e-05 0 0.032489698268083893 7.045141025880532e-06 0 0.03263356406715328 0.00030372618206233286 0 0.032338362600819522 -1.254168864688417e-06 0 0.03263356406715328 0.00030372618206233286 0 0.032745306154018432 -8.220415945484996e-05 0 0.032338362600819522 -1.254168864688417e-06 0 0.032580258233694592 3.3663297638534824e-05 0 0.032489698268083893 7.045141025880532e-06 0 0.032338362600819522 -1.254168864688417e-06 0 0.034985778309168783 5.1325149479829225e-05 0 0.034792045949817073 0.00021177197159904411 0 0.034880180102113821 -7.29789727548538e-06 0 0.033747264772106822 2.9938853057988018e-05 0 0.033740039769216641 0.00023325933450081963 0 0.034985778309168783 5.1325149479829225e-05 0 0.034880180102113821 -7.29789727548538e-06 0 0.034998358997591746 -2.2748005642613096e-05 0 0.034880180102113821 -7.29789727548538e-06 0 0.034999937204270103 -6.662552506008431e-08 0 0.034998358997591746 -2.2748005642613096e-05 0 0.034880180102113821 -7.29789727548538e-06 0 0.034999937204270103 -6.662552506008431e-08 0 0.034999730729459534 -7.0934528134946008e-08 0 0.034880180102113821 -7.29789727548538e-06 0 0.034999730729459534 -7.0934528134946008e-08 0 0.034622796425435517 1.3900578767109473e-05 0 0.034880180102113821 -7.29789727548538e-06 0 0.034622796425435517 1.3900578767109473e-05 0 0.034471168004846231 0.00011533867332825314 0 0.034999730729459534 -7.0934528134946008e-08 0 0.034999658912747617 4.2660307916693335e-08 0 0.034622796425435517 1.3900578767109473e-05 0 0.03499782069891158 1.5301057910228556e-07 0 0.034439089280587247 -0.00016496327284622043 0 0.034999531161929949 -5.0403415714810636e-08 0 0.03499782069891158 1.5301057910228556e-07 0 0.033539033178897518 -0.0002335355262938195 0 0.034439089280587247 -0.00016496327284622043 0 0.034999647543422274 -1.5033992105461394e-07 0 0.034064841161206637 -0.0001495177703716785 0 0.034439089280587247 -0.00016496327284622043 0 0.033755598160983051 -0.00047250419653540275 0 0.034236632454095063 -0.00047747595546741064 0 0.033539033178897518 -0.0002335355262938195 0 0.034439089280587247 -0.00016496327284622043 0 0.033755598160983051 -0.00047250419653540275 0 0.033755598160983051 -0.00047250419653540275 0 0.033250780525423351 -0.00085854881756687574 0 0.033790259516739189 -0.0007361329108735758 0 0.033755598160983051 -0.00047250419653540275 0 0.034236632454095063 -0.00047747595546741064 0 0.033790259516739189 -0.0007361329108735758 0 0.033539033178897518 -0.0002335355262938195 0 0.033071642640954566 -0.000668748104402609 0 0.032172201415567078 -0.00087630575841689132 0 0.033539033178897518 -0.0002335355262938195 0 0.033755598160983051 -0.00047250419653540275 0 0.033071642640954566 -0.000668748104402609 0 0.033755598160983051 -0.00047250419653540275 0 0.033071642640954566 -0.000668748104402609 0 0.033250780525423351 -0.00085854881756687574 0 0.033071642640954566 -0.000668748104402609 0 0.032582989220159765 -0.0011374502796891405 0 0.032172201415567078 -0.00087630575841689132 0 0.032582989220159765 -0.0011374502796891405 0 0.033250780525423351 -0.00085854881756687574 0 0.033063426820400151 -0.0012157808649428184 0 0.033071642640954566 -0.000668748104402609 0 0.032582989220159765 -0.0011374502796891405 0 0.033250780525423351 -0.00085854881756687574 0 0.033250780525423351 -0.00085854881756687574 0 0.033440290302319403 -0.00098085814715237907 0 0.033063426820400151 -0.0012157808649428184 0 0.033440290302319403 -0.00098085814715237907 0 0.033063426820400151 -0.0012157808649428184 0 0.033497946202734837 -0.0012222318109313807 0 0.033250780525423351 -0.00085854881756687574 0 0.033440290302319403 -0.00098085814715237907 0 0.033790259516739189 -0.0007361329108735758 0 0.034792045949817073 0.00021177197159904411 0 0.034880180102113821 -7.29789727548538e-06 0 0.034471168004846231 0.00011533867332825314 0 0.034622796425435517 1.3900578767109473e-05 0 0.034471168004846231 0.00011533867332825314 0 0.033990510360554199 0.00029675348331042849 0 0.034064841161206637 -0.0001495177703716785 0 0.033078848326216534 -0.00031703809598353753 0 0.034471168004846231 0.00011533867332825314 0 0.033882054221506537 0.00025396374267136381 0 0.033990510360554199 0.00029675348331042849 0 0.03263356406715328 0.00030372618206233286 0 0.033882054221506537 0.00025396374267136381 0 0.032745306154018432 -8.220415945484996e-05 0 0.034792045949817073 0.00021177197159904411 0 0.034471168004846231 0.00011533867332825314 0 0.033882054221506537 0.00025396374267136381 0 0.033740039769216641 0.00023325933450081963 0 0.03390853328575133 0.00023062767356596769 0 0.033882054221506537 0.00025396374267136381 0 0.032745306154018432 -8.220415945484996e-05 0 0.033025504881284633 -0.00045186728403502196 0 0.033882054221506537 0.00025396374267136381 0 0.033990510360554199 0.00029675348331042849 0 0.033025504881284633 -0.00045186728403502196 0 0.032172201415567078 -0.00087630575841689132 0 0.030969936665397931 -0.0019948291443412504 0 0.031885322344120559 -0.0016869966462461487 0 0.033078848326216534 -0.00031703809598353753 0 0.032033367998552498 -0.0012330012849466098 0 0.030969936665397931 -0.0019948291443412504 0 0.031885322344120559 -0.0016869966462461487 0 0.031198901746478516 -0.0025639741614818701 0 0.033025504881284633 -0.00045186728403502196 0 0.032353859119114536 -0.00098727782609177262 0 0.032324293156183292 -0.00043585465692779803 0 0.032745306154018432 -8.220415945484996e-05 0 0.033025504881284633 -0.00045186728403502196 0 0.032324293156183292 -0.00043585465692779803 0 0.033004637669949773 -0.0015512764641313849 0 0.032967134843323712 -0.0018683950255909151 0 0.03341016297585029 -0.0015921123853207687 0 0.033004637669949773 -0.0015512764641313849 0 0.033063426820400151 -0.0012157808649428184 0 0.033497946202734837 -0.0012222318109313807 0 0.033004637669949773 -0.0015512764641313849 0 0.033063426820400151 -0.0012157808649428184 0 0.032493774554472402 -0.0015750609389845974 0 0.033004637669949773 -0.0015512764641313849 0 0.032493774554472402 -0.0015750609389845974 0 0.032560909317058517 -0.0018933446334607864 0 0.032582989220159765 -0.0011374502796891405 0 0.032172201415567078 -0.00087630575841689132 0 0.031885322344120559 -0.0016869966462461487 0 0.032582989220159765 -0.0011374502796891405 0 0.033063426820400151 -0.0012157808649428184 0 0.032493774554472402 -0.0015750609389845974 0 0.032582989220159765 -0.0011374502796891405 0 0.032493774554472402 -0.0015750609389845974 0 0.031885322344120559 -0.0016869966462461487 0 0.031885322344120559 -0.0016869966462461487 0 0.031957195214390027 -0.002140809157435176 0 0.031198901746478516 -0.0025639741614818701 0 0.032493774554472402 -0.0015750609389845974 0 0.031885322344120559 -0.0016869966462461487 0 0.031957195214390027 -0.002140809157435176 0 0.032493774554472402 -0.0015750609389845974 0 0.031957195214390027 -0.002140809157435176 0 0.032560909317058517 -0.0018933446334607864 0 0.031957195214390027 -0.002140809157435176 0 0.032560909317058517 -0.0018933446334607864 0 0.032500137705992825 -0.0023023001364465352 0 0.032500137705992825 -0.0023023001364465352 0 0.032967134843323712 -0.0018683950255909151 0 0.033228556794367953 -0.0020881137268297409 0 0.033004637669949773 -0.0015512764641313849 0 0.032560909317058517 -0.0018933446334607864 0 0.032967134843323712 -0.0018683950255909151 0 0.032560909317058517 -0.0018933446334607864 0 0.032500137705992825 -0.0023023001364465352 0 0.032967134843323712 -0.0018683950255909151 0 0.032500137705992825 -0.0023023001364465352 0 0.032326918819756904 -0.002862796022096143 0 0.03301886164103613 -0.0025428896630701726 0 0.032500137705992825 -0.0023023001364465352 0 0.032326918819756904 -0.002862796022096143 0 0.031493696153730016 -0.0028092047047963472 0 0.032326918819756904 -0.002862796022096143 0 0.031493696153730016 -0.0028092047047963472 0 0.031711074309317286 -0.0033666406958281513 0 0.031957195214390027 -0.002140809157435176 0 0.031493696153730016 -0.0028092047047963472 0 0.031198901746478516 -0.0025639741614818701 0 0.031957195214390027 -0.002140809157435176 0 0.032500137705992825 -0.0023023001364465352 0 0.031493696153730016 -0.0028092047047963472 0 0.031493696153730016 -0.0028092047047963472 0 0.031198901746478516 -0.0025639741614818701 0 0.030719883819320747 -0.003173060587999123 0 0.031493696153730016 -0.0028092047047963472 0 0.030668190206636775 -0.0034018045636444345 0 0.030719883819320747 -0.003173060587999123 0 0.030668190206636775 -0.0034018045636444345 0 0.030186799824266791 -0.0033879254243808533 0 0.029644859543409084 -0.0042118040610792584 0 0.030668190206636775 -0.0034018045636444345 0 0.031711074309317286 -0.0033666406958281513 0 0.031301127459292637 -0.0040567486162801309 0 0.031493696153730016 -0.0028092047047963472 0 0.030668190206636775 -0.0034018045636444345 0 0.031711074309317286 -0.0033666406958281513 0 0.031711074309317286 -0.0033666406958281513 0 0.032182293070131554 -0.0038269996110445736 0 0.031301127459292637 -0.0040567486162801309 0 0.031711074309317286 -0.0033666406958281513 0 0.032182293070131554 -0.0038269996110445736 0 0.032508720125553496 -0.0033836978679436477 0 0.032326918819756904 -0.002862796022096143 0 0.032508720125553496 -0.0033836978679436477 0 0.033065051547855648 -0.0030474215469988822 0 0.032326918819756904 -0.002862796022096143 0 0.031711074309317286 -0.0033666406958281513 0 0.032508720125553496 -0.0033836978679436477 0 0.032033367998552498 -0.0012330012849466098 0 0.031379804246249553 -0.0021360763929466195 0 0.031198901746478516 -0.0025639741614818701 0 0.030719883819320747 -0.003173060587999123 0 0.030395421165783101 -0.0034117970660342604 0 0.030969936665397931 -0.0019948291443412504 0 0.031198901746478516 -0.0025639741614818701 0 0.030395421165783101 -0.0034117970660342604 0 0.030719883819320747 -0.003173060587999123 0 0.030186799824266791 -0.0033879254243808533 0 0.030395421165783101 -0.0034117970660342604 0 0.030668190206636775 -0.0034018045636444345 0 0.030719883819320747 -0.003173060587999123 0 0.030186799824266791 -0.0033879254243808533 0 0.030186799824266791 -0.0033879254243808533 0 0.030395421165783101 -0.0034117970660342604 0 0.031037129530732392 -0.0021446794631712878 0 0.031379804246249553 -0.0021360763929466195 0 0.031106016731688762 -0.0021050319178756681 0 0.032353859119114536 -0.00098727782609177262 0 0.031790180952669063 -0.00086093228803714482 0 0.031037129530732392 -0.0021446794631712878 0 0.031790180952669063 -0.00086093228803714482 0 0.031332486177865937 -0.0010485652372620683 0 0.031037129530732392 -0.0021446794631712878 0 0.032353859119114536 -0.00098727782609177262 0 0.031790180952669063 -0.00086093228803714482 0 0.032324293156183292 -0.00043585465692779803 0 0.031790180952669063 -0.00086093228803714482 0 0.032324293156183292 -0.00043585465692779803 0 0.031950412750743201 -0.00044403730114626617 0 0.031332486177865937 -0.0010485652372620683 0 0.031812907545651234 -0.00041435290074355368 0 0.031950412750743201 -0.00044403730114626617 0 0.031790180952669063 -0.00086093228803714482 0 0.031332486177865937 -0.0010485652372620683 0 0.031950412750743201 -0.00044403730114626617 0 0.031332486177865937 -0.0010485652372620683 0 0.031376435171562383 -0.00072549289350217286 0 0.031812907545651234 -0.00041435290074355368 0 0.031412573468035117 -0.00062934022767964948 0 0.031675222697749951 -0.00045862865587904258 0 0.031376435171562383 -0.00072549289350217286 0 0.031675222697749951 -0.00045862865587904258 0 0.031376435171562383 -0.00072549289350217286 0 0.031812907545651234 -0.00041435290074355368 0 0.032054522278771452 -2.1019889174629684e-05 0 0.031675222697749951 -0.00045862865587904258 0 0.031812907545651234 -0.00041435290074355368 0 0.031812907545651234 -0.00041435290074355368 0 0.03217932354224403 -0.00013368461777695916 0 0.031950412750743201 -0.00044403730114626617 0 0.031812907545651234 -0.00041435290074355368 0 0.03217932354224403 -0.00013368461777695916 0 0.032125219047334112 -0.00012207253788008087 0 0.032054522278771452 -2.1019889174629684e-05 0 0.031812907545651234 -0.00041435290074355368 0 0.032125219047334112 -0.00012207253788008087 0 0.032054522278771452 -2.1019889174629684e-05 0 0.032125219047334112 -0.00012207253788008087 0 0.032483338074998973 -2.9619271337348686e-05 0 0.03217932354224403 -0.00013368461777695916 0 0.032125219047334112 -0.00012207253788008087 0 0.032483338074998973 -2.9619271337348686e-05 0 0.033165463325935479 5.1033699947552593e-05 0 0.032582016302537861 2.2814633275533188e-05 0 0.032483338074998973 -2.9619271337348686e-05 0 0.032582016302537861 2.2814633275533188e-05 0 0.03217932354224403 -0.00013368461777695916 0 0.032483338074998973 -2.9619271337348686e-05 0 0.032582016302537861 2.2814633275533188e-05 0 0.03217932354224403 -0.00013368461777695916 0 0.032338362600819522 -1.254168864688417e-06 0 0.032745306154018432 -8.220415945484996e-05 0 0.032338362600819522 -1.254168864688417e-06 0 0.032324293156183292 -0.00043585465692779803 0 0.032338362600819522 -1.254168864688417e-06 0 0.032324293156183292 -0.00043585465692779803 0 0.031950412750743201 -0.00044403730114626617 0 0.03217932354224403 -0.00013368461777695916 0 0.032338362600819522 -1.254168864688417e-06 0 0.031950412750743201 -0.00044403730114626617 0 0.031501417401069536 -8.6059445078788755e-07 0 0.031633092501722679 -1.3715502148159786e-05 0 0.030022541546400092 3.6820756855879743e-07 0 0.031501417401069536 -8.6059445078788755e-07 0 0.031633092501722679 -1.3715502148159786e-05 0 0.032132895688095429 -8.1952354588838358e-05 0 0.031633092501722679 -1.3715502148159786e-05 0 0.032132895688095429 -8.1952354588838358e-05 0 0.033011127398334325 -0.00010101211721851639 0 0.032132895688095429 -8.1952354588838358e-05 0 0.032536731247106432 -0.00034413403998353103 0 0.033011127398334325 -0.00010101211721851639 0 0.03150696012348863 6.9044017009356169e-08 0 0.03305225540322683 -7.5446182951038691e-08 0 0.03313207048777185 -4.1942599153256056e-06 0 0.031501417401069536 -8.6059445078788755e-07 0 0.032132895688095429 -8.1952354588838358e-05 0 0.032536731247106432 -0.00034413403998353103 0 0.031504220878483716 -1.2035372803135966e-07 0 0.032727006380377593 -0.00017864721856289631 0 0.034998202952423868 -6.0519958721696657e-07 0 0.034671026292952954 9.4559704680657075e-06 0 0.034953115297618784 -8.5028013036015498e-07 0 0.03305225540322683 -7.5446182951038691e-08 0 0.033141603868513433 -8.6425042188212654e-05 0 0.03313207048777185 -4.1942599153256056e-06 0 0.033056042548754508 -4.6186793707873652e-08 0 0.033875246392470741 -8.9848026570488808e-05 0 0.034998202952423868 -6.0519958721696657e-07 0 0.035000399971255945 2.9514222342498089e-07 0 0.034953115297618784 -8.5028013036015498e-07 0 0.033058737020228907 9.164966335028554e-07 0 0.034998202952423868 -6.0519958721696657e-07 0 0.034671026292952954 9.4559704680657075e-06 0 0.033875246392470741 -8.9848026570488808e-05 0 0.034315214430587854 -1.827954923721668e-05 0 0.032536731247106432 -0.00034413403998353103 0 0.033727670815549907 -0.00024043655425136725 0 0.034283388624112211 -0.00029220131337344722 0 0.032727006380377593 -0.00017864721856289631 0 0.034315214430587854 -1.827954923721668e-05 0 0.033141603868513433 -8.6425042188212654e-05 0 0.03313207048777185 -4.1942599153256056e-06 0 0.03329703525634127 -0.00017599468039949302 0 0.032536731247106432 -0.00034413403998353103 0 0.033727670815549907 -0.00024043655425136725 0 0.033011127398334325 -0.00010101211721851639 0 0.033727670815549907 -0.00024043655425136725 0 0.034204605550034732 -0.00020231506463207853 0 0.033011127398334325 -0.00010101211721851639 0 0.033727670815549907 -0.00024043655425136725 0 0.034411085202695819 -0.0002193898041969003 0 0.034204605550034732 -0.00020231506463207853 0 0.033727670815549907 -0.00024043655425136725 0 0.034411085202695819 -0.0002193898041969003 0 0.034283388624112211 -0.00029220131337344722 0 0.034411085202695819 -0.0002193898041969003 0 0.034997086409872299 -1.2250504418599437e-06 0 0.034283388624112211 -0.00029220131337344722 0 0.034999134466170465 -3.7006827213242662e-07 0 0.034315214430587854 -1.827954923721668e-05 0 0.034999990078083555 2.4669444361432635e-09 0 0.035000007167167474 -2.1252012669956789e-09 0 0.034997246964132353 9.2952525584817155e-07 0 0.034999420459232593 -2.1670034979988383e-07 0 0.034315214430587854 -1.827954923721668e-05 0 0.034411085202695819 -0.0002193898041969003 0 0.034204605550034732 -0.00020231506463207853 0 0.034999741558324186 -1.1108810057552182e-07 0 0.034411085202695819 -0.0002193898041969003 0 0.034997086409872299 -1.2250504418599437e-06 0 0.034999741558324186 -1.1108810057552182e-07 0 0.034204605550034732 -0.00020231506463207853 0 0.033011127398334325 -0.00010101211721851639 0 0.034035231003193236 2.7422642915675212e-05 0 0.031633092501722679 -1.3715502148159786e-05 0 0.033011127398334325 -0.00010101211721851639 0 0.032847255492229915 0.00021118670428255966 0 0.034109659910709765 -0.0004810655999384794 0 0.033145080311524258 -0.00046024280321284734 0 0.033011127398334325 -0.00010101211721851639 0 0.034035231003193236 2.7422642915675212e-05 0 0.032847255492229915 0.00021118670428255966 0 0.034222415064723254 -0.00098342765868862495 0 0.033925753817936034 -0.00087568702183434953 0 0.033456173193011043 -0.0010936205036325558 0 0.034390950477709507 -0.00091324158277512478 0 0.034222415064723254 -0.00098342765868862495 0 0.033925753817936034 -0.00087568702183434953 0 0.034390950477709507 -0.00091324158277512478 0 0.034188766393265284 -0.0010258331587243402 0 0.034201938762553716 -0.0013710093641477645 0 0.034390950477709507 -0.00091324158277512478 0 0.03450459546963041 -0.00070595572290312731 0 0.034357234277394864 -0.0007226691503257332 0 0.034109659910709765 -0.0004810655999384794 0 0.034686442117047432 -0.00029510401551980443 0 0.03450459546963041 -0.00070595572290312731 0 0.034222415064723254 -0.00098342765868862495 0 0.03468850862281065 -0.0004982688452990848 0 0.034390950477709507 -0.00091324158277512478 0 0.03450459546963041 -0.00070595572290312731 0 0.034222415064723254 -0.00098342765868862495 0 0.034204605550034732 -0.00020231506463207853 0 0.034035231003193236 2.7422642915675212e-05 0 0.034731077661769034 -0.00010881877106093227 0 0.034204605550034732 -0.00020231506463207853 0 0.034731077661769034 -0.00010881877106093227 0 0.034999741558324186 -1.1108810057552182e-07 0 0.034731077661769034 -0.00010881877106093227 0 0.034999741558324186 -1.1108810057552182e-07 0 0.034999808362927466 6.2429831399633557e-09 0 0.034686442117047432 -0.00029510401551980443 0 0.034999860584404852 -7.41417559478651e-08 0 0.03468850862281065 -0.0004982688452990848 0 0.034999396757607597 -4.8891755456447973e-07 0 0.034615407077934902 -0.00033696910459527375 0 0.03450459546963041 -0.00070595572290312731 0 0.03468850862281065 -0.0004982688452990848 0 0.034615407077934902 -0.00033696910459527375 0 0.034999396757607597 -4.8891755456447973e-07 0 0.034615407077934902 -0.00033696910459527375 0 0.034999531161929949 -5.0403415714810636e-08 0 0.034439089280587247 -0.00016496327284622043 0 0.034615407077934902 -0.00033696910459527375 0 0.034999531161929949 -5.0403415714810636e-08 0 0.034439089280587247 -0.00016496327284622043 0 0.034615407077934902 -0.00033696910459527375 0 0.034236632454095063 -0.00047747595546741064 0 0.034236632454095063 -0.00047747595546741064 0 0.033790259516739189 -0.0007361329108735758 0 0.03395013249799464 -0.00092943501005016745 0 0.034615407077934902 -0.00033696910459527375 0 0.034236632454095063 -0.00047747595546741064 0 0.034357234277394864 -0.0007226691503257332 0 0.034236632454095063 -0.00047747595546741064 0 0.034357234277394864 -0.0007226691503257332 0 0.03395013249799464 -0.00092943501005016745 0 0.03450459546963041 -0.00070595572290312731 0 0.034615407077934902 -0.00033696910459527375 0 0.034357234277394864 -0.0007226691503257332 0 0.034357234277394864 -0.0007226691503257332 0 0.034188766393265284 -0.0010258331587243402 0 0.03395013249799464 -0.00092943501005016745 0 0.034390950477709507 -0.00091324158277512478 0 0.034357234277394864 -0.0007226691503257332 0 0.034188766393265284 -0.0010258331587243402 0 0.034188766393265284 -0.0010258331587243402 0 0.03395013249799464 -0.00092943501005016745 0 0.033852209688239959 -0.0012877399270519701 0 0.03395013249799464 -0.00092943501005016745 0 0.033497946202734837 -0.0012222318109313807 0 0.033852209688239959 -0.0012877399270519701 0 0.033440290302319403 -0.00098085814715237907 0 0.033790259516739189 -0.0007361329108735758 0 0.03395013249799464 -0.00092943501005016745 0 0.033440290302319403 -0.00098085814715237907 0 0.03395013249799464 -0.00092943501005016745 0 0.033497946202734837 -0.0012222318109313807 0 0.03341016297585029 -0.0015921123853207687 0 0.033852209688239959 -0.0012877399270519701 0 0.033783120500454365 -0.0017390228032824382 0 0.033004637669949773 -0.0015512764641313849 0 0.03341016297585029 -0.0015921123853207687 0 0.033497946202734837 -0.0012222318109313807 0 0.03341016297585029 -0.0015921123853207687 0 0.033497946202734837 -0.0012222318109313807 0 0.033852209688239959 -0.0012877399270519701 0 0.034188766393265284 -0.0010258331587243402 0 0.033852209688239959 -0.0012877399270519701 0 0.034201938762553716 -0.0013710093641477645 0 0.033852209688239959 -0.0012877399270519701 0 0.034201938762553716 -0.0013710093641477645 0 0.033783120500454365 -0.0017390228032824382 0 0.034201938762553716 -0.0013710093641477645 0 0.033783120500454365 -0.0017390228032824382 0 0.034075267877294591 -0.0018823116688914498 0 0.033783120500454365 -0.0017390228032824382 0 0.034075267877294591 -0.0018823116688914498 0 0.033636675463569805 -0.00223613345114954 0 0.034201938762553716 -0.0013710093641477645 0 0.034075267877294591 -0.0018823116688914498 0 0.034607523432788334 -0.0017370492358321416 0 0.034075267877294591 -0.0018823116688914498 0 0.034111248376076209 -0.0024239158646663199 0 0.034607523432788334 -0.0017370492358321416 0 0.034075267877294591 -0.0018823116688914498 0 0.033636675463569805 -0.00223613345114954 0 0.034111248376076209 -0.0024239158646663199 0 0.033636675463569805 -0.00223613345114954 0 0.033228556794367953 -0.0020881137268297409 0 0.03301886164103613 -0.0025428896630701726 0 0.033783120500454365 -0.0017390228032824382 0 0.033636675463569805 -0.00223613345114954 0 0.033228556794367953 -0.0020881137268297409 0 0.03341016297585029 -0.0015921123853207687 0 0.033783120500454365 -0.0017390228032824382 0 0.033228556794367953 -0.0020881137268297409 0 0.032967134843323712 -0.0018683950255909151 0 0.03341016297585029 -0.0015921123853207687 0 0.033228556794367953 -0.0020881137268297409 0 0.032500137705992825 -0.0023023001364465352 0 0.033228556794367953 -0.0020881137268297409 0 0.03301886164103613 -0.0025428896630701726 0 0.033636675463569805 -0.00223613345114954 0 0.03301886164103613 -0.0025428896630701726 0 0.033578194045288542 -0.0027235436764011627 0 0.033065051547855648 -0.0030474215469988822 0 0.033617540993703163 -0.0032671363726661565 0 0.033578194045288542 -0.0027235436764011627 0 0.03301886164103613 -0.0025428896630701726 0 0.033065051547855648 -0.0030474215469988822 0 0.033578194045288542 -0.0027235436764011627 0 0.032326918819756904 -0.002862796022096143 0 0.03301886164103613 -0.0025428896630701726 0 0.033065051547855648 -0.0030474215469988822 0 0.032508720125553496 -0.0033836978679436477 0 0.033065051547855648 -0.0030474215469988822 0 0.033034183822837772 -0.0037586391838376303 0 0.033065051547855648 -0.0030474215469988822 0 0.033034183822837772 -0.0037586391838376303 0 0.033617540993703163 -0.0032671363726661565 0 0.032182293070131554 -0.0038269996110445736 0 0.032508720125553496 -0.0033836978679436477 0 0.033034183822837772 -0.0037586391838376303 0 0.033034183822837772 -0.0037586391838376303 0 0.033920055867051359 -0.0037270524176219607 0 0.033617540993703163 -0.0032671363726661565 0 0.033920055867051359 -0.0037270524176219607 0 0.033617540993703163 -0.0032671363726661565 0 0.034008253365093312 -0.003003235792983879 0 0.033920055867051359 -0.0037270524176219607 0 0.034008253365093312 -0.003003235792983879 0 0.034602976991073231 -0.0031081105811138197 0 0.034008253365093312 -0.003003235792983879 0 0.034111248376076209 -0.0024239158646663199 0 0.034602976991073231 -0.0031081105811138197 0 0.033617540993703163 -0.0032671363726661565 0 0.034008253365093312 -0.003003235792983879 0 0.033578194045288542 -0.0027235436764011627 0 0.034008253365093312 -0.003003235792983879 0 0.033578194045288542 -0.0027235436764011627 0 0.034111248376076209 -0.0024239158646663199 0 0.033636675463569805 -0.00223613345114954 0 0.033578194045288542 -0.0027235436764011627 0 0.034111248376076209 -0.0024239158646663199 0 0.033965514402564914 -0.00037219464337618626 0 0.033988385014637947 -0.00014832679691790244 0 0.033609166678651166 -3.5762866345111129e-05 0 0.034887272165564906 -0.0016949041103601298 0 0.034264524288538739 -0.001195349237362434 0 0.034111248376076209 -0.0024239158646663199 0 0.034602976991073231 -0.0031081105811138197 0 0.034607523432788334 -0.0017370492358321416 0 0.033965514402564914 -0.00037219464337618626 0 0.033988385014637947 -0.00014832679691790244 0 0.034095563956854258 -0.00063280686033386109 0 0.033988385014637947 -0.00014832679691790244 0 0.033609166678651166 -3.5762866345111129e-05 0 0.033796787950256806 0.00010442815969211577 0 0.033920055867051359 -0.0037270524176219607 0 0.034602976991073231 -0.0031081105811138197 0 0.034458987017519913 -0.004686001141979289 0 0.033683632350909508 0.00023072171802016587 0 0.033643332169002595 -0.0001452341417622005 0 0.033443330032523984 -2.882803937064141e-05 0 0.033965514402564914 -0.00037219464337618626 0 0.033683632350909508 0.00023072171802016587 0 0.033643332169002595 -0.0001452341417622005 0 0.033965514402564914 -0.00037219464337618626 0 0.033643332169002595 -0.0001452341417622005 0 0.033606940462367924 -0.00035512905434271304 0 0.03375950590353767 -0.00022189830398704153 0 0.034279558738296002 -6.4028390865113758e-05 0 0.033643332169002595 -0.0001452341417622005 0 0.033505571226125679 -0.00018159029205802414 0 0.033443330032523984 -2.882803937064141e-05 0 0.033643332169002595 -0.0001452341417622005 0 0.033606940462367924 -0.00035512905434271304 0 0.033505571226125679 -0.00018159029205802414 0 0.033606940462367924 -0.00035512905434271304 0 0.033792012732629724 -0.00058442735117788516 0 0.033467443995619128 -0.00050949857760816967 0 0.033965514402564914 -0.00037219464337618626 0 0.033606940462367924 -0.00035512905434271304 0 0.033792012732629724 -0.00058442735117788516 0 0.033792012732629724 -0.00058442735117788516 0 0.034095563956854258 -0.00063280686033386109 0 0.033925753817936034 -0.00087568702183434953 0 0.033792012732629724 -0.00058442735117788516 0 0.033546715965056935 -0.00075442719031290422 0 0.033467443995619128 -0.00050949857760816967 0 0.033965514402564914 -0.00037219464337618626 0 0.033792012732629724 -0.00058442735117788516 0 0.034095563956854258 -0.00063280686033386109 0 0.034390950477709507 -0.00091324158277512478 0 0.034095563956854258 -0.00063280686033386109 0 0.033925753817936034 -0.00087568702183434953 0 0.034390950477709507 -0.00091324158277512478 0 0.034201938762553716 -0.0013710093641477645 0 0.034607523432788334 -0.0017370492358321416 0 0.034408863837099901 -0.00095556408463909001 0 0.034264524288538739 -0.001195349237362434 0 0.033792012732629724 -0.00058442735117788516 0 0.033925753817936034 -0.00087568702183434953 0 0.033546715965056935 -0.00075442719031290422 0 0.033456173193011043 -0.0010936205036325558 0 0.033009440906369272 -0.00063147701303246429 0 0.033546715965056935 -0.00075442719031290422 0 0.033925753817936034 -0.00087568702183434953 0 0.033456173193011043 -0.0010936205036325558 0 0.033546715965056935 -0.00075442719031290422 0 0.031633092501722679 -1.3715502148159786e-05 0 0.032847255492229915 0.00021118670428255966 0 0.031379792940650457 0.00011736194820526089 0 0.033456173193011043 -0.0010936205036325558 0 0.032188138373648596 -0.00086197558491318263 0 0.033009440906369272 -0.00063147701303246429 0 0.032847255492229915 0.00021118670428255966 0 0.031445796564745061 0.00034195682694761572 0 0.031379792940650457 0.00011736194820526089 0 0.033145080311524258 -0.00046024280321284734 0 0.031770190394070148 -0.00025079030022407512 0 0.032188138373648596 -0.00086197558491318263 0 0.033009440906369272 -0.00063147701303246429 0 0.032132701757191288 8.2594044879951429e-05 0 0.033009440906369272 -0.00063147701303246429 0 0.033467443995619128 -0.00050949857760816967 0 0.03332486602015277 -0.000208464021071033 0 0.033009440906369272 -0.00063147701303246429 0 0.033546715965056935 -0.00075442719031290422 0 0.033467443995619128 -0.00050949857760816967 0 0.033606940462367924 -0.00035512905434271304 0 0.033467443995619128 -0.00050949857760816967 0 0.03332486602015277 -0.000208464021071033 0 0.03303523857230993 -0.00036222623654818945 0 0.031838748491660074 -0.000178969937843714 0 0.033009440906369272 -0.00063147701303246429 0 0.03332486602015277 -0.000208464021071033 0 0.033189438529535417 -8.0680607184239201e-05 0 0.033606940462367924 -0.00035512905434271304 0 0.03332486602015277 -0.000208464021071033 0 0.033505571226125679 -0.00018159029205802414 0 0.032507695717276963 -0.00047405243236584894 0 0.031838748491660074 -0.000178969937843714 0 0.03332486602015277 -0.000208464021071033 0 0.033233905113730013 -0.00013863778284984161 0 0.033443330032523984 -2.882803937064141e-05 0 0.03332486602015277 -0.000208464021071033 0 0.033505571226125679 -0.00018159029205802414 0 0.033443330032523984 -2.882803937064141e-05 0 0.031838748491660074 -0.000178969937843714 0 0.03151206583424989 0.00031266276426030078 0 0.033683632350909508 0.00023072171802016587 0 0.033443330032523984 -2.882803937064141e-05 0 0.033277444438383472 0.00031161979857160106 0 0.029446808975137524 -0.00052190596167193807 0 0.02952873297361519 8.911393387750194e-05 0 0.029021229809855262 -0.00014062820662443673 0 0.033233905113730013 -0.00013863778284984161 0 0.033443330032523984 -2.882803937064141e-05 0 0.033277444438383472 0.00031161979857160106 0 0.029021229809855262 -0.00014062820662443673 0 0.028597147919302013 0.00024234518987844189 0 0.029105047565248073 0.00047663784463854885 0 0.02952873297361519 8.911393387750194e-05 0 0.029021229809855262 -0.00014062820662443673 0 0.029105047565248073 0.00047663784463854885 0 0.030530294462309614 0.00062573749054894003 0 0.027535756296859972 0.00063093960502772926 0 0.032188138373648596 -0.00086197558491318263 0 0.032132701757191288 8.2594044879951429e-05 0 0.03005121995901374 0.00035859963998272103 0 0.033009440906369272 -0.00063147701303246429 0 0.033095730842007273 0.0004721754949734403 0 0.032132701757191288 8.2594044879951429e-05 0 0.03198809913417365 0.0015049149732985667 0 0.032132701757191288 8.2594044879951429e-05 0 0.03005121995901374 0.00035859963998272103 0 0.033095730842007273 0.0004721754949734403 0 0.03198809913417365 0.0015049149732985667 0 0.032132701757191288 8.2594044879951429e-05 0 0.031838748491660074 -0.000178969937843714 0 0.030530294462309614 0.00062573749054894003 0 0.031770190394070148 -0.00025079030022407512 0 0.030297035365048786 0.00039923405932193337 0 0.03005121995901374 0.00035859963998272103 0 0.027059784234282826 4.5420312279097216e-06 0 0.030545946591987019 0.0027059136223001037 0 0.03198809913417365 0.0015049149732985667 0 0.03005121995901374 0.00035859963998272103 0 0.030545946591987019 0.0027059136223001037 0 0.027052211114801081 5.4879487098359442e-07 0 0.025724376495831328 -5.5457884455657727e-07 0 0.025802506628436642 3.3068408900349491e-06 0 0.027057313737780357 1.3037706920473272e-06 0 0.027535756296859972 0.00063093960502772926 0 0.03005121995901374 0.00035859963998272103 0 0.027059784234282826 4.5420312279097216e-06 0 0.028538115230183448 -1.2423217250177425e-06 0 0.028538115230183448 -1.2423217250177425e-06 0 0.030365833969289366 5.170371804533857e-05 0 0.030022541546400092 3.6820756855879743e-07 0 0.03005121995901374 0.00035859963998272103 0 0.028538115230183448 -1.2423217250177425e-06 0 0.030365833969289366 5.170371804533857e-05 0 0.031445796564745061 0.00034195682694761572 0 0.030365833969289366 5.170371804533857e-05 0 0.031379792940650457 0.00011736194820526089 0 0.031445796564745061 0.00034195682694761572 0 0.03005121995901374 0.00035859963998272103 0 0.030365833969289366 5.170371804533857e-05 0 0.031633092501722679 -1.3715502148159786e-05 0 0.030365833969289366 5.170371804533857e-05 0 0.031379792940650457 0.00011736194820526089 0 0.031633092501722679 -1.3715502148159786e-05 0 0.030365833969289366 5.170371804533857e-05 0 0.030022541546400092 3.6820756855879743e-07 0 0.022273591853105887 -9.6383487653556059e-07 0 0.021946433652929805 -0.00013816679624311198 0 0.021302395248498744 -0.00014527425769098422 0 0.022273591853105887 -9.6383487653556059e-07 0 0.021946433652929805 -0.00013816679624311198 0 0.023876951385613014 1.9224613600648465e-06 0 0.021946433652929805 -0.00013816679624311198 0 0.021316898258967511 2.885473213519371e-05 0 0.021436156037348331 -0.00023516349565634058 0 0.021946433652929805 -0.00013816679624311198 0 0.021790381738704068 0.00067481302241576013 0 0.021316898258967511 2.885473213519371e-05 0 0.023879977505342178 1.9241599677683584e-07 0 0.023238848682680738 0.00026654062795291949 0 0.021946433652929805 -0.00013816679624311198 0 0.023876951385613014 1.9224613600648465e-06 0 0.021790381738704068 0.00067481302241576013 0 0.024391226188131807 5.7122141339139168e-07 0 0.025724376495831328 -5.5457884455657727e-07 0 0.025664161282316102 2.9620763672725561e-06 0 0.023885691604574169 4.3440907524507746e-07 0 0.024385053895914693 -3.99704880163193e-07 0 0.024449078984425179 4.8176768182903316e-05 0 0.024385053895914693 -3.99704880163193e-07 0 0.024421770715817338 -2.0170470665443185e-05 0 0.024449078984425179 4.8176768182903316e-05 0 0.024390901342301919 -1.8858997002300199e-07 0 0.02482564311800145 5.3312631469208548e-05 0 0.025724376495831328 -5.5457884455657727e-07 0 0.025664161282316102 2.9620763672725561e-06 0 0.025802506628436642 3.3068408900349491e-06 0 0.024421770715817338 -2.0170470665443185e-05 0 0.024495443154668235 -8.2673883800915196e-05 0 0.024491041739241329 -1.3107351825990586e-05 0 0.02482564311800145 5.3312631469208548e-05 0 0.027535756296859972 0.00063093960502772926 0 0.024421770715817338 -2.0170470665443185e-05 0 0.024491041739241329 -1.3107351825990586e-05 0 0.024449078984425179 4.8176768182903316e-05 0 0.023238848682680738 0.00026654062795291949 0 0.022249398095863543 0.00099408604470223663 0 0.024449078984425179 4.8176768182903316e-05 0 0.024558391676492826 1.0466159469037059e-05 0 0.024623094142956176 6.3515995187135693e-05 0 0.024491041739241329 -1.3107351825990586e-05 0 0.024449078984425179 4.8176768182903316e-05 0 0.024558391676492826 1.0466159469037059e-05 0 0.024495443154668235 -8.2673883800915196e-05 0 0.024491041739241329 -1.3107351825990586e-05 0 0.02457292429422718 -5.1617491319569153e-05 0 0.024491041739241329 -1.3107351825990586e-05 0 0.024558391676492826 1.0466159469037059e-05 0 0.02457292429422718 -5.1617491319569153e-05 0 0.027535756296859972 0.00063093960502772926 0 0.026482065174250651 3.609416143441128e-05 0 0.03151206583424989 0.00031266276426030078 0 0.028650685604120311 0.00024161140194133444 0 0.024558391676492826 1.0466159469037059e-05 0 0.02457292429422718 -5.1617491319569153e-05 0 0.024677149390615358 -6.1774512633795915e-06 0 0.02952873297361519 8.911393387750194e-05 0 0.029105047565248073 0.00047663784463854885 0 0.02960022868141745 0.00070706941171346871 0 0.033683632350909508 0.00023072171802016587 0 0.033277444438383472 0.00031161979857160106 0 0.033304390429861358 0.00080902887917142657 0 0.026482065174250651 3.609416143441128e-05 0 0.028650685604120311 0.00024161140194133444 0 0.02660011370332873 -0.00047433315641094449 0 0.026653215843182251 -0.00039992290264273707 0 0.026741791236792833 -0.00041258994429019561 0 0.02660011370332873 -0.00047433315641094449 0 0.026653215843182251 -0.00039992290264273707 0 0.026625381484728976 -0.00030642124519093366 0 0.024558391676492826 1.0466159469037059e-05 0 0.024677149390615358 -6.1774512633795915e-06 0 0.024623094142956176 6.3515995187135693e-05 0 0.028650685604120311 0.00024161140194133444 0 0.029169173687398693 7.4990279643768765e-05 0 0.028650685604120311 0.00024161140194133444 0 0.022356691373130965 0.00028248322854991916 0 0.025011595502174182 -0.00011077334485910098 0 0.024278255141263031 0.0011952476976569741 0 0.025248729277512028 0.0010501138249507786 0 0.026653215843182251 -0.00039992290264273707 0 0.026625381484728976 -0.00030642124519093366 0 0.026727694679173134 -0.00041718414782062284 0 0.027974368480732134 0.00010982845784513853 0 0.029169173687398693 7.4990279643768765e-05 0 0.028650685604120311 0.00024161140194133444 0 0.022249398095863543 0.00099408604470223663 0 0.018392726785563068 0.0010565636372312744 0 0.018267919752245062 0.0010985588969644564 0 0.018315469169050028 0.00090960031844812496 0 0.022249398095863543 0.00099408604470223663 0 0.022356691373130965 0.00028248322854991916 0 0.018392726785563068 0.0010565636372312744 0 0.018326593872870729 0.00083916707659971467 0 0.018606624536589945 0.00084800172734563199 0 0.022356691373130965 0.00028248322854991916 0 0.017856203496813935 0.00048313063313093442 0 0.018267919752245062 0.0010985588969644564 0 0.018315469169050028 0.00090960031844812496 0 0.018254793338621358 0.00069458231720029089 0 0.018392726785563068 0.0010565636372312744 0 0.018315469169050028 0.00090960031844812496 0 0.018326593872870729 0.00083916707659971467 0 0.018315469169050028 0.00090960031844812496 0 0.018326593872870729 0.00083916707659971467 0 0.018254793338621358 0.00069458231720029089 0 0.018326593872870729 0.00083916707659971467 0 0.018123723723540302 0.00079108684538560178 0 0.018254793338621358 0.00069458231720029089 0 0.021790381738704068 0.00067481302241576013 0 0.02091255458009884 0.0007905784037984387 0 0.021316898258967511 2.885473213519371e-05 0 0.022249398095863543 0.00099408604470223663 0 0.019652126626436523 0.00055564902113567531 0 0.019652126626436523 0.00055564902113567531 0 0.020312170802914312 1.6140339423374377e-05 0 0.018606624536589945 0.00084800172734563199 0 0.018421345630942432 0.00048114070032674605 0 0.019169155708830484 0.00047187966198669612 0 0.018234022487754842 0.0006907003615096159 0 0.017812009380512889 0.00040330707212357024 0 0.018421345630942432 0.00048114070032674605 0 0.018606624536589945 0.00084800172734563199 0 0.018234022487754842 0.0006907003615096159 0 0.018421345630942432 0.00048114070032674605 0 0.018234022487754842 0.0006907003615096159 0 0.017929949526793363 0.00058067389840639168 0 0.017812009380512889 0.00040330707212357024 0 0.018123723723540302 0.00079108684538560178 0 0.018234022487754842 0.0006907003615096159 0 0.017929949526793363 0.00058067389840639168 0 0.018326593872870729 0.00083916707659971467 0 0.018123723723540302 0.00079108684538560178 0 0.018234022487754842 0.0006907003615096159 0 0.018326593872870729 0.00083916707659971467 0 0.018606624536589945 0.00084800172734563199 0 0.018234022487754842 0.0006907003615096159 0 0.017863536066380754 0.00059681168320886106 0 0.017778963966928032 0.00045707555464117536 0 0.017780333362075424 0.00052215509588398245 0 0.017863536066380754 0.00059681168320886106 0 0.017780333362075424 0.00052215509588398245 0 0.017823256841386966 0.00063612752621070912 0 0.018123723723540302 0.00079108684538560178 0 0.017863536066380754 0.00059681168320886106 0 0.017929949526793363 0.00058067389840639168 0 0.017929949526793363 0.00058067389840639168 0 0.017778963966928032 0.00045707555464117536 0 0.017812009380512889 0.00040330707212357024 0 0.017863536066380754 0.00059681168320886106 0 0.017929949526793363 0.00058067389840639168 0 0.017778963966928032 0.00045707555464117536 0 0.017778963966928032 0.00045707555464117536 0 0.017780333362075424 0.00052215509588398245 0 0.017761857139767533 0.00036680145322094503 0 0.017714362133646258 0.00042542638349706268 0 0.017780333362075424 0.00052215509588398245 0 0.017761857139767533 0.00036680145322094503 0 0.017714362133646258 0.00042542638349706268 0 0.017780333362075424 0.00052215509588398245 0 0.017759896310563093 0.00057244281681610861 0 0.017714362133646258 0.00042542638349706268 0 0.017759896310563093 0.00057244281681610861 0 0.017721502186160861 0.00067328190752962336 0 0.017780333362075424 0.00052215509588398245 0 0.017759896310563093 0.00057244281681610861 0 0.017823256841386966 0.00063612752621070912 0 0.018222546723731491 0.00012229300690930341 0 0.021041135392926492 -0.00099169956517126414 0 0.019101669820176671 0.00051163103570278721 0 0.01947597367154565 -0.0001969422454688298 0 0.020275326706496247 -0.00010702625258633938 0 0.017759896310563093 0.00057244281681610861 0 0.017823256841386966 0.00063612752621070912 0 0.017721502186160861 0.00067328190752962336 0 0.018105349153868994 0.00078740888781210462 0 0.021041135392926492 -0.00099169956517126414 0 0.018079025316575716 -0.00048683393792637138 0 0.018254793338621358 0.00069458231720029089 0 0.018703208040656057 1.3204366241631438e-05 0 0.019101669820176671 0.00051163103570278721 0 0.018703208040656057 1.3204366241631438e-05 0 0.01947597367154565 -0.0001969422454688298 0 0.018123723723540302 0.00079108684538560178 0 0.017863536066380754 0.00059681168320886106 0 0.017823256841386966 0.00063612752621070912 0 0.018323808974786221 0.00066861086536652132 0 0.018105349153868994 0.00078740888781210462 0 0.019101669820176671 0.00051163103570278721 0 0.018254793338621358 0.00069458231720029089 0 0.018703208040656057 1.3204366241631438e-05 0 0.018123723723540302 0.00079108684538560178 0 0.019101669820176671 0.00051163103570278721 0 0.018254793338621358 0.00069458231720029089 0 0.026913210562922792 -0.00037609535332183881 0 0.026730485876547107 -0.00042435848792915943 0 0.027197613672610137 -0.00053002175256162791 0 0.018079025316575716 -0.00048683393792637138 0 0.018703208040656057 1.3204366241631438e-05 0 0.019082085485375117 -0.00068777209490550285 0 0.026625381484728976 -0.00030642124519093366 0 0.026913210562922792 -0.00037609535332183881 0 0.026847178730981344 -0.00037273125907859051 0 0.022356691373130965 0.00028248322854991916 0 0.022761729137743311 -0.00051108813449245432 0 0.029169173687398693 7.4990279643768765e-05 0 0.030005734276356628 -0.0017697256538863222 0 0.018703208040656057 1.3204366241631438e-05 0 0.019082085485375117 -0.00068777209490550285 0 0.01947597367154565 -0.0001969422454688298 0 0.026913210562922792 -0.00037609535332183881 0 0.026847178730981344 -0.00037273125907859051 0 0.026730485876547107 -0.00042435848792915943 0 0.026625381484728976 -0.00030642124519093366 0 0.026847178730981344 -0.00037273125907859051 0 0.026727694679173134 -0.00041718414782062284 0 0.027164585675957875 -0.00060839556209757841 0 0.029169173687398693 7.4990279643768765e-05 0 0.034279558738296002 -6.4028390865113758e-05 0 0.028650685604120311 0.00024161140194133444 0 0.033293651354879578 0.00038491322658941966 0 0.033448644371467821 0.00045526666170343783 0 0.033634193066389068 0.00023817036940874549 0 0.033609166678651166 -3.5762866345111129e-05 0 0.033293651354879578 0.00038491322658941966 0 0.033634193066389068 0.00023817036940874549 0 0.033448644371467821 0.00045526666170343783 0 0.033634193066389068 0.00023817036940874549 0 0.03394333509647688 0.00035716806242519418 0 0.033609166678651166 -3.5762866345111129e-05 0 0.033634193066389068 0.00023817036940874549 0 0.033796787950256806 0.00010442815969211577 0 0.034887272165564906 -0.0016949041103601298 0 0.030005734276356628 -0.0017697256538863222 0 0.033634193066389068 0.00023817036940874549 0 0.033796787950256806 0.00010442815969211577 0 0.03394333509647688 0.00035716806242519418 0 0.033988385014637947 -0.00014832679691790244 0 0.033796787950256806 0.00010442815969211577 0 0.03394333509647688 0.00035716806242519418 0 0.030005734276356628 -0.0017697256538863222 0 0.025188299251383075 -0.0021235957941154208 0 0.022761729137743311 -0.00051108813449245432 0 0.025188299251383075 -0.0021235957941154208 0 0.019082085485375117 -0.00068777209490550285 0 0.020217620918406714 -0.00088961775802082871 0 0.01947597367154565 -0.0001969422454688298 0 0.025001036367444808 -0.0033938502296189227 0 0.025054781050733322 -0.0027710741174383382 0 0.025821172870467052 -0.0028868131911199972 0 0.026913210562922792 -0.00037609535332183881 0 0.027197613672610137 -0.00053002175256162791 0 0.027200237064788229 -0.00044224290725778298 0 0.025021585767537574 -0.0027692682689683451 0 0.025135960208843487 -0.001330121886573719 0 0.025821172870467052 -0.0028868131911199972 0 0.025188299251383075 -0.0021235957941154208 0 0.021041135392926492 -0.00099169956517126414 0 0.020217620918406714 -0.00088961775802082871 0 0.01947597367154565 -0.0001969422454688298 0 0.020275326706496247 -0.00010702625258633938 0 0.025135960208843487 -0.001330121886573719 0 0.025821172870467052 -0.0028868131911199972 0 0.027578188132887396 -0.0027487882667568469 0 0.019156817251486012 -0.0030266570004523043 0 0.022137322888739736 -0.004323636206039933 0 0.02039306196208852 -0.0017041470292427268 0 0.021041135392926492 -0.00099169956517126414 0 0.024758630126077558 -0.003572013841298783 0 0.025001036367444808 -0.0033938502296189227 0 0.025821172870467052 -0.0028868131911199972 0 0.027494967537789079 -0.0037773938353001949 0 0.025821172870467052 -0.0028868131911199972 0 0.027494967537789079 -0.0037773938353001949 0 0.027578188132887396 -0.0027487882667568469 0 0.025188299251383075 -0.0021235957941154208 0 0.025504234879185822 -0.002364754009690865 0 0.030005734276356628 -0.0017697256538863222 0 0.03071178083025624 -0.0042900863951765107 0 0.033034183822837772 -0.0037586391838376303 0 0.033920055867051359 -0.0037270524176219607 0 0.033450244217893652 -0.0045933975305474106 0 0.033920055867051359 -0.0037270524176219607 0 0.034458987017519913 -0.004686001141979289 0 0.033450244217893652 -0.0045933975305474106 0 0.027494967537789079 -0.0037773938353001949 0 0.027578188132887396 -0.0027487882667568469 0 0.029988081592504153 -0.0041601523843052537 0 0.033034183822837772 -0.0037586391838376303 0 0.033450244217893652 -0.0045933975305474106 0 0.03229193591001879 -0.0045448439357474568 0 0.03071178083025624 -0.0042900863951765107 0 0.029716289510325612 -0.0044892145752485381 0 0.024758630126077558 -0.003572013841298783 0 0.029716289510325612 -0.0044892145752485381 0 0.022137322888739736 -0.004323636206039933 0 0.022537578910510662 -0.0016180446391226855 0 0.0249742314215529 -0.0028737525353862265 0 0.022137322888739736 -0.004323636206039933 0 0.025346948114887413 -0.0052890522272686117 0 0.0249742314215529 -0.0028737525353862265 0 0.022537578910510662 -0.0016180446391226855 0 0.0249742314215529 -0.0028737525353862265 0 0.025231279624612819 -0.00076989822752766834 0 0.022137322888739736 -0.004323636206039933 0 0.022537578910510662 -0.0016180446391226855 0 0.02039306196208852 -0.0017041470292427268 0 0.019167743926557426 -6.4394886903625608e-05 0 0.019156817251486012 -0.0030266570004523043 0 0.02039306196208852 -0.0017041470292427268 0 0.022537578910510662 -0.0016180446391226855 0 0.02039306196208852 -0.0017041470292427268 0 0.020575448937657892 -0.00050345560130040799 0 0.019167743926557426 -6.4394886903625608e-05 0 0.02039306196208852 -0.0017041470292427268 0 0.020575448937657892 -0.00050345560130040799 0 0.019167743926557426 -6.4394886903625608e-05 0 0.020575448937657892 -0.00050345560130040799 0 0.019330572453122259 0.0006866898002304496 0 0.020575448937657892 -0.00050345560130040799 0 0.022496792056197715 -0.00014180099761312707 0 0.019330572453122259 0.0006866898002304496 0 0.022537578910510662 -0.0016180446391226855 0 0.022496792056197715 -0.00014180099761312707 0 0.025231279624612819 -0.00076989822752766834 0 0.022537578910510662 -0.0016180446391226855 0 0.020575448937657892 -0.00050345560130040799 0 0.022496792056197715 -0.00014180099761312707 0 0.022496792056197715 -0.00014180099761312707 0 0.019330572453122259 0.0006866898002304496 0 0.025002669236334939 0.0020540597604401917 0 0.019461146313072022 0.00072490543224980363 0 0.021074644945628235 0.0010755539584697633 0 0.019330572453122259 0.0006866898002304496 0 0.018079580147510644 0.00017294863103049332 0 0.017488514968127346 0.00034465741490069741 0 0.019330572453122259 0.0006866898002304496 0 0.01814220432813312 0.00043765045551174859 0 0.018079580147510644 0.00017294863103049332 0 0.018222546723731491 0.00012229300690930341 0 0.018259767521560118 0.00055990218605249137 0 0.019167743926557426 -6.4394886903625608e-05 0 0.019330572453122259 0.0006866898002304496 0 0.01814220432813312 0.00043765045551174859 0 0.017727118146209704 0.00019790248538409676 0 0.018079580147510644 0.00017294863103049332 0 0.017489763580469646 1.2621045878811689e-05 0 0.017727118146209704 0.00019790248538409676 0 0.017489763580469646 1.2621045878811689e-05 0 0.017241854995519498 7.9986286275848096e-05 0 0.01814220432813312 0.00043765045551174859 0 0.017727118146209704 0.00019790248538409676 0 0.018079580147510644 0.00017294863103049332 0 0.017544182953922339 8.65516662036957e-06 0 0.018079580147510644 0.00017294863103049332 0 0.017489763580469646 1.2621045878811689e-05 0 0.017544182953922339 8.65516662036957e-06 0 0.018079580147510644 0.00017294863103049332 0 0.017488514968127346 0.00034465741490069741 0 0.017544182953922339 8.65516662036957e-06 0 0.017489763580469646 1.2621045878811689e-05 0 0.017333069029092468 -5.6200497733467327e-05 0 0.017152660735615256 -4.3066137954974095e-05 0 0.017489763580469646 1.2621045878811689e-05 0 0.017333069029092468 -5.6200497733467327e-05 0 0.017152660735615256 -4.3066137954974095e-05 0 0.017226929502475268 2.2535412834771407e-05 0 0.016849480653682705 2.5880742351245525e-05 0 0.017152660735615256 -4.3066137954974095e-05 0 0.016826021768908586 -2.5510684000895293e-05 0 0.016849480653682705 2.5880742351245525e-05 0 0.017152660735615256 -4.3066137954974095e-05 0 0.016826021768908586 -2.5510684000895293e-05 0 0.017489763580469646 1.2621045878811689e-05 0 0.016826021768908586 -2.5510684000895293e-05 0 0.017489763580469646 1.2621045878811689e-05 0 0.017241854995519498 7.9986286275848096e-05 0 0.016826021768908586 -2.5510684000895293e-05 0 0.017241854995519498 7.9986286275848096e-05 0 0.016562835773658108 4.4883934013733479e-05 0 0.016826021768908586 -2.5510684000895293e-05 0 0.016562835773658108 4.4883934013733479e-05 0 0.015995179973247762 -6.0249398278885675e-06 0 0.016562835773658108 4.4883934013733479e-05 0 0.016123679841090872 0.00010206856351582397 0 0.015995179973247762 -6.0249398278885675e-06 0 0.016562835773658108 4.4883934013733479e-05 0 0.016728057735646989 7.6485940790792882e-05 0 0.016123679841090872 0.00010206856351582397 0 0.017241854995519498 7.9986286275848096e-05 0 0.016562835773658108 4.4883934013733479e-05 0 0.016728057735646989 7.6485940790792882e-05 0 0.017241854995519498 7.9986286275848096e-05 0 0.017457809381055386 2.755271354323791e-05 0 0.017609068742616946 0.00026020245281061129 0 0.017241854995519498 7.9986286275848096e-05 0 0.016728057735646989 7.6485940790792882e-05 0 0.017457809381055386 2.755271354323791e-05 0 0.017727118146209704 0.00019790248538409676 0 0.017241854995519498 7.9986286275848096e-05 0 0.017609068742616946 0.00026020245281061129 0 0.01814220432813312 0.00043765045551174859 0 0.017727118146209704 0.00019790248538409676 0 0.017609068742616946 0.00026020245281061129 0 0.017714362133646258 0.00042542638349706268 0 0.01814220432813312 0.00043765045551174859 0 0.017761857139767533 0.00036680145322094503 0 0.017778963966928032 0.00045707555464117536 0 0.017609068742616946 0.00026020245281061129 0 0.017761857139767533 0.00036680145322094503 0 0.01814220432813312 0.00043765045551174859 0 0.017609068742616946 0.00026020245281061129 0 0.017761857139767533 0.00036680145322094503 0 0.017778963966928032 0.00045707555464117536 0 0.017609068742616946 0.00026020245281061129 0 0.017812009380512889 0.00040330707212357024 0 0.017457809381055386 2.755271354323791e-05 0 0.017609068742616946 0.00026020245281061129 0 0.017812009380512889 0.00040330707212357024 0 0.017457809381055386 2.755271354323791e-05 0 0.017812009380512889 0.00040330707212357024 0 0.018421345630942432 0.00048114070032674605 0 0.017457809381055386 2.755271354323791e-05 0 0.018421345630942432 0.00048114070032674605 0 0.018637162762534413 0.00011953155060061513 0 0.018637162762534413 0.00011953155060061513 0 0.019187776774436924 -1.7240315676726747e-05 0 0.019169155708830484 0.00047187966198669612 0 0.018421345630942432 0.00048114070032674605 0 0.018637162762534413 0.00011953155060061513 0 0.019169155708830484 0.00047187966198669612 0 0.018637162762534413 0.00011953155060061513 0 0.019187776774436924 -1.7240315676726747e-05 0 0.018765226795330166 -0.00035979559335981099 0 0.017457809381055386 2.755271354323791e-05 0 0.018637162762534413 0.00011953155060061513 0 0.018765226795330166 -0.00035979559335981099 0 0.017393757019909643 2.4042355870976948e-05 0 0.017477029190255684 -9.0628982396225228e-05 0 0.016728057735646989 7.6485940790792882e-05 0 0.017457809381055386 2.755271354323791e-05 0 0.01619212829887734 3.6043181157511349e-05 0 0.016728057735646989 7.6485940790792882e-05 0 0.016123679841090872 0.00010206856351582397 0 0.01619212829887734 3.6043181157511349e-05 0 0.016123679841090872 0.00010206856351582397 0 0.015982134658120768 0.0001278177866350565 0 0.015735480087515935 -8.9953339510384783e-05 0 0.016123679841090872 0.00010206856351582397 0 0.015982134658120768 0.0001278177866350565 0 0.01619212829887734 3.6043181157511349e-05 0 0.015982134658120768 0.0001278177866350565 0 0.01619212829887734 3.6043181157511349e-05 0 0.016169290543412242 0.00036780079661795443 0 0.017477029190255684 -9.0628982396225228e-05 0 0.0178128539456982 -2.7090942861354374e-06 0 0.019187776774436924 -1.7240315676726747e-05 0 0.018765226795330166 -0.00035979559335981099 0 0.019468818408858387 -0.00022926552451908746 0 0.019187776774436924 -1.7240315676726747e-05 0 0.019468818408858387 -0.00022926552451908746 0 0.019966997682929637 -7.9556355634564842e-05 0 0.015982134658120768 0.0001278177866350565 0 0.016169290543412242 0.00036780079661795443 0 0.015859287094530335 -8.7351004798018805e-05 0 0.016169290543412242 0.00036780079661795443 0 0.017447483118535778 6.37490466902388e-07 0 0.015859287094530335 -8.7351004798018805e-05 0 0.0178128539456982 -2.7090942861354374e-06 0 0.0174517060240265 -7.7454092466324423e-08 0 0.019468818408858387 -0.00022926552451908746 0 0.019058363384019471 -8.19820878276359e-07 0 0.017454047451296976 1.0096216406322988e-06 0 0.019468818408858387 -0.00022926552451908746 0 0.019058363384019471 -8.19820878276359e-07 0 0.019966997682929637 -7.9556355634564842e-05 0 0.019058363384019471 -8.19820878276359e-07 0 0.02066564968340371 6.8337632503502365e-08 0 0.019966997682929637 -7.9556355634564842e-05 0 0.02066564968340371 6.8337632503502365e-08 0 0.019966997682929637 -7.9556355634564842e-05 0 0.021302395248498744 -0.00014527425769098422 0 0.020080839773616448 -0.00010775596704628117 0 0.020312170802914312 1.6140339423374377e-05 0 0.019187776774436924 -1.7240315676726747e-05 0 0.019966997682929637 -7.9556355634564842e-05 0 0.019169155708830484 0.00047187966198669612 0 0.021946433652929805 -0.00013816679624311198 0 0.021436156037348331 -0.00023516349565634058 0 0.021302395248498744 -0.00014527425769098422 0 0.019966997682929637 -7.9556355634564842e-05 0 0.021436156037348331 -0.00023516349565634058 0 0.021302395248498744 -0.00014527425769098422 0 0.022273591853105887 -9.6383487653556059e-07 0 0.02066564968340371 6.8337632503502365e-08 0 0.021302395248498744 -0.00014527425769098422 0 0.030779372896810733 -0.00099485858091270807 0 0.030332997172056664 -0.0011189818577660765 0 0.030973697328263518 -0.0010617791072736126 0 0.030779372896810733 -0.00099485858091270807 0 0.030973697328263518 -0.0010617791072736126 0 0.030630900411546994 -0.0015090293263753114 0 0.030779372896810733 -0.00099485858091270807 0 0.030630900411546994 -0.0015090293263753114 0 0.030077159720873815 -0.00079079805157012848 0 0.030779372896810733 -0.00099485858091270807 0 0.030077159720873815 -0.00079079805157012848 0 0.030300076067280635 -0.00027443983460491065 0 0.030779372896810733 -0.00099485858091270807 0 0.030332997172056664 -0.0011189818577660765 0 0.030328678361520069 -0.0018312247994105159 0 0.030332997172056664 -0.0011189818577660765 0 0.027598011944017179 -0.0028293521567060321 0 0.030328678361520069 -0.0018312247994105159 0 0.030332997172056664 -0.0011189818577660765 0 0.027598011944017179 -0.0028293521567060321 0 0.027587991799349173 -0.00096429952034591268 0 0.024772276143016636 0.001241526276645303 0 0.027587991799349173 -0.00096429952034591268 0 0.030381852506385382 -0.00021982500222400959 0 0.030332997172056664 -0.0011189818577660765 0 0.030381852506385382 -0.00021982500222400959 0 0.030973697328263518 -0.0010617791072736126 0 0.030332997172056664 -0.0011189818577660765 0 0.027587991799349173 -0.00096429952034591268 0 0.030381852506385382 -0.00021982500222400959 0 0.030381852506385382 -0.00021982500222400959 0 0.03121022302303713 -0.00068246768797271381 0 0.030942919488229918 -0.00074092746704992104 0 0.030381852506385382 -0.00021982500222400959 0 0.030942919488229918 -0.00074092746704992104 0 0.030973697328263518 -0.0010617791072736126 0 0.028086612231169483 0.00024098093571795818 0 0.030170367808199108 -9.5195829124271761e-05 0 0.031351197344392817 -0.0004916567701988932 0 0.030381852506385382 -0.00021982500222400959 0 0.03121022302303713 -0.00068246768797271381 0 0.031376435171562383 -0.00072549289350217286 0 0.03121022302303713 -0.00068246768797271381 0 0.030942919488229918 -0.00074092746704992104 0 0.031412573468035117 -0.00062934022767964948 0 0.031376435171562383 -0.00072549289350217286 0 0.03121022302303713 -0.00068246768797271381 0 0.031332486177865937 -0.0010485652372620683 0 0.031376435171562383 -0.00072549289350217286 0 0.030942919488229918 -0.00074092746704992104 0 0.031332486177865937 -0.0010485652372620683 0 0.030942919488229918 -0.00074092746704992104 0 0.030973697328263518 -0.0010617791072736126 0 0.030973697328263518 -0.0010617791072736126 0 0.031037129530732392 -0.0021446794631712878 0 0.030630900411546994 -0.0015090293263753114 0 0.031332486177865937 -0.0010485652372620683 0 0.030973697328263518 -0.0010617791072736126 0 0.031037129530732392 -0.0021446794631712878 0 0.031037129530732392 -0.0021446794631712878 0 0.030012457287624788 -0.0030996689292493154 0 0.030070906531918715 -0.0022831557770192422 0 0.030186799824266791 -0.0033879254243808533 0 0.031037129530732392 -0.0021446794631712878 0 0.030012457287624788 -0.0030996689292493154 0 0.030012457287624788 -0.0030996689292493154 0 0.029644859543409084 -0.0042118040610792584 0 0.029119496067527006 -0.0027844001350540155 0 0.030186799824266791 -0.0033879254243808533 0 0.030012457287624788 -0.0030996689292493154 0 0.029644859543409084 -0.0042118040610792584 0 0.030012457287624788 -0.0030996689292493154 0 0.030070906531918715 -0.0022831557770192422 0 0.029119496067527006 -0.0027844001350540155 0 0.030070906531918715 -0.0022831557770192422 0 0.029119496067527006 -0.0027844001350540155 0 0.029347832876052343 -0.0015335272307847416 0 0.031037129530732392 -0.0021446794631712878 0 0.030070906531918715 -0.0022831557770192422 0 0.030630900411546994 -0.0015090293263753114 0 0.03295751895475902 -0.0052099029373573651 0 0.031301127459292637 -0.0040567486162801309 0 0.029644859543409084 -0.0042118040610792584 0 0.029716289510325612 -0.0044892145752485381 0 0.029300942628764742 -0.0045484253357121925 0 0.025346948114887413 -0.0052890522272686117 0 0.029644859543409084 -0.0042118040610792584 0 0.027373434856014258 -0.0034805647768810953 0 0.032182293070131554 -0.0038269996110445736 0 0.033034183822837772 -0.0037586391838376303 0 0.03229193591001879 -0.0045448439357474568 0 0.032182293070131554 -0.0038269996110445736 0 0.03229193591001879 -0.0045448439357474568 0 0.031301127459292637 -0.0040567486162801309 0 0.029716289510325612 -0.0044892145752485381 0 0.031948392548037531 -0.0047047101916314364 0 0.030668190206636775 -0.0034018045636444345 0 0.031301127459292637 -0.0040567486162801309 0 0.029644859543409084 -0.0042118040610792584 0 0.029644859543409084 -0.0042118040610792584 0 0.027373434856014258 -0.0034805647768810953 0 0.029119496067527006 -0.0027844001350540155 0 0.027373434856014258 -0.0034805647768810953 0 0.029119496067527006 -0.0027844001350540155 0 0.027480205735317554 -0.0018365507380999119 0 0.025346948114887413 -0.0052890522272686117 0 0.027373434856014258 -0.0034805647768810953 0 0.0249742314215529 -0.0028737525353862265 0 0.027373434856014258 -0.0034805647768810953 0 0.0249742314215529 -0.0028737525353862265 0 0.027480205735317554 -0.0018365507380999119 0 0.0249742314215529 -0.0028737525353862265 0 0.027480205735317554 -0.0018365507380999119 0 0.025231279624612819 -0.00076989822752766834 0 0.029119496067527006 -0.0027844001350540155 0 0.027480205735317554 -0.0018365507380999119 0 0.029347832876052343 -0.0015335272307847416 0 0.027480205735317554 -0.0018365507380999119 0 0.028124759275153094 -2.9992626107596033e-05 0 0.029347832876052343 -0.0015335272307847416 0 0.027480205735317554 -0.0018365507380999119 0 0.028124759275153094 -2.9992626107596033e-05 0 0.025231279624612819 -0.00076989822752766834 0 0.028124759275153094 -2.9992626107596033e-05 0 0.025231279624612819 -0.00076989822752766834 0 0.025002669236334939 0.0020540597604401917 0 0.022496792056197715 -0.00014180099761312707 0 0.025231279624612819 -0.00076989822752766834 0 0.025002669236334939 0.0020540597604401917 0 0.030630900411546994 -0.0015090293263753114 0 0.029347832876052343 -0.0015335272307847416 0 0.030077159720873815 -0.00079079805157012848 0 0.030070906531918715 -0.0022831557770192422 0 0.030630900411546994 -0.0015090293263753114 0 0.029347832876052343 -0.0015335272307847416 0 0.028124759275153094 -2.9992626107596033e-05 0 0.030077159720873815 -0.00079079805157012848 0 0.029429340665933751 0.00035484569605665584 0 0.028124759275153094 -2.9992626107596033e-05 0 0.029347832876052343 -0.0015335272307847416 0 0.030077159720873815 -0.00079079805157012848 0 0.030077159720873815 -0.00079079805157012848 0 0.030300076067280635 -0.00027443983460491065 0 0.029429340665933751 0.00035484569605665584 0 0.030300076067280635 -0.00027443983460491065 0 0.029429340665933751 0.00035484569605665584 0 0.029868993850316466 0.0010300740787312741 0 0.028124759275153094 -2.9992626107596033e-05 0 0.029429340665933751 0.00035484569605665584 0 0.028163523218468746 0.0016476078255859485 0 0.029429340665933751 0.00035484569605665584 0 0.029868993850316466 0.0010300740787312741 0 0.028163523218468746 0.0016476078255859485 0 0.017536921583596446 -0.00010888611162088566 0 0.017435141284515902 -1.3627861130673935e-05 0 0.017479467747380437 -0.00010843914138677068 0 0.021406977077991197 -6.1142333144356372e-05 0 0.016340388483154177 0.00024696640466937244 0 0.021406977077991197 -6.1142333144356372e-05 0 0.023232228650032979 0.00096087122378501881 0 0.021074644945628235 0.0010755539584697633 0 0.023232228650032979 0.00096087122378501881 0 0.028124759275153094 -2.9992626107596033e-05 0 0.025002669236334939 0.0020540597604401917 0 0.028163523218468746 0.0016476078255859485 0 0.017488514968127346 0.00034465741490069741 0 0.017435141284515902 -1.3627861130673935e-05 0 0.017401899882330631 -4.6155458034184597e-05 0 0.017435141284515902 -1.3627861130673935e-05 0 0.017401899882330631 -4.6155458034184597e-05 0 0.017479467747380437 -0.00010843914138677068 0 0.017544182953922339 8.65516662036957e-06 0 0.017488514968127346 0.00034465741490069741 0 0.017401899882330631 -4.6155458034184597e-05 0 0.017544182953922339 8.65516662036957e-06 0 0.017401899882330631 -4.6155458034184597e-05 0 0.017333069029092468 -5.6200497733467327e-05 0 0.017401899882330631 -4.6155458034184597e-05 0 0.017405957286630466 -9.1062077347622488e-06 0 0.017479467747380437 -0.00010843914138677068 0 0.017401899882330631 -4.6155458034184597e-05 0 0.017333069029092468 -5.6200497733467327e-05 0 0.017405957286630466 -9.1062077347622488e-06 0 0.017152660735615256 -4.3066137954974095e-05 0 0.017333069029092468 -5.6200497733467327e-05 0 0.017226929502475268 2.2535412834771407e-05 0 0.017333069029092468 -5.6200497733467327e-05 0 0.017405957286630466 -9.1062077347622488e-06 0 0.017226929502475268 2.2535412834771407e-05 0 0.017859915398044043 -0.0001117386918555318 0 0.017479467747380437 -0.00010843914138677068 0 0.017703994039658732 8.2531786578782712e-05 0 0.017778295155816633 -0.00035145521942642801 0 0.017859915398044043 -0.0001117386918555318 0 0.017479467747380437 -0.00010843914138677068 0 0.017405957286630466 -9.1062077347622488e-06 0 0.017703994039658732 8.2531786578782712e-05 0 0.017436558211757037 0.0001786842113040636 0 0.017405957286630466 -9.1062077347622488e-06 0 0.017479467747380437 -0.00010843914138677068 0 0.017703994039658732 8.2531786578782712e-05 0 0.017859915398044043 -0.0001117386918555318 0 0.017703994039658732 8.2531786578782712e-05 0 0.018206212891110449 0.00012144175355829219 0 0.018206212891110449 0.00012144175355829219 0 0.018839826472813331 0.00018725857148424048 0 0.018382347602970663 0.00047314605046729508 0 0.018206212891110449 0.00012144175355829219 0 0.018531154848048629 -7.1592642692743969e-05 0 0.018839826472813331 0.00018725857148424048 0 0.018531154848048629 -7.1592642692743969e-05 0 0.018270684565787201 -0.00027587161953725929 0 0.018812285699777661 -0.00033365903838372999 0 0.018206212891110449 0.00012144175355829219 0 0.018531154848048629 -7.1592642692743969e-05 0 0.018270684565787201 -0.00027587161953725929 0 0.017778295155816633 -0.00035145521942642801 0 0.017859915398044043 -0.0001117386918555318 0 0.018270684565787201 -0.00027587161953725929 0 0.017859915398044043 -0.0001117386918555318 0 0.018206212891110449 0.00012144175355829219 0 0.018270684565787201 -0.00027587161953725929 0 0.017932201292514501 -0.00043898088474707915 0 0.018270684565787201 -0.00027587161953725929 0 0.018299176527803641 -0.00065281244809063785 0 0.021406977077991197 -6.1142333144356372e-05 0 0.016857554262656317 -0.00057909791312825041 0 0.021406977077991197 -6.1142333144356372e-05 0 0.024867022380529617 -0.00057779777489449223 0 0.018270684565787201 -0.00027587161953725929 0 0.018299176527803641 -0.00065281244809063785 0 0.018812285699777661 -0.00033365903838372999 0 0.018299176527803641 -0.00065281244809063785 0 0.018917496071927532 -0.00099142832730532969 0 0.018812285699777661 -0.00033365903838372999 0 0.024867022380529617 -0.00057779777489449223 0 0.024416873467937687 -0.0013743112631067061 0 0.030779372896810733 -0.00099485858091270807 0 0.030624476133867228 -0.00040683780830679125 0 0.030328678361520069 -0.0018312247994105159 0 0.030300076067280635 -0.00027443983460491065 0 0.029868993850316466 0.0010300740787312741 0 0.030624476133867228 -0.00040683780830679125 0 0.030779372896810733 -0.00099485858091270807 0 0.030300076067280635 -0.00027443983460491065 0 0.030624476133867228 -0.00040683780830679125 0 0.019994960756807432 -0.0014351692829406369 0 0.018917496071927532 -0.00099142832730532969 0 0.019414931345825493 -0.00063587648921178421 0 0.023724871146634834 -0.0019854388134253869 0 0.024416873467937687 -0.0013743112631067061 0 0.02017798028008851 -0.00052224309587048585 0 0.019994960756807432 -0.0014351692829406369 0 0.019414931345825493 -0.00063587648921178421 0 0.018917496071927532 -0.00099142832730532969 0 0.018812285699777661 -0.00033365903838372999 0 0.019414931345825493 -0.00063587648921178421 0 0.018812285699777661 -0.00033365903838372999 0 0.019414931345825493 -0.00063587648921178421 0 0.019404048490709664 -0.00014017537148877673 0 0.02017798028008851 -0.00052224309587048585 0 0.019414931345825493 -0.00063587648921178421 0 0.019404048490709664 -0.00014017537148877673 0 0.019404048490709664 -0.00014017537148877673 0 0.018447350059790757 0.00064122605524985824 0 0.019155429377082294 0.00044101524932420625 0 0.019317955958937615 -0.00012556927663913807 0 0.018670315593072286 0.00040723604577535833 0 0.019885448500421572 -4.5520560152716296e-05 0 0.019404048490709664 -0.00014017537148877673 0 0.019155429377082294 0.00044101524932420625 0 0.018812285699777661 -0.00033365903838372999 0 0.019404048490709664 -0.00014017537148877673 0 0.018839826472813331 0.00018725857148424048 0 0.018531154848048629 -7.1592642692743969e-05 0 0.018812285699777661 -0.00033365903838372999 0 0.018839826472813331 0.00018725857148424048 0 0.018447350059790757 0.00064122605524985824 0 0.019155429377082294 0.00044101524932420625 0 0.018766640681759369 0.00095936938760254203 0 0.018447350059790757 0.00064122605524985824 0 0.018188705787379394 0.00098810721169859919 0 0.018766640681759369 0.00095936938760254203 0 0.018447350059790757 0.00064122605524985824 0 0.018188705787379394 0.00098810721169859919 0 0.01804716210620776 0.00088624847294927422 0 0.018670315593072286 0.00040723604577535833 0 0.018216144604232213 0.00067861332782359748 0 0.018188705787379394 0.00098810721169859919 0 0.017976136161880971 0.00096038558314036847 0 0.01804716210620776 0.00088624847294927422 0 0.018188705787379394 0.00098810721169859919 0 0.017716787845996805 0.0011582992728518423 0 0.017976136161880971 0.00096038558314036847 0 0.018188705787379394 0.00098810721169859919 0 0.017716787845996805 0.0011582992728518423 0 0.01835220567641007 0.00075483007645980665 0 0.017976136161880971 0.00096038558314036847 0 0.017814730217624357 0.00065432070358942566 0 0.017953947204304335 0.00078648893815538726 0 0.017716787845996805 0.0011582992728518423 0 0.017976136161880971 0.00096038558314036847 0 0.017814730217624357 0.00065432070358942566 0 0.017716787845996805 0.0011582992728518423 0 0.017351635361894824 0.00046368485931838041 0 0.016349604464055027 0.00038412250436283235 0 0.017716787845996805 0.0011582992728518423 0 0.017814730217624357 0.00065432070358942566 0 0.017351635361894824 0.00046368485931838041 0 0.017953947204304335 0.00078648893815538726 0 0.017971035282995845 0.00078128420397389055 0 0.017726891897348024 0.00081029356054402376 0 0.017953947204304335 0.00078648893815538726 0 0.017726891897348024 0.00081029356054402376 0 0.017835193184746471 0.00083265238711514476 0 0.017976136161880971 0.00096038558314036847 0 0.017953947204304335 0.00078648893815538726 0 0.017971035282995845 0.00078128420397389055 0 0.017971035282995845 0.00078128420397389055 0 0.017897564355399721 0.00041854222929855187 0 0.018382347602970663 0.00047314605046729508 0 0.017971035282995845 0.00078128420397389055 0 0.017897564355399721 0.00041854222929855187 0 0.017545499660289534 0.00057402945390886534 0 0.017976136161880971 0.00096038558314036847 0 0.017971035282995845 0.00078128420397389055 0 0.01804716210620776 0.00088624847294927422 0 0.018000893661941401 0.00078285851207700633 0 0.018216144604232213 0.00067861332782359748 0 0.017703994039658732 8.2531786578782712e-05 0 0.018206212891110449 0.00012144175355829219 0 0.017897564355399721 0.00041854222929855187 0 0.018206212891110449 0.00012144175355829219 0 0.017897564355399721 0.00041854222929855187 0 0.018382347602970663 0.00047314605046729508 0 0.017703994039658732 8.2531786578782712e-05 0 0.017897564355399721 0.00041854222929855187 0 0.017240548463056782 0.00019092871650644444 0 0.017897564355399721 0.00041854222929855187 0 0.017240548463056782 0.00019092871650644444 0 0.017545499660289534 0.00057402945390886534 0 0.017675994109397075 7.7725370702056961e-05 0 0.017335546613664671 0.00018808137333635908 0 0.017240548463056782 0.00019092871650644444 0 0.017138279967769749 0.00047691606424888922 0 0.017545499660289534 0.00057402945390886534 0 0.017226929502475268 2.2535412834771407e-05 0 0.017436558211757037 0.0001786842113040636 0 0.01707310658094896 0.0003493801886934215 0 0.017226929502475268 2.2535412834771407e-05 0 0.01707310658094896 0.0003493801886934215 0 0.016849480653682705 2.5880742351245525e-05 0 0.017405957286630466 -9.1062077347622488e-06 0 0.017226929502475268 2.2535412834771407e-05 0 0.017436558211757037 0.0001786842113040636 0 0.017335546613664671 0.00018808137333635908 0 0.016862842777406978 0.00032100742324268596 0 0.017240548463056782 0.00019092871650644444 0 0.016674310959058858 0.00028687558914580942 0 0.017138279967769749 0.00047691606424888922 0 0.016674310959058858 0.00028687558914580942 0 0.016888860277025682 0.00069042491230602687 0 0.016465588010345582 0.00065567167622618391 0 0.017138279967769749 0.00047691606424888922 0 0.016888860277025682 0.00069042491230602687 0 0.017298044092415629 0.00071233720036546311 0 0.016674310959058858 0.00028687558914580942 0 0.017138279967769749 0.00047691606424888922 0 0.016888860277025682 0.00069042491230602687 0 0.016888860277025682 0.00069042491230602687 0 0.017298044092415629 0.00071233720036546311 0 0.017072017299371505 0.0010163709747227066 0 0.016888860277025682 0.00069042491230602687 0 0.016600235405009753 0.0011597556237217187 0 0.017072017299371505 0.0010163709747227066 0 0.016888860277025682 0.00069042491230602687 0 0.016465588010345582 0.00065567167622618391 0 0.016600235405009753 0.0011597556237217187 0 0.017971035282995845 0.00078128420397389055 0 0.017545499660289534 0.00057402945390886534 0 0.017726891897348024 0.00081029356054402376 0 0.017545499660289534 0.00057402945390886534 0 0.017298044092415629 0.00071233720036546311 0 0.017726891897348024 0.00081029356054402376 0 0.017138279967769749 0.00047691606424888922 0 0.017545499660289534 0.00057402945390886534 0 0.017298044092415629 0.00071233720036546311 0 0.017298044092415629 0.00071233720036546311 0 0.017441341690684949 0.00091878434395332867 0 0.017072017299371505 0.0010163709747227066 0 0.017298044092415629 0.00071233720036546311 0 0.017441341690684949 0.00091878434395332867 0 0.017726891897348024 0.00081029356054402376 0 0.017441341690684949 0.00091878434395332867 0 0.017726891897348024 0.00081029356054402376 0 0.017619450811324638 0.00096509979956496857 0 0.017619450811324638 0.00096509979956496857 0 0.017305979859687869 0.0011299896359394388 0 0.017491379837744285 0.0011845398241919665 0 0.017441341690684949 0.00091878434395332867 0 0.017305979859687869 0.0011299896359394388 0 0.017072017299371505 0.0010163709747227066 0 0.017441341690684949 0.00091878434395332867 0 0.017619450811324638 0.00096509979956496857 0 0.017305979859687869 0.0011299896359394388 0 0.017305979859687869 0.0011299896359394388 0 0.017218467021497944 0.0014033246816276446 0 0.017491379837744285 0.0011845398241919665 0 0.017305979859687869 0.0011299896359394388 0 0.017218467021497944 0.0014033246816276446 0 0.016916524367982314 0.0013979204162938034 0 0.017218467021497944 0.0014033246816276446 0 0.016927643631510468 0.0016741268527927058 0 0.017174499747017041 0.0015749278460382816 0 0.017218467021497944 0.0014033246816276446 0 0.017174499747017041 0.0015749278460382816 0 0.017266949653437471 0.0015260399811554152 0 0.017218467021497944 0.0014033246816276446 0 0.017379741403390561 0.0014107379400212991 0 0.017491379837744285 0.0011845398241919665 0 0.017218467021497944 0.0014033246816276446 0 0.017379741403390561 0.0014107379400212991 0 0.017266949653437471 0.0015260399811554152 0 0.017379741403390561 0.0014107379400212991 0 0.017557727627700165 0.0012556602388516412 0 0.017491379837744285 0.0011845398241919665 0 0.017557727627700165 0.0012556602388516412 0 0.017749671541587572 0.0011840439155649484 0 0.017694439103618509 0.0011179973962409211 0 0.017557727627700165 0.0012556602388516412 0 0.017716401947993406 0.0010143003862509285 0 0.017694439103618509 0.0011179973962409211 0 0.017619450811324638 0.00096509979956496857 0 0.017491379837744285 0.0011845398241919665 0 0.017716401947993406 0.0010143003862509285 0 0.017557727627700165 0.0012556602388516412 0 0.017491379837744285 0.0011845398241919665 0 0.017716401947993406 0.0010143003862509285 0 0.016600235405009753 0.0011597556237217187 0 0.017072017299371505 0.0010163709747227066 0 0.016916524367982314 0.0013979204162938034 0 0.017305979859687869 0.0011299896359394388 0 0.017072017299371505 0.0010163709747227066 0 0.016916524367982314 0.0013979204162938034 0 0.017218467021497944 0.0014033246816276446 0 0.016916524367982314 0.0013979204162938034 0 0.016927643631510468 0.0016741268527927058 0 0.016916524367982314 0.0013979204162938034 0 0.016709000576519997 0.0017701096300105398 0 0.016927643631510468 0.0016741268527927058 0 0.016600235405009753 0.0011597556237217187 0 0.016916524367982314 0.0013979204162938034 0 0.016505422038441488 0.001704006994764979 0 0.016600235405009753 0.0011597556237217187 0 0.016505422038441488 0.001704006994764979 0 0.016157327395062961 0.0015242700429713197 0 0.016916524367982314 0.0013979204162938034 0 0.016505422038441488 0.001704006994764979 0 0.016709000576519997 0.0017701096300105398 0 0.016505422038441488 0.001704006994764979 0 0.016709000576519997 0.0017701096300105398 0 0.016643510884274744 0.0020518992814667599 0 0.016505422038441488 0.001704006994764979 0 0.016643510884274744 0.0020518992814667599 0 0.015960158246756069 0.0020077437165175213 0 0.012415701274182995 0.0011626162019760036 0 0.013339675074689734 0.0013940851616835702 0 0.0096505958743995802 0.0010740611531071119 0 0.0066408874016752918 0.0014524943638754 0 0.016643510884274744 0.0020518992814667599 0 0.016927643631510468 0.0016741268527927058 0 0.017278298779289568 0.001697918870738404 0 0.011349078786793875 0.00056551505036324357 0 0.010935251524492635 0.00037911297246896963 0 0.0087305526099463182 0.001133296895421091 0 0.016709000576519997 0.0017701096300105398 0 0.016643510884274744 0.0020518992814667599 0 0.016927643631510468 0.0016741268527927058 0 0.0057109952697254433 0.002186699023256551 0 0.0061008732972278332 0.0022393599358685591 0 0.0051913073170514459 0.0021948096720937945 0 0.0057109952697254433 0.002186699023256551 0 0.0057300859504704291 0.0020898762438487984 0 0.0058058400714268536 0.0021196489446809572 0 0.0061769647181544257 0.0018109869678584755 0 0.0070248709121409928 0.0012202131842165413 0 0.0057300859504704291 0.0020898762438487984 0 0.0058043551783901869 0.0020436935846749479 0 0.0058271748834336648 0.0021602813619112219 0 0.0066768005086447462 0.001242403077106634 0 0.0070248709121409928 0.0012202131842165413 0 0.0057300859504704291 0.0020898762438487984 0 0.0057048514856010936 0.0019842654120804572 0 0.0055578558111887564 0.0020634527578289453 0 0.0057109952697254433 0.002186699023256551 0 0.0057300859504704291 0.0020898762438487984 0 0.0055578558111887564 0.0020634527578289453 0 0.0057048514856010936 0.0019842654120804572 0 0.0055578558111887564 0.0020634527578289453 0 0.0055330132244155615 0.0019081572547768506 0 0.0057048514856010936 0.0019842654120804572 0 0.0055330132244155615 0.0019081572547768506 0 0.0057590015737226082 0.0018011487225134152 0 0.0057048514856010936 0.0019842654120804572 0 0.0059642348272946604 0.0019328777816408987 0 0.0057590015737226082 0.0018011487225134152 0 0.0057300859504704291 0.0020898762438487984 0 0.0058043551783901869 0.0020436935846749479 0 0.0057048514856010936 0.0019842654120804572 0 0.0058043551783901869 0.0020436935846749479 0 0.0057048514856010936 0.0019842654120804572 0 0.0059642348272946604 0.0019328777816408987 0 0.0058043551783901869 0.0020436935846749479 0 0.0059642348272946604 0.0019328777816408987 0 0.0058271748834336648 0.0021602813619112219 0 0.0057109952697254433 0.002186699023256551 0 0.0058769605121563873 0.0021052362156818941 0 0.0061008732972278332 0.0022393599358685591 0 0.0070248709121409928 0.0012202131842165413 0 0.0096505958743995802 0.0010740611531071119 0 0.012415701274182995 0.0011626162019760036 0 0.0099145410166667503 0.00040946811289366519 0 0.0097532282253541373 0.00037736008181849927 0 0.0099762093875406816 0.00030489647891116195 0 0.0099295547830724213 0.0002279169670596325 0 0.01084432638422277 0.00070033748459620289 0 0.01097996824419888 0.00075890025833340346 0 0.010112053183125188 0.00088161841774220479 0 0.0070248709121409928 0.0012202131842165413 0 0.0084946663544630836 0.0010327198500668273 0 0.0059642348272946604 0.0019328777816408987 0 0.0058271748834336648 0.0021602813619112219 0 0.0067361846912601135 0.0018850813420861474 0 0.009689715528508747 0.00035349116712308631 0 0.0097532282253541373 0.00037736008181849927 0 0.0099295547830724213 0.0002279169670596325 0 0.0096505958743995802 0.0010740611531071119 0 0.0099145410166667503 0.00040946811289366519 0 0.012415701274182995 0.0011626162019760036 0 0.0096505958743995802 0.0010740611531071119 0 0.0087305526099463182 0.001133296895421091 0 0.0063009613210980898 0.00093816015116348587 0 0.0062461837627423387 0.0015525592929052216 0 0.017557727627700165 0.0012556602388516412 0 0.017278298779289568 0.001697918870738404 0 0.017749671541587572 0.0011840439155649484 0 0.0066408874016752918 0.0014524943638754 0 0.0055409255049287875 0.0013584130921933646 0 0.0051913073170514459 0.0021948096720937945 0 0.0048889927770990301 0.0019223616292004773 0 0.0045742922053787676 0.0017970589028091545 0 0.013339675074689734 0.0013940851616835702 0 0.011912072599801012 0.0013606974183425166 0 0.0087305526099463182 0.001133296895421091 0 0.0085558272410636363 0.00066048359235060217 0 0.0063009613210980898 0.00093816015116348587 0 0.016927643631510468 0.0016741268527927058 0 0.017174499747017041 0.0015749278460382816 0 0.017278298779289568 0.001697918870738404 0 0.017379741403390561 0.0014107379400212991 0 0.017557727627700165 0.0012556602388516412 0 0.017278298779289568 0.001697918870738404 0 0.010935251524492635 0.00037911297246896963 0 0.0087305526099463182 0.001133296895421091 0 0.0085558272410636363 0.00066048359235060217 0 0.017379741403390561 0.0014107379400212991 0 0.017266949653437471 0.0015260399811554152 0 0.017278298779289568 0.001697918870738404 0 0.017174499747017041 0.0015749278460382816 0 0.017266949653437471 0.0015260399811554152 0 0.017278298779289568 0.001697918870738404 0 0.0051913073170514459 0.0021948096720937945 0 0.0051792004094840935 0.0019907372078456151 0 0.0053837124625156652 0.0020085264954903055 0 0.0051913073170514459 0.0021948096720937945 0 0.0050632200060131234 0.0020016100009417627 0 0.0051792004094840935 0.0019907372078456151 0 0.0050632200060131234 0.0020016100009417627 0 0.0051792004094840935 0.0019907372078456151 0 0.005029484554665278 0.001897345323919007 0 0.0051913073170514459 0.0021948096720937945 0 0.0053837124625156652 0.0020085264954903055 0 0.0055578558111887564 0.0020634527578289453 0 0.0057109952697254433 0.002186699023256551 0 0.0051913073170514459 0.0021948096720937945 0 0.0055578558111887564 0.0020634527578289453 0 0.0053837124625156652 0.0020085264954903055 0 0.0055578558111887564 0.0020634527578289453 0 0.0055330132244155615 0.0019081572547768506 0 0.0053837124625156652 0.0020085264954903055 0 0.0055330132244155615 0.0019081572547768506 0 0.0052534429903443036 0.0018382233691195493 0 0.0055330132244155615 0.0019081572547768506 0 0.0052534429903443036 0.0018382233691195493 0 0.0055148984871177739 0.0017074730584817443 0 0.0052534429903443036 0.0018382233691195493 0 0.005029484554665278 0.001897345323919007 0 0.0049232866631702269 0.0017223639216933364 0 0.0051792004094840935 0.0019907372078456151 0 0.0052534429903443036 0.0018382233691195493 0 0.005029484554665278 0.001897345323919007 0 0.0051792004094840935 0.0019907372078456151 0 0.0053837124625156652 0.0020085264954903055 0 0.0052534429903443036 0.0018382233691195493 0 0.005029484554665278 0.001897345323919007 0 0.0048213824434322301 0.0018061191585130826 0 0.0049232866631702269 0.0017223639216933364 0 0.005029484554665278 0.001897345323919007 0 0.0048889927770990301 0.0019223616292004773 0 0.0048213824434322301 0.0018061191585130826 0 0.0051913073170514459 0.0021948096720937945 0 0.0050632200060131234 0.0020016100009417627 0 0.0048889927770990301 0.0019223616292004773 0 0.0050632200060131234 0.0020016100009417627 0 0.005029484554665278 0.001897345323919007 0 0.0048889927770990301 0.0019223616292004773 0 0.0048889927770990301 0.0019223616292004773 0 0.0047081016753748707 0.0018127039441447669 0 0.0045742922053787676 0.0017970589028091545 0 0.0047081016753748707 0.0018127039441447669 0 0.0048213824434322301 0.0018061191585130826 0 0.0045928312754515361 0.0017254573481556362 0 0.0048889927770990301 0.0019223616292004773 0 0.0047081016753748707 0.0018127039441447669 0 0.0048213824434322301 0.0018061191585130826 0 0.0048213824434322301 0.0018061191585130826 0 0.0045928312754515361 0.0017254573481556362 0 0.0046814654031765547 0.0016925697021303086 0 0.0048213824434322301 0.0018061191585130826 0 0.0046814654031765547 0.0016925697021303086 0 0.0049232866631702269 0.0017223639216933364 0 0.0045928312754515361 0.0017254573481556362 0 0.0044811607590641445 0.0016439831040198612 0 0.0046814654031765547 0.0016925697021303086 0 0.0045928312754515361 0.0017254573481556362 0 0.0045714815332535417 0.0016094972420626966 0 0.0044811607590641445 0.0016439831040198612 0 0.0045928312754515361 0.0017254573481556362 0 0.0045742922053787676 0.0017970589028091545 0 0.0046339961035727845 0.0016223385587980452 0 0.0045928312754515361 0.0017254573481556362 0 0.0046339961035727845 0.0016223385587980452 0 0.0045714815332535417 0.0016094972420626966 0 0.0047081016753748707 0.0018127039441447669 0 0.0045928312754515361 0.0017254573481556362 0 0.0045742922053787676 0.0017970589028091545 0 0.0063009613210980898 0.00093816015116348587 0 0.0062461837627423387 0.0015525592929052216 0 0.0048502910243866 0.0012707658482541083 0 0.0055409255049287875 0.0013584130921933646 0 0.0048875654380877397 0.0012987471030694909 0 0.0045742922053787676 0.0017970589028091545 0 0.0048502910243866 0.0012707658482541083 0 0.0046339961035727845 0.0016223385587980452 0 0.0062461837627423387 0.0015525592929052216 0 0.0048502910243866 0.0012707658482541083 0 0.0048167833161157679 0.0014797111408276806 0 0.0048502910243866 0.0012707658482541083 0 0.0047248866134427976 0.0014932295317935265 0 0.0046339961035727845 0.0016223385587980452 0 0.0048502910243866 0.0012707658482541083 0 0.0047248866134427976 0.0014932295317935265 0 0.0048461586979704702 0.001393376280092704 0 0.0047248866134427976 0.0014932295317935265 0 0.0045714815332535417 0.0016094972420626966 0 0.0047355922444386935 0.0015046639043518057 0 0.0047248866134427976 0.0014932295317935265 0 0.0046339961035727845 0.0016223385587980452 0 0.0045714815332535417 0.0016094972420626966 0 0.0045714815332535417 0.0016094972420626966 0 0.0047355922444386935 0.0015046639043518057 0 0.0046008125449570787 0.0015840041659261695 0 0.0047355922444386935 0.0015046639043518057 0 0.0047668519679464226 0.0015851860204445325 0 0.0046008125449570787 0.0015840041659261695 0 0.00487474918888653 0.0014828397067220144 0 0.0047355922444386935 0.0015046639043518057 0 0.0047668519679464226 0.0015851860204445325 0 0.00487474918888653 0.0014828397067220144 0 0.0050113477147392445 0.0015451696981012536 0 0.0047668519679464226 0.0015851860204445325 0 0.00487474918888653 0.0014828397067220144 0 0.0050106056749377624 0.0013833925357525641 0 0.0048461586979704702 0.001393376280092704 0 0.00487474918888653 0.0014828397067220144 0 0.0047355922444386935 0.0015046639043518057 0 0.0048461586979704702 0.001393376280092704 0 0.0047248866134427976 0.0014932295317935265 0 0.0047355922444386935 0.0015046639043518057 0 0.0048461586979704702 0.001393376280092704 0 0.0050113477147392445 0.0015451696981012536 0 0.0050106056749377624 0.0013833925357525641 0 0.0053281463374285319 0.0014394981871328604 0 0.00487474918888653 0.0014828397067220144 0 0.0050113477147392445 0.0015451696981012536 0 0.0050106056749377624 0.0013833925357525641 0 0.0050106056749377624 0.0013833925357525641 0 0.0048805540428481621 0.0013398971545493456 0 0.0051270105314838253 0.0010219039912627284 0 0.0050106056749377624 0.0013833925357525641 0 0.0051270105314838253 0.0010219039912627284 0 0.0053281463374285319 0.0014394981871328604 0 0.0048502910243866 0.0012707658482541083 0 0.0048461586979704702 0.001393376280092704 0 0.0048805540428481621 0.0013398971545493456 0 0.0050106056749377624 0.0013833925357525641 0 0.0048461586979704702 0.001393376280092704 0 0.0048805540428481621 0.0013398971545493456 0 0.0048502910243866 0.0012707658482541083 0 0.0048805540428481621 0.0013398971545493456 0 0.0048167833161157679 0.0014797111408276806 0 0.0048805540428481621 0.0013398971545493456 0 0.0048167833161157679 0.0014797111408276806 0 0.0051270105314838253 0.0010219039912627284 0 0.017812774662946142 0.00047993804474990632 0 0.017242137823578585 -0.00029685176221163218 0 0.017896376322870756 0.00061529181010314712 0 0.011331309416610468 0.00097130185232295618 0 0.011131778430612971 0.00037899034246896253 0 0.017814730217624357 0.00065432070358942566 0 0.017351635361894824 0.00046368485931838041 0 0.017242137823578585 -0.00029685176221163218 0 0.017814730217624357 0.00065432070358942566 0 0.017242137823578585 -0.00029685176221163218 0 0.017896376322870756 0.00061529181010314712 0 0.017896376322870756 0.00061529181010314712 0 0.017835193184746471 0.00083265238711514476 0 0.017827610868188102 0.00081466773807537061 0 0.017953947204304335 0.00078648893815538726 0 0.017896376322870756 0.00061529181010314712 0 0.017835193184746471 0.00083265238711514476 0 0.017814730217624357 0.00065432070358942566 0 0.017953947204304335 0.00078648893815538726 0 0.017896376322870756 0.00061529181010314712 0 0.017726891897348024 0.00081029356054402376 0 0.017619450811324638 0.00096509979956496857 0 0.017835193184746471 0.00083265238711514476 0 0.017619450811324638 0.00096509979956496857 0 0.017835193184746471 0.00083265238711514476 0 0.017716401947993406 0.0010143003862509285 0 0.017835193184746471 0.00083265238711514476 0 0.017716401947993406 0.0010143003862509285 0 0.017827610868188102 0.00081466773807537061 0 0.017716401947993406 0.0010143003862509285 0 0.017747959363733298 0.0010301544861449395 0 0.017827610868188102 0.00081466773807537061 0 0.017749671541587572 0.0011840439155649484 0 0.017694439103618509 0.0011179973962409211 0 0.017747959363733298 0.0010301544861449395 0 0.017716401947993406 0.0010143003862509285 0 0.017694439103618509 0.0011179973962409211 0 0.017747959363733298 0.0010301544861449395 0 0.017749671541587572 0.0011840439155649484 0 0.017747959363733298 0.0010301544861449395 0 0.017827610868188102 0.00081466773807537061 0 0.017749671541587572 0.0011840439155649484 0 0.017812774662946142 0.00047993804474990632 0 0.017827610868188102 0.00081466773807537061 0 0.011912072599801012 0.0013606974183425166 0 0.011331309416610468 0.00097130185232295618 0 0.017812774662946142 0.00047993804474990632 0 0.017896376322870756 0.00061529181010314712 0 0.017827610868188102 0.00081466773807537061 0 0.013552181588648326 -3.0667529243327076e-07 0 0.014699212692678529 -0.00014099879467626542 0 0.01387859006610203 0.00027386873189865705 0 0.012902300703887565 0.00022384758817700791 0 0.012390190735882666 0.00026811823107453247 0 0.015183346196111818 6.1614137887913608e-05 0 0.014699212692678529 -0.00014099879467626542 0 0.01387859006610203 0.00027386873189865705 0 0.015183346196111818 6.1614137887913608e-05 0 0.015172873384450131 -0.00013282077909220456 0 0.014699212692678529 -0.00014099879467626542 0 0.015172873384450131 -0.00013282077909220456 0 0.014699212692678529 -0.00014099879467626542 0 0.015473133020914799 -0.00022121468223786834 0 0.015183346196111818 6.1614137887913608e-05 0 0.015172873384450131 -0.00013282077909220456 0 0.015430057038551838 -0.00017727502291393533 0 0.015172873384450131 -0.00013282077909220456 0 0.015473133020914799 -0.00022121468223786834 0 0.015430057038551838 -0.00017727502291393533 0 0.014699212692678529 -0.00014099879467626542 0 0.015502637744305308 -7.8693945727605685e-07 0 0.015473133020914799 -0.00022121468223786834 0 0.013552181588648326 -3.0667529243327076e-07 0 0.014699212692678529 -0.00014099879467626542 0 0.015502637744305308 -7.8693945727605685e-07 0 0.015502637744305308 -7.8693945727605685e-07 0 0.016081210417670886 -0.00016768264772312088 0 0.015473133020914799 -0.00022121468223786834 0 0.016081210417670886 -0.00016768264772312088 0 0.017447483118535778 6.37490466902388e-07 0 0.015859287094530335 -8.7351004798018805e-05 0 0.015502637744305308 -7.8693945727605685e-07 0 0.016081210417670886 -0.00016768264772312088 0 0.017447483118535778 6.37490466902388e-07 0 0.015859287094530335 -8.7351004798018805e-05 0 0.015473133020914799 -0.00022121468223786834 0 0.015621412140358854 -0.0001706108127700733 0 0.016081210417670886 -0.00016768264772312088 0 0.015859287094530335 -8.7351004798018805e-05 0 0.015473133020914799 -0.00022121468223786834 0 0.015621412140358854 -0.0001706108127700733 0 0.015735480087515935 -8.9953339510384783e-05 0 0.015592885438482158 -0.0001565030817021231 0 0.015473133020914799 -0.00022121468223786834 0 0.015621412140358854 -0.0001706108127700733 0 0.015430057038551838 -0.00017727502291393533 0 0.015859287094530335 -8.7351004798018805e-05 0 0.015621412140358854 -0.0001706108127700733 0 0.015735480087515935 -8.9953339510384783e-05 0 0.015982134658120768 0.0001278177866350565 0 0.015859287094530335 -8.7351004798018805e-05 0 0.015735480087515935 -8.9953339510384783e-05 0 0.016123679841090872 0.00010206856351582397 0 0.015158222925735255 -1.4728757017120504e-05 0 0.015995179973247762 -6.0249398278885675e-06 0 0.015951572852209751 0.00011101678822718561 0 0.015609029700949417 -2.261292630912715e-05 0 0.015609029700949417 -2.261292630912715e-05 0 0.013337329198118414 1.3176752718454606e-05 0 0.015158222925735255 -1.4728757017120504e-05 0 0.01473567776813613 5.8396966768804071e-05 0 0.015292591409263735 1.7856944307210426e-05 0 0.015158222925735255 -1.4728757017120504e-05 0 0.01473567776813613 5.8396966768804071e-05 0 0.014073878125085145 0.00010731975998343893 0 0.015158222925735255 -1.4728757017120504e-05 0 0.014073878125085145 0.00010731975998343893 0 0.013917546448155493 0.00012158214736840517 0 0.01473567776813613 5.8396966768804071e-05 0 0.014306936361661199 0.00015814800962608353 0 0.014887551445466402 0.00011165331185622305 0 0.01382994230220537 0.00023770874276089819 0 0.013757436413803066 0.00014702935716658046 0 0.013040938470532301 0.00057790111546489992 0 0.01473567776813613 5.8396966768804071e-05 0 0.014306936361661199 0.00015814800962608353 0 0.014073878125085145 0.00010731975998343893 0 0.014306936361661199 0.00015814800962608353 0 0.013901229402921978 0.00031404228955931142 0 0.01382994230220537 0.00023770874276089819 0 0.014306936361661199 0.00015814800962608353 0 0.013901229402921978 0.00031404228955931142 0 0.014358495261692384 0.0002730793549841371 0 0.013901229402921978 0.00031404228955931142 0 0.0138736595127525 0.00047572118475891327 0 0.014358495261692384 0.0002730793549841371 0 0.013492607814673511 -4.2737171462235903e-05 0 0.013337329198118414 1.3176752718454606e-05 0 0.014306936361661199 0.00015814800962608353 0 0.01382994230220537 0.00023770874276089819 0 0.014073878125085145 0.00010731975998343893 0 0.01382994230220537 0.00023770874276089819 0 0.014073878125085145 0.00010731975998343893 0 0.013757436413803066 0.00014702935716658046 0 0.015621412140358854 -0.0001706108127700733 0 0.015592885438482158 -0.0001565030817021231 0 0.015430057038551838 -0.00017727502291393533 0 0.015183346196111818 6.1614137887913608e-05 0 0.015592885438482158 -0.0001565030817021231 0 0.015430057038551838 -0.00017727502291393533 0 0.012902300703887565 0.00022384758817700791 0 0.013337329198118414 1.3176752718454606e-05 0 0.010694295503539961 0.00038962161744561974 0 0.010720598621827599 0.00038725784660183644 0 0.010658914383097516 0.000393806304873341 0 0.010694295503539961 0.00038962161744561974 0 0.01077424062195287 0.00032578192342116297 0 0.010720598621827599 0.00038725784660183644 0 0.013337329198118414 1.3176752718454606e-05 0 0.011378452942507954 0.00070695298718933652 0 0.013040938470532301 0.00057790111546489992 0 0.0138736595127525 0.00047572118475891327 0 0.013711558107557901 0.00074624636112543804 0 0.013757436413803066 0.00014702935716658046 0 0.01231836234655613 0.00074514818479574495 0 0.013040938470532301 0.00057790111546489992 0 0.013901229402921978 0.00031404228955931142 0 0.013040938470532301 0.00057790111546489992 0 0.0138736595127525 0.00047572118475891327 0 0.013901229402921978 0.00031404228955931142 0 0.01382994230220537 0.00023770874276089819 0 0.013040938470532301 0.00057790111546489992 0 0.014860697606137063 0.00037228155438938327 0 0.01485812876511646 0.00090450010163062484 0 0.013711558107557901 0.00074624636112543804 0 0.0138736595127525 0.00047572118475891327 0 0.014860697606137063 0.00037228155438938327 0 0.013711558107557901 0.00074624636112543804 0 0.014860697606137063 0.00037228155438938327 0 0.016280533090680668 0.00064709794227833654 0 0.01485812876511646 0.00090450010163062484 0 0.014860697606137063 0.00037228155438938327 0 0.015647553896226438 9.4241189808132707e-05 0 0.016280533090680668 0.00064709794227833654 0 0.014860697606137063 0.00037228155438938327 0 0.014887551445466402 0.00011165331185622305 0 0.015647553896226438 9.4241189808132707e-05 0 0.014860697606137063 0.00037228155438938327 0 0.014358495261692384 0.0002730793549841371 0 0.014887551445466402 0.00011165331185622305 0 0.0138736595127525 0.00047572118475891327 0 0.014860697606137063 0.00037228155438938327 0 0.014358495261692384 0.0002730793549841371 0 0.014306936361661199 0.00015814800962608353 0 0.014358495261692384 0.0002730793549841371 0 0.014887551445466402 0.00011165331185622305 0 0.01473567776813613 5.8396966768804071e-05 0 0.014887551445466402 0.00011165331185622305 0 0.015292591409263735 1.7856944307210426e-05 0 0.014887551445466402 0.00011165331185622305 0 0.015292591409263735 1.7856944307210426e-05 0 0.015647553896226438 9.4241189808132707e-05 0 0.015292591409263735 1.7856944307210426e-05 0 0.015995179973247762 -6.0249398278885675e-06 0 0.015647553896226438 9.4241189808132707e-05 0 0.015158222925735255 -1.4728757017120504e-05 0 0.015292591409263735 1.7856944307210426e-05 0 0.015995179973247762 -6.0249398278885675e-06 0 0.016826021768908586 -2.5510684000895293e-05 0 0.015995179973247762 -6.0249398278885675e-06 0 0.016348872612154917 2.3630215684156952e-05 0 0.015995179973247762 -6.0249398278885675e-06 0 0.015647553896226438 9.4241189808132707e-05 0 0.016348872612154917 2.3630215684156952e-05 0 0.015647553896226438 9.4241189808132707e-05 0 0.01650212262894819 0.00023022691034632579 0 0.016348872612154917 2.3630215684156952e-05 0 0.01650212262894819 0.00023022691034632579 0 0.016348872612154917 2.3630215684156952e-05 0 0.016849480653682705 2.5880742351245525e-05 0 0.016826021768908586 -2.5510684000895293e-05 0 0.016348872612154917 2.3630215684156952e-05 0 0.016849480653682705 2.5880742351245525e-05 0 0.01707310658094896 0.0003493801886934215 0 0.01650212262894819 0.00023022691034632579 0 0.016849480653682705 2.5880742351245525e-05 0 0.01707310658094896 0.0003493801886934215 0 0.01650212262894819 0.00023022691034632579 0 0.016280533090680668 0.00064709794227833654 0 0.016862842777406978 0.00032100742324268596 0 0.016062303619205142 0.00055534632578491106 0 0.016674310959058858 0.00028687558914580942 0 0.016465588010345582 0.00065567167622618391 0 0.015896682452524701 0.00048509893080706738 0 0.015647553896226438 9.4241189808132707e-05 0 0.01650212262894819 0.00023022691034632579 0 0.016280533090680668 0.00064709794227833654 0 0.016062303619205142 0.00055534632578491106 0 0.014966482432851537 0.00091850185151458265 0 0.015896682452524701 0.00048509893080706738 0 0.016001352733470576 0.0010711617672972422 0 0.01485812876511646 0.00090450010163062484 0 0.016465588010345582 0.00065567167622618391 0 0.015896682452524701 0.00048509893080706738 0 0.016001352733470576 0.0010711617672972422 0 0.016465588010345582 0.00065567167622618391 0 0.016600235405009753 0.0011597556237217187 0 0.016001352733470576 0.0010711617672972422 0 0.016001352733470576 0.0010711617672972422 0 0.015623112584227161 0.0016240260500857842 0 0.016157327395062961 0.0015242700429713197 0 0.016600235405009753 0.0011597556237217187 0 0.016001352733470576 0.0010711617672972422 0 0.016157327395062961 0.0015242700429713197 0 0.016001352733470576 0.0010711617672972422 0 0.015623112584227161 0.0016240260500857842 0 0.01485812876511646 0.00090450010163062484 0 0.015623112584227161 0.0016240260500857842 0 0.015960158246756069 0.0020077437165175213 0 0.014875748417002481 0.0020475624099573681 0 0.013113736669983859 0.0012121880801625057 0 0.012395537773376352 0.0012826621620939662 0 0.015623112584227161 0.0016240260500857842 0 0.016157327395062961 0.0015242700429713197 0 0.015960158246756069 0.0020077437165175213 0 0.016505422038441488 0.001704006994764979 0 0.016157327395062961 0.0015242700429713197 0 0.015960158246756069 0.0020077437165175213 0 0.010037020511888392 0.00031438469198360444 0 0.0099011506734482235 0.00031194813610876932 0 0.009918744088363473 0.00031293504611734386 0 0.012415701274182995 0.0011626162019760036 0 0.013113736669983859 0.0012121880801625057 0 0.0099762093875406816 0.00030489647891116195 0 0.0099971753995951682 0.00024761482413260006 0 0.0099295547830724213 0.0002279169670596325 0 0.0099846486590427878 0.00029453638289648164 0 0.0099930699426183048 0.0002176025701887747 0 0.0099978222330606836 0.00017284120810379989 0 0.009918744088363473 0.00031293504611734386 0 0.0099442138003687317 0.00028287388094482425 0 0.0099978222330606836 0.00017284120810379989 0 0.0099145410166667503 0.00040946811289366519 0 0.010024401892013013 0.00023209206313602528 0 0.0099145410166667503 0.00040946811289366519 0 0.010016533954157541 0.00016357131194563005 0 0.0099762093875406816 0.00030489647891116195 0 0.0099930699426183048 0.0002176025701887747 0 0.0099971753995951682 0.00024761482413260006 0 0.0099011506734482235 0.00031194813610876932 0 0.009918744088363473 0.00031293504611734386 0 0.0099442138003687317 0.00028287388094482425 0 0.0099011506734482235 0.00031194813610876932 0 0.009981445558607761 0.00030706322523101054 0 0.010015663519553493 0.000637716323292243 0 0.0099011506734482235 0.00031194813610876932 0 0.0099442138003687317 0.00028287388094482425 0 0.009981445558607761 0.00030706322523101054 0 0.009981445558607761 0.00030706322523101054 0 0.010203951424978281 0.00021300803668840483 0 0.010015663519553493 0.000637716323292243 0 0.009981445558607761 0.00030706322523101054 0 0.0099978222330606836 0.00017284120810379989 0 0.010203951424978281 0.00021300803668840483 0 0.0099442138003687317 0.00028287388094482425 0 0.009981445558607761 0.00030706322523101054 0 0.0099978222330606836 0.00017284120810379989 0 0.0099978222330606836 0.00017284120810379989 0 0.010064082390202178 0.00015042787311856225 0 0.010203951424978281 0.00021300803668840483 0 0.0099978222330606836 0.00017284120810379989 0 0.010064082390202178 0.00015042787311856225 0 0.0099399723987186675 0.00017010143200050959 0 0.0099978222330606836 0.00017284120810379989 0 0.0099689830328104547 0.00021855399879516728 0 0.0099399723987186675 0.00017010143200050959 0 0.0099930699426183048 0.0002176025701887747 0 0.0099978222330606836 0.00017284120810379989 0 0.0099689830328104547 0.00021855399879516728 0 0.0099002861805800851 0.00012416709207594578 0 0.010064082390202178 0.00015042787311856225 0 0.010343255724776712 0.00017229961483251563 0 0.0099002861805800851 0.00012416709207594578 0 0.010064082390202178 0.00015042787311856225 0 0.0099399723987186675 0.00017010143200050959 0 0.010203951424978281 0.00021300803668840483 0 0.010757122156751793 0.00039803404767638597 0 0.010015663519553493 0.000637716323292243 0 0.010064082390202178 0.00015042787311856225 0 0.010343255724776712 0.00017229961483251563 0 0.010203951424978281 0.00021300803668840483 0 0.010343255724776712 0.00017229961483251563 0 0.010203951424978281 0.00021300803668840483 0 0.010757122156751793 0.00039803404767638597 0 0.012395537773376352 0.0012826621620939662 0 0.01212414998272761 0.0011281923306584022 0 0.010757122156751793 0.00039803404767638597 0 0.010015663519553493 0.000637716323292243 0 0.012127580344854092 0.0011040172346761181 0 0.014875748417002481 0.0020475624099573681 0 0.01485812876511646 0.00090450010163062484 0 0.013711558107557901 0.00074624636112543804 0 0.015623112584227161 0.0016240260500857842 0 0.014875748417002481 0.0020475624099573681 0 0.01485812876511646 0.00090450010163062484 0 0.014875748417002481 0.0020475624099573681 0 0.013711558107557901 0.00074624636112543804 0 0.012127580344854092 0.0011040172346761181 0 0.01231836234655613 0.00074514818479574495 0 0.013040938470532301 0.00057790111546489992 0 0.012127580344854092 0.0011040172346761181 0 0.013040938470532301 0.00057790111546489992 0 0.013711558107557901 0.00074624636112543804 0 0.012127580344854092 0.0011040172346761181 0 0.01231836234655613 0.00074514818479574495 0 0.012127580344854092 0.0011040172346761181 0 0.010809885844427694 0.00045462834776267559 0 0.011378452942507954 0.00070695298718933652 0 0.010969814252039875 0.00053332483683067274 0 0.010720598621827599 0.00038725784660183644 0 0.010809885844427694 0.00045462834776267559 0 0.010658914383097516 0.000393806304873341 0 0.012127580344854092 0.0011040172346761181 0 0.010809885844427694 0.00045462834776267559 0 0.01091564620109535 0.00043592899085417608 0 0.010757122156751793 0.00039803404767638597 0 0.012127580344854092 0.0011040172346761181 0 0.01091564620109535 0.00043592899085417608 0 0.010343255724776712 0.00017229961483251563 0 0.010757122156751793 0.00039803404767638597 0 0.01091564620109535 0.00043592899085417608 0 0.010343255724776712 0.00017229961483251563 0 0.01091564620109535 0.00043592899085417608 0 0.01026958658901965 0.00019920090586750592 0 0.010343255724776712 0.00017229961483251563 0 0.0097476946824259607 6.1217279959092374e-05 0 0.01026958658901965 0.00019920090586750592 0 0.0099002861805800851 0.00012416709207594578 0 0.010343255724776712 0.00017229961483251563 0 0.0097476946824259607 6.1217279959092374e-05 0 0.0097476946824259607 6.1217279959092374e-05 0 0.0095278133955583807 3.7178551760653018e-05 0 0.0086681543094424274 5.7927350329597434e-05 0 0.0097476946824259607 6.1217279959092374e-05 0 0.0095278133955583807 3.7178551760653018e-05 0 0.01026958658901965 0.00019920090586750592 0 0.0095278133955583807 3.7178551760653018e-05 0 0.01026958658901965 0.00019920090586750592 0 0.010008070817748288 2.9420954776046395e-05 0 0.010809885844427694 0.00045462834776267559 0 0.01091564620109535 0.00043592899085417608 0 0.01026958658901965 0.00019920090586750592 0 0.010809885844427694 0.00045462834776267559 0 0.01026958658901965 0.00019920090586750592 0 0.010008070817748288 2.9420954776046395e-05 0 0.0095278133955583807 3.7178551760653018e-05 0 0.010008070817748288 2.9420954776046395e-05 0 0.0086713182761354729 -3.8247808529186624e-05 0 0.010008070817748288 2.9420954776046395e-05 0 0.009574528418730863 -5.1818452392164103e-07 0 0.0086713182761354729 -3.8247808529186624e-05 0 0.010008070817748288 2.9420954776046395e-05 0 0.009574528418730863 -5.1818452392164103e-07 0 0.011598601075603475 1.0230184996655264e-06 0 0.011598601075603475 1.0230184996655264e-06 0 0.010519844047158035 0.000305672429906983 0 0.010796524943345775 0.00053334070035367857 0 0.010008070817748288 2.9420954776046395e-05 0 0.011598601075603475 1.0230184996655264e-06 0 0.010519844047158035 0.000305672429906983 0 0.010809885844427694 0.00045462834776267559 0 0.010008070817748288 2.9420954776046395e-05 0 0.010519844047158035 0.000305672429906983 0 0.010809885844427694 0.00045462834776267559 0 0.010519844047158035 0.000305672429906983 0 0.010658914383097516 0.000393806304873341 0 0.010519844047158035 0.000305672429906983 0 0.010658914383097516 0.000393806304873341 0 0.010796524943345775 0.00053334070035367857 0 0.010694295503539961 0.00038962161744561974 0 0.010658914383097516 0.000393806304873341 0 0.010796524943345775 0.00053334070035367857 0 0.013552181588648326 -3.0667529243327076e-07 0 0.011604717699310253 1.3965848801370443e-06 0 0.01387859006610203 0.00027386873189865705 0 0.011602964110288879 4.8188278856231838e-09 0 0.012390190735882666 0.00026811823107453247 0 0.0046822170706590114 -2.6452675963355701e-05 0 0.0055161525860693422 5.9005928919111466e-07 0 0.0034872605486183238 -5.3115277798511478e-07 0 0.0046822170706590114 -2.6452675963355701e-05 0 0.0065324859299031434 0.00064782466629529831 0 0.0055161525860693422 5.9005928919111466e-07 0 0.0065324859299031434 0.00064782466629529831 0 0.0055161525860693422 5.9005928919111466e-07 0 0.0075442369229063852 4.4850099267072762e-07 0 0.0065324859299031434 0.00064782466629529831 0 0.0086713182761354729 -3.8247808529186624e-05 0 0.0086681543094424274 5.7927350329597434e-05 0 0.0065324859299031434 0.00064782466629529831 0 0.0075442369229063852 4.4850099267072762e-07 0 0.0086713182761354729 -3.8247808529186624e-05 0 0.009574528418730863 -5.1818452392164103e-07 0 0.0075442369229063852 4.4850099267072762e-07 0 0.0086713182761354729 -3.8247808529186624e-05 0 0.0095278133955583807 3.7178551760653018e-05 0 0.0086713182761354729 -3.8247808529186624e-05 0 0.0086681543094424274 5.7927350329597434e-05 0 0.0065324859299031434 0.00064782466629529831 0 0.0088224127000605477 0.00037408152951179022 0 0.0086681543094424274 5.7927350329597434e-05 0 0.0088224127000605477 0.00037408152951179022 0 0.0086681543094424274 5.7927350329597434e-05 0 0.0095097253844206673 0.00019036243796964321 0 0.0097476946824259607 6.1217279959092374e-05 0 0.0086681543094424274 5.7927350329597434e-05 0 0.0095097253844206673 0.00019036243796964321 0 0.0099002861805800851 0.00012416709207594578 0 0.0097476946824259607 6.1217279959092374e-05 0 0.0095097253844206673 0.00019036243796964321 0 0.0088224127000605477 0.00037408152951179022 0 0.0094085636908807623 0.00050105454508656076 0 0.0090842147800088199 0.0011522768369003839 0 0.0088224127000605477 0.00037408152951179022 0 0.0095097253844206673 0.00019036243796964321 0 0.0094085636908807623 0.00050105454508656076 0 0.0094085636908807623 0.00050105454508656076 0 0.0090842147800088199 0.0011522768369003839 0 0.0094646830277138692 0.00072358472420734729 0 0.0065324859299031434 0.00064782466629529831 0 0.0088224127000605477 0.00037408152951179022 0 0.0090842147800088199 0.0011522768369003839 0 0.0064109215791022748 0.00068870787303673838 0 0.006319011831268124 0.00086719686531125807 0 0.0046822170706590114 -2.6452675963355701e-05 0 0.0065324859299031434 0.00064782466629529831 0 0.0035915087025951056 0.00075241929472083914 0 0.0046822170706590114 -2.6452675963355701e-05 0 0.0035915087025951056 0.00075241929472083914 0 0.0029628872090730262 -9.7043446048579717e-05 0 0.006319011831268124 0.00086719686531125807 0 0.0055997531347549171 0.0003664833252737543 0 0.0035915087025951056 0.00075241929472083914 0 0.0022017110723373053 0.00045727871629992089 0 0.0029628872090730262 -9.7043446048579717e-05 0 0.0022017110723373053 0.00045727871629992089 0 0.002090499583404324 -0.00014398646059439962 0 0.0029628872090730262 -9.7043446048579717e-05 0 0.0093892067216305442 0.00038778203823703385 0 0.0085151319983403969 0.00019740633412691227 0 0.0081668318044574584 -0.00054991332431341745 0 0.0022017110723373053 0.00045727871629992089 0 0.001308782120819231 0.0001224794091540704 0 0.001529037413511314 -6.5446333890481002e-05 0 0.0093892067216305442 0.00038778203823703385 0 0.0085151319983403969 0.00019740633412691227 0 0.0087401017464107909 0.00059728499600032693 0 0.0022017110723373053 0.00045727871629992089 0 0.001529037413511314 -6.5446333890481002e-05 0 0.002090499583404324 -0.00014398646059439962 0 0.0055997531347549171 0.0003664833252737543 0 0.0054008290563497202 1.4852321221069981e-05 0 0.0093892067216305442 0.00038778203823703385 0 0.0087401017464107909 0.00059728499600032693 0 0.0094646830277138692 0.00072358472420734729 0 0.0087401017464107909 0.00059728499600032693 0 0.0094646830277138692 0.00072358472420734729 0 0.0079360718450783175 0.0014992127192835633 0 0.0085151319983403969 0.00019740633412691227 0 0.0087401017464107909 0.00059728499600032693 0 0.0081190149163966035 0.00056599187177818898 0 0.0090842147800088199 0.0011522768369003839 0 0.0093892067216305442 0.00038778203823703385 0 0.0094646830277138692 0.00072358472420734729 0 0.0094085636908807623 0.00050105454508656076 0 0.0094646830277138692 0.00072358472420734729 0 0.0097586021819204213 0.00029082236097105517 0 0.0095097253844206673 0.00019036243796964321 0 0.0094085636908807623 0.00050105454508656076 0 0.0097586021819204213 0.00029082236097105517 0 0.0099002861805800851 0.00012416709207594578 0 0.0095097253844206673 0.00019036243796964321 0 0.0097586021819204213 0.00029082236097105517 0 0.0099002861805800851 0.00012416709207594578 0 0.0097586021819204213 0.00029082236097105517 0 0.0099399723987186675 0.00017010143200050959 0 0.0097586021819204213 0.00029082236097105517 0 0.0099689830328104547 0.00021855399879516728 0 0.010029935174777434 0.00034552794689611484 0 0.0097586021819204213 0.00029082236097105517 0 0.0099689830328104547 0.00021855399879516728 0 0.0099399723987186675 0.00017010143200050959 0 0.0094598938490122533 0.00071455914399403233 0 0.008953781326598775 0.00091868417516755073 0 0.0094646830277138692 0.00072358472420734729 0 0.0097586021819204213 0.00029082236097105517 0 0.010029935174777434 0.00034552794689611484 0 0.0099689830328104547 0.00021855399879516728 0 0.010029935174777434 0.00034552794689611484 0 0.0099971753995951682 0.00024761482413260006 0 0.010029935174777434 0.00034552794689611484 0 0.0099971753995951682 0.00024761482413260006 0 0.0099295547830724213 0.0002279169670596325 0 0.0099930699426183048 0.0002176025701887747 0 0.0099689830328104547 0.00021855399879516728 0 0.0099971753995951682 0.00024761482413260006 0 0.008953781326598775 0.00091868417516755073 0 0.0084946663544630836 0.0010327198500668273 0 0.0079360718450783175 0.0014992127192835633 0 0.0067361846912601135 0.0018850813420861474 0 0.0068572728437785576 0.0012859588024949314 0 0.0079360718450783175 0.0014992127192835633 0 0.0068572728437785576 0.0012859588024949314 0 0.0071469157730453025 0.00071942448884852186 0 0.0068572728437785576 0.0012859588024949314 0 0.0071469157730453025 0.00071942448884852186 0 0.0065965585883255139 0.00082466100150722726 0 0.0071469157730453025 0.00071942448884852186 0 0.0065965585883255139 0.00082466100150722726 0 0.0064554793345282992 0.00019897084141277333 0 0.0070051658200642247 0.0006332713780425952 0 0.0064709756406033997 0.00019788749364708011 0 0.0071469157730453025 0.00071942448884852186 0 0.0081190149163966035 0.00056599187177818898 0 0.0078649055965301067 4.8726852664882237e-05 0 0.0079360718450783175 0.0014992127192835633 0 0.0071469157730453025 0.00071942448884852186 0 0.0081190149163966035 0.00056599187177818898 0 0.0087401017464107909 0.00059728499600032693 0 0.0079360718450783175 0.0014992127192835633 0 0.0081190149163966035 0.00056599187177818898 0 0.0078649055965301067 4.8726852664882237e-05 0 0.0081668318044574584 -0.00054991332431341745 0 0.0072090132421106868 -0.00020348894961738011 0 0.0085151319983403969 0.00019740633412691227 0 0.0081190149163966035 0.00056599187177818898 0 0.0078649055965301067 4.8726852664882237e-05 0 0.0085151319983403969 0.00019740633412691227 0 0.0078649055965301067 4.8726852664882237e-05 0 0.0081668318044574584 -0.00054991332431341745 0 0.0071469157730453025 0.00071942448884852186 0 0.0078649055965301067 4.8726852664882237e-05 0 0.0072090132421106868 -0.00020348894961738011 0 0.0072090132421106868 -0.00020348894961738011 0 0.0067365083459989738 -0.0011645753655251841 0 0.0061152264015680259 8.2643947597023832e-07 0 0.0071469157730453025 0.00071942448884852186 0 0.0072090132421106868 -0.00020348894961738011 0 0.0061152264015680259 8.2643947597023832e-07 0 0.0081668318044574584 -0.00054991332431341745 0 0.0072090132421106868 -0.00020348894961738011 0 0.0067365083459989738 -0.0011645753655251841 0 0.00031747332961072958 -0.0015310932612930548 0 -0.0042709448169707389 -0.0015488628644026788 0 0.0054008290563497202 1.4852321221069981e-05 0 0.00031747332961072958 -0.0015310932612930548 0 -0.0042709448169707389 -0.0015488628644026788 0 -0.00083602497272517123 -0.00049382883482789429 0 0.00099051316766231279 -0.00042834436056135713 0 0.0016914215449930464 -0.00055722622828105592 0 0.001529037413511314 -6.5446333890481002e-05 0 0.001308782120819231 0.0001224794091540704 0 0.00025579171282644929 -0.00029242970865827505 0 0.00099051316766231279 -0.00042834436056135713 0 0.001308782120819231 0.0001224794091540704 0 0.00099051316766231279 -0.00042834436056135713 0 0.001529037413511314 -6.5446333890481002e-05 0 -0.0076860167712387607 -0.0030604950617069836 0 -0.008083337212596067 -0.0023973208167348097 0 -0.0074269325098825431 -0.002277438470021962 0 -0.0076860167712387607 -0.0030604950617069836 0 -0.008083337212596067 -0.0023973208167348097 0 -0.0084818242721045583 -0.0028286659304378732 0 -0.008083337212596067 -0.0023973208167348097 0 -0.0074269325098825431 -0.002277438470021962 0 -0.0080428413850327837 -0.0018210068105849705 0 -0.0068309455866076459 -0.0033312442166596691 0 -0.0074269325098825431 -0.002277438470021962 0 -0.0065790029196766634 -0.0022878747864266517 0 -0.0068309455866076459 -0.0033312442166596691 0 -0.0076860167712387607 -0.0030604950617069836 0 -0.0074269325098825431 -0.002277438470021962 0 -0.0074269325098825431 -0.002277438470021962 0 -0.0070372873364856611 -0.0015217349428721444 0 -0.0065790029196766634 -0.0022878747864266517 0 -0.0074269325098825431 -0.002277438470021962 0 -0.0070372873364856611 -0.0015217349428721444 0 -0.0076373835587339647 -0.0014550112235809701 0 -0.0070372873364856611 -0.0015217349428721444 0 -0.0074628332079022105 -0.00062317436275785652 0 -0.0076373835587339647 -0.0014550112235809701 0 -0.0070372873364856611 -0.0015217349428721444 0 -0.0074628332079022105 -0.00062317436275785652 0 -0.0066251070465128204 -0.00067752739621631272 0 -0.0080694353217877334 -0.00025864867294196338 0 -0.0074628332079022105 -0.00062317436275785652 0 -0.0081783269319319358 -0.0010645374131242904 0 -0.0074628332079022105 -0.00062317436275785652 0 -0.0081783269319319358 -0.0010645374131242904 0 -0.0076373835587339647 -0.0014550112235809701 0 -0.0081783269319319358 -0.0010645374131242904 0 -0.0076373835587339647 -0.0014550112235809701 0 -0.0080428413850327837 -0.0018210068105849705 0 -0.0074269325098825431 -0.002277438470021962 0 -0.0076373835587339647 -0.0014550112235809701 0 -0.0080428413850327837 -0.0018210068105849705 0 -0.008083337212596067 -0.0023973208167348097 0 -0.0080428413850327837 -0.0018210068105849705 0 -0.0088449597428975728 -0.0016980309853738688 0 -0.0081783269319319358 -0.0010645374131242904 0 -0.0080428413850327837 -0.0018210068105849705 0 -0.0088449597428975728 -0.0016980309853738688 0 -0.0080694353217877334 -0.00025864867294196338 0 -0.0081783269319319358 -0.0010645374131242904 0 -0.0085550019047852723 -0.00064954096922694522 0 -0.0081783269319319358 -0.0010645374131242904 0 -0.0088449597428975728 -0.0016980309853738688 0 -0.0085550019047852723 -0.00064954096922694522 0 -0.0088449597428975728 -0.0016980309853738688 0 -0.0085550019047852723 -0.00064954096922694522 0 -0.0090418757972056812 -0.00067478662102693791 0 -0.0038092986022205686 -0.0014265267288465439 0 -0.0037412315475989378 -0.00060496677819570847 0 0.0016979867906803039 -0.00099356966631780792 0 0.0015216974809300872 -0.00046279654778795347 0 0.0015855900373906806 -0.0010530121982660569 0 0.0016979867906803039 -0.00099356966631780792 0 0.0022058569614688008 -0.00048208984704956287 0 0.0015855900373906806 -0.0010530121982660569 0 0.0030533159323499572 -0.00057607157885507145 0 -0.00083602497272517123 -0.00049382883482789429 0 0.0016979867906803039 -0.00099356966631780792 0 0.0022058569614688008 -0.00048208984704956287 0 0.0014365890061711398 -0.00030045622715173969 0 -0.0038092986022205686 -0.0014265267288465439 0 -0.00083602497272517123 -0.00049382883482789429 0 -0.008083337212596067 -0.0023973208167348097 0 -0.0088449597428975728 -0.0016980309853738688 0 -0.0084818242721045583 -0.0028286659304378732 0 0.0017090370083542225 -0.00041147514633069633 0 0.001529037413511314 -6.5446333890481002e-05 0 0.002090499583404324 -0.00014398646059439962 0 -0.00083602497272517123 -0.00049382883482789429 0 0.0010982019152796908 -0.00051029152212319446 0 0.0022058569614688008 -0.00048208984704956287 0 0.002090499583404324 -0.00014398646059439962 0 0.0029628872090730262 -9.7043446048579717e-05 0 0.0022058569614688008 -0.00048208984704956287 0 0.0017090370083542225 -0.00041147514633069633 0 0.002090499583404324 -0.00014398646059439962 0 0.0046822170706590114 -2.6452675963355701e-05 0 0.0029628872090730262 -9.7043446048579717e-05 0 0.0033708233426373436 -0.00032927563362870812 0 0.0029628872090730262 -9.7043446048579717e-05 0 0.0033708233426373436 -0.00032927563362870812 0 0.0026007082714532711 -0.00058011831294695016 0 0.0033708233426373436 -0.00032927563362870812 0 0.0026007082714532711 -0.00058011831294695016 0 0.0025024607972094935 -0.00039867177210909532 0 0.0022058569614688008 -0.00048208984704956287 0 0.0026007082714532711 -0.00058011831294695016 0 0.0015855900373906806 -0.0010530121982660569 0 0.0022058569614688008 -0.00048208984704956287 0 0.0029628872090730262 -9.7043446048579717e-05 0 0.0026007082714532711 -0.00058011831294695016 0 0.0026007082714532711 -0.00058011831294695016 0 0.0015855900373906806 -0.0010530121982660569 0 0.0025165924292899359 -0.0005852739357377479 0 -6.4663209684013331e-05 -3.2035534681458025e-05 0 0.0015855900373906806 -0.0010530121982660569 0 -0.0011638039048592298 -0.0007093683646857145 0 0.0014219813246056383 -0.00098790496871253007 0 0.00065879503827858754 -0.00058577378303792816 0 -6.4663209684013331e-05 -3.2035534681458025e-05 0 0.0015216974809300872 -0.00046279654778795347 0 0.0015855900373906806 -0.0010530121982660569 0 0.0026007082714532711 -0.00058011831294695016 0 0.0025165924292899359 -0.0005852739357377479 0 0.0025024607972094935 -0.00039867177210909532 0 0.00065879503827858754 -0.00058577378303792816 0 -0.00010396352168174303 2.093406748873802e-05 0 0.0025165924292899359 -0.0005852739357377479 0 0.0025024607972094935 -0.00039867177210909532 0 0.0017697492209410362 4.7642147079432186e-05 0 0.0025024607972094935 -0.00039867177210909532 0 0.0017697492209410362 4.7642147079432186e-05 0 0.0014581601065644855 -1.2645064064371032e-06 0 -0.00056740652371323099 1.9830254470411832e-06 0 0.0017697492209410362 4.7642147079432186e-05 0 0.0014581601065644855 -1.2645064064371032e-06 0 0.0025024607972094935 -0.00039867177210909532 0 0.0014581601065644855 -1.2645064064371032e-06 0 0.0034872605486183238 -5.3115277798511478e-07 0 0.0046822170706590114 -2.6452675963355701e-05 0 0.0033708233426373436 -0.00032927563362870812 0 0.0034872605486183238 -5.3115277798511478e-07 0 0.0033708233426373436 -0.00032927563362870812 0 0.0025024607972094935 -0.00039867177210909532 0 0.0034872605486183238 -5.3115277798511478e-07 0 0.0040166400596389207 0.0018493066485745088 0 0.0029128677104721321 0.0012970086107164263 0 0.0033107717143815558 0.0014376227854930737 0 0.0037665061586378088 0.0019758436392617474 0 0.0042680765689374865 0.0015228044084748869 0 0.0043286273035597848 0.0022710387547129319 0 0.0040166400596389207 0.0018493066485745088 0 0.0041736196776771843 0.0027159770640726765 0 0.0043286273035597848 0.0022710387547129319 0 0.0044504424602476635 0.0019575814800285116 0 0.0040166400596389207 0.0018493066485745088 0 0.0040166400596389207 0.0018493066485745088 0 0.0036773870509670169 0.0016272720565000212 0 0.0033107717143815558 0.0014376227854930737 0 0.0036773870509670169 0.0016272720565000212 0 0.0038163819548295047 0.0017825546196714843 0 0.0038090181204715455 0.0013914066417260312 0 0.0040166400596389207 0.0018493066485745088 0 0.0036773870509670169 0.0016272720565000212 0 0.0038163819548295047 0.0017825546196714843 0 0.0036773870509670169 0.0016272720565000212 0 0.0034964490784515434 0.0013722164559954446 0 0.0033107717143815558 0.0014376227854930737 0 0.0034964490784515434 0.0013722164559954446 0 0.0032555039565849149 0.0012406564108669125 0 0.0033107717143815558 0.0014376227854930737 0 0.0036773870509670169 0.0016272720565000212 0 0.0034964490784515434 0.0013722164559954446 0 0.0038090181204715455 0.0013914066417260312 0 0.0034964490784515434 0.0013722164559954446 0 0.0038090181204715455 0.0013914066417260312 0 0.0033862369449920542 0.0010268966819352012 0 0.0038090181204715455 0.0013914066417260312 0 0.0039107703314354494 0.00099513969585238063 0 0.0033862369449920542 0.0010268966819352012 0 0.0034964490784515434 0.0013722164559954446 0 0.0032555039565849149 0.0012406564108669125 0 0.0033862369449920542 0.0010268966819352012 0 0.0032555039565849149 0.0012406564108669125 0 0.0030029189547667499 0.0010104877028600772 0 0.0033862369449920542 0.0010268966819352012 0 0.0043286273035597848 0.0022710387547129319 0 0.0041736196776771843 0.0027159770640726765 0 0.0047090897889866092 0.0021797382291883459 0 0.0032555039565849149 0.0012406564108669125 0 0.0031528115600239891 0.0013095315609683413 0 0.0030029189547667499 0.0010104877028600772 0 0.0029128677104721321 0.0012970086107164263 0 0.0030772940224207709 0.0013263159517140702 0 0.0031528115600239891 0.0013095315609683413 0 0.0029128677104721321 0.0012970086107164263 0 0.0031528115600239891 0.0013095315609683413 0 0.0030029189547667499 0.0010104877028600772 0 0.0032555039565849149 0.0012406564108669125 0 0.0031528115600239891 0.0013095315609683413 0 0.0033107717143815558 0.0014376227854930737 0 0.0030772940224207709 0.0013263159517140702 0 0.0031528115600239891 0.0013095315609683413 0 0.0033107717143815558 0.0014376227854930737 0 0.0029128677104721321 0.0012970086107164263 0 0.0030772940224207709 0.0013263159517140702 0 0.0033107717143815558 0.0014376227854930737 0 0.0056052984830444316 0.0011896570429993257 0 0.0056209018517499963 0.0011898016411947957 0 0.0056350648053135775 0.0011837716603758746 0 0.0056052984830444316 0.0011896570429993257 0 0.0056209018517499963 0.0011898016411947957 0 0.0056183241025421406 0.0011935546155604649 0 0.0042680765689374865 0.0015228044084748869 0 0.0052586274771535919 0.0017089385235788883 0 0.0056348026857467167 0.0011903160040857791 0 0.0056720677772461661 0.0011887675726325593 0 0.005618045977811759 0.0011975224026091798 0 0.0056209018517499963 0.0011898016411947957 0 0.0056348026857467167 0.0011903160040857791 0 0.0056183241025421406 0.0011935546155604649 0 0.0056052984830444316 0.0011896570429993257 0 0.0056350648053135775 0.0011837716603758746 0 0.0056627658141317032 0.0011635467674033864 0 0.0056209018517499963 0.0011898016411947957 0 0.0056348026857467167 0.0011903160040857791 0 0.0056350648053135775 0.0011837716603758746 0 0.0056508965873130331 0.0011820381702748507 0 0.0056720677772461661 0.0011887675726325593 0 0.0056627658141317032 0.0011635467674033864 0 0.0056348026857467167 0.0011903160040857791 0 0.0056508965873130331 0.0011820381702748507 0 0.0056720677772461661 0.0011887675726325593 0 0.0056508965873130331 0.0011820381702748507 0 0.0056350648053135775 0.0011837716603758746 0 0.0056627658141317032 0.0011635467674033864 0 0.0056348026857467167 0.0011903160040857791 0 0.0056508965873130331 0.0011820381702748507 0 0.0056350648053135775 0.0011837716603758746 0 0.0057369506400724796 0.00092700425220811381 0 0.0056394332000134573 0.00078568094068027323 0 0.0056576174193870687 0.00096898004892544815 0 0.0057369506400724796 0.00092700425220811381 0 0.0057315937763595245 0.0011676723669959562 0 0.0056576174193870687 0.00096898004892544815 0 0.0057315937763595245 0.0011676723669959562 0 0.0056627658141317032 0.0011635467674033864 0 0.005745666795440257 0.0011983509843385609 0 0.0056720677772461661 0.0011887675726325593 0 0.0057315937763595245 0.0011676723669959562 0 0.0056627658141317032 0.0011635467674033864 0 0.0056898595673088564 0.0010590468797309106 0 0.0057189582900405087 0.0011566042068677006 0 0.0052586274771535919 0.0017089385235788883 0 0.0053904072325845452 0.001558572419688452 0 0.0044504424602476635 0.0019575814800285116 0 0.0047090897889866092 0.0021797382291883459 0 0.0046384077626414845 0.0018028846928874764 0 0.0043286273035597848 0.0022710387547129319 0 0.0044504424602476635 0.0019575814800285116 0 0.0047090897889866092 0.0021797382291883459 0 0.0044504424602476635 0.0019575814800285116 0 0.0046384077626414845 0.0018028846928874764 0 0.0043873616630151517 0.0017290021029451532 0 0.0047090897889866092 0.0021797382291883459 0 0.0046384077626414845 0.0018028846928874764 0 0.0048503779999522776 0.0018235653308030161 0 0.0046384077626414845 0.0018028846928874764 0 0.0048503779999522776 0.0018235653308030161 0 0.0047455649111525847 0.0016977179947182798 0 0.0046384077626414845 0.0018028846928874764 0 0.0047455649111525847 0.0016977179947182798 0 0.0045349840580325516 0.0016377737775949322 0 0.0046384077626414845 0.0018028846928874764 0 0.0045349840580325516 0.0016377737775949322 0 0.0043873616630151517 0.0017290021029451532 0 0.0050573490220903461 0.0019036327612169343 0 0.0049983623493256328 0.0017768483109577768 0 0.0051556571994434671 0.0016876499338306385 0 0.0047090897889866092 0.0021797382291883459 0 0.0050573490220903461 0.0019036327612169343 0 0.0048503779999522776 0.0018235653308030161 0 0.0049983623493256328 0.0017768483109577768 0 0.0048503779999522776 0.0018235653308030161 0 0.0049280036565532486 0.0016946574982376968 0 0.0050573490220903461 0.0019036327612169343 0 0.0049983623493256328 0.0017768483109577768 0 0.0048503779999522776 0.0018235653308030161 0 0.0049983623493256328 0.0017768483109577768 0 0.0049280036565532486 0.0016946574982376968 0 0.0051556571994434671 0.0016876499338306385 0 0.0050113477147392445 0.0015451696981012536 0 0.0049280036565532486 0.0016946574982376968 0 0.0047668519679464226 0.0015851860204445325 0 0.0050113477147392445 0.0015451696981012536 0 0.0049280036565532486 0.0016946574982376968 0 0.0051556571994434671 0.0016876499338306385 0 0.0047455649111525847 0.0016977179947182798 0 0.0047668519679464226 0.0015851860204445325 0 0.0045349840580325516 0.0016377737775949322 0 0.0048503779999522776 0.0018235653308030161 0 0.0049280036565532486 0.0016946574982376968 0 0.0047455649111525847 0.0016977179947182798 0 0.0049280036565532486 0.0016946574982376968 0 0.0047455649111525847 0.0016977179947182798 0 0.0047668519679464226 0.0015851860204445325 0 0.0047668519679464226 0.0015851860204445325 0 0.0046008125449570787 0.0015840041659261695 0 0.0045349840580325516 0.0016377737775949322 0 0.0046008125449570787 0.0015840041659261695 0 0.0044677695136213606 0.0016003976298722287 0 0.0045349840580325516 0.0016377737775949322 0 0.0044677695136213606 0.0016003976298722287 0 0.0045349840580325516 0.0016377737775949322 0 0.0042581113767179357 0.0015553799371471552 0 0.0045714815332535417 0.0016094972420626966 0 0.0044677695136213606 0.0016003976298722287 0 0.0044811607590641445 0.0016439831040198612 0 0.0045714815332535417 0.0016094972420626966 0 0.0046008125449570787 0.0015840041659261695 0 0.0044677695136213606 0.0016003976298722287 0 0.0045349840580325516 0.0016377737775949322 0 0.0043873616630151517 0.0017290021029451532 0 0.0042581113767179357 0.0015553799371471552 0 0.0040166400596389207 0.0018493066485745088 0 0.0043873616630151517 0.0017290021029451532 0 0.0042581113767179357 0.0015553799371471552 0 0.0044504424602476635 0.0019575814800285116 0 0.0040166400596389207 0.0018493066485745088 0 0.0043873616630151517 0.0017290021029451532 0 0.0042518047905091725 0.001515504859594756 0 0.004199372004900369 0.0013541035114072869 0 0.0042581113767179357 0.0015553799371471552 0 0.0047167679447208486 0.0015372722725591418 0 0.0046684504304696263 0.00086676440249686029 0 0.0040166400596389207 0.0018493066485745088 0 0.0042581113767179357 0.0015553799371471552 0 0.0038163819548295047 0.0017825546196714843 0 0.0042581113767179357 0.0015553799371471552 0 0.0044811607590641445 0.0016439831040198612 0 0.0047167679447208486 0.0015372722725591418 0 0.0044677695136213606 0.0016003976298722287 0 0.0042581113767179357 0.0015553799371471552 0 0.0044811607590641445 0.0016439831040198612 0 0.0044811607590641445 0.0016439831040198612 0 0.0046814654031765547 0.0016925697021303086 0 0.0047167679447208486 0.0015372722725591418 0 0.0046814654031765547 0.0016925697021303086 0 0.0047167679447208486 0.0015372722725591418 0 0.0049232866631702269 0.0017223639216933364 0 0.0047167679447208486 0.0015372722725591418 0 0.0051542021975613285 0.0015850294170680784 0 0.005067155471685912 0.0012277934659353723 0 0.0047167679447208486 0.0015372722725591418 0 0.0049232866631702269 0.0017223639216933364 0 0.0051542021975613285 0.0015850294170680784 0 0.0052534429903443036 0.0018382233691195493 0 0.0049232866631702269 0.0017223639216933364 0 0.0051542021975613285 0.0015850294170680784 0 0.0052534429903443036 0.0018382233691195493 0 0.0051542021975613285 0.0015850294170680784 0 0.0055148984871177739 0.0017074730584817443 0 0.0051542021975613285 0.0015850294170680784 0 0.0055148984871177739 0.0017074730584817443 0 0.0054584968738377775 0.0014139685526554074 0 0.0051542021975613285 0.0015850294170680784 0 0.0054584968738377775 0.0014139685526554074 0 0.005067155471685912 0.0012277934659353723 0 0.0054584968738377775 0.0014139685526554074 0 0.0054120422354555636 0.0010763011244839474 0 0.005067155471685912 0.0012277934659353723 0 0.0054584968738377775 0.0014139685526554074 0 0.0054120422354555636 0.0010763011244839474 0 0.0057322676026759492 0.0011651008262353244 0 0.0054120422354555636 0.0010763011244839474 0 0.005067155471685912 0.0012277934659353723 0 0.0051990645706763549 0.00076894763554753351 0 0.005067155471685912 0.0012277934659353723 0 0.0046684504304696263 0.00086676440249686029 0 0.0051990645706763549 0.00076894763554753351 0 0.0047167679447208486 0.0015372722725591418 0 0.005067155471685912 0.0012277934659353723 0 0.0046684504304696263 0.00086676440249686029 0 0.0059642348272946604 0.0019328777816408987 0 0.0067361846912601135 0.0018850813420861474 0 0.0060994219872632215 0.0016988251328638548 0 0.0067361846912601135 0.0018850813420861474 0 0.0068572728437785576 0.0012859588024949314 0 0.0064384563443452879 0.0014870576394826153 0 0.0067361846912601135 0.0018850813420861474 0 0.0064384563443452879 0.0014870576394826153 0 0.0060994219872632215 0.0016988251328638548 0 0.0064384563443452879 0.0014870576394826153 0 0.0060994219872632215 0.0016988251328638548 0 0.0060881660584991759 0.0013529141990253346 0 0.0060994219872632215 0.0016988251328638548 0 0.0057589873353666018 0.0015526972038892571 0 0.0060881660584991759 0.0013529141990253346 0 0.0060994219872632215 0.0016988251328638548 0 0.0057590015737226082 0.0018011487225134152 0 0.0057589873353666018 0.0015526972038892571 0 0.0059642348272946604 0.0019328777816408987 0 0.0060994219872632215 0.0016988251328638548 0 0.0057590015737226082 0.0018011487225134152 0 0.0055330132244155615 0.0019081572547768506 0 0.0055148984871177739 0.0017074730584817443 0 0.0057590015737226082 0.0018011487225134152 0 0.0055148984871177739 0.0017074730584817443 0 0.0057590015737226082 0.0018011487225134152 0 0.0057589873353666018 0.0015526972038892571 0 0.0055148984871177739 0.0017074730584817443 0 0.0054584968738377775 0.0014139685526554074 0 0.0057589873353666018 0.0015526972038892571 0 0.0054584968738377775 0.0014139685526554074 0 0.0057589873353666018 0.0015526972038892571 0 0.0057322676026759492 0.0011651008262353244 0 0.0054120422354555636 0.0010763011244839474 0 0.0057322676026759492 0.0011651008262353244 0 0.0056158968420358633 0.00078235966825239401 0 0.0057322676026759492 0.0011651008262353244 0 0.0061026144402488922 0.00086092451756675193 0 0.0056158968420358633 0.00078235966825239401 0 0.0057322676026759492 0.0011651008262353244 0 0.0060881660584991759 0.0013529141990253346 0 0.0061026144402488922 0.00086092451756675193 0 0.0057589873353666018 0.0015526972038892571 0 0.0057322676026759492 0.0011651008262353244 0 0.0060881660584991759 0.0013529141990253346 0 0.0064384563443452879 0.0014870576394826153 0 0.0060881660584991759 0.0013529141990253346 0 0.0064503860044353139 0.001189513788131816 0 0.0064503860044353139 0.001189513788131816 0 0.0065965585883255139 0.00082466100150722726 0 0.0061026144402488922 0.00086092451756675193 0 0.0060881660584991759 0.0013529141990253346 0 0.0064503860044353139 0.001189513788131816 0 0.0061026144402488922 0.00086092451756675193 0 0.0068572728437785576 0.0012859588024949314 0 0.0064503860044353139 0.001189513788131816 0 0.0065965585883255139 0.00082466100150722726 0 0.0068572728437785576 0.0012859588024949314 0 0.0064384563443452879 0.0014870576394826153 0 0.0064503860044353139 0.001189513788131816 0 0.0065965585883255139 0.00082466100150722726 0 0.0061026144402488922 0.00086092451756675193 0 0.0064554793345282992 0.00019897084141277333 0 0.0058618942604200669 0.0004541072336751286 0 0.0061026144402488922 0.00086092451756675193 0 0.0064554793345282992 0.00019897084141277333 0 0.0058618942604200669 0.0004541072336751286 0 0.0061026144402488922 0.00086092451756675193 0 0.0056158968420358633 0.00078235966825239401 0 0.0058618942604200669 0.0004541072336751286 0 0.0056158968420358633 0.00078235966825239401 0 0.0054845847057436769 0.00034431551047203404 0 0.0057375709406151179 0.00010326772870267079 0 0.0064554793345282992 0.00019897084141277333 0 0.0058464775725275567 -0.00026442453615339894 0 0.0058618942604200669 0.0004541072336751286 0 0.0057375709406151179 0.00010326772870267079 0 0.0064554793345282992 0.00019897084141277333 0 0.0058618942604200669 0.0004541072336751286 0 0.0057375709406151179 0.00010326772870267079 0 0.0054845847057436769 0.00034431551047203404 0 0.0057375709406151179 0.00010326772870267079 0 0.0054845847057436769 0.00034431551047203404 0 0.0054736656595135063 -0.00017169790982746701 0 0.0057375709406151179 0.00010326772870267079 0 0.0054736656595135063 -0.00017169790982746701 0 0.0058464775725275567 -0.00026442453615339894 0 0.0064709756406033997 0.00019788749364708011 0 0.0044275328168070002 -0.00071093654971897445 0 0.0067365083459989738 -0.0011645753655251841 0 0.0061152264015680259 8.2643947597023832e-07 0 0.005087655172851817 -0.00083100883857903872 0 0.004199372004900369 0.0013541035114072869 0 0.0051715043666940826 0.00077258160201055907 0 0.0038163819548295047 0.0017825546196714843 0 0.0042769435036659727 0.0013544155034338615 0 0.0038090181204715455 0.0013914066417260312 0 0.0046684504304696263 0.00086676440249686029 0 0.0051990645706763549 0.00076894763554753351 0 0.0051212145685827675 0.00021969704760255843 0 0.0051990645706763549 0.00076894763554753351 0 0.0051212145685827675 0.00021969704760255843 0 0.0054845847057436769 0.00034431551047203404 0 0.0054120422354555636 0.0010763011244839474 0 0.0056158968420358633 0.00078235966825239401 0 0.0051990645706763549 0.00076894763554753351 0 0.0056158968420358633 0.00078235966825239401 0 0.0051990645706763549 0.00076894763554753351 0 0.0054845847057436769 0.00034431551047203404 0 0.0051212145685827675 0.00021969704760255843 0 0.0054736656595135063 -0.00017169790982746701 0 0.0055887029673520562 -0.00042688046571539234 0 0.0051715043666940826 0.00077258160201055907 0 0.0014481499712139325 -0.0011816235839675383 0 0.0051212145685827675 0.00021969704760255843 0 0.0054845847057436769 0.00034431551047203404 0 0.0054736656595135063 -0.00017169790982746701 0 0.0042769435036659727 0.0013544155034338615 0 0.0038090181204715455 0.0013914066417260312 0 0.0039107703314354494 0.00099513969585238063 0 0.0042769435036659727 0.0013544155034338615 0 0.0039107703314354494 0.00099513969585238063 0 0.0042572255426243186 0.00076570741304192566 0 0.0039107703314354494 0.00099513969585238063 0 0.003674739379331526 0.00052672876481523574 0 0.0042572255426243186 0.00076570741304192566 0 0.003674739379331526 0.00052672876481523574 0 0.0042572255426243186 0.00076570741304192566 0 0.0043013247081942667 0.0001861406350033135 0 0.0042769435036659727 0.0013544155034338615 0 0.0042572255426243186 0.00076570741304192566 0 0.0048422719240117816 0.00066044835609101627 0 0.0042572255426243186 0.00076570741304192566 0 0.0043013247081942667 0.0001861406350033135 0 0.0048422719240117816 0.00066044835609101627 0 -5.3743053164670969e-06 -0.0015104123438369878 0 0.0014481499712139325 -0.0011816235839675383 0 -0.0038845063103109165 -0.0029789366541480037 0 -0.0046770760839882179 -0.0028299022696900776 0 -0.004761833569157355 -0.0036552885649525197 0 -0.0046770760839882179 -0.0028299022696900776 0 -0.0042362782175536908 -0.0023668121878744628 0 -0.0051667582051804399 -0.0025307488339595427 0 -0.0038845063103109165 -0.0029789366541480037 0 -0.0046770760839882179 -0.0028299022696900776 0 -0.0042362782175536908 -0.0023668121878744628 0 0.003674739379331526 0.00052672876481523574 0 0.0043013247081942667 0.0001861406350033135 0 0.0037341238628466134 -0.00029889168997735549 0 -0.0038845063103109165 -0.0029789366541480037 0 -0.0042362782175536908 -0.0023668121878744628 0 -0.0029227121070811769 -0.0022550485768551734 0 -5.3743053164670969e-06 -0.0015104123438369878 0 0.00093707282205236927 -0.0018314817500751544 0 0.0040254996229253381 0.00082991839726728257 0 0.00093707282205236927 -0.0018314817500751544 0 0.00031747332961072958 -0.0015310932612930548 0 0.0044275328168070002 -0.00071093654971897445 0 0.00031747332961072958 -0.0015310932612930548 0 -0.0035313599842472648 -0.0029219227426442239 0 0.0002265809856857723 -0.0015549991579784012 0 0.00060294622758563213 -0.0016333726772659618 0 0.00055068500325146049 -0.0014301670293190183 0 0.0056514874193578238 -0.00048900498662018087 0 0.0044275328168070002 -0.00071093654971897445 0 0.0054736656595135063 -0.00017169790982746701 0 0.0057809512086617132 -0.00025626770716065644 0 0.0055887029673520562 -0.00042688046571539234 0 0.0044275328168070002 -0.00071093654971897445 0 0.0014481499712139325 -0.0011816235839675383 0 0.0014481499712139325 -0.0011816235839675383 0 -0.0035313599842472648 -0.0029219227426442239 0 0.00060294622758563213 -0.0016333726772659618 0 0.00068262912851201475 -0.0015650092264978259 0 0.00055068500325146049 -0.0014301670293190183 0 -0.0046770760839882179 -0.0028299022696900776 0 -0.0051667582051804399 -0.0025307488339595427 0 -0.0054534444910780888 -0.0030004337457989116 0 -0.0050451220943545953 -0.0031126080660378325 0 -0.0035313599842472648 -0.0029219227426442239 0 -0.0046770760839882179 -0.0028299022696900776 0 -0.004761833569157355 -0.0036552885649525197 0 -0.0052519704322485823 -0.0030729439593962285 0 -0.0051667582051804399 -0.0025307488339595427 0 -0.0056230118422569324 -0.0025711132152342778 0 -0.0054534444910780888 -0.0030004337457989116 0 -0.0051667582051804399 -0.0025307488339595427 0 -0.0056230118422569324 -0.0025711132152342778 0 -0.0058103186522428527 -0.0021188003671988413 0 -0.0056230118422569324 -0.0025711132152342778 0 -0.0054534444910780888 -0.0030004337457989116 0 -0.0059765290877306096 -0.0027064657544040743 0 -0.0068309455866076459 -0.0033312442166596691 0 -0.0059765290877306096 -0.0027064657544040743 0 -0.0065790029196766634 -0.0022878747864266517 0 -0.0068309455866076459 -0.0033312442166596691 0 -0.0054534444910780888 -0.0030004337457989116 0 -0.0059765290877306096 -0.0027064657544040743 0 -0.0056230118422569324 -0.0025711132152342778 0 -0.0059765290877306096 -0.0027064657544040743 0 -0.0058103186522428527 -0.0021188003671988413 0 -0.0059765290877306096 -0.0027064657544040743 0 -0.0065790029196766634 -0.0022878747864266517 0 -0.0058103186522428527 -0.0021188003671988413 0 -0.0065790029196766634 -0.0022878747864266517 0 -0.0063611477103932088 -0.0015536181810571 0 -0.0058103186522428527 -0.0021188003671988413 0 -0.0070372873364856611 -0.0015217349428721444 0 -0.0065790029196766634 -0.0022878747864266517 0 -0.0063611477103932088 -0.0015536181810571 0 -0.0063611477103932088 -0.0015536181810571 0 -0.0058103186522428527 -0.0021188003671988413 0 -0.0056725778045364095 -0.0013339568997327962 0 -0.0058103186522428527 -0.0021188003671988413 0 -0.0048961068835343246 -0.0018656112512051421 0 -0.0056725778045364095 -0.0013339568997327962 0 -0.0051667582051804399 -0.0025307488339595427 0 -0.0058103186522428527 -0.0021188003671988413 0 -0.0048961068835343246 -0.0018656112512051421 0 -0.0042362782175536908 -0.0023668121878744628 0 -0.0051667582051804399 -0.0025307488339595427 0 -0.0048961068835343246 -0.0018656112512051421 0 -0.0048961068835343246 -0.0018656112512051421 0 -0.0056725778045364095 -0.0013339568997327962 0 -0.0045835896652979252 -0.0010160607516246727 0 -0.0057698103391012586 -0.00048766422974804406 0 -0.0056725778045364095 -0.0013339568997327962 0 -0.0045835896652979252 -0.0010160607516246727 0 -0.0070372873364856611 -0.0015217349428721444 0 -0.0063611477103932088 -0.0015536181810571 0 -0.0066251070465128204 -0.00067752739621631272 0 -0.0063611477103932088 -0.0015536181810571 0 -0.0056725778045364095 -0.0013339568997327962 0 -0.0066251070465128204 -0.00067752739621631272 0 -0.0057698103391012586 -0.00048766422974804406 0 -0.0056725778045364095 -0.0013339568997327962 0 -0.0066251070465128204 -0.00067752739621631272 0 -0.0042362782175536908 -0.0023668121878744628 0 -0.0029227121070811769 -0.0022550485768551734 0 -0.0039178881766197358 -0.0016958834604057962 0 -0.001202018683033806 -0.0041305602872164296 0 -0.0015409957878144088 -0.0017648208193590366 0 -0.00055018654524994625 -0.0024784215253984393 0 0.00093707282205236927 -0.0018314817500751544 0 -0.002522036164116814 -0.0015475590173633267 0 -0.0029227121070811769 -0.0022550485768551734 0 -0.0039178881766197358 -0.0016958834604057962 0 -0.0030298101016027466 -0.00086989054645667939 0 -0.0042362782175536908 -0.0023668121878744628 0 -0.0048961068835343246 -0.0018656112512051421 0 -0.0039178881766197358 -0.0016958834604057962 0 -0.0048961068835343246 -0.0018656112512051421 0 -0.0039178881766197358 -0.0016958834604057962 0 -0.0045835896652979252 -0.0010160607516246727 0 -0.0039178881766197358 -0.0016958834604057962 0 -0.0045835896652979252 -0.0010160607516246727 0 -0.0030298101016027466 -0.00086989054645667939 0 -0.0038223273727419583 -0.00021845318525124784 0 -0.0045835896652979252 -0.0010160607516246727 0 -0.0030298101016027466 -0.00086989054645667939 0 -0.00073178182936208002 -0.000478854384324609 0 -0.0015409957878144088 -0.0017648208193590366 0 4.611522371157955e-05 -0.0013710094694011946 0 4.611522371157955e-05 -0.0013710094694011946 0 0.00034230133181112034 -0.002157678576198108 0 0.0015007376629568589 -0.0019140595700805445 0 0.00034230133181112034 -0.002157678576198108 0 0.0015007376629568589 -0.0019140595700805445 0 1.800006785682167e-05 -0.0031527375077739297 0 0.0015786105051645489 -0.0019970463833440246 0 0.0013762869388056255 -0.0023049686389569916 0 -0.0015409957878144088 -0.0017648208193590366 0 4.611522371157955e-05 -0.0013710094694011946 0 -0.00055018654524994625 -0.0024784215253984393 0 4.611522371157955e-05 -0.0013710094694011946 0 0.00034230133181112034 -0.002157678576198108 0 -0.00055018654524994625 -0.0024784215253984393 0 0.00034230133181112034 -0.002157678576198108 0 -0.00055018654524994625 -0.0024784215253984393 0 1.800006785682167e-05 -0.0031527375077739297 0 0.001075964219417232 -0.0011003739067455371 0 4.611522371157955e-05 -0.0013710094694011946 0 0.0015007376629568589 -0.0019140595700805445 0 0.001075964219417232 -0.0011003739067455371 0 0.0017677082465872723 -0.0018018927543953631 0 0.0015007376629568589 -0.0019140595700805445 0 0.0017677082465872723 -0.0018018927543953631 0 0.0015007376629568589 -0.0019140595700805445 0 0.001852926096935364 -0.0017201760831905997 0 0.0017677082465872723 -0.0018018927543953631 0 0.001852926096935364 -0.0017201760831905997 0 0.0018012056574795523 -0.0015798135202500338 0 0.0036638752304517359 -0.00059374201921888307 0 0.0037491330104794233 -9.9199464054373579e-05 0 0.0019017546241299457 -0.0016447047201785215 0 0.0037491330104794233 -9.9199464054373579e-05 0 0.001852926096935364 -0.0017201760831905997 0 0.0023807763535560532 -0.0010857802829629388 0 0.0018112406004106578 -0.00062449299189723149 0 -0.001202018683033806 -0.0041305602872164296 0 -0.00055018654524994625 -0.0024784215253984393 0 1.800006785682167e-05 -0.0031527375077739297 0 0.001852926096935364 -0.0017201760831905997 0 0.0028090854087555587 -0.0016254988352028168 0 0.0023807763535560532 -0.0010857802829629388 0 0.0015007376629568589 -0.0019140595700805445 0 0.001852926096935364 -0.0017201760831905997 0 0.0028090854087555587 -0.0016254988352028168 0 0.0028090854087555587 -0.0016254988352028168 0 0.0023807763535560532 -0.0010857802829629388 0 0.0028235491099804734 -0.0004967069220336368 0 0.0037668143268886289 -0.00088788104123470421 0 0.0028090854087555587 -0.0016254988352028168 0 0.0028235491099804734 -0.0004967069220336368 0 0.00093707282205236927 -0.0018314817500751544 0 0.0013762869388056255 -0.0023049686389569916 0 0.003674739379331526 0.00052672876481523574 0 0.0028459519656459141 0.00022100305950832426 0 0.0028235491099804734 -0.0004967069220336368 0 0.003674739379331526 0.00052672876481523574 0 0.0037668143268886289 -0.00088788104123470421 0 0.0028235491099804734 -0.0004967069220336368 0 0.0028459519656459141 0.00022100305950832426 0 0.0028235491099804734 -0.0004967069220336368 0 0.0018112406004106578 -0.00062449299189723149 0 0.0028459519656459141 0.00022100305950832426 0 0.0018112406004106578 -0.00062449299189723149 0 0.0022935094671369164 0.00043791679257241818 0 0.0037491330104794233 -9.9199464054373579e-05 0 0.0039607114949157928 0.00078011499674021092 0 0.0055950987730719361 0.0011611917291938752 0 0.0056139383829325595 0.0011916324075926864 0 0.005618045977811759 0.0011975224026091798 0 0.0023807763535560532 -0.0010857802829629388 0 0.0028235491099804734 -0.0004967069220336368 0 0.0018112406004106578 -0.00062449299189723149 0 0.0029128677104721321 0.0012970086107164263 0 0.0022935094671369164 0.00043791679257241818 0 0.0030029189547667499 0.0010104877028600772 0 0.0028459519656459141 0.00022100305950832426 0 0.0022935094671369164 0.00043791679257241818 0 0.0028885586391333112 0.00069239178229604098 0 0.0042680765689374865 0.0015228044084748869 0 0.0039607114949157928 0.00078011499674021092 0 0.0056052984830444316 0.0011896570429993257 0 0.0056139383829325595 0.0011916324075926864 0 0.0056183241025421406 0.0011935546155604649 0 0.0056139383829325595 0.0011916324075926864 0 0.0056183241025421406 0.0011935546155604649 0 0.005618045977811759 0.0011975224026091798 0 0.0022935094671369164 0.00043791679257241818 0 0.0028885586391333112 0.00069239178229604098 0 0.0030029189547667499 0.0010104877028600772 0 0.0028885586391333112 0.00069239178229604098 0 0.0030029189547667499 0.0010104877028600772 0 0.0033862369449920542 0.0010268966819352012 0 0.0028459519656459141 0.00022100305950832426 0 0.0028885586391333112 0.00069239178229604098 0 0.0033862369449920542 0.0010268966819352012 0 0.0039107703314354494 0.00099513969585238063 0 0.003674739379331526 0.00052672876481523574 0 0.0033862369449920542 0.0010268966819352012 0 0.003674739379331526 0.00052672876481523574 0 0.0028459519656459141 0.00022100305950832426 0 0.0033862369449920542 0.0010268966819352012 0 0.0056394332000134573 0.00078568094068027323 0 0.0056641625063174675 0.00077017989251233873 0 0.0055978149366229194 0.00072484720257249061 0 0.0057369506400724796 0.00092700425220811381 0 0.0056394332000134573 0.00078568094068027323 0 0.0056641625063174675 0.00077017989251233873 0 0.0056898595673088564 0.0010590468797309106 0 0.0057784607107623778 0.001066324282899669 0 0.0056348026857467167 0.0011903160040857791 0 0.0056183241025421406 0.0011935546155604649 0 0.005618045977811759 0.0011975224026091798 0 0.0037491330104794233 -9.9199464054373579e-05 0 0.0057784607107623778 0.001066324282899669 0 0.0056003815621061461 0.00071807160455696073 0 0.0056641625063174675 0.00077017989251233873 0 0.0055978149366229194 0.00072484720257249061 0 0.0055978149366229194 0.00072484720257249061 0 0.0055324226243454013 0.00068986277918559513 0 0.0055648394850318925 0.00071942984788122069 0 0.0056394332000134573 0.00078568094068027323 0 0.0055978149366229194 0.00072484720257249061 0 0.0055648394850318925 0.00071942984788122069 0 0.005554182767843102 0.00070668762472113811 0 0.0054923950668102932 0.00068224174060259573 0 0.0055324226243454013 0.00068986277918559513 0 0.0055978149366229194 0.00072484720257249061 0 0.005554182767843102 0.00070668762472113811 0 0.0055324226243454013 0.00068986277918559513 0 0.0055547768522575987 0.00070388508487567898 0 0.0056003815621061461 0.00071807160455696073 0 0.005554182767843102 0.00070668762472113811 0 0.0056003815621061461 0.00071807160455696073 0 0.0055978149366229194 0.00072484720257249061 0 0.005554182767843102 0.00070668762472113811 0 0.0055547768522575987 0.00070388508487567898 0 0.005554182767843102 0.00070668762472113811 0 0.0055248298442917365 0.0006913068931866898 0 0.005554182767843102 0.00070668762472113811 0 0.0055248298442917365 0.0006913068931866898 0 0.0054923950668102932 0.00068224174060259573 0 0.0054974783175511478 0.00066536019299812598 0 0.0055248298442917365 0.0006913068931866898 0 0.0054923950668102932 0.00068224174060259573 0 0.0054974783175511478 0.00066536019299812598 0 0.0055547768522575987 0.00070388508487567898 0 0.0055248298442917365 0.0006913068931866898 0 0.0054923950668102932 0.00068224174060259573 0 0.0054904635619850931 0.00067100048602475944 0 0.0055324226243454013 0.00068986277918559513 0 0.0054904635619850931 0.00067100048602475944 0 0.005518655600127354 0.00067617139464759058 0 0.0055324226243454013 0.00068986277918559513 0 0.0054966008743342603 0.00069160985275712071 0 0.0054904635619850931 0.00067100048602475944 0 0.005518655600127354 0.00067617139464759058 0 0.0055240342765935898 0.00068383420020032943 0 0.005518655600127354 0.00067617139464759058 0 0.0055366231975182189 0.00067603647734594758 0 0.005518655600127354 0.00067617139464759058 0 0.0055366231975182189 0.00067603647734594758 0 0.0055375365629924695 0.00068695895094475674 0 0.005518655600127354 0.00067617139464759058 0 0.0055324226243454013 0.00068986277918559513 0 0.0055375365629924695 0.00068695895094475674 0 0.0055366231975182189 0.00067603647734594758 0 0.0055665277456121778 0.0006645762308152771 0 0.0055375365629924695 0.00068695895094475674 0 0.0027461426422708559 -0.0014568495202914907 0 0.0045085497478348207 -0.0010097166750531799 0 0.0055253705884315274 0.00066858503923434632 0 0.0055366231975182189 0.00067603647734594758 0 0.0055665277456121778 0.0006645762308152771 0 0.0055240342765935898 0.00068383420020032943 0 0.0055253705884315274 0.00066858503923434632 0 0.0055366231975182189 0.00067603647734594758 0 0.0055665277456121778 0.0006645762308152771 0 0.005574453142310698 0.00066217243229881062 0 0.0055375365629924695 0.00068695895094475674 0 0.0055665277456121778 0.0006645762308152771 0 0.005574453142310698 0.00066217243229881062 0 0.0056284566075955767 0.00061141676251832533 0 0.0055648394850318925 0.00071942984788122069 0 0.0055375365629924695 0.00068695895094475674 0 0.0055513649751869057 0.00075856739378382144 0 0.0055324226243454013 0.00068986277918559513 0 0.0055648394850318925 0.00071942984788122069 0 0.0055375365629924695 0.00068695895094475674 0 0.005574453142310698 0.00066217243229881062 0 0.0055375365629924695 0.00068695895094475674 0 0.0055513649751869057 0.00075856739378382144 0 0.0056394332000134573 0.00078568094068027323 0 0.0055513649751869057 0.00075856739378382144 0 0.0056576174193870687 0.00096898004892544815 0 0.0056394332000134573 0.00078568094068027323 0 0.0055648394850318925 0.00071942984788122069 0 0.0055513649751869057 0.00075856739378382144 0 0.0055513649751869057 0.00075856739378382144 0 0.0056576174193870687 0.00096898004892544815 0 0.0055685434799022009 0.0010737698962519156 0 0.0057315937763595245 0.0011676723669959562 0 0.0056576174193870687 0.00096898004892544815 0 0.0056625587262547818 0.00111363513186509 0 0.0057315937763595245 0.0011676723669959562 0 0.0056625587262547818 0.00111363513186509 0 0.0056946093627532491 0.0012332471504854466 0 0.0056576174193870687 0.00096898004892544815 0 0.0056625587262547818 0.00111363513186509 0 0.0055685434799022009 0.0010737698962519156 0 0.0056625587262547818 0.00111363513186509 0 0.0055685434799022009 0.0010737698962519156 0 0.0056946093627532491 0.0012332471504854466 0 0.0055685434799022009 0.0010737698962519156 0 0.00566860559549851 0.0012934655834335412 0 0.0056946093627532491 0.0012332471504854466 0 0.0055795499705951794 0.0008262874110213079 0 0.0056812724089775855 0.00090249316334291751 0 0.0055664015822209541 0.0007562349400907168 0 0.0055795499705951794 0.0008262874110213079 0 0.005574453142310698 0.00066217243229881062 0 0.0055513649751869057 0.00075856739378382144 0 0.0055662064016515616 0.00059836412265964719 0 0.005574453142310698 0.00066217243229881062 0 0.0055662064016515616 0.00059836412265964719 0 0.0056280340572288437 0.00054492839909257677 0 0.005574453142310698 0.00066217243229881062 0 0.0056280340572288437 0.00054492839909257677 0 0.0056284566075955767 0.00061141676251832533 0 0.0056280340572288437 0.00054492839909257677 0 0.0056070663943630517 0.0004720247113865988 0 0.0056284566075955767 0.00061141676251832533 0 0.0056280340572288437 0.00054492839909257677 0 0.0056666887757119908 0.0005081726579808407 0 0.0056697838958274871 0.00049302949834388111 0 0.0056280340572288437 0.00054492839909257677 0 0.0056697838958274871 0.00049302949834388111 0 0.0056070663943630517 0.0004720247113865988 0 0.0055662064016515616 0.00059836412265964719 0 0.0056280340572288437 0.00054492839909257677 0 0.0056666887757119908 0.0005081726579808407 0 0.0056812724089775855 0.00090249316334291751 0 0.0058648551343879109 0.0010733917173927764 0 0.00566860559549851 0.0012934655834335412 0 0.0058638090259878952 0.001435382018327164 0 0.0057408214411860635 0.0013736537205300476 0 0.0056666887757119908 0.0005081726579808407 0 0.0056697838958274871 0.00049302949834388111 0 0.0058652720676284518 0.00066668858799389264 0 0.0058652720676284518 0.00066668858799389264 0 0.0052545355714842829 0.00059322379398342711 0 0.0060506068065227609 0.0013428365912491543 0 0.0056697838958274871 0.00049302949834388111 0 0.0058652720676284518 0.00066668858799389264 0 0.0052545355714842829 0.00059322379398342711 0 0.0058638090259878952 0.001435382018327164 0 0.0057408214411860635 0.0013736537205300476 0 0.0057982505588803999 0.0014946924749365958 0 0.0055756719236146109 0.0015451141137417337 0 0.005767615485523161 0.0014896993788462156 0 0.0057408214411860635 0.0013736537205300476 0 0.0057483461095448225 0.001349378898656362 0 0.0057982505588803999 0.0014946924749365958 0 0.0053892053766108642 0.0017452720334924588 0 0.0051556571994434671 0.0016876499338306385 0 0.0053281463374285319 0.0014394981871328604 0 0.0050573490220903461 0.0019036327612169343 0 0.0053892053766108642 0.0017452720334924588 0 0.0051556571994434671 0.0016876499338306385 0 0.0057315937763595245 0.0011676723669959562 0 0.005745666795440257 0.0011983509843385609 0 0.0056946093627532491 0.0012332471504854466 0 0.005745666795440257 0.0011983509843385609 0 0.0057483461095448225 0.001349378898656362 0 0.0056946093627532491 0.0012332471504854466 0 0.0053904072325845452 0.001558572419688452 0 0.0055756719236146109 0.0015451141137417337 0 0.00566860559549851 0.0012934655834335412 0 0.0057408214411860635 0.0013736537205300476 0 0.0056946093627532491 0.0012332471504854466 0 0.0057408214411860635 0.0013736537205300476 0 0.0057483461095448225 0.001349378898656362 0 0.0056946093627532491 0.0012332471504854466 0 0.008254320669268558 -0.00032858120896796825 0 0.0080492612733841819 -0.00066946726007269339 0 0.0059226482566744924 -9.7018424842156164e-05 0 0.0055316369678845307 -0.00089836033495713252 0 0.0079907154297239325 -0.00037877789531049139 0 0.0080535585362020937 -0.00044935565781449371 0 0.007946456640524591 -0.00073941166267972266 0 0.0081506146936854377 -0.00035356258472097815 0 0.0083263336873996424 -0.00018928592873734127 0 0.0081773710297679669 -0.000620450670326127 0 0.0080535585362020937 -0.00044935565781449371 0 0.0080545277866572798 -0.00085943188229205541 0 0.007946456640524591 -0.00073941166267972266 0 0.0081506146936854377 -0.00035356258472097815 0 0.0079765139296684787 -0.00049291683743659948 0 0.0081773710297679669 -0.000620450670326127 0 0.0079765139296684787 -0.00049291683743659948 0 0.0078887461178416222 -0.00074757166733735209 0 0.0077947260379851923 -0.00050568817125179444 0 0.0079765139296684787 -0.00049291683743659948 0 0.0078738421561147971 -0.00021519482903887676 0 0.0077947260379851923 -0.00050568817125179444 0 0.0081506146936854377 -0.00035356258472097815 0 0.0079765139296684787 -0.00049291683743659948 0 0.0078738421561147971 -0.00021519482903887676 0 0.0081506146936854377 -0.00035356258472097815 0 0.0078738421561147971 -0.00021519482903887676 0 0.0078549462902513575 0.00013793570985306709 0 0.0081506146936854377 -0.00035356258472097815 0 0.0082047697041317882 4.77137937335868e-05 0 0.0079585827342625783 7.7276521976222658e-05 0 0.0081957606298603981 -0.00034122552113881332 0 0.0077333818954091913 8.9720111251302849e-05 0 0.0081506146936854377 -0.00035356258472097815 0 0.0083263336873996424 -0.00018928592873734127 0 0.0082047697041317882 4.77137937335868e-05 0 0.0079907154297239325 -0.00037877789531049139 0 0.0080535585362020937 -0.00044935565781449371 0 0.0080623454391984557 2.551171774086507e-05 0 0.004759357504010707 0.00069081424000711422 0 0.0039861558228174642 0.00028400749003078642 0 0.0048976407914660671 0.0013538488831653177 0 0.0059226482566744924 -9.7018424842156164e-05 0 0.0072151664568735211 0.0005070542779709343 0 0.004759357504010707 0.00069081424000711422 0 0.0052545355714842829 0.00059322379398342711 0 0.0053429716805468343 0.0011067148409635275 0 0.004759357504010707 0.00069081424000711422 0 0.0052545355714842829 0.00059322379398342711 0 0.0043197404517622473 2.790047495545881e-05 0 0.004759357504010707 0.00069081424000711422 0 0.0039861558228174642 0.00028400749003078642 0 0.0043197404517622473 2.790047495545881e-05 0 0.0056697838958274871 0.00049302949834388111 0 0.0052545355714842829 0.00059322379398342711 0 0.0056070663943630517 0.0004720247113865988 0 0.0051686329787252842 0.00062703730143612432 0 0.0048673626593587899 -6.8217540259916381e-05 0 0.0052545355714842829 0.00059322379398342711 0 0.0043197404517622473 2.790047495545881e-05 0 0.0041028377819533664 -0.00074035777207296294 0 0.0039861558228174642 0.00028400749003078642 0 0.0037840468162341095 -0.00026198325985849836 0 0.0030277550358384503 -0.00085083284862157876 0 0.0043197404517622473 2.790047495545881e-05 0 0.0038233557664447506 -0.00048895207064018594 0 0.0041028377819533664 -0.00074035777207296294 0 0.0039861558228174642 0.00028400749003078642 0 0.0043197404517622473 2.790047495545881e-05 0 0.0037840468162341095 -0.00026198325985849836 0 0.0043197404517622473 2.790047495545881e-05 0 0.0037840468162341095 -0.00026198325985849836 0 0.0038233557664447506 -0.00048895207064018594 0 0.0037840468162341095 -0.00026198325985849836 0 0.0038233557664447506 -0.00048895207064018594 0 0.0030277550358384503 -0.00085083284862157876 0 0.0035422095825736683 -0.00086631333912319021 0 0.0041028377819533664 -0.00074035777207296294 0 0.0031430449985951178 -0.0013763390283226136 0 0.0038233557664447506 -0.00048895207064018594 0 0.0035422095825736683 -0.00086631333912319021 0 0.0030277550358384503 -0.00085083284862157876 0 0.0038233557664447506 -0.00048895207064018594 0 0.0035422095825736683 -0.00086631333912319021 0 0.0041028377819533664 -0.00074035777207296294 0 0.0035422095825736683 -0.00086631333912319021 0 0.0031430449985951178 -0.0013763390283226136 0 0.0030277550358384503 -0.00085083284862157876 0 0.0041028377819533664 -0.00074035777207296294 0 0.0031430449985951178 -0.0013763390283226136 0 0.0033819317335986396 -0.0016948489704403194 0 0.0048673626593587899 -6.8217540259916381e-05 0 0.0044697862108259365 -0.000498593208343235 0 0.0031430449985951178 -0.0013763390283226136 0 0.0030277550358384503 -0.00085083284862157876 0 0.0022470886571798695 -0.0017819834324765075 0 0.0055316369678845307 -0.00089836033495713252 0 0.0053179904594003544 -0.0015126813264156574 0 0.0080545277866572798 -0.00085943188229205541 0 0.0079288857472291467 -0.0010442989338646765 0 0.0080432935538721322 -0.0012198935913999304 0 0.0080492612733841819 -0.00066946726007269339 0 0.0079461872071968573 -0.0010129720776996995 0 0.0080545277866572798 -0.00085943188229205541 0 0.007946456640524591 -0.00073941166267972266 0 0.0079288857472291467 -0.0010442989338646765 0 0.0081773710297679669 -0.000620450670326127 0 0.0078887461178416222 -0.00074757166733735209 0 0.0079288857472291467 -0.0010442989338646765 0 0.0078887461178416222 -0.00074757166733735209 0 0.0077164045636078024 -0.00077379728614523067 0 0.0077947260379851923 -0.00050568817125179444 0 0.0079765139296684787 -0.00049291683743659948 0 0.0081773710297679669 -0.000620450670326127 0 0.0078887461178416222 -0.00074757166733735209 0 0.0078887461178416222 -0.00074757166733735209 0 0.0077164045636078024 -0.00077379728614523067 0 0.0077170695837129261 -0.0010005845538467394 0 0.0078887461178416222 -0.00074757166733735209 0 0.0079288857472291467 -0.0010442989338646765 0 0.0077170695837129261 -0.0010005845538467394 0 0.0079288857472291467 -0.0010442989338646765 0 0.0077562564236085567 -0.0012228475101009699 0 0.0077170695837129261 -0.0010005845538467394 0 0.0079288857472291467 -0.0010442989338646765 0 0.0077562564236085567 -0.0012228475101009699 0 0.0080432935538721322 -0.0012198935913999304 0 0.0077562564236085567 -0.0012228475101009699 0 0.0080432935538721322 -0.0012198935913999304 0 0.0078243784508989517 -0.0014298418280692296 0 0.0077562564236085567 -0.0012228475101009699 0 0.0078243784508989517 -0.0014298418280692296 0 0.0076578951475821614 -0.00144323353740191 0 0.0080432935538721322 -0.0012198935913999304 0 0.0078243784508989517 -0.0014298418280692296 0 0.0079560713353882678 -0.0016369182336043646 0 0.0053179904594003544 -0.0015126813264156574 0 0.0035124646005391088 -0.0021180029485408118 0 0.0022470886571798695 -0.0017819834324765075 0 0.0020979022685433308 -0.0022970738968632748 0 0.0017323572258274818 -0.0026061296483908818 0 0.0020979022685433308 -0.0022970738968632748 0 0.0018947072870195373 -0.002638745445114644 0 0.0017323572258274818 -0.0026061296483908818 0 0.0078243784508989517 -0.0014298418280692296 0 0.0077266997175470262 -0.0016377007120599489 0 0.0079560713353882678 -0.0016369182336043646 0 0.0078243784508989517 -0.0014298418280692296 0 0.0077266997175470262 -0.0016377007120599489 0 0.0076578951475821614 -0.00144323353740191 0 0.0031430449985951178 -0.0013763390283226136 0 0.0033819317335986396 -0.0016948489704403194 0 0.0025822817865729371 -0.0021195839915168235 0 0.0031430449985951178 -0.0013763390283226136 0 0.0022470886571798695 -0.0017819834324765075 0 0.0025822817865729371 -0.0021195839915168235 0 0.0022470886571798695 -0.0017819834324765075 0 0.0020979022685433308 -0.0022970738968632748 0 0.0025822817865729371 -0.0021195839915168235 0 0.0025822817865729371 -0.0021195839915168235 0 0.002107270339733422 -0.0028861752503419737 0 0.0018947072870195373 -0.002638745445114644 0 0.0020979022685433308 -0.0022970738968632748 0 0.0025822817865729371 -0.0021195839915168235 0 0.0018947072870195373 -0.002638745445114644 0 0.0029623445192265281 -0.0025742881538808348 0 0.0025822817865729371 -0.0021195839915168235 0 0.002107270339733422 -0.0028861752503419737 0 0.0045085497478348207 -0.0010097166750531799 0 0.0044697862108259365 -0.000498593208343235 0 0.0029623445192265281 -0.0025742881538808348 0 0.0033819317335986396 -0.0016948489704403194 0 0.0025822817865729371 -0.0021195839915168235 0 0.0030639186460577512 -0.0039489039969721551 0 0.0029623445192265281 -0.0025742881538808348 0 0.002107270339733422 -0.0028861752503419737 0 0.002107270339733422 -0.0028861752503419737 0 0.0018947072870195373 -0.002638745445114644 0 0.0014691408647921982 -0.0031853611592716912 0 0.0014691408647921982 -0.0031853611592716912 0 0.0012412113756769194 -0.0036368418134050881 0 0.0012400507772256171 -0.0033259628670606954 0 0.002107270339733422 -0.0028861752503419737 0 0.0014691408647921982 -0.0031853611592716912 0 0.0012412113756769194 -0.0036368418134050881 0 0.0030639186460577512 -0.0039489039969721551 0 0.002107270339733422 -0.0028861752503419737 0 0.0012412113756769194 -0.0036368418134050881 0 0.0027461426422708559 -0.0014568495202914907 0 0.00061148260345104705 -0.0042410144155356185 0 0.0014890567466950841 -0.0034201506006999393 0 0.0012454377289962493 -0.0031986120572159941 0 0.0014233704489695863 -0.0032703082439080764 0 0.0047623592769811991 -0.0025261436345557823 0 0.0035124646005391088 -0.0021180029485408118 0 0.0014890567466950841 -0.0034201506006999393 0 0.0014233704489695863 -0.0032703082439080764 0 0.00157992334948398 -0.0033511364562058793 0 0.0012454377289962493 -0.0031986120572159941 0 0.0012816276627182438 -0.0032593965227785747 0 0.0014233704489695863 -0.0032703082439080764 0 0.0014890567466950841 -0.0034201506006999393 0 0.0012323240298134897 -0.0033530182559187507 0 0.0012454377289962493 -0.0031986120572159941 0 0.0011879399567523272 -0.0027015983108027407 0 0.0014826843283332488 -0.0029531319726593518 0 0.0012454377289962493 -0.0031986120572159941 0 0.0035124646005391088 -0.0021180029485408118 0 0.002333174244121695 -0.0032370276338363826 0 0.0014431300946462148 -0.0024968826970890815 0 0.0035124646005391088 -0.0021180029485408118 0 0.0018947072870195373 -0.002638745445114644 0 0.0011879399567523272 -0.0027015983108027407 0 0.0014826843283332488 -0.0029531319726593518 0 0.0018947072870195373 -0.002638745445114644 0 0.0014691408647921982 -0.0031853611592716912 0 0.0014826843283332488 -0.0029531319726593518 0 0.0014691408647921982 -0.0031853611592716912 0 0.0012454377289962493 -0.0031986120572159941 0 0.0012400507772256171 -0.0033259628670606954 0 0.0014691408647921982 -0.0031853611592716912 0 0.0014826843283332488 -0.0029531319726593518 0 0.0012454377289962493 -0.0031986120572159941 0 0.0012454377289962493 -0.0031986120572159941 0 0.0012816276627182438 -0.0032593965227785747 0 0.0012400507772256171 -0.0033259628670606954 0 0.0011232046387429978 -0.0032161531480743859 0 0.0012412113756769194 -0.0036368418134050881 0 0.0012400507772256171 -0.0033259628670606954 0 0.0012816276627182438 -0.0032593965227785747 0 0.0012400507772256171 -0.0033259628670606954 0 0.0012802344039607812 -0.0031960117022544771 0 0.0011232046387429978 -0.0032161531480743859 0 0.0012400507772256171 -0.0033259628670606954 0 0.0012802344039607812 -0.0031960117022544771 0 0.0014926273729442428 -0.0030998637107281244 0 0.0012802344039607812 -0.0031960117022544771 0 0.0014233704489695863 -0.0032703082439080764 0 0.0012816276627182438 -0.0032593965227785747 0 0.0012802344039607812 -0.0031960117022544771 0 0.0014233704489695863 -0.0032703082439080764 0 0.0014926273729442428 -0.0030998637107281244 0 0.0014233704489695863 -0.0032703082439080764 0 0.0017237848085211642 -0.0032278186288813436 0 0.0014233704489695863 -0.0032703082439080764 0 0.0017237848085211642 -0.0032278186288813436 0 0.00157992334948398 -0.0033511364562058793 0 0.0047623592769811991 -0.0025261436345557823 0 0.0047129127999054853 -0.002899230323421792 0 0.0017104715371778852 -0.0032354477015974752 0 0.0047129127999054853 -0.002899230323421792 0 0.0017237848085211642 -0.0032278186288813436 0 0.0016916672773496114 -0.0034538235361077536 0 0.00157992334948398 -0.0033511364562058793 0 0.0014890567466950841 -0.0034201506006999393 0 0.0016916672773496114 -0.0034538235361077536 0 0.00157992334948398 -0.0033511364562058793 0 0.0021712740026676382 -0.0036038819211238905 0 0.0025868380814253696 -0.0031599152418788005 0 0.0028576436974229492 -0.0035773406130998409 0 0.0047129127999054853 -0.002899230323421792 0 0.0048957444100802446 -0.0032852510579488999 0 0.0020897525764831081 -0.0030708630000584524 0 0.0021712740026676382 -0.0036038819211238905 0 0.0025868380814253696 -0.0031599152418788005 0 0.0026064903878777763 -0.0026930340101115279 0 0.0020897525764831081 -0.0030708630000584524 0 0.0025868380814253696 -0.0031599152418788005 0 0.0026064903878777763 -0.0026930340101115279 0 0.0025868380814253696 -0.0031599152418788005 0 0.0031778466306098198 -0.0029671835081220631 0 0.0031778466306098198 -0.0029671835081220631 0 0.0036829802557637706 -0.0034161150295799391 0 0.0039845488313684065 -0.0027236119239163075 0 0.0031778466306098198 -0.0029671835081220631 0 0.0036829802557637706 -0.0034161150295799391 0 0.0028576436974229492 -0.0035773406130998409 0 0.0048142395204915081 -0.0031716252862680366 0 0.0048957444100802446 -0.0032852510579488999 0 0.0025868380814253696 -0.0031599152418788005 0 0.0031778466306098198 -0.0029671835081220631 0 0.0028576436974229492 -0.0035773406130998409 0 0.0068552436710407044 -0.0029277590843639506 0 0.0066190344438840538 -0.0023666151196773903 0 0.0072633777097149852 -0.0025384476051670875 0 0.0060102373023041295 -0.0029753537627474351 0 0.0068552436710407044 -0.0029277590843639506 0 0.0066190344438840538 -0.0023666151196773903 0 0.0060102373023041295 -0.0029753537627474351 0 0.0066190344438840538 -0.0023666151196773903 0 0.0060922801592358522 -0.0019163550094463469 0 0.0066190344438840538 -0.0023666151196773903 0 0.0069760430290889417 -0.0018589530072654317 0 0.0072633777097149852 -0.0025384476051670875 0 0.0066190344438840538 -0.0023666151196773903 0 0.0060922801592358522 -0.0019163550094463469 0 0.0069760430290889417 -0.0018589530072654317 0 0.0069760430290889417 -0.0018589530072654317 0 0.0076268767501082189 -0.0021123383663091072 0 0.0072633777097149852 -0.0025384476051670875 0 0.0077562564236085567 -0.0012228475101009699 0 0.0074973426536147861 -0.0012794829013249292 0 0.0077170695837129261 -0.0010005845538467394 0 0.0077562564236085567 -0.0012228475101009699 0 0.0074973426536147861 -0.0012794829013249292 0 0.0076578951475821614 -0.00144323353740191 0 0.0074801583936863463 -0.0016454755903627424 0 0.0074973426536147861 -0.0012794829013249292 0 0.0076578951475821614 -0.00144323353740191 0 0.0047129127999054853 -0.002899230323421792 0 0.0078322694118648003 -0.0015859479128261206 0 0.0077266997175470262 -0.0016377007120599489 0 0.0074801583936863463 -0.0016454755903627424 0 0.0076578951475821614 -0.00144323353740191 0 0.0076483804607826991 -0.0029097647061369827 0 0.0076268767501082189 -0.0021123383663091072 0 0.0072633777097149852 -0.0025384476051670875 0 0.0076483804607826991 -0.0029097647061369827 0 0.0068552436710407044 -0.0029277590843639506 0 0.0072633777097149852 -0.0025384476051670875 0 0.0044451669847149688 -0.0027274745879756861 0 0.0045164652021555153 -0.0027334523026420403 0 0.0043831397072958168 -0.0025769172843884869 0 0.0044451669847149688 -0.0027274745879756861 0 0.0045164652021555153 -0.0027334523026420403 0 0.004537846598406222 -0.0026612198404359915 0 0.0045164652021555153 -0.0027334523026420403 0 0.004537846598406222 -0.0026612198404359915 0 0.0044874713547546257 -0.002668811591140035 0 0.0042291496909047264 -0.0024267584935320835 0 0.0044874713547546257 -0.002668811591140035 0 0.0044942460621022057 -0.0028124429154715758 0 0.0045164652021555153 -0.0027334523026420403 0 0.0044874713547546257 -0.002668811591140035 0 0.0044942460621022057 -0.0028124429154715758 0 0.0045164652021555153 -0.0027334523026420403 0 0.0044942460621022057 -0.0028124429154715758 0 0.0046447913251706635 -0.0026953683072129526 0 0.0047283756045527281 -0.0029789730825221477 0 0.0044942460621022057 -0.0028124429154715758 0 0.0046447913251706635 -0.0026953683072129526 0 0.0047283756045527281 -0.0029789730825221477 0 0.0044942460621022057 -0.0028124429154715758 0 0.0039845488313684065 -0.0027236119239163075 0 0.0042291496909047264 -0.0024267584935320835 0 0.0044942460621022057 -0.0028124429154715758 0 0.0039845488313684065 -0.0027236119239163075 0 0.0036829802557637706 -0.0034161150295799391 0 0.0047283756045527281 -0.0029789730825221477 0 0.0039845488313684065 -0.0027236119239163075 0 0.0048142395204915081 -0.0031716252862680366 0 0.0047168445610889969 -0.003027268316192887 0 0.0060102373023041295 -0.0029753537627474351 0 0.0060922801592358522 -0.0019163550094463469 0 0.0054464730185299036 -0.0023719659219724226 0 0.0060102373023041295 -0.0029753537627474351 0 0.0047283756045527281 -0.0029789730825221477 0 0.0054464730185299036 -0.0023719659219724226 0 0.0060922801592358522 -0.0019163550094463469 0 0.0054464730185299036 -0.0023719659219724226 0 0.0054123253178121316 -0.0019002431404003819 0 0.0054464730185299036 -0.0023719659219724226 0 0.0049553798366627792 -0.0022125181922438685 0 0.0054123253178121316 -0.0019002431404003819 0 0.0049553798366627792 -0.0022125181922438685 0 0.0054123253178121316 -0.0019002431404003819 0 0.0052474990734682342 -0.001522934045514088 0 0.0047283756045527281 -0.0029789730825221477 0 0.0049553798366627792 -0.0022125181922438685 0 0.0046447913251706635 -0.0026953683072129526 0 0.0047283756045527281 -0.0029789730825221477 0 0.0054464730185299036 -0.0023719659219724226 0 0.0049553798366627792 -0.0022125181922438685 0 0.0049553798366627792 -0.0022125181922438685 0 0.0046447913251706635 -0.0026953683072129526 0 0.0044988150376387018 -0.0023678880808421015 0 0.0045164652021555153 -0.0027334523026420403 0 0.0046447913251706635 -0.0026953683072129526 0 0.0044988150376387018 -0.0023678880808421015 0 0.0049553798366627792 -0.0022125181922438685 0 0.0044988150376387018 -0.0023678880808421015 0 0.0048215271059556426 -0.0015465033924917171 0 0.0041671614579328184 -0.0019366492778518435 0 0.0044988150376387018 -0.0023678880808421015 0 0.0048215271059556426 -0.0015465033924917171 0 0.0041134657502759171 -0.002378356377781604 0 0.0041671614579328184 -0.0019366492778518435 0 0.0044988150376387018 -0.0023678880808421015 0 0.0041134657502759171 -0.002378356377781604 0 0.0044988150376387018 -0.0023678880808421015 0 0.0043831397072958168 -0.0025769172843884869 0 0.0045164652021555153 -0.0027334523026420403 0 0.0044988150376387018 -0.0023678880808421015 0 0.0043831397072958168 -0.0025769172843884869 0 0.0048256232449821138 -0.0010358533672596426 0 0.0050124157994737703 -0.00096533498050443555 0 0.0049057772137088319 -0.0012241814415168083 0 0.0048256232449821138 -0.0010358533672596426 0 0.0049057772137088319 -0.0012241814415168083 0 0.0048047636833945485 -0.0013305311115695592 0 0.0045208712195773096 -0.0015711425975897773 0 0.0048266100099659953 -0.0015240804684341785 0 0.0048563342978410074 -0.0011977717755673072 0 0.0048047636833945485 -0.0013305311115695592 0 0.0048215271059556426 -0.0015465033924917171 0 0.0049057772137088319 -0.0012241814415168083 0 0.0048047636833945485 -0.0013305311115695592 0 0.0048215271059556426 -0.0015465033924917171 0 0.0049553798366627792 -0.0022125181922438685 0 0.0048215271059556426 -0.0015465033924917171 0 0.0052474990734682342 -0.001522934045514088 0 0.0048215271059556426 -0.0015465033924917171 0 0.0050989891837992657 -0.001214206041062881 0 0.0052474990734682342 -0.001522934045514088 0 0.0049057772137088319 -0.0012241814415168083 0 0.0048215271059556426 -0.0015465033924917171 0 0.0050989891837992657 -0.001214206041062881 0 0.0050124157994737703 -0.00096533498050443555 0 0.0049057772137088319 -0.0012241814415168083 0 0.0050989891837992657 -0.001214206041062881 0 0.0050124157994737703 -0.00096533498050443555 0 0.0050989891837992657 -0.001214206041062881 0 0.00527375663596516 -0.0008700036126377623 0 0.0050989891837992657 -0.001214206041062881 0 0.0054371217238917829 -0.0011085476979807891 0 0.00527375663596516 -0.0008700036126377623 0 0.0054371217238917829 -0.0011085476979807891 0 0.0055327257057346362 -0.00080198885323760742 0 0.00527375663596516 -0.0008700036126377623 0 0.0054371217238917829 -0.0011085476979807891 0 0.0057983577099507411 -0.00091580413278194081 0 0.0055327257057346362 -0.00080198885323760742 0 0.0050989891837992657 -0.001214206041062881 0 0.0054371217238917829 -0.0011085476979807891 0 0.0052474990734682342 -0.001522934045514088 0 0.0054123253178121316 -0.0019002431404003819 0 0.0052474990734682342 -0.001522934045514088 0 0.005664283602740133 -0.0014318958770961974 0 0.0054371217238917829 -0.0011085476979807891 0 0.0052474990734682342 -0.001522934045514088 0 0.005664283602740133 -0.0014318958770961974 0 0.0060922801592358522 -0.0019163550094463469 0 0.005664283602740133 -0.0014318958770961974 0 0.0060761324437249757 -0.0013392642363853993 0 0.0060922801592358522 -0.0019163550094463469 0 0.0054123253178121316 -0.0019002431404003819 0 0.005664283602740133 -0.0014318958770961974 0 0.0057983577099507411 -0.00091580413278194081 0 0.0060761324437249757 -0.0013392642363853993 0 0.0062913987438762819 -0.00096137093030218296 0 0.005664283602740133 -0.0014318958770961974 0 0.0057983577099507411 -0.00091580413278194081 0 0.0060761324437249757 -0.0013392642363853993 0 0.0054371217238917829 -0.0011085476979807891 0 0.005664283602740133 -0.0014318958770961974 0 0.0057983577099507411 -0.00091580413278194081 0 0.0057983577099507411 -0.00091580413278194081 0 0.0061003352796930432 -0.00056753693962471874 0 0.0062913987438762819 -0.00096137093030218296 0 0.0057983577099507411 -0.00091580413278194081 0 0.0057483161782881393 -0.00056870030166943596 0 0.0061003352796930432 -0.00056753693962471874 0 0.0061003352796930432 -0.00056753693962471874 0 0.0061349979566832531 -0.00029826358425955686 0 0.0059074540287245396 -0.00036447167634493736 0 0.0061349979566832531 -0.00029826358425955686 0 0.0059235986616249974 -0.00015714080892647586 0 0.0059074540287245396 -0.00036447167634493736 0 0.0061349979566832531 -0.00029826358425955686 0 0.0059235986616249974 -0.00015714080892647586 0 0.0062040557717725001 -0.0001316856194831615 0 0.0059235986616249974 -0.00015714080892647586 0 0.0059074540287245396 -0.00036447167634493736 0 0.0056517459355599634 -0.00032283462179319992 0 0.0057483161782881393 -0.00056870030166943596 0 0.0061003352796930432 -0.00056753693962471874 0 0.0059074540287245396 -0.00036447167634493736 0 0.0057483161782881393 -0.00056870030166943596 0 0.0059074540287245396 -0.00036447167634493736 0 0.0056517459355599634 -0.00032283462179319992 0 0.0057483161782881393 -0.00056870030166943596 0 0.0056517459355599634 -0.00032283462179319992 0 0.005434117301779849 -0.00056656900320751396 0 0.0059235986616249974 -0.00015714080892647586 0 0.0056517459355599634 -0.00032283462179319992 0 0.0057254865174043582 -9.8930916525560703e-05 0 0.0056517459355599634 -0.00032283462179319992 0 0.0055344734093721705 -0.00016432726054164325 0 0.0057254865174043582 -9.8930916525560703e-05 0 0.0056517459355599634 -0.00032283462179319992 0 0.0053870069604501983 -0.00035271515830543736 0 0.0055344734093721705 -0.00016432726054164325 0 0.0056517459355599634 -0.00032283462179319992 0 0.005434117301779849 -0.00056656900320751396 0 0.0053870069604501983 -0.00035271515830543736 0 0.0057483161782881393 -0.00056870030166943596 0 0.005434117301779849 -0.00056656900320751396 0 0.0055327257057346362 -0.00080198885323760742 0 0.0057983577099507411 -0.00091580413278194081 0 0.0057483161782881393 -0.00056870030166943596 0 0.0055327257057346362 -0.00080198885323760742 0 0.005434117301779849 -0.00056656900320751396 0 0.0055327257057346362 -0.00080198885323760742 0 0.00527375663596516 -0.0008700036126377623 0 0.0050124157994737703 -0.00096533498050443555 0 0.00527375663596516 -0.0008700036126377623 0 0.0051463791826462067 -0.00059574331892580886 0 0.005434117301779849 -0.00056656900320751396 0 0.00527375663596516 -0.0008700036126377623 0 0.0051463791826462067 -0.00059574331892580886 0 0.005434117301779849 -0.00056656900320751396 0 0.0051463791826462067 -0.00059574331892580886 0 0.0053870069604501983 -0.00035271515830543736 0 0.0053870069604501983 -0.00035271515830543736 0 0.0053687042991970224 -0.00017125066205212952 0 0.0055344734093721705 -0.00016432726054164325 0 0.0053870069604501983 -0.00035271515830543736 0 0.0052132617407448885 -0.00030412064310738327 0 0.0053687042991970224 -0.00017125066205212952 0 0.0051463791826462067 -0.00059574331892580886 0 0.0053870069604501983 -0.00035271515830543736 0 0.0052132617407448885 -0.00030412064310738327 0 0.0048339542488075532 -0.00071898106022413497 0 0.0051463791826462067 -0.00059574331892580886 0 0.0049622732891021837 -0.00032103540731947969 0 0.0051463791826462067 -0.00059574331892580886 0 0.0052132617407448885 -0.00030412064310738327 0 0.0049622732891021837 -0.00032103540731947969 0 0.0048339542488075532 -0.00071898106022413497 0 0.0050124157994737703 -0.00096533498050443555 0 0.0051463791826462067 -0.00059574331892580886 0 0.0048339542488075532 -0.00071898106022413497 0 0.0048256232449821138 -0.0010358533672596426 0 0.0050124157994737703 -0.00096533498050443555 0 0.0075929213625342135 -0.0013247152463517554 0 0.0070984726959522565 -0.0008154741587198431 0 0.0075472040086531885 -0.00051215326656969698 0 0.0075929213625342135 -0.0013247152463517554 0 0.0069772825359909873 -0.0012758065871187035 0 0.0070984726959522565 -0.0008154741587198431 0 0.0077164045636078024 -0.00077379728614523067 0 0.0075177669195386626 -0.00089545520751078858 0 0.0075472040086531885 -0.00051215326656969698 0 0.0075299935941650822 -0.001126356216104068 0 0.0075485871329388776 -0.00054625097727040519 0 0.0077164045636078024 -0.00077379728614523067 0 0.0075177669195386626 -0.00089545520751078858 0 0.0077170695837129261 -0.0010005845538467394 0 0.0074973426536147861 -0.0012794829013249292 0 0.0075177669195386626 -0.00089545520751078858 0 0.0077170695837129261 -0.0010005845538467394 0 0.0078322694118648003 -0.0015859479128261206 0 0.0075299935941650822 -0.001126356216104068 0 0.0069760430290889417 -0.0018589530072654317 0 0.0076268767501082189 -0.0021123383663091072 0 0.0075929213625342135 -0.0013247152463517554 0 0.0069760430290889417 -0.0018589530072654317 0 0.0075929213625342135 -0.0013247152463517554 0 0.0069772825359909873 -0.0012758065871187035 0 0.0060922801592358522 -0.0019163550094463469 0 0.0069760430290889417 -0.0018589530072654317 0 0.0065280649946531074 -0.0013824272303643418 0 0.0069760430290889417 -0.0018589530072654317 0 0.0065280649946531074 -0.0013824272303643418 0 0.0069772825359909873 -0.0012758065871187035 0 0.0060922801592358522 -0.0019163550094463469 0 0.0065280649946531074 -0.0013824272303643418 0 0.0060761324437249757 -0.0013392642363853993 0 0.0065280649946531074 -0.0013824272303643418 0 0.0060761324437249757 -0.0013392642363853993 0 0.0062913987438762819 -0.00096137093030218296 0 0.0065280649946531074 -0.0013824272303643418 0 0.0062913987438762819 -0.00096137093030218296 0 0.0066894381936614469 -0.0010069083534956897 0 0.0065280649946531074 -0.0013824272303643418 0 0.0069772825359909873 -0.0012758065871187035 0 0.0066894381936614469 -0.0010069083534956897 0 0.0069772825359909873 -0.0012758065871187035 0 0.0066894381936614469 -0.0010069083534956897 0 0.0070984726959522565 -0.0008154741587198431 0 0.0066894381936614469 -0.0010069083534956897 0 0.006600463075490651 -0.00061201296838684759 0 0.0070984726959522565 -0.0008154741587198431 0 0.006600463075490651 -0.00061201296838684759 0 0.0071451161828725669 -0.0003303158222732467 0 0.0070984726959522565 -0.0008154741587198431 0 0.006600463075490651 -0.00061201296838684759 0 0.0066441970097447667 -0.00034479752091738338 0 0.0071451161828725669 -0.0003303158222732467 0 0.0061003352796930432 -0.00056753693962471874 0 0.006600463075490651 -0.00061201296838684759 0 0.0063929620332505857 -0.00029508615536819521 0 0.0061003352796930432 -0.00056753693962471874 0 0.0062913987438762819 -0.00096137093030218296 0 0.006600463075490651 -0.00061201296838684759 0 0.0062913987438762819 -0.00096137093030218296 0 0.0066894381936614469 -0.0010069083534956897 0 0.006600463075490651 -0.00061201296838684759 0 0.0061003352796930432 -0.00056753693962471874 0 0.0061349979566832531 -0.00029826358425955686 0 0.0063929620332505857 -0.00029508615536819521 0 0.0063929620332505857 -0.00029508615536819521 0 0.0066441970097447667 -0.00034479752091738338 0 0.0066169985789563106 -0.00016852086013293744 0 0.006600463075490651 -0.00061201296838684759 0 0.0063929620332505857 -0.00029508615536819521 0 0.0066441970097447667 -0.00034479752091738338 0 0.0063929620332505857 -0.00029508615536819521 0 0.0066169985789563106 -0.00016852086013293744 0 0.0064879466229406241 -1.2273974106485437e-05 0 0.0066169985789563106 -0.00016852086013293744 0 0.0066131595267899758 2.4049252503699786e-05 0 0.0064879466229406241 -1.2273974106485437e-05 0 0.0061349979566832531 -0.00029826358425955686 0 0.0063929620332505857 -0.00029508615536819521 0 0.0062040557717725001 -0.0001316856194831615 0 0.0063929620332505857 -0.00029508615536819521 0 0.0062040557717725001 -0.0001316856194831615 0 0.0064879466229406241 -1.2273974106485437e-05 0 0.0071451161828725669 -0.0003303158222732467 0 0.0072419095233616053 9.8932709274687466e-05 0 0.0069618802768884854 0.00019220079057638291 0 0.0066169985789563106 -0.00016852086013293744 0 0.0071451161828725669 -0.0003303158222732467 0 0.0066131595267899758 2.4049252503699786e-05 0 0.0066441970097447667 -0.00034479752091738338 0 0.0066169985789563106 -0.00016852086013293744 0 0.0071451161828725669 -0.0003303158222732467 0 0.0071195947304575034 -0.00031424782126678827 0 0.0068484397970650663 9.3313057878901873e-05 0 0.0071451161828725669 -0.0003303158222732467 0 0.0076933055829153402 0.00013413211830588134 0 0.0072419095233616053 9.8932709274687466e-05 0 0.0071451161828725669 -0.0003303158222732467 0 0.007712628894983811 -0.00017581522109006559 0 0.0076933055829153402 0.00013413211830588134 0 0.0071451161828725669 -0.0003303158222732467 0 0.0070984726959522565 -0.0008154741587198431 0 0.0075472040086531885 -0.00051215326656969698 0 0.0071451161828725669 -0.0003303158222732467 0 0.0075472040086531885 -0.00051215326656969698 0 0.007712628894983811 -0.00017581522109006559 0 0.0077164045636078024 -0.00077379728614523067 0 0.0077947260379851923 -0.00050568817125179444 0 0.0075472040086531885 -0.00051215326656969698 0 0.0077947260379851923 -0.00050568817125179444 0 0.0075472040086531885 -0.00051215326656969698 0 0.007712628894983811 -0.00017581522109006559 0 0.0078738421561147971 -0.00021519482903887676 0 0.0077947260379851923 -0.00050568817125179444 0 0.007712628894983811 -0.00017581522109006559 0 0.0078738421561147971 -0.00021519482903887676 0 0.007712628894983811 -0.00017581522109006559 0 0.0078549462902513575 0.00013793570985306709 0 0.007712628894983811 -0.00017581522109006559 0 0.0076933055829153402 0.00013413211830588134 0 0.0078549462902513575 0.00013793570985306709 0 0.0078783354353967518 0.00013162121930298783 0 0.0076933055829153402 0.00013413211830588134 0 0.0078549462902513575 0.00013793570985306709 0 0.0089254904105435743 0.00040558326092462094 0 0.0077333818954091913 8.9720111251302849e-05 0 0.0078783354353967518 0.00013162121930298783 0 0.0077936053597443215 -5.5610535863154533e-05 0 0.0078549462902513575 0.00013793570985306709 0 0.0078783354353967518 0.00013162121930298783 0 0.0083344978189710019 0.00032640103901349516 0 0.008383960176456904 -0.00017404031956233819 0 0.0078783354353967518 0.00013162121930298783 0 0.008383960176456904 -0.00017404031956233819 0 0.0077936053597443215 -5.5610535863154533e-05 0 0.0078783354353967518 0.00013162121930298783 0 0.0076933055829153402 0.00013413211830588134 0 0.0083344978189710019 0.00032640103901349516 0 0.0076933055829153402 0.00013413211830588134 0 0.0072419095233616053 9.8932709274687466e-05 0 0.007124307576313685 0.00039106048938637435 0 0.0077294858201059132 0.0001644301754462301 0 0.0077950673216381876 0.00032444800738138898 0 0.0072419095233616053 9.8932709274687466e-05 0 0.0069618802768884854 0.00019220079057638291 0 0.007124307576313685 0.00039106048938637435 0 0.0069618802768884854 0.00019220079057638291 0 0.007124307576313685 0.00039106048938637435 0 0.0069813579685419087 0.000381674788498591 0 0.0066131595267899758 2.4049252503699786e-05 0 0.0064879466229406241 -1.2273974106485437e-05 0 0.0066710856629504725 9.8570117767041277e-05 0 0.0069618802768884854 0.00019220079057638291 0 0.0069175866810977293 0.00045303175025217295 0 0.0069813579685419087 0.000381674788498591 0 0.0064694864645926222 5.1063488315268591e-06 0 0.0065838107747840232 0.00013576023968345157 0 0.0068484397970650663 9.3313057878901873e-05 0 0.0065202386482807488 0.00014713222977178763 0 0.0064879466229406241 -1.2273974106485437e-05 0 0.0066710856629504725 9.8570117767041277e-05 0 0.0068557770357163513 0.0001463756189485347 0 0.0062040557717725001 -0.0001316856194831615 0 0.0064879466229406241 -1.2273974106485437e-05 0 0.0060848781117908779 7.769376764523178e-06 0 0.0092872715218320877 0.00020841917236962787 0 0.008383960176456904 -0.00017404031956233819 0 0.0094560235850869052 0.00024117096934525299 0 0.0069175866810977293 0.00045303175025217295 0 0.0069255933906684219 0.00045790127862087537 0 0.0070217865623461188 0.00045023972124861943 0 0.0069175866810977293 0.00045303175025217295 0 0.0069813579685419087 0.000381674788498591 0 0.0069255933906684219 0.00045790127862087537 0 0.0077950673216381876 0.00032444800738138898 0 0.0079322066624302311 0.00023947962673322807 0 0.007124307576313685 0.00039106048938637435 0 0.0069813579685419087 0.000381674788498591 0 0.0069255933906684219 0.00045790127862087537 0 0.0083344978189710019 0.00032640103901349516 0 0.0092872715218320877 0.00020841917236962787 0 0.008383960176456904 -0.00017404031956233819 0 0.0099989999378447183 0.00024130391632466746 0 0.0098245080109024135 0.00044257348064071211 0 0.0099912461991621213 0.00049137726563337541 0 0.0092208684257684883 3.5075621064433679e-05 0 0.0093965133816003247 0.00019917343479479056 0 0.0099989999378447183 0.00024130391632466746 0 0.0098245080109024135 0.00044257348064071211 0 0.0096834233666323339 0.00037081596816061974 0 0.0092872715218320877 0.00020841917236962787 0 0.0094560235850869052 0.00024117096934525299 0 0.0097199150274353743 0.00038326713258400737 0 0.0099989999378447183 0.00024130391632466746 0 0.0094560235850869052 0.00024117096934525299 0 0.0096834233666323339 0.00037081596816061974 0 0.0094560235850869052 0.00024117096934525299 0 0.0096834233666323339 0.00037081596816061974 0 0.0096034323807597279 0.0003611382082034187 0 0.0098245080109024135 0.00044257348064071211 0 0.0096834233666323339 0.00037081596816061974 0 0.0097285631787139976 0.00047666700475195849 0 0.0097285631787139976 0.00047666700475195849 0 0.0096034323807597279 0.0003611382082034187 0 0.0096862876974728035 0.00047597145419808528 0 0.0096834233666323339 0.00037081596816061974 0 0.0097285631787139976 0.00047666700475195849 0 0.0096034323807597279 0.0003611382082034187 0 0.0097285631787139976 0.00047666700475195849 0 0.009783005614173626 0.00060174263303081825 0 0.0096862876974728035 0.00047597145419808528 0 0.0097285631787139976 0.00047666700475195849 0 0.009783005614173626 0.00060174263303081825 0 0.0098802094789761808 0.00058389179277545434 0 0.0098245080109024135 0.00044257348064071211 0 0.0097285631787139976 0.00047666700475195849 0 0.0098802094789761808 0.00058389179277545434 0 0.009783005614173626 0.00060174263303081825 0 0.0098802094789761808 0.00058389179277545434 0 0.0098894009281790349 0.00069347664861424613 0 0.0099912461991621213 0.00049137726563337541 0 0.0098802094789761808 0.00058389179277545434 0 0.010034722729378208 0.00073656632257335813 0 0.0098245080109024135 0.00044257348064071211 0 0.0099912461991621213 0.00049137726563337541 0 0.0098802094789761808 0.00058389179277545434 0 0.0099912461991621213 0.00049137726563337541 0 0.010182412684172396 0.00049544935032534742 0 0.010034722729378208 0.00073656632257335813 0 0.010218481391616799 0.0005984972456915599 0 0.010025353453912287 0.00075822946953717804 0 0.010069795816643988 0.0007840461308669767 0 0.010016833472264029 0.00077115619288010712 0 0.010041047851012334 0.00076777083692359627 0 0.010069795816643988 0.0007840461308669767 0 0.010016833472264029 0.00077115619288010712 0 0.010021166046400002 0.00080429232619141412 0 0.010069795816643988 0.0007840461308669767 0 0.010021166046400002 0.00080429232619141412 0 0.010080785281267907 0.00094002568478509163 0 0.010021166046400002 0.00080429232619141412 0 0.010080785281267907 0.00094002568478509163 0 0.0098939513847651119 0.00080885895333168332 0 0.010218481391616799 0.0005984972456915599 0 0.0089254904105435743 0.00040558326092462094 0 0.0099989999378447183 0.00024130391632466746 0 0.0099912461991621213 0.00049137726563337541 0 0.010182412684172396 0.00049544935032534742 0 0.0099989999378447183 0.00024130391632466746 0 0.010182412684172396 0.00049544935032534742 0 0.010303814681598057 0.00025623561180318949 0 0.0092208684257684883 3.5075621064433679e-05 0 0.0089254904105435743 0.00040558326092462094 0 0.0051079357955166639 7.7834205735765149e-05 0 0.0053797797491539293 0.00016469400431416893 0 0.0053503500006192011 0.00038935648115426578 0 0.0049956301487325576 0.00033151893194598495 0 0.0051079357955166639 7.7834205735765149e-05 0 0.0053503500006192011 0.00038935648115426578 0 0.0051079357955166639 7.7834205735765149e-05 0 0.005253293888672063 -7.3589259214920405e-05 0 0.0053797797491539293 0.00016469400431416893 0 0.0049622732891021837 -0.00032103540731947969 0 0.0051079357955166639 7.7834205735765149e-05 0 0.005253293888672063 -7.3589259214920405e-05 0 0.0052132617407448885 -0.00030412064310738327 0 0.0049622732891021837 -0.00032103540731947969 0 0.005253293888672063 -7.3589259214920405e-05 0 0.005253293888672063 -7.3589259214920405e-05 0 0.0054636703498774043 1.533584682409693e-05 0 0.0053797797491539293 0.00016469400431416893 0 0.005253293888672063 -7.3589259214920405e-05 0 0.0053687042991970224 -0.00017125066205212952 0 0.0054636703498774043 1.533584682409693e-05 0 0.0052132617407448885 -0.00030412064310738327 0 0.005253293888672063 -7.3589259214920405e-05 0 0.0053687042991970224 -0.00017125066205212952 0 0.0053687042991970224 -0.00017125066205212952 0 0.0054636703498774043 1.533584682409693e-05 0 0.0055344734093721705 -0.00016432726054164325 0 0.0054636703498774043 1.533584682409693e-05 0 0.0053797797491539293 0.00016469400431416893 0 0.0055656935648420343 0.00019492685485554738 0 0.0053797797491539293 0.00016469400431416893 0 0.0055351512533248371 0.000359639958062286 0 0.0053503500006192011 0.00038935648115426578 0 0.0053797797491539293 0.00016469400431416893 0 0.0055656935648420343 0.00019492685485554738 0 0.0055351512533248371 0.000359639958062286 0 0.0057101440893915136 0.00031922412016156869 0 0.0057856218902794026 0.00018015105826508476 0 0.0059882378962227249 0.00023011227485806167 0 0.0057101440893915136 0.00031922412016156869 0 0.0059882378962227249 0.00023011227485806167 0 0.00574177364351187 0.0004671634171359255 0 0.0057101440893915136 0.00031922412016156869 0 0.0055656935648420343 0.00019492685485554738 0 0.0055351512533248371 0.000359639958062286 0 0.0057101440893915136 0.00031922412016156869 0 0.0056915207469422557 0.00021014436538293718 0 0.0055656935648420343 0.00019492685485554738 0 0.0057101440893915136 0.00031922412016156869 0 0.0056915207469422557 0.00021014436538293718 0 0.0057856218902794026 0.00018015105826508476 0 0.0056915207469422557 0.00021014436538293718 0 0.0057856218902794026 0.00018015105826508476 0 0.0056622038878850062 6.9028801362647495e-05 0 0.0056915207469422557 0.00021014436538293718 0 0.0055656935648420343 0.00019492685485554738 0 0.0056622038878850062 6.9028801362647495e-05 0 0.0054636703498774043 1.533584682409693e-05 0 0.0055656935648420343 0.00019492685485554738 0 0.0056622038878850062 6.9028801362647495e-05 0 0.0054636703498774043 1.533584682409693e-05 0 0.0056622038878850062 6.9028801362647495e-05 0 0.0055344734093721705 -0.00016432726054164325 0 0.0056622038878850062 6.9028801362647495e-05 0 0.0055344734093721705 -0.00016432726054164325 0 0.0057254865174043582 -9.8930916525560703e-05 0 0.0057856218902794026 0.00018015105826508476 0 0.0056622038878850062 6.9028801362647495e-05 0 0.0058677587866924445 5.7793428999574363e-05 0 0.0056622038878850062 6.9028801362647495e-05 0 0.0057254865174043582 -9.8930916525560703e-05 0 0.0058677587866924445 5.7793428999574363e-05 0 0.0064879466229406241 -1.2273974106485437e-05 0 0.0060848781117908779 7.769376764523178e-06 0 0.0059882378962227249 0.00023011227485806167 0 0.0059235986616249974 -0.00015714080892647586 0 0.0057254865174043582 -9.8930916525560703e-05 0 0.0058677587866924445 5.7793428999574363e-05 0 0.0059235986616249974 -0.00015714080892647586 0 0.0058677587866924445 5.7793428999574363e-05 0 0.0060848781117908779 7.769376764523178e-06 0 0.0059235986616249974 -0.00015714080892647586 0 0.0062040557717725001 -0.0001316856194831615 0 0.0060848781117908779 7.769376764523178e-06 0 0.0058677587866924445 5.7793428999574363e-05 0 0.0060848781117908779 7.769376764523178e-06 0 0.0059882378962227249 0.00023011227485806167 0 0.0066710856629504725 9.8570117767041277e-05 0 0.0068557770357163513 0.0001463756189485347 0 0.0071025918950851355 -0.00024097429924139737 0 0.0065838107747840232 0.00013576023968345157 0 0.0056723368783570633 -6.737782761737985e-05 0 0.0065202386482807488 0.00014713222977178763 0 0.010063975032364107 0.0019722078098222233 0 0.0057856218902794026 0.00018015105826508476 0 0.0058677587866924445 5.7793428999574363e-05 0 0.0059882378962227249 0.00023011227485806167 0 0.0068557770357163513 0.0001463756189485347 0 0.0072244549848322036 -0.00011831899229384119 0 0.0075251771006836126 -0.00019052465583743421 0 0.0068557770357163513 0.0001463756189485347 0 0.0072244549848322036 -0.00011831899229384119 0 0.0071025918950851355 -0.00024097429924139737 0 0.0079322066624302311 0.00023947962673322807 0 0.010063975032364107 0.0019722078098222233 0 0.0094560235850869052 0.00024117096934525299 0 0.0097199150274353743 0.00038326713258400737 0 0.0096034323807597279 0.0003611382082034187 0 0.0072244549848322036 -0.00011831899229384119 0 0.0071025918950851355 -0.00024097429924139737 0 0.0072391902282412292 -0.0003152147329573004 0 0.010483925972071883 -6.7632162491383134e-05 0 0.013432050589675707 0.003002809697093438 0 0.010063975032364107 0.0019722078098222233 0 0.013432050589675707 0.003002809697093438 0 0.010063975032364107 0.0019722078098222233 0 0.014923136700683655 0.0046203068776735738 0 0.012270993865319421 0.0034804915143037125 0 0.012977026828186041 0.0030145322634449793 0 0.012989373175321022 0.0025749739893612678 0 0.013432050589675707 0.003002809697093438 0 0.014923136700683655 0.0046203068776735738 0 0.0097199150274353743 0.00038326713258400737 0 0.0096284003807106267 0.00045155142491708889 0 0.0096773466674225459 0.00042907939781136584 0 0.0096284003807106267 0.00045155142491708889 0 0.0096773466674225459 0.00042907939781136584 0 0.0096707318202227128 0.000479854592098097 0 0.0097199150274353743 0.00038326713258400737 0 0.0096034323807597279 0.0003611382082034187 0 0.0096664859776556394 0.00039795056238470841 0 0.0096773466674225459 0.00042907939781136584 0 0.0096664859776556394 0.00039795056238470841 0 0.0096862876974728035 0.00047597145419808528 0 0.0096034323807597279 0.0003611382082034187 0 0.0096664859776556394 0.00039795056238470841 0 0.0096862876974728035 0.00047597145419808528 0 0.0097199150274353743 0.00038326713258400737 0 0.0096773466674225459 0.00042907939781136584 0 0.0096664859776556394 0.00039795056238470841 0 0.0096284003807106267 0.00045155142491708889 0 0.009679653248229456 0.00054169467038622007 0 0.009703849330976292 0.0006811619172058704 0 0.014923136700683655 0.0046203068776735738 0 0.01564915776617852 0.0037203112525343589 0 0.0096773466674225459 0.00042907939781136584 0 0.0096862876974728035 0.00047597145419808528 0 0.0096707318202227128 0.000479854592098097 0 0.0096862876974728035 0.00047597145419808528 0 0.009679653248229456 0.00054169467038622007 0 0.0096707318202227128 0.000479854592098097 0 0.009783005614173626 0.00060174263303081825 0 0.0096862876974728035 0.00047597145419808528 0 0.0097368289812921061 0.00061353101591041042 0 0.0096862876974728035 0.00047597145419808528 0 0.0097368289812921061 0.00061353101591041042 0 0.009679653248229456 0.00054169467038622007 0 0.0097368289812921061 0.00061353101591041042 0 0.009679653248229456 0.00054169467038622007 0 0.009703849330976292 0.0006811619172058704 0 0.0096284003807106267 0.00045155142491708889 0 0.009679653248229456 0.00054169467038622007 0 0.0096707318202227128 0.000479854592098097 0 0.014923136700683655 0.0046203068776735738 0 0.019564546423673772 0.0068454888904379086 0 0.021313190490964622 0.010014734950303233 0 0.02133248893239393 0.0095956087867502312 0 0.022311839383087992 0.008441356322591723 0 0.013432050589675707 0.003002809697093438 0 0.015119103931953128 0.0038274957643002817 0 0.00574177364351187 0.0004671634171359255 0 0.0055670355592855993 0.00054713301834271135 0 0.0055913599725092291 0.00077909246612096832 0 0.022311839383087992 0.008441356322591723 0 0.023333699731976184 0.0073149523002098036 0 0.024784764691797037 0.0078582045874687322 0 0.021313190490964622 0.010014734950303233 0 0.022311839383087992 0.008441356322591723 0 0.024784764691797037 0.0078582045874687322 0 0.0056723368783570633 -6.737782761737985e-05 0 0.015119103931953128 0.0038274957643002817 0 0.021387221500147626 0.0095786162538691478 0 0.022311839383087992 0.008441356322591723 0 0.021494822502396253 0.006618222563324486 0 0.022311839383087992 0.008441356322591723 0 0.023333699731976184 0.0073149523002098036 0 0.021494822502396253 0.006618222563324486 0 0.0072523286169196713 -0.00033359773265095665 0 0.0075251771006836126 -0.00019052465583743421 0 0.0083053997774247788 -0.00083668927030708807 0 0.00574177364351187 0.0004671634171359255 0 0.0056391402325454559 0.00042333979152565037 0 0.0055670355592855993 0.00054713301834271135 0 0.0072244549848322036 -0.00011831899229384119 0 0.0072523286169196713 -0.00033359773265095665 0 0.0075251771006836126 -0.00019052465583743421 0 0.0057101440893915136 0.00031922412016156869 0 0.0056391402325454559 0.00042333979152565037 0 0.0055351512533248371 0.000359639958062286 0 0.0057101440893915136 0.00031922412016156869 0 0.00574177364351187 0.0004671634171359255 0 0.0056391402325454559 0.00042333979152565037 0 0.0053503500006192011 0.00038935648115426578 0 0.0055670355592855993 0.00054713301834271135 0 0.0053071926634245649 0.00061961684314717482 0 0.0055351512533248371 0.000359639958062286 0 0.0053503500006192011 0.00038935648115426578 0 0.0055670355592855993 0.00054713301834271135 0 0.0056391402325454559 0.00042333979152565037 0 0.0055351512533248371 0.000359639958062286 0 0.0055670355592855993 0.00054713301834271135 0 0.0055670355592855993 0.00054713301834271135 0 0.0055913599725092291 0.00077909246612096832 0 0.0053071926634245649 0.00061961684314717482 0 0.023333699731976184 0.0073149523002098036 0 0.024784764691797037 0.0078582045874687322 0 0.024361298885147827 0.0068972126652017511 0 0.015119103931953128 0.0038274957643002817 0 0.021883432413961134 0.0041664707117139467 0 0.0049451153093512668 0.00067473437398266566 0 0.0053071926634245649 0.00061961684314717482 0 0.005344452290885141 0.0010071572679658572 0 0.0055913599725092291 0.00077909246612096832 0 0.0053071926634245649 0.00061961684314717482 0 0.005344452290885141 0.0010071572679658572 0 0.0049956301487325576 0.00033151893194598495 0 0.0053503500006192011 0.00038935648115426578 0 0.0053071926634245649 0.00061961684314717482 0 0.030225613754200662 0.0037773051880515204 0 0.02811880626275471 0.0044085263900330209 0 0.027635589953220123 0.0060094242685197405 0 0.02732546184094262 0.0037423687362599998 0 0.026282358509309833 0.0029002598831749417 0 0.029018685964780872 0.0026209554011609776 0 0.02732546184094262 0.0037423687362599998 0 0.02811880626275471 0.0044085263900330209 0 0.029018685964780872 0.0026209554011609776 0 0.02732546184094262 0.0037423687362599998 0 0.0269348035704618 0.0047338311566010056 0 0.02811880626275471 0.0044085263900330209 0 0.02763713338225255 0.0060702283294811268 0 0.02737074785335232 0.0057793952035483445 0 0.025708537445736101 0.0068239667126170347 0 0.02737074785335232 0.0057793952035483445 0 0.02643661901360965 0.005662604906809825 0 0.025708537445736101 0.0068239667126170347 0 0.0269348035704618 0.0047338311566010056 0 0.02811880626275471 0.0044085263900330209 0 0.02737074785335232 0.0057793952035483445 0 0.02811880626275471 0.0044085263900330209 0 0.027635589953220123 0.0060094242685197405 0 0.02737074785335232 0.0057793952035483445 0 0.016650185658514546 0.0018222783234896683 0 0.018334912005049053 0.0031893016739597208 0 0.0269348035704618 0.0047338311566010056 0 0.02737074785335232 0.0057793952035483445 0 0.02643661901360965 0.005662604906809825 0 0.015119103931953128 0.0038274957643002817 0 0.016650185658514546 0.0018222783234896683 0 0.0269348035704618 0.0047338311566010056 0 0.025715651813682707 0.0053591523148561427 0 0.02643661901360965 0.005662604906809825 0 0.025715651813682707 0.0053591523148561427 0 0.02643661901360965 0.005662604906809825 0 0.025708537445736101 0.0068239667126170347 0 0.025715651813682707 0.0053591523148561427 0 0.025708537445736101 0.0068239667126170347 0 0.024802514168049183 0.0060288720636787925 0 0.024716695866031969 0.0079813285039408571 0 0.02763713338225255 0.0060702283294811268 0 0.025708537445736101 0.0068239667126170347 0 0.025708537445736101 0.0068239667126170347 0 0.024361298885147827 0.0068972126652017511 0 0.024802514168049183 0.0060288720636787925 0 0.024784764691797037 0.0078582045874687322 0 0.025708537445736101 0.0068239667126170347 0 0.024361298885147827 0.0068972126652017511 0 0.024361298885147827 0.0068972126652017511 0 0.024802514168049183 0.0060288720636787925 0 0.023582912158680795 0.0060646206703307412 0 0.024802514168049183 0.0060288720636787925 0 0.024408020304202298 0.0051011057681915771 0 0.023582912158680795 0.0060646206703307412 0 0.025715651813682707 0.0053591523148561427 0 0.024802514168049183 0.0060288720636787925 0 0.024408020304202298 0.0051011057681915771 0 0.025715651813682707 0.0053591523148561427 0 0.024408020304202298 0.0051011057681915771 0 0.025356558035327176 0.0041348162041343582 0 0.025356558035327176 0.0041348162041343582 0 0.024595038233180773 0.0029213524041330759 0 0.023286509381072719 0.0043250577352253973 0 0.024408020304202298 0.0051011057681915771 0 0.025356558035327176 0.0041348162041343582 0 0.023286509381072719 0.0043250577352253973 0 0.02732546184094262 0.0037423687362599998 0 0.0269348035704618 0.0047338311566010056 0 0.025356558035327176 0.0041348162041343582 0 0.0269348035704618 0.0047338311566010056 0 0.025715651813682707 0.0053591523148561427 0 0.025356558035327176 0.0041348162041343582 0 0.025356558035327176 0.0041348162041343582 0 0.026282358509309833 0.0029002598831749417 0 0.024595038233180773 0.0029213524041330759 0 0.02732546184094262 0.0037423687362599998 0 0.025356558035327176 0.0041348162041343582 0 0.026282358509309833 0.0029002598831749417 0 0.023286509381072719 0.0043250577352253973 0 0.021494822502396253 0.006618222563324486 0 0.021561802865221243 0.0035284087669562587 0 0.024595038233180773 0.0029213524041330759 0 0.023286509381072719 0.0043250577352253973 0 0.023157820907282016 0.0022118203785250843 0 0.023286509381072719 0.0043250577352253973 0 0.021561802865221243 0.0035284087669562587 0 0.023157820907282016 0.0022118203785250843 0 0.024408020304202298 0.0051011057681915771 0 0.023286509381072719 0.0043250577352253973 0 0.023582912158680795 0.0060646206703307412 0 0.023333699731976184 0.0073149523002098036 0 0.024361298885147827 0.0068972126652017511 0 0.023582912158680795 0.0060646206703307412 0 0.023333699731976184 0.0073149523002098036 0 0.023582912158680795 0.0060646206703307412 0 0.021494822502396253 0.006618222563324486 0 0.023286509381072719 0.0043250577352253973 0 0.023582912158680795 0.0060646206703307412 0 0.021494822502396253 0.006618222563324486 0 0.009703849330976292 0.0006811619172058704 0 0.0098270560052584732 0.00082814058879331868 0 0.0098374328488426959 0.00074451718353205033 0 0.0097368289812921061 0.00061353101591041042 0 0.009703849330976292 0.0006811619172058704 0 0.0098374328488426959 0.00074451718353205033 0 0.01564915776617852 0.0037203112525343589 0 0.015408757694273377 0.002142511382773187 0 0.0098270560052584732 0.00082814058879331868 0 0.0099206789903571353 0.00087609196696695471 0 0.0099003458885777162 0.00083905395912157413 0 0.0098270560052584732 0.00082814058879331868 0 0.0098374328488426959 0.00074451718353205033 0 0.0099003458885777162 0.00083905395912157413 0 0.015408757694273377 0.002142511382773187 0 0.020610221437610494 0.00070778032142755024 0 0.0098270560052584732 0.00082814058879331868 0 0.0099206789903571353 0.00087609196696695471 0 0.009937630867498104 0.00089564687051949649 0 0.0099206789903571353 0.00087609196696695471 0 0.009937630867498104 0.00089564687051949649 0 0.0099589813078758711 0.00090110174081897644 0 0.0099206789903571353 0.00087609196696695471 0 0.0099589813078758711 0.00090110174081897644 0 0.0099523600900631049 0.00089117935124228198 0 0.025490968559718184 0.0020160532049991959 0 0.025851688866659697 0.0014494382939588179 0 0.026171287141028874 0.0016798709146433682 0 0.025923188110676183 0.00086531208290431484 0 0.025851688866659697 0.0014494382939588179 0 0.02520613388678912 0.0013252829914362201 0 0.025490968559718184 0.0020160532049991959 0 0.025851688866659697 0.0014494382939588179 0 0.02520613388678912 0.0013252829914362201 0 0.025923188110676183 0.00086531208290431484 0 0.025851688866659697 0.0014494382939588179 0 0.026344301031867221 0.0013593786498161146 0 0.026381423266136739 0.0009010463815569866 0 0.026344301031867221 0.0013593786498161146 0 0.026745954348834474 0.0011349412036134761 0 0.025851688866659697 0.0014494382939588179 0 0.026344301031867221 0.0013593786498161146 0 0.026171287141028874 0.0016798709146433682 0 0.026344301031867221 0.0013593786498161146 0 0.026480885099750724 0.0017910841177044973 0 0.026171287141028874 0.0016798709146433682 0 0.026344301031867221 0.0013593786498161146 0 0.026480885099750724 0.0017910841177044973 0 0.026676405094638363 0.0015097826306601453 0 0.026480885099750724 0.0017910841177044973 0 0.026171287141028874 0.0016798709146433682 0 0.026480725364698907 0.0019240336672874839 0 0.025490968559718184 0.0020160532049991959 0 0.026171287141028874 0.0016798709146433682 0 0.026480725364698907 0.0019240336672874839 0 0.020610221437610494 0.00070778032142755024 0 0.017873140954967434 0.0012611401481716811 0 0.022121338745185466 0.0021744311311126399 0 0.018411290577453263 0.0012277131185037173 0 0.022141140998160669 0.0010847273678659874 0 0.017873140954967434 0.0012611401481716811 0 0.024352921667668823 0.001153737839118349 0 0.024430096492002798 0.0012436869342514164 0 0.024352921667668823 0.001153737839118349 0 0.020610221437610494 0.00070778032142755024 0 0.024352921667668823 0.001153737839118349 0 0.024352921667668823 0.001153737839118349 0 0.028885528267939758 0.0019065691548823954 0 0.026477594569969769 0.001912771863569547 0 0.027179992109539017 0.0014257790423562026 0 0.028119114636292974 0.0017616358719712512 0 0.026477594569969769 0.001912771863569547 0 0.026676405094638363 0.0015097826306601453 0 0.027179992109539017 0.0014257790423562026 0 0.026480885099750724 0.0017910841177044973 0 0.026477594569969769 0.001912771863569547 0 0.026676405094638363 0.0015097826306601453 0 0.026676405094638363 0.0015097826306601453 0 0.026745954348834474 0.0011349412036134761 0 0.027179992109539017 0.0014257790423562026 0 0.026344301031867221 0.0013593786498161146 0 0.026676405094638363 0.0015097826306601453 0 0.026745954348834474 0.0011349412036134761 0 0.027314651516193587 0.00087097607454170395 0 0.026745954348834474 0.0011349412036134761 0 0.027179992109539017 0.0014257790423562026 0 0.027314651516193587 0.00087097607454170395 0 0.027179992109539017 0.0014257790423562026 0 0.027914017089657614 0.0012429494328296501 0 0.021595787463269175 0.00032007049399322441 0 0.023157820907282016 0.0022118203785250843 0 0.025245586815978362 0.0012464718016566307 0 0.021561802865221243 0.0035284087669562587 0 0.021595787463269175 0.00032007049399322441 0 0.023157820907282016 0.0022118203785250843 0 0.026354946355725765 0.002023645314674001 0 0.026365102158157246 0.0017459444577822396 0 0.027946738581940363 0.0024113749905810187 0 0.020610221437610494 0.00070778032142755024 0 0.027345622390888176 0.0020060511554474132 0 0.027946738581940363 0.0024113749905810187 0 0.028119114636292974 0.0017616358719712512 0 0.02888632868585677 0.0019503317353228751 0 0.024595038233180773 0.0029213524041330759 0 0.023157820907282016 0.0022118203785250843 0 0.025245586815978362 0.0012464718016566307 0 0.026282358509309833 0.0029002598831749417 0 0.024595038233180773 0.0029213524041330759 0 0.025245586815978362 0.0012464718016566307 0 0.026365102158157246 0.0017459444577822396 0 0.027946738581940363 0.0024113749905810187 0 0.028119114636292974 0.0017616358719712512 0 0.027179992109539017 0.0014257790423562026 0 0.027914017089657614 0.0012429494328296501 0 0.028119114636292974 0.0017616358719712512 0 0.027914017089657614 0.0012429494328296501 0 0.028119114636292974 0.0017616358719712512 0 0.028701550533615446 0.0014118266456522414 0 0.028255525554772436 0.00073843424421842928 0 0.027914017089657614 0.0012429494328296501 0 0.028701550533615446 0.0014118266456522414 0 0.029652463547060786 0.0011192272084081325 0 0.028255525554772436 0.00073843424421842928 0 0.028701550533615446 0.0014118266456522414 0 0.028119114636292974 0.0017616358719712512 0 0.028701550533615446 0.0014118266456522414 0 0.02888632868585677 0.0019503317353228751 0 0.029652463547060786 0.0011192272084081325 0 0.028701550533615446 0.0014118266456522414 0 0.02888632868585677 0.0019503317353228751 0 0.027946738581940363 0.0024113749905810187 0 0.02888632868585677 0.0019503317353228751 0 0.029018685964780872 0.0026209554011609776 0 0.026282358509309833 0.0029002598831749417 0 0.025245586815978362 0.0012464718016566307 0 0.029018685964780872 0.0026209554011609776 0 0.027345622390888176 0.0020060511554474132 0 0.028539175477401084 0.0024658275494561159 0 0.010032490558635058 0.00081859008150605571 0 0.0099866058695981513 0.00083036594250233042 0 0.01001839368277236 0.00085680550230362988 0 0.010032490558635058 0.00081859008150605571 0 0.010041047851012334 0.00076777083692359627 0 0.010011542218993731 0.00078737161669156753 0 0.010032490558635058 0.00081859008150605571 0 0.010011542218993731 0.00078737161669156753 0 0.0099866058695981513 0.00083036594250233042 0 0.010032490558635058 0.00081859008150605571 0 0.010057612080594344 0.00083063921156175519 0 0.010047218055494923 0.00085684642691301891 0 0.010032490558635058 0.00081859008150605571 0 0.010057612080594344 0.00083063921156175519 0 0.010041047851012334 0.00076777083692359627 0 0.010057612080594344 0.00083063921156175519 0 0.010041047851012334 0.00076777083692359627 0 0.010054998500666389 0.00079808673626561156 0 0.010016833472264029 0.00077115619288010712 0 0.010041047851012334 0.00076777083692359627 0 0.010054998500666389 0.00079808673626561156 0 0.010069795816643988 0.0007840461308669767 0 0.010041047851012334 0.00076777083692359627 0 0.010034722729378208 0.00073656632257335813 0 0.010041047851012334 0.00076777083692359627 0 0.010034722729378208 0.00073656632257335813 0 0.010011542218993731 0.00078737161669156753 0 0.010034722729378208 0.00073656632257335813 0 0.0098894009281790349 0.00069347664861424613 0 0.0099462268681867524 0.00077689137421214471 0 0.0098802094789761808 0.00058389179277545434 0 0.010034722729378208 0.00073656632257335813 0 0.0098894009281790349 0.00069347664861424613 0 0.010034722729378208 0.00073656632257335813 0 0.010011542218993731 0.00078737161669156753 0 0.0099462268681867524 0.00077689137421214471 0 0.0098374328488426959 0.00074451718353205033 0 0.0098894009281790349 0.00069347664861424613 0 0.0099462268681867524 0.00077689137421214471 0 0.009783005614173626 0.00060174263303081825 0 0.0098374328488426959 0.00074451718353205033 0 0.0098894009281790349 0.00069347664861424613 0 0.009783005614173626 0.00060174263303081825 0 0.0097368289812921061 0.00061353101591041042 0 0.0098374328488426959 0.00074451718353205033 0 0.0098374328488426959 0.00074451718353205033 0 0.0099292201049064003 0.00081802481710226171 0 0.0099003458885777162 0.00083905395912157413 0 0.0098374328488426959 0.00074451718353205033 0 0.0099292201049064003 0.00081802481710226171 0 0.0099462268681867524 0.00077689137421214471 0 0.0099292201049064003 0.00081802481710226171 0 0.0099003458885777162 0.00083905395912157413 0 0.0099554797875495687 0.0008602803304329341 0 0.010011542218993731 0.00078737161669156753 0 0.0099462268681867524 0.00077689137421214471 0 0.0099866058695981513 0.00083036594250233042 0 0.0099292201049064003 0.00081802481710226171 0 0.0099462268681867524 0.00077689137421214471 0 0.0099866058695981513 0.00083036594250233042 0 0.0099292201049064003 0.00081802481710226171 0 0.0099866058695981513 0.00083036594250233042 0 0.0099554797875495687 0.0008602803304329341 0 0.0099866058695981513 0.00083036594250233042 0 0.0099897121078824629 0.00086613272559883485 0 0.01001839368277236 0.00085680550230362988 0 0.0099866058695981513 0.00083036594250233042 0 0.0099897121078824629 0.00086613272559883485 0 0.0099554797875495687 0.0008602803304329341 0 0.0099897121078824629 0.00086613272559883485 0 0.0099956897379685581 0.00088411143235690118 0 0.010010748195852683 0.00087569090101645506 0 0.0099897121078824629 0.00086613272559883485 0 0.0099554797875495687 0.0008602803304329341 0 0.0099759317680558172 0.00088447892679020812 0 0.0099897121078824629 0.00086613272559883485 0 0.0099956897379685581 0.00088411143235690118 0 0.0099759317680558172 0.00088447892679020812 0 0.0099956897379685581 0.00088411143235690118 0 0.010010748195852683 0.00087569090101645506 0 0.010032206257159547 0.00088998693726805023 0 0.010010748195852683 0.00087569090101645506 0 0.010032206257159547 0.00088998693726805023 0 0.01001839368277236 0.00085680550230362988 0 0.0099897121078824629 0.00086613272559883485 0 0.010010748195852683 0.00087569090101645506 0 0.01001839368277236 0.00085680550230362988 0 0.0099003458885777162 0.00083905395912157413 0 0.0099554797875495687 0.0008602803304329341 0 0.0099426707151655854 0.00087512417263244417 0 0.0099206789903571353 0.00087609196696695471 0 0.0099003458885777162 0.00083905395912157413 0 0.0099426707151655854 0.00087512417263244417 0 0.0099956897379685581 0.00088411143235690118 0 0.0099759317680558172 0.00088447892679020812 0 0.009970472296390951 0.00090221313092835325 0 0.0099554797875495687 0.0008602803304329341 0 0.0099759317680558172 0.00088447892679020812 0 0.0099606449539663862 0.00088389316048817057 0 0.0099759317680558172 0.00088447892679020812 0 0.0099670502998863379 0.00089379498256635212 0 0.009970472296390951 0.00090221313092835325 0 0.0099759317680558172 0.00088447892679020812 0 0.0099670502998863379 0.00089379498256635212 0 0.0099606449539663862 0.00088389316048817057 0 0.0099670502998863379 0.00089379498256635212 0 0.0099588988422831606 0.00089018514814219322 0 0.009970472296390951 0.00090221313092835325 0 0.0099670502998863379 0.00089379498256635212 0 0.0099606449539663862 0.00088389316048817057 0 0.0099588988422831606 0.00089018514814219322 0 0.0099554797875495687 0.0008602803304329341 0 0.0099606449539663862 0.00088389316048817057 0 0.0099426707151655854 0.00087512417263244417 0 0.0099206789903571353 0.00087609196696695471 0 0.0099426707151655854 0.00087512417263244417 0 0.0099523600900631049 0.00089117935124228198 0 0.0099606449539663862 0.00088389316048817057 0 0.0099426707151655854 0.00087512417263244417 0 0.0099588988422831606 0.00089018514814219322 0 0.0099426707151655854 0.00087512417263244417 0 0.0099588988422831606 0.00089018514814219322 0 0.0099523600900631049 0.00089117935124228198 0 0.0099588988422831606 0.00089018514814219322 0 0.0099523600900631049 0.00089117935124228198 0 0.009970472296390951 0.00090221313092835325 0 0.0099589813078758711 0.00090110174081897644 0 0.0099523600900631049 0.00089117935124228198 0 0.009970472296390951 0.00090221313092835325 0 0.025490968559718184 0.0020160532049991959 0 0.024559331751911901 0.0018110796682072911 0 0.02520613388678912 0.0013252829914362201 0 0.017389737069661397 0.0012459913941072188 0 0.017630010439816289 0.0013249341843672791 0 0.017568382974934214 0.001250805765701821 0 0.017873140954967434 0.0012611401481716811 0 0.014911502185363123 0.0015211353576484532 0 0.017873140954967434 0.0012611401481716811 0 0.019685037842389518 0.0019724666063175703 0 0.019685037842389518 0.0019724666063175703 0 0.014911502185363123 0.0015211353576484532 0 0.024339997493443885 0.00094299675431203729 0 0.024559331751911901 0.0018110796682072911 0 0.02520613388678912 0.0013252829914362201 0 0.014911502185363123 0.0015211353576484532 0 0.012416796564846528 0.0020762004446467897 0 0.019685037842389518 0.0019724666063175703 0 0.0182846466492745 0.0016608347302058863 0 0.0099956897379685581 0.00088411143235690118 0 0.009970472296390951 0.00090221313092835325 0 0.010032206257159547 0.00088998693726805023 0 0.016346611048947982 0.002963355221318143 0 0.015392372676056474 0.0027640691068084294 0 0.015546353336475362 0.0031509372515232613 0 0.016346611048947982 0.002963355221318143 0 0.016455234877704311 0.0030855053625940079 0 0.015546353336475362 0.0031509372515232613 0 0.021458245411212318 0.0010875003024862194 0 0.02089543803840262 0.00049609423189167382 0 0.021646295039938264 0.00066893279044191506 0 0.015392372676056474 0.0027640691068084294 0 0.015546353336475362 0.0031509372515232613 0 0.014681338122549761 0.0031949709404709811 0 0.012416796564846528 0.0020762004446467897 0 0.012460492054894471 0.0020345876072106251 0 0.010032206257159547 0.00088998693726805023 0 0.010047218055494923 0.00085684642691301891 0 0.01001839368277236 0.00085680550230362988 0 0.010032206257159547 0.00088998693726805023 0 0.010047218055494923 0.00085684642691301891 0 0.010077580856849217 0.00088112417405441991 0 0.010032490558635058 0.00081859008150605571 0 0.010047218055494923 0.00085684642691301891 0 0.01001839368277236 0.00085680550230362988 0 0.010057612080594344 0.00083063921156175519 0 0.010047218055494923 0.00085684642691301891 0 0.010077580856849217 0.00088112417405441991 0 0.010057612080594344 0.00083063921156175519 0 0.010077580856849217 0.00088112417405441991 0 0.010085908159729947 0.00085306027220910432 0 0.014506154803270303 0.0025855495677792905 0 0.015392372676056474 0.0027640691068084294 0 0.014681338122549761 0.0031949709404709811 0 0.014506154803270303 0.0025855495677792905 0 0.014681338122549761 0.0031949709404709811 0 0.014005385342789292 0.0028233568738858911 0 0.014681338122549761 0.0031949709404709811 0 0.014005385342789292 0.0028233568738858911 0 0.01390458211541082 0.0031912351076095252 0 0.014005385342789292 0.0028233568738858911 0 0.01390458211541082 0.0031912351076095252 0 0.013609512200118513 0.0028971922711034212 0 0.010125542045851152 0.00090185126107057646 0 0.010085908159729947 0.00085306027220910432 0 0.01014951758750595 0.00082490065827462084 0 0.010077580856849217 0.00088112417405441991 0 0.010125542045851152 0.00090185126107057646 0 0.010085908159729947 0.00085306027220910432 0 0.012460492054894471 0.0020345876072106251 0 0.012008933666761123 0.0020024852959834205 0 0.010057612080594344 0.00083063921156175519 0 0.010085908159729947 0.00085306027220910432 0 0.010054998500666389 0.00079808673626561156 0 0.010085908159729947 0.00085306027220910432 0 0.010054998500666389 0.00079808673626561156 0 0.01014951758750595 0.00082490065827462084 0 0.010054998500666389 0.00079808673626561156 0 0.010053300956844563 0.00076768202210754811 0 0.01014951758750595 0.00082490065827462084 0 0.0096831085211510955 0.00063435643194365877 0 0.0096227621056102046 0.0010327746010270283 0 0.010016833472264029 0.00077115619288010712 0 0.010054998500666389 0.00079808673626561156 0 0.010053300956844563 0.00076768202210754811 0 0.010927305357360407 0.0011369766634987269 0 0.012728275134924597 -0.00073351676717664722 0 0.0094044517394442379 -9.8614349066534685e-05 0 0.0092068548135355276 0.00031377469615619851 0 0.0093892785187246405 0.0014973953466028422 0 0.0094044517394442379 -9.8614349066534685e-05 0 0.010927305357360407 0.0011369766634987269 0 0.0093892785187246405 0.0014973953466028422 0 0.0094044517394442379 -9.8614349066534685e-05 0 0.010927305357360407 0.0011369766634987269 0 0.0093892785187246405 0.0014973953466028422 0 0.010878553931042182 0.0021974285671810382 0 0.010927305357360407 0.0011369766634987269 0 0.010878553931042182 0.0021974285671810382 0 0.011809827019013645 0.0023300246660909688 0 0.010878553931042182 0.0021974285671810382 0 0.011809827019013645 0.0023300246660909688 0 0.011944423282952239 0.0033734140108470224 0 0.011944423282952239 0.0033734140108470224 0 0.012358879274067416 0.0033649305877616318 0 0.012622552779277841 0.0030830900387991442 0 0.010878553931042182 0.0021974285671810382 0 0.011944423282952239 0.0033734140108470224 0 0.010699521830284144 0.0034977967289192544 0 0.011763231798856948 0.003022479680392647 0 0.011765226180199075 0.0025558401268567605 0 0.012008933666761123 0.0020024852959834205 0 0.011765226180199075 0.0025558401268567605 0 0.0093892785187246405 0.0014973953466028422 0 0.010878553931042182 0.0021974285671810382 0 0.010699521830284144 0.0034977967289192544 0 0.010125542045851152 0.00090185126107057646 0 0.01014951758750595 0.00082490065827462084 0 0.010228795523530029 0.000921997974604791 0 0.0096227621056102046 0.0010327746010270283 0 0.011765226180199075 0.0025558401268567605 0 0.01390458211541082 0.0031912351076095252 0 0.013340333816247128 0.0032617156079036785 0 0.013609512200118513 0.0028971922711034212 0 0.013340333816247128 0.0032617156079036785 0 0.013384197392114969 0.0030194327884406321 0 0.013609512200118513 0.0028971922711034212 0 0.013564001762784151 0.0027181363273820073 0 0.013384197392114969 0.0030194327884406321 0 0.012961518516269338 0.00303991715352213 0 0.013564001762784151 0.0027181363273820073 0 0.013384197392114969 0.0030194327884406321 0 0.013609512200118513 0.0028971922711034212 0 0.011944423282952239 0.0033734140108470224 0 0.012358879274067416 0.0033649305877616318 0 0.012961518516269338 0.00303991715352213 0 0.011944423282952239 0.0033734140108470224 0 0.012249016909860116 0.0033662739408348644 0 0.012961518516269338 0.00303991715352213 0 0.011765226180199075 0.0025558401268567605 0 0.013029813471917187 0.0033536336617118424 0 0.013340333816247128 0.0032617156079036785 0 0.013384197392114969 0.0030194327884406321 0 0.012961518516269338 0.00303991715352213 0 0.012358879274067416 0.0033649305877616318 0 0.012961518516269338 0.00303991715352213 0 0.012283599143745343 0.0034171885388157852 0 0.012283599143745343 0.0034171885388157852 0 0.01381778263642249 0.0033912879164884825 0 0.012622552779277841 0.0030830900387991442 0 0.012358879274067416 0.0033649305877616318 0 0.012283599143745343 0.0034171885388157852 0 0.012622552779277841 0.0030830900387991442 0 0.018023991551715871 0.0014127457750969916 0 0.017094557995455981 0.0013555954775128288 0 0.017836256751269305 0.00055844792381472036 0 0.017094557995455981 0.0013555954775128288 0 0.016073543057216512 0.00077866222458062857 0 0.017836256751269305 0.00055844792381472036 0 0.014248886780077651 0.0021572235042614241 0 0.015790214572424782 0.0019429600270040644 0 0.01381778263642249 0.0033912879164884825 0 0.012622552779277841 0.0030830900387991442 0 0.013936979109077766 0.0021550369375838894 0 0.011809827019013645 0.0023300246660909688 0 0.011944423282952239 0.0033734140108470224 0 0.012622552779277841 0.0030830900387991442 0 0.017836256751269305 0.00055844792381472036 0 0.018766640681759369 0.00095936938760254203 0 0.01835220567641007 0.00075483007645980665 0 0.018433259606252417 0.001354909040300506 0 0.017836256751269305 0.00055844792381472036 0 0.018766640681759369 0.00095936938760254203 0 0.018433259606252417 0.001354909040300506 0 0.018023991551715871 0.0014127457750969916 0 0.017836256751269305 0.00055844792381472036 0 0.01381778263642249 0.0033912879164884825 0 0.015794976498522004 0.0024688019212101937 0 0.013936979109077766 0.0021550369375838894 0 0.015790214572424782 0.0019429600270040644 0 0.017048324068487823 0.0015843322360280874 0 0.018188705787379394 0.00098810721169859919 0 0.018766640681759369 0.00095936938760254203 0 0.01835220567641007 0.00075483007645980665 0 0.017687056043630533 0.0011917956775824618 0 0.017048324068487823 0.0015843322360280874 0 0.017716787845996805 0.0011582992728518423 0 0.015794976498522004 0.0024688019212101937 0 0.016349604464055027 0.00038412250436283235 0 0.015794976498522004 0.0024688019212101937 0 0.014592373356607751 0.00090098378429594725 0 0.013936979109077766 0.0021550369375838894 0 0.015794976498522004 0.0024688019212101937 0 0.014592373356607751 0.00090098378429594725 0 0.016349604464055027 0.00038412250436283235 0 0.010927305357360407 0.0011369766634987269 0 0.011809827019013645 0.0023300246660909688 0 0.012658118335582457 0.001683822014339832 0 0.012622552779277841 0.0030830900387991442 0 0.012658118335582457 0.001683822014339832 0 0.013936979109077766 0.0021550369375838894 0 0.011809827019013645 0.0023300246660909688 0 0.012622552779277841 0.0030830900387991442 0 0.012658118335582457 0.001683822014339832 0 0.014592373356607751 0.00090098378429594725 0 0.012658118335582457 0.001683822014339832 0 0.013936979109077766 0.0021550369375838894 0 0.014592373356607751 0.00090098378429594725 0 0.012658118335582457 0.001683822014339832 0 0.012728275134924597 -0.00073351676717664722 0 0.010927305357360407 0.0011369766634987269 0 0.012658118335582457 0.001683822014339832 0 0.012728275134924597 -0.00073351676717664722 0 0.014592373356607751 0.00090098378429594725 0 0.012728275134924597 -0.00073351676717664722 0 0.015283922311606865 -0.00083787714780992749 0 0.009598964139182398 -0.0001784910852079083 0 0.010429645826989187 -3.2507125333496049e-05 0 0.0064520417169278222 0.00030808674403046295 0 0.0056231892256669753 0.00073648092311864074 0 0.0059915441400375238 0.001261972987789466 0 0.0064520417169278222 0.00030808674403046295 0 0.0059915441400375238 0.001261972987789466 0 0.0068328604301622423 0.0017171648374909086 0 0.017242137823578585 -0.00029685176221163218 0 0.016349604464055027 0.00038412250436283235 0 0.015283922311606865 -0.00083787714780992749 0 0.017351635361894824 0.00046368485931838041 0 0.017242137823578585 -0.00029685176221163218 0 0.016349604464055027 0.00038412250436283235 0 0.014592373356607751 0.00090098378429594725 0 0.016349604464055027 0.00038412250436283235 0 0.015283922311606865 -0.00083787714780992749 0 0.0056231892256669753 0.00073648092311864074 0 0.0055852713650167288 0.0012005166179231725 0 0.0059915441400375238 0.001261972987789466 0 0.0051270105314838253 0.0010219039912627284 0 0.0056231892256669753 0.00073648092311864074 0 0.0055852713650167288 0.0012005166179231725 0 0.011131778430612971 0.00037899034246896253 0 0.010429645826989187 -3.2507125333496049e-05 0 0.0051270105314838253 0.0010219039912627284 0 0.0055852713650167288 0.0012005166179231725 0 0.0053281463374285319 0.0014394981871328604 0 0.0055852713650167288 0.0012005166179231725 0 0.0059915441400375238 0.001261972987789466 0 0.0057982505588803999 0.0014946924749365958 0 0.0055852713650167288 0.0012005166179231725 0 0.0053281463374285319 0.0014394981871328604 0 0.0057982505588803999 0.0014946924749365958 0 0.0053892053766108642 0.0017452720334924588 0 0.0053281463374285319 0.0014394981871328604 0 0.0057982505588803999 0.0014946924749365958 0 0.0050113477147392445 0.0015451696981012536 0 0.0051556571994434671 0.0016876499338306385 0 0.0053281463374285319 0.0014394981871328604 0 0.0060482708581212586 0.0014555669154434675 0 0.0060506068065227609 0.0013428365912491543 0 0.0068328604301622423 0.0017171648374909086 0 0.0059915441400375238 0.001261972987789466 0 0.0060482708581212586 0.0014555669154434675 0 0.0068328604301622423 0.0017171648374909086 0 0.0059915441400375238 0.001261972987789466 0 0.0060482708581212586 0.0014555669154434675 0 0.0057982505588803999 0.0014946924749365958 0 0.0058638090259878952 0.001435382018327164 0 0.0060482708581212586 0.0014555669154434675 0 0.0057982505588803999 0.0014946924749365958 0 0.0058648551343879109 0.0010733917173927764 0 0.0059833405179479781 0.0013166673280752576 0 0.0058638090259878952 0.001435382018327164 0 0.0060482708581212586 0.0014555669154434675 0 0.0060506068065227609 0.0013428365912491543 0 0.0052545355714842829 0.00059322379398342711 0 0.0053429716805468343 0.0011067148409635275 0 0.0060506068065227609 0.0013428365912491543 0 0.0053429716805468343 0.0011067148409635275 0 0.0060506068065227609 0.0013428365912491543 0 0.0057392581166503896 0.0014540292358370425 0 0.0068328604301622423 0.0017171648374909086 0 0.0057392581166503896 0.0014540292358370425 0 0.0053235540804755016 0.0021148942026240972 0 0.0060506068065227609 0.0013428365912491543 0 0.0068328604301622423 0.0017171648374909086 0 0.0057392581166503896 0.0014540292358370425 0 0.0067496853955036438 0.0018054230253810866 0 0.0072994499831822851 0.0012577671662047621 0 0.0057392581166503896 0.0014540292358370425 0 0.0053235540804755016 0.0021148942026240972 0 0.0048976407914660671 0.0013538488831653177 0 0.0075408022282087419 0.0013499621884744246 0 0.0077002922902723193 0.0013481626968716509 0 0.0074233654092009105 0.0004215141889291816 0 0.0084603427197723468 0.00045400768939128893 0 0.0084297217805228766 0.000186238995953055 0 0.0082602370914183019 0.00027933791902361648 0 0.0083470082042905337 0.0010161867877267734 0 0.0072151664568735211 0.0005070542779709343 0 0.0072994499831822851 0.0012577671662047621 0 0.0072151664568735211 0.0005070542779709343 0 0.0083470082042905337 0.0010161867877267734 0 0.0072994499831822851 0.0012577671662047621 0 0.008254320669268558 -0.00032858120896796825 0 0.0072151664568735211 0.0005070542779709343 0 0.004759357504010707 0.00069081424000711422 0 0.0053429716805468343 0.0011067148409635275 0 0.0048976407914660671 0.0013538488831653177 0 0.0053429716805468343 0.0011067148409635275 0 0.0057392581166503896 0.0014540292358370425 0 0.0048976407914660671 0.0013538488831653177 0 0.0083263336873996424 -0.00018928592873734127 0 0.0084297217805228766 0.000186238995953055 0 0.0082047697041317882 4.77137937335868e-05 0 0.0082047697041317882 4.77137937335868e-05 0 0.0080923615349324952 0.00024363313822731381 0 0.0082602370914183019 0.00027933791902361648 0 0.0084297217805228766 0.000186238995953055 0 0.0082047697041317882 4.77137937335868e-05 0 0.0082602370914183019 0.00027933791902361648 0 0.0082047697041317882 4.77137937335868e-05 0 0.0079585827342625783 7.7276521976222658e-05 0 0.0080923615349324952 0.00024363313822731381 0 0.0077749033872993797 0.00045102111288402056 0 0.0079585827342625783 7.7276521976222658e-05 0 0.0080923615349324952 0.00024363313822731381 0 0.0077749033872993797 0.00045102111288402056 0 0.0080923615349324952 0.00024363313822731381 0 0.0081102077735400041 0.00044978753479090725 0 0.0083470082042905337 0.0010161867877267734 0 0.009039888431289991 0.00078046102554024655 0 0.0084603427197723468 0.00045400768939128893 0 0.0081102077735400041 0.00044978753479090725 0 0.0082602370914183019 0.00027933791902361648 0 0.0080923615349324952 0.00024363313822731381 0 0.0081102077735400041 0.00044978753479090725 0 0.0082602370914183019 0.00027933791902361648 0 0.0091625391231276113 0.0013656808815423961 0 0.0098242055949277363 0.0010591034496390838 0 0.0094038654717244312 0.0011053053802614616 0 0.0098242055949277363 0.0010591034496390838 0 0.0095544045629476684 0.00090437260487959072 0 0.0098939513847651119 0.00080885895333168332 0 0.0098242055949277363 0.0010591034496390838 0 0.0094038654717244312 0.0011053053802614616 0 0.0095544045629476684 0.00090437260487959072 0 0.0095544045629476684 0.00090437260487959072 0 0.0098939513847651119 0.00080885895333168332 0 0.0094194061537819385 0.00060544169021986278 0 0.0095544045629476684 0.00090437260487959072 0 0.0094194061537819385 0.00060544169021986278 0 0.0093034821798057728 0.00085873901644377654 0 0.0094038654717244312 0.0011053053802614616 0 0.0095544045629476684 0.00090437260487959072 0 0.0093034821798057728 0.00085873901644377654 0 0.0089254904105435743 0.00040558326092462094 0 0.009039888431289991 0.00078046102554024655 0 0.010080785281267907 0.00094002568478509163 0 0.0098242055949277363 0.0010591034496390838 0 0.0098939513847651119 0.00080885895333168332 0 0.010016833472264029 0.00077115619288010712 0 0.010053300956844563 0.00076768202210754811 0 0.009981441893849731 0.00077775313257667214 0 0.010053300956844563 0.00076768202210754811 0 0.0098939513847651119 0.00080885895333168332 0 0.009981441893849731 0.00077775313257667214 0 0.010016833472264029 0.00077115619288010712 0 0.010021166046400002 0.00080429232619141412 0 0.009981441893849731 0.00077775313257667214 0 0.010021166046400002 0.00080429232619141412 0 0.0098939513847651119 0.00080885895333168332 0 0.009981441893849731 0.00077775313257667214 0 0.0092068548135355276 0.00031377469615619851 0 0.0098939513847651119 0.00080885895333168332 0 0.0094194061537819385 0.00060544169021986278 0 0.0096831085211510955 0.00063435643194365877 0 0.0098618323621894564 0.00079530239238367352 0 0.0092068548135355276 0.00031377469615619851 0 0.0094194061537819385 0.00060544169021986278 0 0.0092600705744715853 0.00040686627380365605 0 0.0092600705744715853 0.00040686627380365605 0 0.0094044517394442379 -9.8614349066534685e-05 0 0.0082111050756887675 0.00088995986563299026 0 0.0092068548135355276 0.00031377469615619851 0 0.0092600705744715853 0.00040686627380365605 0 0.0094044517394442379 -9.8614349066534685e-05 0 0.009598964139182398 -0.0001784910852079083 0 0.0093805578917866561 -0.00011345107505222783 0 0.0064520417169278222 0.00030808674403046295 0 0.0094044517394442379 -9.8614349066534685e-05 0 0.0082111050756887675 0.00088995986563299026 0 0.0068328604301622423 0.0017171648374909086 0 0.0082111050756887675 0.00088995986563299026 0 0.0091526699214823041 0.0013245999490365044 0 0.0064520417169278222 0.00030808674403046295 0 0.0068328604301622423 0.0017171648374909086 0 0.0082111050756887675 0.00088995986563299026 0 0.0068328604301622423 0.0017171648374909086 0 0.0088678768282693232 0.0016889210737304153 0 0.0091526699214823041 0.0013245999490365044 0 0.0091625391231276113 0.0013656808815423961 0 0.0094038654717244312 0.0011053053802614616 0 0.0091526699214823041 0.0013245999490365044 0 0.0083470082042905337 0.0010161867877267734 0 0.0084447870635181669 0.0011659664214814325 0 0.0094038654717244312 0.0011053053802614616 0 0.0091526699214823041 0.0013245999490365044 0 0.0093034821798057728 0.00085873901644377654 0 0.0091941388947393583 0.0016832974082587667 0 0.0088678768282693232 0.0016889210737304153 0 0.0091526699214823041 0.0013245999490365044 0 0.0094194061537819385 0.00060544169021986278 0 0.0092600705744715853 0.00040686627380365605 0 0.0093034821798057728 0.00085873901644377654 0 0.0091526699214823041 0.0013245999490365044 0 0.0093034821798057728 0.00085873901644377654 0 0.0090106606751920726 0.00087022317359360503 0 0.0092600705744715853 0.00040686627380365605 0 0.0093034821798057728 0.00085873901644377654 0 0.0090106606751920726 0.00087022317359360503 0 0.0092600705744715853 0.00040686627380365605 0 0.0082111050756887675 0.00088995986563299026 0 0.0090106606751920726 0.00087022317359360503 0 0.0082111050756887675 0.00088995986563299026 0 0.0091526699214823041 0.0013245999490365044 0 0.0090106606751920726 0.00087022317359360503 0 
</DataArray>
</PointData>
<CellData Scalars="region_id,cross_section_updated," Vectors="" Tensors="stress,">
<DataArray type="Float64" Name="region_id" format="ascii">
5 5 5 5 5 5 5 5 6 5 5 5 5 5 5 5 5 6 5 5 5 5 5 5 6 5 5 5 5 5 5 5 5 5 5 6 5 5 5 5 5 5 6 5 5 5 5 5 5 5 5 5 5 5 5 6 5 5 5 5 5 5 5 5 5 5 5 5 5 6 5 5 5 5 5 5 5 5 5 5 5 5 5 5 5 5 5 5 5 5 5 5 5 6 5 6 5 6 5 5 5 6 5 5 5 5 5 5 5 5 5 6 5 5 5 5 5 5 5 5 5 5 5 5 5 5 5 5 5 5 5 5 6 5 5 5 5 5 6 5 5 5 5 5 5 6 5 5 6 5 5 5 5 5 6 5 5 5 5 5 5 5 5 5 5 5 5 5 6 5 5 5 5 5 5 5 5 5 5 5 5 5 5 5 5 5 5 5 5 6 5 5 6 5 5 6 5 5 5 5 5 6 5 5 5 5 5 5 5 5 6 5 5 5 6 5 5 5 5 6 5 5 5 5 5 5 5 5 5 5 6 5 5 5 5 5 5 5 5 5 5 5 6 5 5 5 5 6 5 5 6 5 5 5 6 5 5 5 6 5 5 5 5 5 5 5 6 5 6 5 5 5 5 5 5 5 5 5 5 5 5 5 5 5 5 5 5 5 5 5 5 5 5 5 5 5 5 5 5 5 5 5 5 5 6 5 5 5 6 5 5 5 5 5 5 6 5 5 5 5 5 5 5 5 5 5 6 5 5 5 5 5 5 5 6 5 6 5 5 5 6 5 5 5 5 5 5 6 5 5 5 6 5 6 5 5 5 5 5 5 5 5 5 5 5 5 5 5 5 6 5 5 5 5 5 5 5 5 5 5 5 5 5 5 5 5 5 5 5 5 5 5 5 5 5 6 5 5 5 5 6 5 5 5 6 5 5 5 5 5 5 5 5 5 6 5 5 6 5 6 5 6 5 5 5 5 5 5 6 5 5 5 5 5 5 5 5 5 5 5 5 5 5 5 5 5 5 5 5 5 5 5 5 5 5 5 6 6 5 5 5 5 5 6 6 5 6 5 5 5 5 6 5 5 5 6 5 5 5 5 5 5 5 5 5 5 5 5 5 5 6 5 6 5 5 6 6 6 5 6 6 5 5 5 5 5 5 5 5 5 6 5 5 6 5 5 5 6 5 5 5 5 6 5 5 6 5 5 5 5 6 5 5 5 5 5 5 5 5 5 6 5 5 5 5 5 5 5 6 5 5 6 5 5 5 6 6 5 5 5 5 6 5 5 5 5 6 5 5 5 5 5 5 5 5 5 5 6 5 6 5 5 5 6 5 5 6 5 5 5 5 5 5 5 5 5 5 5 5 5 5 5 5 6 5 5 6 5 5 5 5 5 5 5 5 5 5 5 5 6 5 5 6 6 6 5 5 6 5 6 5 5 6 5 5 6 5 6 5 6 6 5 5 6 5 5 5 6 5 5 5 5 6 5 5 5 6 6 5 5 5 6 5 5 6 5 5 5 5 6 5 5 6 6 5 5 6 5 5 6 5 6 5 5 5 5 5 5 5 5 6 5 5 5 5 6 5 5 5 5 6 5 5 5 5 5 5 5 5 5 6 5 5 6 5 5 5 5 5 5 5 5 5 5 5 5 5 5 5 5 5 5 5 5 6 5 5 6 5 6 5 5 5 5 5 5 5 5 5 5 5 5 5 5 6 5 5 5 5 6 5 5 5 5 5 5 5 5 5 5 5 5 5 5 5 5 5 5 5 5 5 5 5 5 5 5 5 5 6 5 5 6 5 5 5 5 6 5 5 5 5 5 5 6 5 5 6 5 6 5 5 5 5 6 5 6 6 5 5 6 5 5 5 5 5 5 5 5 5 5 5 5 5 5 5 6 5 5 5 5 5 5 5 5 5 5 5 5 5 5 5 5 5 5 5 5 5 6 5 5 5 5 6 5 5 5 5 5 5 5 6 5 5 5 5 5 5 5 5 5 5 5 5 5 5 5 5 5 5 5 5 5 5 5 5 5 5 5 5 5 5 5 5 5 5 5 5 5 5 5 5 5 5 5 5 5 5 5 5 5 5 5 5 5 5 5 6 5 5 6 5 6 5 5 5 5 5 5 5 5 5 5 6 5 5 5 5 6 6 5 5 5 5 5 5 5 6 6 5 5 5 5 5 5 5 6 5 5 5 5 5 5 5 5 5 5 5 5 5 5 5 5 5 5 5 5 6 5 5 5 5 5 5 5 5 6 5 5 6 5 5 5 5 5 5 5 5 5 5 5 5 5 5 5 5 5 5 5 5 5 5 5 5 5 5 5 5 6 5 5 5 5 5 5 5 5 5 5 5 5 5 5 5 5 5 5 5 5 5 5 5 6 5 5 5 5 5 5 5 5 5 5 5 5 5 5 5 5 5 5 5 6 5 5 5 5 6 5 5 5 5 5 6 5 5 5 5 5 6 5 5 5 6 5 5 5 6 5 5 6 5 6 5 5 5 6 5 5 5 5 6 5 5 5 5 5 5 5 5 5 5 5 5 5 5 5 5 5 5 5 5 6 5 5 5 5 5 5 6 5 5 5 6 5 5 5 5 5 5 5 5 5 6 5 5 5 5 6 5 5 5 5 5 5 6 5 5 5 6 5 5 5 5 6 5 5 5 5 5 5 5 5 5 5 6 5 5 5 5 5 5 5 5 5 5 6 5 5 5 6 5 5 5 5 5 5 5 5 5 5 5 6 5 5 5 5 5 5 6 6 5 6 5 5 5 5 5 5 5 5 5 5 5 5 6 6 5 5 5 5 6 5 6 5 5 5 5 5 5 5 5 5 6 5 6 5 5 6 5 5 6 5 5 6 5 6 5 5 5 6 5 5 5 6 6 5 5 5 6 5 6 5 5 5 5 5 5 5 5 5 5 5 5 5 6 5 6 5 6 5 5 6 5 5 5 5 5 6 5 5 5 5 5 5 5 5 5 5 5 5 5 5 5 5 5 5 5 5 5 5 5 5 5 5 5 5 5 5 6 5 5 5 5 6 5 5 6 5 5 5 5 5 5 5 5 5 5 5 6 5 5 5 5 5 5 5 5 5 5 5 5 5 5 6 5 6 6 5 5 5 6 5 5 5 5 5 5 5 5 5 5 5 5 6 5 5 5 5 5 5 6 5 5 5 5 6 5 5 5 5 5 5 6 5 5 5 5 5 5 5 6 5 6 5 5 6 5 6 5 5 5 5 5 5 5 5 5 5 5 5 5 5 5 5 5 5 5 5 5 5 5 5 5 5 5 5 5 5 5 5 5 5 5 5 5 5 5 6 5 5 5 5 5 5 5 5 5 5 5 5 5 5 5 5 5 5 5 5 5 5 5 5 5 5 5 5 5 5 5 6 5 5 5 5 6 5 5 5 5 5 5 6 5 6 5 5 6 5 5 5 5 5 6 5 5 6 5 5 5 5 5 6 5 5 5 5 5 5 5 5 5 5 5 5 5 6 5 6 5 5 6 5 5 5 5 6 5 5 5 5 5 5 5 5 5 5 6 5 5 5 5 5 5 5 5 5 5 5 5 5 5 5 5 5 5 6 5 5 5 5 5 5 5 5 5 5 5 5 5 5 5 5 6 5 5 5 5 5 5 5 5 5 5 5 5 5 6 5 5 5 6 5 5 5 5 5 5 5 5 5 5 5 5 5 5 6 5 5 5 6 5 5 5 5 5 5 5 6 5 5 6 5 5 5 5 5 5 5 5 6 5 5 5 5 5 5 5 5 5 5 5 5 5 5 5 5 5 5 5 5 5 5 5 5 5 5 5 5 5 5 6 5 5 6 5 5 5 5 5 5 5 5 5 5 5 5 5 6 5 5 5 5 5 5 5 5 5 5 5 5 5 5 5 5 5 5 5 5 5 5 5 5 5 5 5 5 5 5 5 5 5 6 5 5 5 5 5 5 5 5 5 6 5 5 5 5 5 5 5 5 5 5 5 5 5 5 5 5 5 5 5 5 5 5 5 5 5 5 5 5 5 5 5 5 5 5 5 5 5 5 5 6 5 5 6 5 5 5 6 6 5 5 5 5 5 5 5 5 6 5 5 6 5 6 5 5 5 6 5 5 6 6 5 6 5 6 5 6 6 5 5 6 5 5 5 5 6 5 5 5 5 5 5 5 5 6 5 5 6 5 6 5 5 5 5 5 5 5 5 5 5 5 5 5 5 5 5 5 5 5 6 5 5 5 5 5 5 5 5 5 5 5 5 5 5 5 5 6 5 5 6 6 5 5 5 5 5 5 5 5 6 6 5 5 5 6 5 6 5 5 5 5 5 6 5 5 5 5 5 5 5 5 6 5 6 5 5 5 5 5 5 5 5 5 5 5 5 5 6 5 6 5 5 6 5 5 6 5 5 5 5 5 6 5 6 5 5 5 5 5 5 5 6 6 5 5 6 5 5 6 6 5 5 5 5 5 5 5 5 5 5 5 5 5 5 5 5 6 6 5 5 5 5 5 5 5 5 5 6 5 5 5 6 5 5 5 5 5 5 5 5 5 5 5 5 5 5 5 5 5 5 5 5 5 6 5 5 5 5 5 5 5 5 5 5 5 5 6 6 5 5 6 6 5 5 5 5 6 5 5 5 6 5 6 5 5 6 5 5 6 5 5 5 6 5 5 5 5 6 5 5 5 5 5 5 5 5 5 5 5 5 5 5 5 5 5 5 5 5 5 5 5 5 5 5 5 5 5 5 5 5 5 5 5 5 5 5 5 5 6 5 5 5 5 5 6 5 5 5 5 5 5 5 5 5 5 6 5 5 5 5 5 5 6 5 6 5 5 5 5 6 5 5 5 5 5 5 5 5 5 5 5 5 5 5 5 5 5 5 5 5 6 5 5 6 5 5 5 5 5 5 5 5 5 5 5 6 5 5 5 5 5 5 5 5 5 5 6 5 5 5 5 5 5 5 5 5 5 5 5 5 5 5 5 5 5 5 5 5 5 5 5 5 5 5 5 5 5 6 5 5 5 5 5 5 5 6 5 5 5 5 6 5 6 5 5 5 5 6 5 5 6 5 5 5 5 5 5 5 6 5 5 6 5 6 5 5 5 5 6 6 5 6 5 5 6 5 6 5 5 5 6 5 6 6 5 5 6 5 5 5 5 5 6 5 5 5 5 5 6 5 5 5 5 6 5 5 5 5 5 5 5 5 5 5 5 5 5 5 5 6 5 5 5 5 6 5 5 5 5 5 5 5 6 6 5 5 5 5 6 5 6 5 5 5 5 5 5 5 6 5 5 5 5 5 6 5 5 5 6 5 5 6 5 6 5 5 5 6 5 5 5 6 6 5 5 5 5 5 5 5 5 5 5 5 5 5 5 5 5 5 5 5 5 6 5 5 5 5 5 5 5 6 5 5 5 5 5 5 5 5 5 5 5 5 5 5 5 5 5 5 6 5 5 5 5 5 5 5 5 5 5 5 5 5 5 5 5 5 5 5 5 5 5 5 5 5 5 5 5 5 5 5 6 5 5 5 5 5 5 5 5 5 5 5 5 5 5 5 5 5 5 5 5 5 5 5 6 5 5 5 5 6 5 5 5 5 5 6 5 5 5 5 5 5 5 5 5 5 5 5 5 5 5 5 5 5 5 6 5 5 5 6 6 5 5 6 5 5 6 5 5 5 5 6 5 5 6 5 6 5 5 5 5 5 5 5 6 5 5 5 5 5 6 5 5 5 5 5 5 5 5 5 6 5 5 5 5 5 5 5 5 5 5 6 5 6 5 5 6 5 5 5 5 6 5 5 5 5 5 6 5 5 5 5 6 5 5 5 5 5 5 5 5 5 6 5 5 5 5 5 5 5 5 5 5 6 5 5 5 5 5 5 5 5 5 6 5 5 6 5 5 6 5 5 5 6 5 5 5 6 5 6 6 5 6 5 5 5 5 5 6 5 6 5 6 5 5 5 5 5 5 5 5 6 5 5 5 5 5 5 5 5 6 5 6 5 5 6 5 5 5 5 5 5 5 5 5 5 5 5 5 5 5 6 5 5 5 5 5 5 5 6 5 5 5 5 5 5 5 5 5 5 5 5 5 6 5 5 5 5 5 5 5 5 5 5 5 5 5 5 5 5 5 5 5 5 5 5 5 6 5 5 6 5 5 5 5 5 5 6 5 5 5 6 5 5 5 5 5 5 5 5 5 5 5 5 6 5 5 5 5 5 6 5 5 6 5 5 5 5 5 5 5 5 6 6 5 6 6 5 5 6 5 5 5 6 5 5 5 6 5 5 5 5 5 5 5 6 5 5 5 5 5 5 5 5 5 6 5 5 5 5 5 6 5 5 5 6 5 5 5 5 5 5 5 5 6 5 5 5 5 5 5 5 5 5 5 5 5 5 6 5 5 5 5 5 6 5 5 5 5 5 5 5 5 5 6 6 5 5 6 6 5 5 6 5 5 5 5 5 5 5 5 5 5 6 5 5 5 5 6 5 5 6 5 5 5 5 6 5 5 6 6 5 5 6 5 6 5 6 6 5 5 5 6 5 6 5 6 6 5 5 6 5 6 5 5 5 6 5 5 5 5 6 6 5 5 5 5 5 5 6 5 5 5 5 5 5 5 5 5 5 5 5 6 5 5 6 5 6 6 5 5 6 6 5 5 5 5 6 5 5 5 5 5 5 5 6 5 5 5 5 5 5 5 6 5 5 5 5 5 5 5 5 5 5 5 5 5 5 5 5 5 5 5 6 6 5 5 5 6 5 5 5 5 5 5 5 5 5 5 5 5 5 5 5 5 5 5 5 6 5 6 5 5 5 5 5 6 5 5 5 5 5 6 5 5 6 5 5 5 5 5 5 5 5 5 5 5 5 5 5 5 5 5 5 5 5 5 5 5 5 5 5 6 5 5 6 5 5 5 5 5 5 5 5 5 5 5 5 5 5 5 5 5 5 5 5 5 5 5 5 5 5 5 5 5 5 5 5 5 5 5 5 5 5 5 5 5 5 5 5 5 5 5 5 5 5 5 5 5 5 5 5 5 5 6 5 5 5 5 5 5 5 5 5 5 5 5 5 5 5 5 5 5 5 5 6 5 5 5 5 5 5 5 5 5 5 5 5 5 5 5 5 5 6 5 5 6 5 5 5 5 5 5 5 6 5 5 5 6 5 5 5 6 6 5 5 6 5 5 6 5 5 6 5 5 5 6 5 5 5 5 6 5 5 6 5 5 5 5 6 5 5 5 5 5 5 5 6 5 5 5 5 5 5 5 6 5 5 5 5 5 5 6 5 5 5 6 5 5 5 5 5 5 5 6 5 6 5 6 5 5 5 6 5 5 6 5 6 5 5 5 6 6 5 5 5 5 6 6 5 5 6 5 6 5 5 5 5 5 5 5 5 5 6 5 5 5 5 5 5 5 5 6 5 5 5 6 5 5 5 5 5 5 5 5 6 6 5 5 5 5 5 5 5 6 6 5 5 5 5 6 5 5 5 6 5 5 5 5 5 5 5 5 5 5 5 5 5 6 5 5 6 5 5 5 5 5 5 5 6 5 6 5 6 5 5 5 5 5 5 5 5 5 5 5 5 5 5 5 5 5 5 6 5 5 5 5 5 5 5 5 5 6 5 5 5 5 5 5 5 5 5 5 5 6 5 5 5 6 6 5 5 5 5 5 5 6 6 5 5 5 5 5 5 5 5 5 5 5 5 5 5 5 5 5 5 5 5 6 6 5 5 5 5 5 5 5 6 5 5 5 6 5 5 6 5 5 5 5 5 5 5 5 5 5 5 5 5 5 5 5 5 5 5 5 5 5 6 5 6 5 6 5 5 5 5 5 5 5 5 5 5 6 5 5 5 5 6 5 5 6 5 5 5 6 5 5 6 5 5 5 5 5 5 5 5 5 5 5 5 5 5 5 5 5 5 5 5 5 5 5 5 5 6 5 5 5 5 5 6 5 5 5 5 5 5 5 5 5 5 5 5 5 5 5 5 5 5 5 5 5 5 5 5 5 6 5 5 5 6 6 5 5 5 5 5 5 5 5 5 5 5 5 5 5 5 5 5 5 5 6 5 5 6 5 5 5 5 5 5 5 5 5 5 5 6 5 5 5 5 5 6 5 5 6 5 5 6 5 5 5 5 5 5 5 5 5 5 5 5 6 6 6 5 5 5 5 5 5 5 5 5 6 5 5 5 5 5 5 5 6 5 5 5 6 5 5 6 5 5 5 5 5 5 5 5 5 5 6 5 5 5 6 5 5 5 5 6 5 5 5 5 6 5 5 5 5 5 5 5 5 5 5 5 5 5 5 5 5 5 5 5 6 5 6 5 5 5 6 5 5 6 5 5 5 6 5 6 5 5 5 5 5 5 5 5 6 5 5 6 5 5 5 5 6 5 5 5 5 5 5 5 5 5 5 5 5 6 5 5 5 5 5 5 5 5 6 5 5 5 5 5 5 5 6 5 5 6 5 5 5 6 5 5 5 5 5 5 5 5 5 5 5 5 5 5 5 5 5 6 5 6 6 5 5 5 6 5 5 6 5 5 5 6 5 5 5 6 5 5 5 6 5 5 5 5 5 5 6 6 5 5 5 6 5 5 6 6 5 6 5 5 5 5 5 5 5 6 5 5 5 5 6 5 5 5 5 5 5 5 6 5 5 5 6 6 5 5 5 5 6 5 5 6 5 6 5 5 5 6 5 5 5 6 5 5 5 5 5 5 5 5 5 5 5 5 6 5 5 5 5 5 5 5 5 5 5 5 5 6 5 6 5 5 5 6 6 5 5 5 5 6 6 5 6 5 5 6 5 5 6 5 5 5 5 5 5 5 5 5 5 5 6 5 5 6 6 5 5 5 5 5 5 5 5 5 5 5 5 5 5 5 5 5 6 5 5 6 5 5 6 5 6 5 6 5 5 6 5 5 6 5 6 5 5 5 5 6 5 5 5 5 5 5 5 5 6 5 5 5 6 5 5 5 6 5 6 5 5 5 5 6 5 5 5 5 5 5 5 5 5 5 5 5 5 5 5 6 6 5 5 5 5 5 5 5 5 5 5 5 5 6 5 6 5 5 6 5 5 5 5 5 5 5 5 6 5 5 6 5 6 6 5 5 5 6 5 5 5 6 5 5 6 6 5 5 5 6 5 5 5 6 5 5 5 6 6 5 5 5 5 6 5 5 5 5 5 5 5 6 5 5 5 5 5 5 5 5 5 5 5 5 5 5 5 5 5 5 5 5 5 5 5 5 5 5 5 5 5 5 5 5 5 5 5 5 5 5 5 5 5 5 5 5 5 5 5 5 5 5 5 5 5 5 5 5 5 5 5 5 5 5 5 5 5 5 5 5 5 5 5 5 5 5 5 6 5 5 5 5 5 5 5 6 5 5 6 6 5 5 6 5 5 5 5 6 5 5 5 5 5 5 5 5 5 5 5 5 5 5 5 5 5 5 5 5 5 5 5 5 5 5 5 6 5 6 5 5 5 5 5 5 5 5 5 5 5 5 5 5 5 5 5 5 5 5 5 5 5 5 6 5 5 5 6 5 5 5 5 5 5 5 5 5 5 6 5 5 5 5 5 5 5 5 6 5 5 5 5 6 5 5 6 5 5 5 5 5 5 5 5 5 5 5 5 5 5 5 5 5 5 5 5 6 5 5 6 5 5 5 5 5 6 5 5 5 5 5 5 6 5 5 5 5 5 5 5 5 5 5 5 5 5 5 5 5 5 5 5 5 5 5 5 5 5 5 5 5 5 5 5 5 5 5 5 5 5 5 5 5 5 5 5 5 5 5 5 5 5 5 5 5 5 5 5 5 5 5 5 5 5 5 6 5 5 5 5 5 5 5 5 5 5 5 6 6 5 5 5 5 5 5 5 5 5 5 5 5 5 5 5 6 5 5 5 5 5 5 5 5 5 5 5 5 5 5 5 5 5 5 5 5 5 5 5 5 5 5 5 5 6 5 5 6 5 5 5 5 5 5 5 6 5 5 5 6 5 5 5 5 5 5 5 5 5 5 5 5 5 5 5 5 5 5 5 5 6 5 5 5 5 6 5 6 5 6 5 5 5 5 5 5 5 5 5 5 5 5 5 5 5 5 5 5 5 5 5 5 5 6 5 5 6 5 6 5 5 5 5 5 6 5 5 5 5 5 5 5 5 6 6 5 5 5 5 5 5 5 5 5 5 5 5 5 6 5 5 5 5 5 5 5 5 5 5 5 6 5 5 5 5 5 5 5 5 5 5 5 5 5 5 5 5 5 5 5 6 5 5 5 6 5 6 5 6 5 5 5 6 5 5 5 6 5 5 5 5 5 5 5 5 5 5 5 5 5 6 5 5 5 6 5 5 5 6 6 5 5 5 5 5 5 5 5 5 5 5 5 5 5 5 5 5 5 5 5 5 5 5 5 5 5 5 6 5 5 5 5 5 6 5 5 5 5 5 5 5 5 5 5 5 5 5 5 5 5 6 5 5 5 5 6 5 5 5 6 5 5 5 5 5 6 5 5 5 6 5 5 5 5 5 5 5 5 5 5 5 5 5 5 5 5 5 5 5 6 5 5 5 5 5 5 5 5 5 5 5 5 5 5 6 5 5 6 5 5 5 6 5 5 5 5 5 5 6 5 5 5 5 5 5 5 6 5 5 5 5 5 5 5 5 5 5 5 5 6 5 5 6 5 5 5 5 5 6 5 5 5 5 5 5 5 5 5 5 6 5 5 5 5 5 5 5 5 5 5 5 5 5 5 6 5 5 5 5 5 5 5 5 5 5 5 5 5 5 5 5 5 5 5 5 5 5 5 5 5 5 5 5 5 5 5 6 5 5 6 5 5 5 5 5 5 6 5 5 5 5 5 5 5 5 5 5 5 5 5 5 5 5 5 5 5 5 5 5 5 5 5 5 5 5 5 5 5 5 5 5 5 5 5 5 5 5 5 5 5 6 5 5 6 5 5 6 5 5 5 5 5 5 5 5 5 5 5 5 6 5 5 5 5 5 5 5 5 5 5 5 5 5 5 5 5 5 5 5 5 5 5 5 5 5 5 5 5 5 5 5 5 5 5 5 5 5 5 5 6 5 5 5 5 5 5 5 5 5 5 5 5 5 5 5 5 5 5 5 5 5 5 5 6 5 5 5 5 5 5 5 5 5 5 5 5 5 5 5 5 5 5 5 5 5 5 5 5 5 5 5 5 5 5 5 5 5 6 5 5 5 6 5 5 5 6 5 5 5 5 5 5 6 5 5 6 5 5 6 5 5 6 5 6 5 5 6 5 5 5 5 6 5 5 5 5 5 5 5 5 5 5 5 5 6 6 5 6 5 5 5 6 6 5 5 6 5 5 5 5 6 5 6 5 5 5 5 5 5 5 5 5 6 5 5 5 6 5 5 5 5 5 5 5 5 5 5 5 6 5 5 5 5 5 5 5 5 5 5 6 5 6 5 5 5 5 5 5 5 5 5 5 5 5 5 6 5 5 5 5 5 5 5 5 5 5 5 5 5 5 5 5 5 5 5 5 5 5 5 5 6 6 5 5 6 6 5 5 5 5 6 5 5 5 5 5 6 5 5 5 5 5 5 5 5 5 6 5 5 5 5 5 6 5 5 5 5 6 5 5 5 5 5 6 5 5 5 5 5 5 6 5 5 5 5 6 5 5 5 5 5 5 6 5 5 5 5 5 5 5 5 5 5 6 5 5 5 5 5 5 5 6 5 6 5 5 5 5 6 5 5 6 5 5 6 5 5 6 5 5 5 5 5 5 5 5 5 5 5 5 5 5 5 5 5 5 5 5 5 5 5 5 6 5 5 5 5 5 5 5 5 5 5 5 5 5 5 5 5 5 5 5 5 5 5 5 5 5 6 5 5 5 5 5 5 5 5 5 5 5 5 5 5 6 5 5 5 5 5 6 5 5 5 6 5 5 6 5 5 5 6 5 5 5 5 6 5 5 5 5 5 6 5 5 5 5 5 6 5 5 5 5 5 5 5 5 5 5 5 5 5 5 5 5 5 5 5 5 5 5 5 5 5 5 5 5 5 5 5 5 5 5 5 5 5 5 5 5 5 5 5 5 5 5 5 5 5 5 5 5 5 5 5 5 5 5 5 5 5 5 5 5 5 5 5 5 5 5 6 5 5 5 6 5 5 5 5 5 5 5 5 5 5 5 5 5 6 6 5 5 5 5 5 5 5 5 6 6 5 5 5 5 5 5 5 5 5 5 5 5 5 5 5 5 5 6 5 5 5 5 5 6 5 5 6 5 5 6 6 5 5 5 6 6 5 5 5 5 5 5 5 5 6 5 5 5 5 5 5 5 5 5 5 5 5 5 5 5 5 5 5 5 5 5 5 5 5 5 5 5 6 5 5 5 5 5 5 6 5 5 5 5 5 5 5 5 5 6 6 5 5 5 5 6 5 5 6 5 5 6 5 5 5 5 5 5 5 5 5 5 5 5 5 5 5 5 5 5 5 6 6 5 6 5 6 5 6 5 5 5 5 5 5 5 6 5 5 5 5 5 5 5 5 5 5 5 5 5 5 5 5 5 5 5 5 5 5 5 5 5 5 5 5 5 5 5 5 5 6 5 5 5 5 6 6 5 5 6 6 5 5 5 5 5 5 5 5 5 5 5 5 6 5 6 5 5 5 6 5 6 5 6 6 5 5 5 5 5 5 5 5 5 5 5 5 6 5 5 5 5 5 5 6 5 5 5 5 6 5 5 6 6 5 5 5 6 5 5 5 5 5 6 5 5 6 5 5 5 5 5 5 6 5 5 6 5 6 5 5 5 6 5 5 6 5 5 5 6 6 5 6 5 5 5 5 5 5 6 5 5 5 5 6 5 5 5 5 5 5 5 5 5 5 5 5 5 5 5 5 5 5 5 6 5 5 5 5 5 5 5 6 5 5 5 6 6 5 5 5 5 5 5 5 5 5 5 5 5 6 6 5 5 5 5 6 5 6 6 5 5 5 6 6 6 5 6 5 5 6 6 5 6 6 5 5 5 6 5 5 6 5 5 5 5 5 5 5 5 5 5 5 5 5 6 5 5 5 5 5 5 5 5 6 5 5 5 5 5 5 5 5 5 5 5 5 5 5 5 5 5 5 5 5 6 5 5 5 5 5 5 6 5 6 5 5 5 5 5 6 5 5 5 5 6 5 5 6 5 5 6 5 5 6 6 5 5 5 5 5 5 5 5 5 6 5 5 6 5 5 5 5 6 5 5 6 5 5 6 5 5 5 5 6 5 5 5 5 5 5 5 5 5 5 5 5 5 5 5 5 5 5 5 5 5 5 5 5 5 5 5 6 5 5 5 5 5 5 5 5 5 5 5 6 5 5 5 5 5 5 6 5 5 5 5 5 5 5 5 6 6 5 5 6 5 5 5 5 5 5 5 5 5 5 5 5 5 5 5 5 5 5 6 6 5 5 6 5 5 5 6 5 5 5 5 6 5 5 5 5 5 5 5 5 5 6 5 5 5 5 5 5 5 5 5 5 6 5 6 5 5 5 5 5 5 5 5 5 5 5 5 6 5 5 5 5 5 5 5 5 5 5 6 5 6 5 5 5 5 5 6 5 5 5 5 5 5 5 5 6 5 5 5 5 5 5 5 5 5 5 5 6 5 5 5 5 5 6 5 5 5 5 5 5 5 6 5 6 5 5 5 5 5 5 5 6 5 5 6 5 5 5 5 5 6 5 5 5 5 5 5 5 5 5 5 5 5 5 5 5 5 5 5 5 5 5 6 5 5 5 5 6 5 6 5 5 5 6 5 5 5 5 5 5 5 5 5 5 5 5 5 5 5 5 5 5 5 5 5 5 5 5 5 5 5 5 5 5 5 5 6 5 5 5 5 5 5 5 5 6 6 5 5 5 5 5 5 5 5 5 5 5 5 5 5 6 5 5 5 5 5 5 5 5 5 5 5 5 5 5 5 5 5 5 5 5 5 5 5 5 5 5 5 5 5 5 6 6 5 5 6 5 5 6 5 5 6 5 5 5 5 6 5 5 6 6 6 5 5 5 6 5 6 5 5 6 5 6 5 6 6 6 5 5 5 5 5 5 5 5 5 5 5 5 5 5 5 5 5 6 5 5 6 5 5 5 5 6 5 5 5 6 5 5 5 5 5 5 5 6 5 6 5 5 5 5 5 5 5 5 5 5 5 5 5 5 6 5 5 5 5 5 5 5 5 5 5 5 5 5 5 5 5 5 5 5 5 5 5 5 5 5 5 5 5 5 5 5 5 5 5 5 5 5 5 5 5 5 5 5 6 5 5 5 6 5 5 5 5 5 5 5 5 5 5 5 6 5 5 5 5 6 5 5 5 5 6 5 6 5 5 6 6 5 5 6 5 5 5 6 5 5 5 5 6 5 5 5 5 5 5 5 6 5 5 6 5 5 5 5 5 5 5 5 5 6 6 5 6 5 5 6 5 5 5 5 5 5 5 5 5 5 6 5 5 5 6 5 5 5 5 5 5 5 5 5 5 5 5 5 5 5 5 5 5 6 5 5 5 5 5 5 5 5 6 5 5 5 5 5 5 5 5 5 6 5 5 5 5 5 5 5 5 6 5 5 5 5 5 5 5 5 5 5 5 5 5 5 5 5 5 5 5 5 5 5 5 5 5 5 5 5 5 5 5 5 5 5 5 5 5 5 5 5 5 5 5 5 5 5 5 5 5 5 5 5 5 5 5 5 5 5 5 5 5 5 6 6 5 5 5 6 5 5 5 5 6 5 5 5 5 5 5 6 5 5 5 5 5 6 5 5 5 5 5 6 5 5 5 5 5 5 5 6 5 5 5 5 5 5 5 6 5 5 5 5 5 5 6 6 5 5 5 5 6 5 6 5 5 6 5 5 5 6 5 5 5 5 5 5 5 5 5 5 5 6 6 5 5 5 5 5 5 5 5 5 5 5 5 5 5 5 5 5 5 5 5 5 5 5 5 5 5 5 5 5 6 5 5 5 5 5 5 5 5 6 5 6 5 5 5 6 5 6 5 5 6 5 6 5 6 5 5 5 6 5 5 5 5 5 5 5 5 5 5 5 5 5 5 5 5 5 5 5 6 5 5 5 5 6 5 5 5 5 5 6 5 6 5 5 5 5 5 6 5 5 5 5 5 5 5 5 5 5 5 5 5 5 6 5 5 6 5 5 5 5 5 6 5 5 5 5 6 5 5 5 5 5 5 5 5 5 6 5 5 5 5 5 5 5 5 5 5 5 5 5 5 6 5 5 5 6 5 5 6 5 5 5 5 5 5 6 5 5 5 6 6 5 5 5 5 6 5 5 5 5 5 6 5 5 5 5 6 5 5 5 5 5 5 5 5 5 6 5 5 6 5 5 5 5 5 5 6 6 5 5 5 5 5 5 5 6 5 5 6 5 5 5 5 5 6 5 5 5 5 5 5 5 5 5 5 5 5 5 5 5 5 5 5 6 5 6 5 5 5 5 5 5 5 5 5 5 5 5 5 5 5 5 5 5 6 5 5 5 5 5 5 5 5 5 5 5 5 5 5 5 5 5 5 5 5 5 5 5 5 5 5 5 5 5 5 5 5 5 5 5 5 5 5 6 5 5 5 5 5 5 5 5 5 5 5 5 5 5 5 5 5 5 5 5 5 5 5 5 5 5 5 5 5 5 5 5 5 5 6 5 5 5 5 5 5 5 5 5 5 5 5 6 5 5 5 5 5 5 6 5 5 5 5 6 5 5 5 5 5 5 5 5 5 5 5 5 5 5 5 5 5 5 5 5 5 5 6 5 6 5 5 5 5 5 5 5 5 5 6 5 5 5 5 6 5 5 6 6 6 5 6 5 5 6 6 5 6 5 6 5 5 5 5 5 5 6 5 6 5 5 6 5 5 5 5 5 5 5 5 5 5 5 5 6 5 5 5 5 5 5 5 5 6 5 5 5 5 5 6 5 5 5 5 5 5 5 5 5 5 5 5 5 5 5 5 5 5 5 5 5 5 5 5 6 5 5 6 5 5 5 5 5 5 6 5 6 5 5 5 5 5 5 5 5 5 5 5 5 5 5 5 6 5 5 5 5 5 5 5 6 5 5 5 5 5 5 6 5 6 5 5 6 5 6 5 5 5 5 5 5 5 5 5 6 5 5 5 6 5 5 6 5 6 5 6 5 5 5 6 5 5 5 5 5 6 5 5 5 5 5 5 5 5 5 5 6 5 5 6 5 5 5 5 5 5 5 6 5 6 6 5 5 6 5 5 5 5 5 6 5 5 5 5 5 5 5 5 5 5 5 5 5 5 6 5 5 5 6 5 6 5 5 5 5 5 5 5 5 5 5 5 5 5 5 5 5 5 5 5 5 5 5 6 5 5 5 5 5 5 6 5 5 5 5 5 5 5 5 5 5 5 5 5 5 5 5 5 6 5 6 5 5 5 5 5 5 5 5 5 5 5 5 5 5 5 6 6 5 5 6 5 6 5 5 5 5 5 5 6 5 5 5 5 5 5 5 5 5 5 5 5 5 5 6 5 5 5 5 6 5 5 5 5 5 5 5 6 5 5 5 5 5 5 5 5 5 6 5 5 5 5 6 5 6 5 5 6 5 6 6 5 6 5 5 5 6 5 5 5 6 5 5 5 6 5 5 6 5 5 5 5 5 5 5 5 5 5 5 5 5 5 5 5 6 5 5 5 5 5 5 5 5 6 5 6 5 5 5 5 5 5 5 5 5 5 5 5 5 5 5 6 5 5 5 5 5 5 6 5 5 5 6 5 5 5 6 5 5 5 5 5 6 5 5 5 6 5 6 6 5 5 6 5 5 6 5 5 5 5 5 5 6 5 5 5 5 5 6 6 6 5 5 5 5 5 5 5 5 6 5 6 5 6 5 5 5 5 5 5 6 5 5 5 6 5 5 6 5 5 5 5 6 5 5 5 5 6 5 5 5 5 5 5 5 5 5 5 5 5 5 6 5 6 5 5 5 5 5 6 5 6 5 5 5 5 5 6 5 5 5 5 5 6 5 5 5 5 5 5 5 5 5 5 6 5 5 5 5 5 5 5 5 6 5 5 5 5 5 5 5 5 5 6 5 5 5 5 5 5 5 5 6 5 5 5 5 5 5 6 6 5 5 5 6 5 5 6 5 6 5 5 5 5 5 5 5 5 5 5 5 6 5 6 5 5 5 5 5 5 5 5 5 5 6 5 5 5 5 5 6 5 5 5 5 5 5 5 5 5 5 5 5 5 5 5 5 5 5 5 5 6 5 6 5 5 5 5 5 5 5 5 5 5 5 5 5 5 5 5 5 5 5 5 6 5 5 5 5 5 6 5 5 5 5 5 5 5 5 5 5 5 5 5 5 5 6 5 5 5 5 5 5 5 5 5 5 5 5 5 6 5 5 6 5 6 6 5 5 5 6 5 5 5 5 5 6 5 5 5 5 5 5 5 5 5 5 6 5 5 5 6 5 5 5 5 5 6 6 5 6 5 6 5 5 5 6 5 6 6 6 5 5 5 6 6 5 5 5 6 5 5 6 6 5 5 5 6 6 6 6 6 5 5 6 6 5 5 5 5 5 6 5 5 5 5 5 5 5 5 5 5 5 5 6 5 5 5 5 5 6 5 6 5 5 5 6 5 5 5 6 6 5 6 5 5 6 5 6 5 5 5 5 5 5 5 5 5 6 5 5 6 5 5 6 5 5 5 6 5 5 5 5 5 5 5 5 5 5 5 5 5 5 5 5 5 5 6 5 5 5 5 5 5 5 5 5 5 5 5 5 5 6 5 5 5 6 5 5 5 6 5 5 5 6 5 5 6 5 5 6 5 5 5 5 5 5 5 6 5 5 6 5 5 5 5 6 5 5 5 5 5 5 5 6 5 5 5 5 5 5 5 5 5 5 5 5 6 5 5 5 5 5 5 5 5 5 5 5 5 5 5 5 5 6 5 5 5 6 5 5 5 5 6 5 5 6 6 5 5 5 5 6 5 5 5 6 5 5 5 6 5 5 5 5 5 5 5 5 5 5 5 5 5 5 5 5 5 5 5 5 5 5 5 5 5 5 5 5 5 5 5 5 5 5 5 5 5 5 5 5 5 5 5 5 6 5 5 5 5 5 5 5 5 6 5 5 5 5 5 5 5 5 5 5 5 5 5 5 5 5 6 5 6 5 5 5 5 5 5 5 6 5 5 5 6 5 5 5 5 5 5 5 5 5 5 5 5 5 5 5 5 5 5 5 5 5 5 6 6 5 5 5 5 6 5 6 5 6 5 5 5 5 5 5 6 5 6 5 6 5 5 6 5 5 6 6 5 6 5 5 5 5 5 6 5 5 6 5 5 5 5 5 5 5 5 5 6 5 5 5 6 5 5 5 5 5 5 6 6 5 5 5 5 5 6 5 5 6 5 5 5 6 5 5 5 5 5 5 5 5 5 5 5 5 5 5 5 5 5 5 5 5 5 5 5 5 5 6 5 5 5 5 5 5 5 6 5 5 5 6 5 5 5 5 5 5 5 5 5 5 5 5 5 5 5 5 6 5 5 5 5 5 5 5 5 5 5 5 5 5 5 5 5 6 5 5 5 5 5 5 6 5 5 5 5 5 5 5 5 5 5 6 5 5 5 5 5 5 5 6 5 5 5 5 5 5 5 5 5 5 5 6 5 5 5 5 5 6 5 5 5 5 5 5 5 5 5 5 5 6 5 5 5 5 5 5 5 5 5 5 5 5 5 5 5 5 6 5 5 5 5 5 6 5 5 5 5 6 5 5 5 5 5 6 5 5 5 6 5 5 6 5 5 5 5 5 6 5 5 5 5 5 5 6 5 5 5 5 5 5 5 6 5 5 5 5 5 5 5 5 5 5 5 5 5 5 5 5 5 5 5 5 5 5 5 5 5 6 5 5 5 5 5 5 5 5 5 5 6 5 5 5 5 6 5 5 5 5 5 5 5 5 5 5 5 5 5 5 5 5 5 5 6 5 5 5 5 5 5 5 5 5 5 5 5 5 5 5 5 5 6 5 5 5 5 5 5 5 5 6 5 5 5 5 5 5 5 5 5 5 5 5 5 6 5 5 5 6 5 5 5 5 5 5 5 5 5 5 5 5 5 6 5 5 5 5 5 5 6 5 5 5 5 6 5 5 5 5 5 5 6 5 5 5 5 5 5 5 6 5 5 6 5 5 5 5 5 5 6 6 5 5 6 5 5 5 5 5 5 5 5 5 5 5 5 5 5 5 5 5 5 5 6 5 5 5 6 5 5 5 6 5 6 5 5 5 5 5 5 5 5 6 5 6 5 5 5 5 5 6 5 5 5 5 5 5 5 5 5 5 5 5 6 5 5 5 6 6 5 5 5 5 5 5 5 5 5 5 6 5 5 5 5 5 6 5 5 5 6 5 5 5 5 5 5 5 5 5 5 5 5 5 5 6 5 5 5 5 5 5 5 5 6 5 5 5 6 5 5 6 5 5 5 5 5 5 5 5 6 5 5 5 6 5 5 5 6 5 5 5 5 5 5 5 5 6 5 5 6 5 5 5 6 5 5 5 5 5 5 5 5 5 5 5 5 5 5 5 5 5 5 5 5 5 5 5 5 5 5 5 5 5 5 5 5 5 5 5 5 5 5 5 5 5 5 5 5 5 6 5 5 5 5 5 5 6 6 6 5 5 6 5 5 6 5 5 6 5 5 5 5 5 5 5 5 5 5 6 5 6 5 5 5 6 5 6 5 5 5 5 5 5 5 6 5 5 6 5 5 5 6 5 5 5 5 5 5 5 5 5 5 5 5 5 5 5 5 6 5 5 5 5 5 5 5 5 5 5 5 6 6 5 5 5 5 5 5 5 5 5 5 5 5 5 5 5 5 5 5 5 6 5 5 5 5 5 5 5 5 6 5 5 5 5 5 5 5 6 5 5 6 5 5 5 5 5 5 5 5 5 5 5 5 5 6 5 6 5 5 6 6 6 5 5 5 5 5 5 5 5 5 5 5 6 5 5 5 5 5 5 5 5 5 6 6 5 5 5 5 5 5 5 5 5 5 5 5 5 5 5 5 5 5 5 5 5 5 5 5 5 5 5 5 6 6 5 5 6 5 6 5 5 6 5 6 5 5 5 5 6 5 5 5 5 5 6 5 5 6 6 5 5 6 5 6 5 5 5 5 5 6 5 5 5 6 6 5 6 5 6 5 5 6 5 5 6 6 5 6 5 5 5 5 6 5 5 6 5 6 6 5 5 5 5 5 5 5 5 5 5 5 5 5 5 5 5 5 5 6 5 5 5 5 5 5 5 5 5 5 5 5 5 5 5 5 5 5 5 6 5 6 5 5 5 5 5 5 5 5 5 5 6 5 5 5 5 5 5 5 5 6 5 5 5 5 5 5 5 5 5 5 5 5 5 5 5 6 5 5 5 6 5 5 5 6 5 5 5 5 5 5 5 5 5 5 5 5 5 5 5 5 5 5 5 5 5 5 5 5 5 5 5 5 5 5 5 6 5 5 5 5 5 6 5 5 5 5 5 5 5 5 5 5 5 5 5 5 5 5 5 5 5 5 5 5 5 5 5 5 5 6 5 5 6 5 5 6 5 6 5 5 5 5 5 5 6 5 6 5 5 5 5 6 5 5 5 5 5 6 5 5 5 5 5 6 5 5 5 5 5 5 5 5 5 5 5 5 5 5 5 5 5 5 5 5 5 5 5 5 5 5 5 5 5 5 5 5 5 5 5 5 5 5 5 5 5 5 5 5 5 6 5 5 5 5 5 5 5 6 5 5 5 5 5 5 5 5 5 6 5 5 5 5 5 5 6 5 5 5 5 6 5 5 6 5 5 6 5 5 5 5 5 6 5 5 5 5 6 6 5 5 5 6 5 5 5 5 5 5 5 5 5 5 5 6 5 5 5 5 6 5 5 6 5 6 5 5 5 5 6 6 5 5 5 6 5 5 5 6 6 5 5 6 6 5 6 5 6 5 5 5 5 5 6 6 5 5 5 5 5 5 5 5 5 5 5 5 5 5 5 5 5 6 5 5 6 5 5 5 6 5 5 5 5 5 6 6 5 5 5 6 6 5 5 5 5 6 5 5 6 6 5 5 5 5 6 5 5 5 6 5 5 6 6 5 5 5 5 6 6 5 5 5 5 5 5 5 5 5 5 5 5 6 5 5 6 5 5 5 5 5 5 5 5 5 5 5 5 5 5 5 5 5 5 5 5 5 5 5 5 5 5 5 5 5 5 5 5 6 5 5 5 5 5 6 5 5 5 5 6 5 5 5 5 6 5 5 5 5 5 5 5 5 5 5 5 5 5 5 5 5 6 5 5 5 5 5 5 5 5 5 5 5 5 5 5 5 6 5 5 5 6 5 5 5 5 5 5 5 5 5 5 5 5 5 5 5 5 5 5 5 5 6 6 6 5 5 5 5 5 5 5 5 5 5 5 5 5 5 5 5 5 5 5 5 5 6 6 5 5 6 5 5 5 5 6 5 5 5 5 5 6 5 5 5 5 5 5 6 5 5 5 5 5 5 5 5 5 5 5 5 5 6 5 5 5 5 6 5 5 5 5 6 5 5 5 5 5 5 5 5 5 5 5 5 5 5 5 5 5 5 5 5 5 5 5 5 5 5 5 5 5 5 5 5 5 5 5 5 6 6 5 5 5 5 5 6 5 6 5 5 5 5 5 5 5 5 5 6 6 5 5 6 5 5 6 6 5 5 6 5 6 5 5 5 5 5 5 5 5 5 5 5 5 5 5 5 5 5 5 5 5 5 5 5 5 5 5 5 5 5 5 5 5 6 5 5 5 5 5 5 5 5 5 5 5 5 5 5 5 5 5 5 5 5 5 5 6 5 5 5 5 5 5 5 5 5 5 5 5 5 6 5 5 6 5 5 5 5 5 5 5 5 5 5 5 5 5 5 5 5 5 6 6 5 5 5 5 5 5 5 5 5 6 5 5 5 5 6 5 5 6 5 5 5 5 5 5 5 5 5 5 5 5 5 5 5 5 5 5 5 5 5 5 5 6 5 5 6 5 5 5 5 5 5 5 6 5 5 5 6 5 5 5 6 6 5 5 5 5 5 5 5 5 5 5 5 5 5 5 5 5 6 5 5 5 5 5 5 5 6 5 5 5 5 5 5 5 5 5 5 5 5 5 5 5 5 5 5 5 5 5 5 6 5 5 5 5 5 5 5 5 5 5 5 5 5 5 5 6 5 5 6 5 5 5 5 5 5 6 5 5 5 5 5 5 5 5 5 5 6 5 5 5 5 6 5 5 5 5 6 5 5 5 5 5 5 5 5 5 5 6 6 6 5 5 5 5 5 5 5 5 5 5 5 5 5 5 5 5 5 5 5 5 5 6 5 5 6 5 6 5 5 6 5 5 5 5 5 5 5 5 5 6 5 5 6 5 5 5 5 5 5 5 6 5 5 5 5 5 5 5 5 5 5 5 5 5 5 5 5 5 5 5 5 5 6 5 5 5 5 5 5 5 5 5 5 5 5 6 6 5 5 5 5 5 5 5 5 5 5 5 5 5 5 5 5 5 5 5 5 5 5 5 5 5 6 5 5 5 5 5 5 5 5 5 5 5 5 5 5 5 5 5 5 5 5 5 5 5 5 5 5 5 5 5 5 5 5 5 5 5 5 5 5 5 5 5 5 5 5 5 5 6 5 6 5 5 5 5 5 5 6 5 5 5 5 5 5 5 6 5 5 5 5 5 6 6 6 6 5 6 5 6 6 5 5 6 5 5 5 5 5 5 5 5 5 5 5 5 5 5 5 5 5 5 5 5 5 6 5 5 5 5 5 5 5 5 6 5 5 5 5 5 5 5 6 6 5 5 5 5 5 5 6 5 5 5 5 6 5 5 5 5 6 5 5 5 5 5 5 5 5 5 6 5 6 5 5 5 5 5 5 5 5 5 5 5 5 5 5 5 5 5 5 6 5 5 5 5 5 5 5 5 5 5 5 5 5 5 5 6 6 5 5 5 5 5 5 5 6 5 5 5 5 5 6 5 5 5 5 5 6 5 5 6 6 5 5 5 5 5 5 5 5 5 6 5 5 5 6 5 5 5 5 6 5 5 5 5 5 5 5 5 5 5 5 6 5 6 5 6 5 5 5 5 5 5 5 5 5 5 5 6 5 5 5 5 5 5 5 5 5 5 6 5 5 5 5 5 5 6 5 6 5 5 5 5 6 6 5 5 5 5 5 5 5 5 5 5 5 5 6 6 5 5 5 6 5 5 5 5 5 6 5 5 5 5 5 5 5 5 5 5 6 5 5 5 5 5 5 5 5 5 5 5 5 5 6 5 5 5 5 5 5 5 5 5 5 5 5 5 5 5 5 6 5 5 5 5 5 5 5 5 5 5 5 5 5 5 5 5 5 5 5 5 5 5 5 5 5 5 5 5 5 5 5 5 5 5 5 5 5 5 5 5 5 5 5 5 5 5 5 6 5 5 6 5 5 5 5 5 5 5 5 5 5 5 5 5 5 5 5 5 5 5 5 5 5 5 5 5 6 5 5 5 5 5 5 5 5 5 5 6 5 5 5 5 5 6 5 5 5 5 6 6 5 5 5 5 5 6 5 5 5 6 5 5 5 5 5 5 5 5 5 5 5 5 5 5 6 5 5 5 5 6 5 5 6 5 5 5 5 5 5 5 5 5 5 5 5 5 5 5 5 5 5 5 5 5 5 5 5 5 5 5 5 5 5 6 6 5 5 5 6 5 5 6 6 6 5 6 5 5 5 5 5 5 5 6 5 5 5 5 5 5 6 5 6 5 5 5 6 5 5 5 5 5 5 5 5 5 5 5 5 6 5 5 5 5 5 5 5 5 5 5 5 6 5 6 5 5 5 5 5 5 5 5 5 5 5 5 5 5 5 5 5 5 5 5 5 5 5 5 5 6 5 5 6 5 5 5 5 5 5 5 5 5 5 5 5 5 6 5 6 6 6 6 5 5 5 5 5 5 5 5 5 5 6 5 5 5 5 5 5 5 5 5 5 5 5 6 5 5 5 5 5 5 5 5 5 5 5 5 5 5 5 5 5 5 5 5 5 5 5 5 5 5 5 5 5 5 5 5 5 5 5 5 5 5 5 5 5 5 5 5 5 6 6 6 5 6 6 5 5 5 5 5 6 5 5 5 5 5 5 5 5 5 5 5 6 5 5 5 6 5 5 5 5 5 5 5 5 5 6 6 5 5 6 5 5 5 5 5 5 6 5 5 5 5 5 5 6 5 5 5 5 5 5 6 5 6 5 5 5 5 5 5 5 5 5 5 6 5 5 5 5 5 5 5 6 5 5 5 5 5 5 5 5 5 6 5 5 5 5 5 6 5 5 5 6 6 6 6 5 5 5 5 5 5 5 5 6 5 5 5 5 5 5 5 5 6 5 5 5 5 5 5 6 5 5 5 6 5 5 5 5 5 6 5 5 5 5 5 5 5 
</DataArray>
<DataArray type="Float64" Name="stress" NumberOfComponents="9" format="ascii">
2516.270181160693 -226.35321093002366 0 -226.35321093002366 154.80185141007522 0 0 0 0 2344.5927761151252 50.771925501290653 0 50.771925501290653 0.31810809593643308 0 0 0 0 3495.1887593487031 -692.35468386247339 0 -692.35468386247339 -386.97411620494637 0 0 0 0 2142.4998229483317 -1000.0047672222319 0 -1000.0047672222319 -431.18325487219914 0 0 0 0 2064.1339245574709 -496.38264586845713 0 -496.38264586845713 56.195804916690093 0 0 0 0 1645.1718281185822 -197.67363205315871 0 -197.67363205315871 -141.40306240816676 0 0 0 0 493.81770543429593 -508.6454981102724 0 -508.6454981102724 331.76901184691707 0 0 0 0 604.59389540099801 467.23706213301205 0 467.23706213301205 393.91047446773672 0 0 0 0 8.4878070847682352 -3.8450640539864338 0 -3.8450640539864338 1.8283713208771863 0 0 0 0 1074.8722916208644 469.9203236078925 0 469.9203236078925 0.0027128947877275156 0 0 0 0 2178.1022728304961 640.27773546386834 0 640.27773546386834 -202.9281643391958 0 0 0 0 396.29430035454061 71.769136424077018 0 71.769136424077018 -67.901016105024496 0 0 0 0 590.53607358150111 873.92892822358021 0 873.92892822358021 1219.595479964029 0 0 0 0 1777.8535188710812 31.717642434480922 0 31.717642434480922 -256.06201332538029 0 0 0 0 653.68576908081013 423.12081109237891 0 423.12081109237891 311.84308495922119 0 0 0 0 2139.0723596872936 728.49940441608612 0 728.49940441608612 245.3673465741154 0 0 0 0 701.19406023636839 26.748398058470855 0 26.748398058470855 105.80780693708368 0 0 0 0 17.963914996664045 -9.7778728576729321 0 -9.7778728576729321 3.2703736395878167 0 0 0 0 797.74127068131929 165.69228357841416 0 165.69228357841416 -81.479837551458218 0 0 0 0 274.07578550835024 62.555349197053943 0 62.555349197053943 24.488253537511355 0 0 0 0 22.243085022404557 170.62955333993568 0 170.62955333993568 -572.6818606763876 0 0 0 0 493.43853319827122 178.35370265279934 0 178.35370265279934 -601.12562217066898 0 0 0 0 360.29358384911029 165.39883743243604 0 165.39883743243604 -619.14416120568148 0 0 0 0 453.77780340245135 -169.63463110104928 0 -169.63463110104928 -408.38661401602803 0 0 0 0 20.399769241462309 -9.6625802693510678 0 -9.6625802693510678 -0.95231708593918718 0 0 0 0 740.85522623600264 -286.86513105592962 0 -286.86513105592962 -154.57218302173516 0 0 0 0 390.84027993234486 251.41767480682677 0 251.41767480682677 -490.22076837684654 0 0 0 0 250.96690554371162 491.65541081874716 0 491.65541081874716 -360.01832586569435 0 0 0 0 7.8839007196365856 329.74809155827825 0 329.74809155827825 -501.1947794628017 0 0 0 0 600.72541675450339 43.1155609458865 0 43.1155609458865 -825.61133870104459 0 0 0 0 -471.19426211894461 532.7144248802141 0 532.7144248802141 -1106.9452336261384 0 0 0 0 455.64312910348235 443.5624516276157 0 443.5624516276157 -1715.6496214973558 0 0 0 0 211.77609752086573 327.77781945704658 0 327.77781945704658 -1225.6919665167034 0 0 0 0 77.673704452856327 1107.6814665706256 0 1107.6814665706256 -2064.3562216006248 0 0 0 0 291.12868817917479 -318.21149834511243 0 -318.21149834511243 1148.4650872065185 0 0 0 0 29.214917684664385 2.1755496240564582 0 2.1755496240564582 -3.4397359088106247 0 0 0 0 249.20929215353681 -2931.5718846700383 0 -2931.5718846700383 1978.1999193657903 0 0 0 0 1289.9178373528412 -1409.3736606018165 0 -1409.3736606018165 914.9423988040553 0 0 0 0 997.51605584367644 -1192.6918211095831 0 -1192.6918211095831 1253.9150275793102 0 0 0 0 164.14563854505832 -569.65677775736685 0 -569.65677775736685 2035.6166777905155 0 0 0 0 2384.9106179958326 -2277.6420442349267 0 -2277.6420442349267 -1504.3229436628444 0 0 0 0 62.572662126418436 177.59520901141423 0 177.59520901141423 74.066107323967117 0 0 0 0 5.8079444398321698 17.894176354948812 0 17.894176354948812 0.32455035334411697 0 0 0 0 940.73101356247207 -2264.0523491373233 0 -2264.0523491373233 -1481.2136783212702 0 0 0 0 -1080.5429292296758 -1278.9883019296649 0 -1278.9883019296649 -1189.0871009785951 0 0 0 0 -854.59673159464728 -1285.3710273980141 0 -1285.3710273980141 -1229.8721732978529 0 0 0 0 -1475.5711408515199 -332.10929901796021 0 -332.10929901796021 -1263.0448252702608 0 0 0 0 566.79786345313187 -88.446660244595478 0 -88.446660244595478 -1250.0737852729944 0 0 0 0 1386.2316478823341 414.69404204420198 0 414.69404204420198 -459.78660276750452 0 0 0 0 2624.9918915225207 -964.43111509782068 0 -964.43111509782068 -1229.3136203354188 0 0 0 0 622.03445100712634 -319.35074721540741 0 -319.35074721540741 -663.08855362061195 0 0 0 0 -59.5604185150587 340.26932270275165 0 340.26932270275165 -966.54265441752284 0 0 0 0 363.23987020174536 42.000622230667432 0 42.000622230667432 -1038.2335720231608 0 0 0 0 -1.2253089663718129 193.57853833343347 0 193.57853833343347 -1539.3567596817461 0 0 0 0 170.15972532119486 541.97849315655321 0 541.97849315655321 -1728.2320218842231 0 0 0 0 68.924525703274242 10.496873764441297 0 10.496873764441297 -6.5311046230786651 0 0 0 0 1800.7821519007193 447.72591877556374 0 447.72591877556374 571.03126938977766 0 0 0 0 68.755425557494164 574.71141500793817 0 574.71141500793817 -1422.4457161723599 0 0 0 0 70.42256949665898 102.04319210965662 0 102.04319210965662 -791.96623207758807 0 0 0 0 277.25447369069298 119.98223530970482 0 119.98223530970482 -1032.144715761068 0 0 0 0 168.1730556534676 24.595655542136853 0 24.595655542136853 -778.28649803301403 0 0 0 0 384.57743122513057 90.3673141422708 0 90.3673141422708 -922.87429524880395 0 0 0 0 703.5688259433955 -306.66728496288033 0 -306.66728496288033 -743.36121455244688 0 0 0 0 800.88248269303585 -619.61392633045921 0 -619.61392633045921 -631.56793615777315 0 0 0 0 563.95015074274124 -338.60139640388405 0 -338.60139640388405 -594.87569480335651 0 0 0 0 274.57734494080796 -203.69154405605866 0 -203.69154405605866 -333.39846741827455 0 0 0 0 7.1649526915862225 -491.4102112449018 0 -491.4102112449018 -641.51402441180755 0 0 0 0 3563.0775029653814 -884.93704593933239 0 -884.93704593933239 494.69537959774453 0 0 0 0 -55.84831161602051 -265.5568393973345 0 -265.5568393973345 -45.174839904834869 0 0 0 0 1.0782642262132356 -6.5776760318002516 0 -6.5776760318002516 0.73430379499651266 0 0 0 0 -1385.1553075985867 -610.03252146175601 0 -610.03252146175601 11.53892944352711 0 0 0 0 4962.2867358055155 -1710.0393790766632 0 -1710.0393790766632 -114.09493427371942 0 0 0 0 -212.80234224393644 -1323.8668186582763 0 -1323.8668186582763 -237.95255704504552 0 0 0 0 2631.3778436633329 -1051.5258107849056 0 -1051.5258107849056 -582.96245985575979 0 0 0 0 3500.8543633369054 -2279.1926136840088 0 -2279.1926136840088 -306.95754150596343 0 0 0 0 1955.9056415677915 -1682.0350647448099 0 -1682.0350647448099 -252.47334568694541 0 0 0 0 2124.5507227977832 -1003.9604242208201 0 -1003.9604242208201 -298.36779173833088 0 0 0 0 1229.1467311309716 -487.8257962798682 0 -487.8257962798682 -287.79896938045806 0 0 0 0 752.02291072184744 -144.87664243537125 0 -144.87664243537125 -478.59082059158629 0 0 0 0 1229.1007820464292 -665.40593269652618 0 -665.40593269652618 -486.20025276309707 0 0 0 0 1137.6544551740953 -714.38769550787788 0 -714.38769550787788 -373.02210601492789 0 0 0 0 58.475167679425795 29.34229281405851 0 29.34229281405851 -8.0868682921709478 0 0 0 0 60.926610891030577 33.520436656266725 0 33.520436656266725 -13.522537408964126 0 0 0 0 49.670607959618792 14.395029786818668 0 14.395029786818668 -25.11728058680319 0 0 0 0 72.679622774230666 29.329157475027841 0 29.329157475027841 -35.995734377428789 0 0 0 0 72.509264537384297 28.671576269107163 0 28.671576269107163 -38.527500433010573 0 0 0 0 55.591724279380287 37.825913656541957 0 37.825913656541957 19.160647030011205 0 0 0 0 54.825813998730155 40.088207618492561 0 40.088207618492561 15.658100888126683 0 0 0 0 59.343033474600816 36.618637711789916 0 36.618637711789916 1.965803100642006 0 0 0 0 61.710806149800192 22.749455924501945 0 22.749455924501945 12.179531748904992 0 0 0 0 63.967539485034649 32.009235620423624 0 32.009235620423624 -8.7272963548330154 0 0 0 0 51.061967654939508 29.74432580985831 0 29.74432580985831 36.15739476120234 0 0 0 0 56.733097351429024 31.728356922686771 0 31.728356922686771 36.390612367233189 0 0 0 0 39.847951500299246 -0.028112400837784435 0 -0.028112400837784435 -8.5082824695702648 0 0 0 0 34.009494024619926 5.2827686066172754 0 5.2827686066172754 -6.8576818757043183 0 0 0 0 1.7288414740532403 -3.4285395488100079 0 -3.4285395488100079 -2.4274145003489749 0 0 0 0 44.686911359167425 -54.905754524032162 0 -54.905754524032162 -9.7545317301927366 0 0 0 0 45.304942473082519 10.201485267246087 0 10.201485267246087 -1.4212468675862797 0 0 0 0 -807.26788114066585 546.64245639419494 0 546.64245639419494 -310.06930466952554 0 0 0 0 50.506860796507681 11.754899372428554 0 11.754899372428554 45.753302518167402 0 0 0 0 6.0382602377649164 -2.807679831503294 0 -2.807679831503294 -0.0053213508027493174 0 0 0 0 2.8072366727446934 4.7334320617410413 0 4.7334320617410413 1.8299467117081789 0 0 0 0 62.177273150198744 17.852623185352968 0 17.852623185352968 42.468743479857949 0 0 0 0 55.570837257051608 26.73458158242488 0 26.73458158242488 24.642874379585919 0 0 0 0 43.688053355232114 29.737810125791839 0 29.737810125791839 36.721599936327948 0 0 0 0 45.755196034810069 22.18740127215267 0 22.18740127215267 61.054192552410314 0 0 0 0 37.868429987593117 8.1092639705669001 0 8.1092639705669001 86.604004855730636 0 0 0 0 36.579592564361519 48.110506489920681 0 48.110506489920681 38.887757154169776 0 0 0 0 37.244081977274618 41.150477095234237 0 41.150477095234237 107.6956617276237 0 0 0 0 37.831920869808528 9.8319403931345732 0 9.8319403931345732 52.301312652514753 0 0 0 0 -524.05304483162763 884.2136369087965 0 884.2136369087965 4.5443046245535985 0 0 0 0 36.058155547891943 7.274944277025611 0 7.274944277025611 0.2818529247790722 0 0 0 0 539.41567858958297 -991.29472739702055 0 -991.29472739702055 123.01603603219337 0 0 0 0 2603.5856739508599 434.95924404311268 0 434.95924404311268 -1973.8373958046013 0 0 0 0 34.866843383584637 17.74787198033664 0 17.74787198033664 79.72038738344736 0 0 0 0 2.3648275901705347 88.099261579024471 0 88.099261579024471 436.77159387413121 0 0 0 0 14.113939784831018 0.38281661444216297 0 0.38281661444216297 155.10984010916764 0 0 0 0 171.86308487465431 123.24272924757133 0 123.24272924757133 -36.731379700451726 0 0 0 0 96.319633118750062 115.97537049349876 0 115.97537049349876 -23.942394049837276 0 0 0 0 59.130507523863344 139.98101058315979 0 139.98101058315979 171.02638511442694 0 0 0 0 52.009487724884821 107.13466107566114 0 107.13466107566114 20.949750335573299 0 0 0 0 70.2041422000475 62.350242693600649 0 62.350242693600649 -12.82768667015398 0 0 0 0 69.723328952575685 56.738669061799555 0 56.738669061799555 -21.959802377174128 0 0 0 0 98.140088512125658 21.603497674344908 0 21.603497674344908 -145.59471766203569 0 0 0 0 93.684954942509648 30.444418672268057 0 30.444418672268057 -50.498703874089188 0 0 0 0 108.55305730368127 73.24605353691868 0 73.24605353691868 -57.066289986999891 0 0 0 0 115.50026824396446 41.797353706870297 0 41.797353706870297 -184.00190625029245 0 0 0 0 67.135269578691805 24.31878163073452 0 24.31878163073452 -113.68514730732295 0 0 0 0 -78.364092036543298 -685.98438704532964 0 -685.98438704532964 -320.15499284270481 0 0 0 0 -198.31960871096817 -32.911206299372679 0 -32.911206299372679 -140.45630088177859 0 0 0 0 70.155786579620326 18.210691440977371 0 18.210691440977371 -268.17872607319259 0 0 0 0 2009.6869162777439 1303.2608414710885 0 1303.2608414710885 504.75090467170548 0 0 0 0 13.365339515996169 -9.3941196214107094 0 -9.3941196214107094 4.2030806388320148 0 0 0 0 1978.0483436344366 -754.60362845716463 0 -754.60362845716463 -1159.6269550498228 0 0 0 0 945.64267945001484 -646.64021025187685 0 -646.64021025187685 -453.35238061161544 0 0 0 0 573.50536437859409 -4.856552252689653 0 -4.856552252689653 -209.26425090623025 0 0 0 0 286.88313580529939 -38.303332455199325 0 -38.303332455199325 -138.23581525375084 0 0 0 0 302.02833841429674 -78.602183082638476 0 -78.602183082638476 -237.32129621753484 0 0 0 0 14.881300195589063 0.20671340751925271 0 0.20671340751925271 0.014061886203211138 0 0 0 0 403.64836086772266 351.11109114409965 0 351.11109114409965 186.16258417890094 0 0 0 0 -177.77844090519648 58.979497410112913 0 58.979497410112913 -62.61637170129336 0 0 0 0 5.1761034626688343 195.38545247521733 0 195.38545247521733 -0.30024758855747524 0 0 0 0 352.21010724744701 423.09578363684727 0 423.09578363684727 731.50839549599277 0 0 0 0 -4390.4416260717553 -1668.2218316824947 0 -1668.2218316824947 132.85228688034101 0 0 0 0 1585.4699791516468 504.1042765909765 0 504.1042765909765 46.10601332982651 0 0 0 0 17.949728272975051 6.0008029673658712 0 6.0008029673658712 1.294365602195471 0 0 0 0 152.51376537128817 435.15217456806295 0 435.15217456806295 -200.36744823814152 0 0 0 0 4270.3655782286951 1993.8073493520878 0 1993.8073493520878 22.023730833469017 0 0 0 0 35.201918792833794 17.126506902731691 0 17.126506902731691 6.7922533365822382 0 0 0 0 1634.1853061772813 38.60467966168423 0 38.60467966168423 -1331.1188724652466 0 0 0 0 1014.4717993379163 282.71856451634335 0 282.71856451634335 -194.87551259944655 0 0 0 0 -197.02982222443825 -60.106780084844942 0 -60.106780084844942 28.369958055527604 0 0 0 0 831.79766127881885 -44.379303779548593 0 -44.379303779548593 -180.32980788403125 0 0 0 0 1323.1555428601787 -347.15041836042587 0 -347.15041836042587 -144.81120369008602 0 0 0 0 17.562160498851654 10.725728111620199 0 10.725728111620199 6.3810411237933202 0 0 0 0 -584.20087807327218 1364.2840579644758 0 1364.2840579644758 1149.6841933069527 0 0 0 0 -1266.3097860134585 -672.32542487874889 0 -672.32542487874889 1178.4313036034787 0 0 0 0 227.93014843382116 595.86792885300497 0 595.86792885300497 741.91878889438465 0 0 0 0 1553.8710936788557 -209.49534267680491 0 -209.49534267680491 953.57853172735304 0 0 0 0 694.5976529520558 536.47337781108683 0 536.47337781108683 730.78341765648781 0 0 0 0 2018.7795211773646 1209.2243185125599 0 1209.2243185125599 250.42111896873189 0 0 0 0 749.36423846025718 1279.678462195156 0 1279.678462195156 1154.9518954290415 0 0 0 0 1112.7029016092129 668.2539937398019 0 668.2539937398019 18.59577536266238 0 0 0 0 1183.6525520009636 653.65297529863335 0 653.65297529863335 -14.134957402721739 0 0 0 0 1080.6971156863219 593.83009502072719 0 593.83009502072719 151.1222973063916 0 0 0 0 460.04689603271254 375.06488415888316 0 375.06488415888316 96.527743592135721 0 0 0 0 1621.6996299087332 534.08438486558975 0 534.08438486558975 -443.52459286079375 0 0 0 0 1563.4929757258506 1111.7465766443026 0 1111.7465766443026 185.49809751534974 0 0 0 0 11.021577604606307 -3.8273589954885807 0 -3.8273589954885807 -2.6692994247478552 0 0 0 0 385.67013859985673 -1263.00075747509 0 -1263.00075747509 -144.7861975026899 0 0 0 0 557.86804910458159 422.14757070677388 0 422.14757070677388 96.694909806180931 0 0 0 0 395.89692389983975 129.73289924378469 0 129.73289924378469 -263.1316976709295 0 0 0 0 708.40108901557687 450.82258939798112 0 450.82258939798112 -708.03792088902355 0 0 0 0 364.92875170701882 -283.49302586559588 0 -283.49302586559588 -757.67719978781133 0 0 0 0 -76.748415117326658 -237.3122316398958 0 -237.3122316398958 -972.24454682519672 0 0 0 0 662.87343493819935 229.5983050758673 0 229.5983050758673 -1483.7237065337631 0 0 0 0 59.341010646603536 521.03150907537565 0 521.03150907537565 -1595.7004304148159 0 0 0 0 295.11585790241224 778.06220693734167 0 778.06220693734167 12.662087114089445 0 0 0 0 39.387244611207279 366.59493092368211 0 366.59493092368211 -415.78475966837595 0 0 0 0 253.50877710031637 296.82172244434923 0 296.82172244434923 -405.5156298431657 0 0 0 0 7.9272494395991089 318.18945543227892 0 318.18945543227892 445.36985774824961 0 0 0 0 332.28561238343536 -25.053564474820178 0 -25.053564474820178 242.96036891099357 0 0 0 0 -608.13743730110582 383.53420537636316 0 383.53420537636316 58.189538320445536 0 0 0 0 -104.33500451603322 628.99223743936227 0 628.99223743936227 -23.721245700527788 0 0 0 0 21.146743990129835 325.599615095395 0 325.599615095395 -92.254208200344692 0 0 0 0 2083.9382918269839 249.42035151032769 0 249.42035151032769 308.06980013059547 0 0 0 0 2462.4506600368913 839.36712628884334 0 839.36712628884334 409.20709249812239 0 0 0 0 3581.6821650299462 899.73618439197071 0 899.73618439197071 -289.36102066035892 0 0 0 0 2184.5455776656017 484.42845173614342 0 484.42845173614342 458.2725590457685 0 0 0 0 -4.4590783192633126 22.332356246310098 0 22.332356246310098 0.74315330963355919 0 0 0 0 2952.1585236570991 65.773890474236794 0 65.773890474236794 -335.49028138957692 0 0 0 0 2420.3525181888472 1231.8123232640783 0 1231.8123232640783 36.873670637143277 0 0 0 0 2.421097118722912 -3.5911700145026511 0 -3.5911700145026511 7.3266758098058373 0 0 0 0 4816.0324198376838 927.34212829907869 0 927.34212829907869 -93.114054932974568 0 0 0 0 3557.7787830382877 117.47717001946921 0 117.47717001946921 255.14318960785181 0 0 0 0 0.66693637582793031 6.5258682972057045 0 6.5258682972057045 -1.1434189899781497 0 0 0 0 -1981.8067677761137 299.57907462049002 0 299.57907462049002 430.9240222046156 0 0 0 0 234.52837707034269 266.13099405051622 0 266.13099405051622 -175.97060302321188 0 0 0 0 478.43599572189851 1058.3222568861306 0 1058.3222568861306 689.21465455411487 0 0 0 0 312.45573854222403 1274.6882752787837 0 1274.6882752787837 -35.281264292030983 0 0 0 0 1226.0424832544231 848.7901933014125 0 848.7901933014125 -22.023698203657318 0 0 0 0 36.054903202957007 -24.309483446309343 0 -24.309483446309343 14.92404299287011 0 0 0 0 1392.719837833647 1526.6620283377197 0 1526.6620283377197 872.38349187139352 0 0 0 0 1882.8746719583723 -107.1566584162299 0 -107.1566584162299 270.32170881519141 0 0 0 0 3331.0550715516729 1696.6415231444571 0 1696.6415231444571 372.84220199038191 0 0 0 0 61.140502808208112 -87.787134949594474 0 -87.787134949594474 -218.71356176554332 0 0 0 0 67.50378221286519 -42.089581032189244 0 -42.089581032189244 -58.958884382334872 0 0 0 0 55.999145671186852 -80.6291860108945 0 -80.6291860108945 -180.7710833806002 0 0 0 0 74.118357109895442 -39.691125801146427 0 -39.691125801146427 -101.18787431527335 0 0 0 0 69.07154027751676 -21.977240176679743 0 -21.977240176679743 -55.556856588053961 0 0 0 0 58.963976271865477 -10.772441174192927 0 -10.772441174192927 4.2769399080155468 0 0 0 0 55.797374603789649 -30.885584302413463 0 -30.885584302413463 -32.959858725845606 0 0 0 0 73.863989515630237 32.143605617319338 0 32.143605617319338 -25.763114460140116 0 0 0 0 1327.1363061595184 1263.8090192950081 0 1263.8090192950081 600.66407791274196 0 0 0 0 11.638784523663105 -5.662413235667529 0 -5.662413235667529 12.492850771077185 0 0 0 0 378.91465510493799 -339.40095632189298 0 -339.40095632189298 -40.585670317918812 0 0 0 0 658.61544301075628 701.72087765138849 0 701.72087765138849 160.58806980473673 0 0 0 0 2097.9991987665426 156.97465953268861 0 156.97465953268861 -88.537116569998034 0 0 0 0 1323.825318195828 622.85616295148793 0 622.85616295148793 75.769557664422564 0 0 0 0 0.94186691589916904 -10.898000610779832 0 -10.898000610779832 21.193873200235579 0 0 0 0 365.15288646500267 205.37528097076802 0 205.37528097076802 -126.24753992355886 0 0 0 0 -266.63812800929009 -597.79087701268554 0 -597.79087701268554 81.718780051082831 0 0 0 0 724.75965019554133 -158.23473458032549 0 -158.23473458032549 223.68157895075365 0 0 0 0 54.86528577900026 58.114888098408755 0 58.114888098408755 31.444997131744515 0 0 0 0 33.800618239256437 19.239267674477162 0 19.239267674477162 39.031584859126639 0 0 0 0 34.832237549278943 54.827728770665317 0 54.827728770665317 61.409187430065685 0 0 0 0 34.952646812860621 50.365002049060877 0 50.365002049060877 140.57964590898018 0 0 0 0 35.47586213422619 -18.987805582228873 0 -18.987805582228873 -67.322863739032755 0 0 0 0 161.91941110129846 73.964864530924785 0 73.964864530924785 -22.30883014302492 0 0 0 0 92.877531850022933 26.407800033916956 0 26.407800033916956 -100.20223383397229 0 0 0 0 52.97568322144221 -7.7036431543577013 0 -7.7036431543577013 -0.34301640299102903 0 0 0 0 66.324869187505101 -7.2035231837758147 0 -7.2035231837758147 -56.620905693865581 0 0 0 0 64.553355292257038 -11.397127026625071 0 -11.397127026625071 -65.931342167207731 0 0 0 0 76.981538595267921 7.0737744900029611 0 7.0737744900029611 -77.473093379355305 0 0 0 0 68.860905074514449 15.219277150384187 0 15.219277150384187 -31.315936861470163 0 0 0 0 48.583257463036716 12.26949952788425 0 12.26949952788425 -21.737570057661287 0 0 0 0 54.562209063758928 -3.7970955152678698 0 -3.7970955152678698 -52.18718544107378 0 0 0 0 142.91167091507668 100.73724240325646 0 100.73724240325646 -0.66614094511896838 0 0 0 0 131.27386612694681 191.65992710518367 0 191.65992710518367 -101.79868717051431 0 0 0 0 74.611077839814243 380.00158621231822 0 380.00158621231822 633.47187061609475 0 0 0 0 -117.54518841542449 -35.779712652009039 0 -35.779712652009039 111.83303426976818 0 0 0 0 45.516883177669001 194.26794841938352 0 194.26794841938352 -112.4847602823429 0 0 0 0 30.297505822401831 51.308911256883569 0 51.308911256883569 76.274566571757532 0 0 0 0 136.73692467540042 157.08983899464619 0 157.08983899464619 -156.72855114338745 0 0 0 0 153.46928847358504 79.496050501687932 0 79.496050501687932 136.65715254456882 0 0 0 0 47.365034303795255 124.25717877118223 0 124.25717877118223 -85.342621158681141 0 0 0 0 135.12605856141226 57.555588753521107 0 57.555588753521107 -55.627974310416903 0 0 0 0 59.783960658816937 -10.9215850218621 0 -10.9215850218621 -36.889888427140619 0 0 0 0 -54.375102293226519 -66.149456091616685 0 -66.149456091616685 13.794911235425843 0 0 0 0 194.25049191581638 132.47435842237292 0 132.47435842237292 50.893876839991208 0 0 0 0 19.177642361379952 13.193767452013887 0 13.193767452013887 -17.729729710381079 0 0 0 0 121.55940376857617 16.364203800339418 0 16.364203800339418 -21.172006329844407 0 0 0 0 66.045631552347913 -37.320678034145203 0 -37.320678034145203 -37.507087651536949 0 0 0 0 41.320654699884471 -8.6842929109975557 0 -8.6842929109975557 104.24127170797442 0 0 0 0 12.631140134958258 -0.19437425704818168 0 -0.19437425704818168 -2.1753908024066098 0 0 0 0 -480.43334128678543 -238.15629276843447 0 -238.15629276843447 66.54883054433958 0 0 0 0 41.422182041729684 -8.9541073656569097 0 -8.9541073656569097 82.422476549232442 0 0 0 0 -515.72098405287215 -8.6472000989984679 0 -8.6472000989984679 425.98780556987003 0 0 0 0 8.9473292183031106 -1.024593605358433 0 -1.024593605358433 26.212162153099783 0 0 0 0 -701.12364484043792 38.510219525176581 0 38.510219525176581 121.60363986484776 0 0 0 0 -6.9215135023114271 589.08418122994726 0 589.08418122994726 216.34123441038855 0 0 0 0 -182.59851524533588 221.46303481692087 0 221.46303481692087 -111.38161907007748 0 0 0 0 -153.40764463589585 167.66983398089349 0 167.66983398089349 201.12673244822963 0 0 0 0 -214.87160405912437 -55.103703796413242 0 -55.103703796413242 -280.96011541556072 0 0 0 0 159.08073956379667 494.66333304448722 0 494.66333304448722 58.629745472859213 0 0 0 0 -735.71326789516024 -167.8730445962492 0 -167.8730445962492 -190.5016985251732 0 0 0 0 65.354304280555397 65.78814593744454 0 65.78814593744454 51.962701236636832 0 0 0 0 3.7995898154331371 186.20405307635428 0 186.20405307635428 -37.602749508319903 0 0 0 0 3.9969326319701111 15.616073590769474 0 15.616073590769474 17.958724438577995 0 0 0 0 -1764.7352202315815 -172.04250275898266 0 -172.04250275898266 -48.508096976714114 0 0 0 0 -504.21231891660136 96.106510229571086 0 96.106510229571086 -16.485400373199809 0 0 0 0 658.73154321010225 291.90611838466089 0 291.90611838466089 342.04151159201388 0 0 0 0 806.31295096794202 9.9399852002165971 0 9.9399852002165971 610.28423049241474 0 0 0 0 622.11512528672756 280.54028279295085 0 280.54028279295085 257.78148734749175 0 0 0 0 965.32421492082358 504.19872593029436 0 504.19872593029436 332.55226295785815 0 0 0 0 160.55823735467857 465.54344241886065 0 465.54344241886065 395.09061158408849 0 0 0 0 201.21356476508663 135.19296466325204 0 135.19296466325204 392.27066914478075 0 0 0 0 199.36748930497561 168.61228756639412 0 168.61228756639412 13.996463234513726 0 0 0 0 212.80705798836425 -86.092222150018188 0 -86.092222150018188 27.58533589177523 0 0 0 0 174.93516906513833 -45.978810170530778 0 -45.978810170530778 475.54716134228397 0 0 0 0 944.72220639605075 303.09996721990865 0 303.09996721990865 185.63282792193695 0 0 0 0 2220.7976833629 144.38728920981578 0 144.38728920981578 69.632183714847997 0 0 0 0 1530.3196420932654 -125.37233249979431 0 -125.37233249979431 308.43076339775052 0 0 0 0 2625.5498647007335 27.130165498425868 0 27.130165498425868 345.46741941752043 0 0 0 0 1960.0919503505866 550.88114368160404 0 550.88114368160404 201.40712497529273 0 0 0 0 2849.6378291423534 350.73524433716852 0 350.73524433716852 217.69872721235333 0 0 0 0 3834.6899989106314 -616.1726747696548 0 -616.1726747696548 871.28023607132786 0 0 0 0 1926.30209681837 -132.76841568375482 0 -132.76841568375482 1084.8462442089071 0 0 0 0 1125.1678394367336 267.00260703482763 0 267.00260703482763 534.49983861716692 0 0 0 0 1765.2248882997665 303.1330133574852 0 303.1330133574852 370.57874439623731 0 0 0 0 977.31154404344215 326.36172101894761 0 326.36172101894761 935.81467558833151 0 0 0 0 1612.4729193136445 142.86528748133441 0 142.86528748133441 377.59388590405865 0 0 0 0 2457.5856320551757 36.662840698632039 0 36.662840698632039 515.46644717463937 0 0 0 0 3568.7539626917569 993.50244722883599 0 993.50244722883599 1252.7756659295278 0 0 0 0 2073.1288959405501 633.37082949605792 0 633.37082949605792 791.62692386619744 0 0 0 0 2542.4430187105318 329.61574914637828 0 329.61574914637828 413.34020041634932 0 0 0 0 1401.0139029666607 -66.553932757725761 0 -66.553932757725761 494.67377626020789 0 0 0 0 1177.1797687433427 400.90454505511161 0 400.90454505511161 -45.678703511926869 0 0 0 0 -149.53441542350265 -41.364966683818182 0 -41.364966683818182 234.14490486754266 0 0 0 0 2166.8833546366368 -645.16928970007507 0 -645.16928970007507 -100.59494089358031 0 0 0 0 1480.0845154492563 673.59480794290266 0 673.59480794290266 198.92930662498975 0 0 0 0 1094.3324263685208 150.88202647498974 0 150.88202647498974 -189.1880133136583 0 0 0 0 -26.558306642036769 439.15096851271301 0 439.15096851271301 494.50096894574881 0 0 0 0 2527.117821697313 -338.83726945759099 0 -338.83726945759099 -561.54839703935932 0 0 0 0 13.669393727017493 17.471150345926858 0 17.471150345926858 26.822723586109284 0 0 0 0 -156.72822364384047 162.17484343484557 0 162.17484343484557 683.5082507685438 0 0 0 0 377.76818742856267 977.76754240081345 0 977.76754240081345 -129.43261117874681 0 0 0 0 2389.5779630837642 1295.5609028387425 0 1295.5609028387425 -1567.4792151494021 0 0 0 0 -1.5491155030386565 0.89462016809878264 0 0.89462016809878264 5.7778060729144869 0 0 0 0 1939.8389629487938 -637.40886980770347 0 -637.40886980770347 604.56601128298826 0 0 0 0 1634.5750056832767 -134.66566657342992 0 -134.66566657342992 -146.31956342767262 0 0 0 0 1076.3584178404708 -786.64407205940734 0 -786.64407205940734 -151.0185125971966 0 0 0 0 842.08643826399202 -373.60528192126367 0 -373.60528192126367 -43.874329765665607 0 0 0 0 1521.8301922432811 -770.57401832191749 0 -770.57401832191749 -320.68947061378458 0 0 0 0 1370.8147812694388 919.20333340109562 0 919.20333340109562 488.39062399403451 0 0 0 0 7.3241146129184642 -3.9746982698743309 0 -3.9746982698743309 2.7872407401495858 0 0 0 0 479.62403419549082 -1007.8154369895811 0 -1007.8154369895811 -324.19246667020536 0 0 0 0 323.80073337232898 491.94210734521482 0 491.94210734521482 620.47359428997129 0 0 0 0 1387.2904063055612 -42.839736509196655 0 -42.839736509196655 -438.43173329898536 0 0 0 0 2171.2273101199535 -867.60310073605274 0 -867.60310073605274 232.04074375934033 0 0 0 0 74.773299470776692 -1003.0752524459358 0 -1003.0752524459358 -321.80036080660875 0 0 0 0 1837.5188949278381 -492.04350688870409 0 -492.04350688870409 -206.90701529799935 0 0 0 0 2156.8010016874687 -830.10642266559989 0 -830.10642266559989 134.01854900313629 0 0 0 0 1195.5334619730711 -2090.944413757712 0 -2090.944413757712 -551.32048613435836 0 0 0 0 4168.5809067199589 -17.415070227829631 0 -17.415070227829631 733.8972248484996 0 0 0 0 3888.2853790847585 -544.15033069536503 0 -544.15033069536503 -112.65972498591015 0 0 0 0 20.324784690891072 6.8028624391916424 0 6.8028624391916424 -2.5874093029453586 0 0 0 0 3617.9863042472716 -601.01132319413591 0 -601.01132319413591 171.70874976017285 0 0 0 0 4880.3270264843013 -1183.4383174938857 0 -1183.4383174938857 42.441738825596985 0 0 0 0 -1165.8254421469755 -753.46137380230823 0 -753.46137380230823 140.72850561155974 0 0 0 0 233.62887171866896 -360.11034382069761 0 -360.11034382069761 -400.58201536718343 0 0 0 0 -663.11195954168215 -1089.9133373434461 0 -1089.9133373434461 -6.3734700580653225 0 0 0 0 -625.09726365451934 -83.742968944265272 0 -83.742968944265272 -356.32694287923994 0 0 0 0 4274.9415627026465 1629.5383122062076 0 1629.5383122062076 564.81660599852239 0 0 0 0 11.97685412925307 8.5557748323311671 0 8.5557748323311671 -0.51024498802006324 0 0 0 0 3175.729738051843 806.51960090701994 0 806.51960090701994 97.772379055297279 0 0 0 0 1.3736604860470152 32.732796068032158 0 32.732796068032158 10.55770521549122 0 0 0 0 91.367073489283939 94.854852464344503 0 94.854852464344503 -67.173466397598531 0 0 0 0 3152.4819073165272 864.31344964267737 0 864.31344964267737 -33.652424328257894 0 0 0 0 135.2447482500429 72.851764864771667 0 72.851764864771667 -180.54978618639871 0 0 0 0 93.776752499869758 -3.2447338711457832 0 -3.2447338711457832 -10.907063321905982 0 0 0 0 227.52029249202315 -207.48527609947092 0 -207.48527609947092 -604.74884128899748 0 0 0 0 88.944394335048855 -102.81280480917837 0 -102.81280480917837 144.14828310449116 0 0 0 0 462.35750143723271 -316.99614131241356 0 -316.99614131241356 -592.87650618433781 0 0 0 0 44.259107506150031 -214.01744740254878 0 -214.01744740254878 -132.92731130497259 0 0 0 0 143.83130663105112 369.92165308682956 0 369.92165308682956 281.07984603863366 0 0 0 0 109.66835121971963 -214.20665350107285 0 -214.20665350107285 -574.26061176514872 0 0 0 0 20.821468530266941 -11.712942912446344 0 -11.712942912446344 4.8085435271728727 0 0 0 0 323.95570011228847 257.36485773341951 0 257.36485773341951 -142.59531254039905 0 0 0 0 152.34984037767208 95.572933529701118 0 95.572933529701118 -581.48095871704118 0 0 0 0 251.22793400219234 -115.91423087800024 0 -115.91423087800024 -395.39771629074096 0 0 0 0 100.21215020501825 -8.1878767681604359 0 -8.1878767681604359 -9.0755375839745582 0 0 0 0 15.451531960126886 -62.223494539838782 0 -62.223494539838782 150.83141415742057 0 0 0 0 104.42368246056458 -8.1747399255234185 0 -8.1747399255234185 -11.098580382889585 0 0 0 0 156.58903500509041 165.37636783877633 0 165.37636783877633 43.122240726514747 0 0 0 0 601.22760996184661 -187.33465309457006 0 -187.33465309457006 -2047.2379202156362 0 0 0 0 189.97207566860016 3.05621624101218 0 3.05621624101218 -148.10483746140585 0 0 0 0 254.51156141623505 118.79984029795816 0 118.79984029795816 -119.7023893778188 0 0 0 0 -20.746276711142855 18.466557910856409 0 18.466557910856409 -76.796608736238795 0 0 0 0 105.52313512218825 91.198291753316937 0 91.198291753316937 -109.77662991309825 0 0 0 0 138.42144357555117 312.28828248059932 0 312.28828248059932 47.499152104601308 0 0 0 0 140.33931573506561 10.283446443434059 0 10.283446443434059 -112.99917537625788 0 0 0 0 -132.00669821677729 -23.361137373046517 0 -23.361137373046517 -174.95348206916697 0 0 0 0 266.28712281301705 148.55257286487085 0 148.55257286487085 -458.2436635245765 0 0 0 0 1083.9004601984925 -282.15684582004087 0 -282.15684582004087 -125.85696146977784 0 0 0 0 566.68304281581618 80.453576906707241 0 80.453576906707241 -109.15698151240213 0 0 0 0 -171.43011024123916 413.16913557162684 0 413.16913557162684 14.702164930293293 0 0 0 0 598.00366025524272 851.86636602397539 0 851.86636602397539 -125.10510446929038 0 0 0 0 -783.6630246571367 -212.2990105615313 0 -212.2990105615313 1301.5720836309983 0 0 0 0 4.8650999690310073 1.9940696303721648 0 1.9940696303721648 0.75582769209342615 0 0 0 0 1297.7945848536474 813.50792442651255 0 813.50792442651255 -178.38734884370933 0 0 0 0 1621.5034486422228 -95.522793959637056 0 -95.522793959637056 -85.317973105617057 0 0 0 0 1354.4837865718873 -195.54294450081215 0 -195.54294450081215 207.85916799052575 0 0 0 0 1340.9818046327346 -120.72987632443437 0 -120.72987632443437 145.09958148589067 0 0 0 0 556.65344345504855 854.49379007402786 0 854.49379007402786 1152.0157227114687 0 0 0 0 2733.628975238491 714.1385993007807 0 714.1385993007807 497.91191232906931 0 0 0 0 1425.7833509478587 -539.55017869548465 0 -539.55017869548465 2827.8109062671101 0 0 0 0 1419.9837556619896 -401.10261939732663 0 -401.10261939732663 338.84846192028363 0 0 0 0 639.5046149662594 692.43213720753101 0 692.43213720753101 -402.69219264038838 0 0 0 0 17.538135765498737 -389.21958480153444 0 -389.21958480153444 112.81489736004914 0 0 0 0 724.54270085869211 -239.7732135745191 0 -239.7732135745191 -4.2426281030766404 0 0 0 0 150.86914525714383 -96.780057503143325 0 -96.780057503143325 265.93035161460648 0 0 0 0 475.08958406774764 -396.31932808676811 0 -396.31932808676811 284.65740449442455 0 0 0 0 925.79957430838112 -189.29643931667761 0 -189.29643931667761 -45.872938179865741 0 0 0 0 822.40234415831947 -243.58295940112112 0 -243.58295940112112 -50.082545413737876 0 0 0 0 830.65050765491469 -163.16278147104458 0 -163.16278147104458 4.2489547725942884 0 0 0 0 887.69615406350931 -116.72835663443766 0 -116.72835663443766 12.288162993339938 0 0 0 0 724.18372662938464 -185.14591962671489 0 -185.14591962671489 611.28465157932078 0 0 0 0 1477.7571018930994 229.23676977212926 0 229.23676977212926 -387.09415664022163 0 0 0 0 1737.7602712941371 -386.28689362016303 0 -386.28689362016303 -38.234117786820207 0 0 0 0 3287.6045009765585 -431.91559120614329 0 -431.91559120614329 -271.24653558539285 0 0 0 0 548.70655983604956 181.25098127221281 0 181.25098127221281 -135.27204168083153 0 0 0 0 151.27836541245779 124.02871492884151 0 124.02871492884151 -103.51336226167405 0 0 0 0 1644.0842453176538 481.28292998833967 0 481.28292998833967 -33.47490217756058 0 0 0 0 942.74921549508872 306.48866307137632 0 306.48866307137632 173.26003986470096 0 0 0 0 2.7921819829190753 1.8066924051942976 0 1.8066924051942976 -6.9926858498643298 0 0 0 0 -177.54809349904099 -134.12251577377174 0 -134.12251577377174 242.30869216339397 0 0 0 0 435.58567406231941 -152.03624472711863 0 -152.03624472711863 -114.76207158350917 0 0 0 0 257.46263140127667 4.0104023622870955 0 4.0104023622870955 -116.73138354304319 0 0 0 0 -17.029489738415577 -96.973832117091661 0 -96.973832117091661 -55.508436144014922 0 0 0 0 57.881749954831207 -5.6497757685366423 0 -5.6497757685366423 -8.4367131720453408 0 0 0 0 293.91508582149436 11.650804120430848 0 11.650804120430848 -169.37427023733289 0 0 0 0 1046.3560977580782 -1244.4753142981917 0 -1244.4753142981917 1188.5156552305493 0 0 0 0 1369.1781850624466 1126.5726119767878 0 1126.5726119767878 716.67859207129914 0 0 0 0 21.397468420393523 -2.0506456372892252 0 -2.0506456372892252 1.1479517416160043 0 0 0 0 2668.6736918211204 -987.87637129078826 0 -987.87637129078826 207.06093236724337 0 0 0 0 50.677399006657652 -451.24640585461202 0 -451.24640585461202 745.89829199861015 0 0 0 0 1164.2917751118187 -851.15057534001289 0 -851.15057534001289 270.25332052185331 0 0 0 0 1169.3416549412359 -621.5596815798508 0 -621.5596815798508 146.38687074232894 0 0 0 0 1622.852546687438 -548.88668546082954 0 -548.88668546082954 -22.055928022862645 0 0 0 0 946.23147159092332 -682.3772429878718 0 -682.3772429878718 143.91419946751012 0 0 0 0 754.0319823208556 -68.742351455513017 0 -68.742351455513017 -151.25320550218839 0 0 0 0 255.09137874722364 -184.07463976573308 0 -184.07463976573308 264.0337756711051 0 0 0 0 -1216.2066619875259 -992.09421724139474 0 -992.09421724139474 2467.5527124173118 0 0 0 0 16.238196304632808 -5.222041746688717 0 -5.222041746688717 -10.830942230235173 0 0 0 0 -144.77211955920575 613.04904882463529 0 613.04904882463529 1052.354796561289 0 0 0 0 1362.202933310351 683.50333062443099 0 683.50333062443099 -956.09420307587652 0 0 0 0 72.909564136818972 1.0013500661435568 0 1.0013500661435568 -7.0275108719617769 0 0 0 0 101.23430281854871 0.28007897841189333 0 0.28007897841189333 -47.882895744088728 0 0 0 0 23.02159166706155 1.2942561452678802 0 1.2942561452678802 -22.994471491163836 0 0 0 0 56.5659051216644 205.57170406543901 0 205.57170406543901 -226.02568990874215 0 0 0 0 -0.92087802106468786 0.36643009916801361 0 0.36643009916801361 -7.4026871191690304 0 0 0 0 99.001060050020897 -33.31447278530095 0 -33.31447278530095 -90.958182590621391 0 0 0 0 95.139822349716269 -45.016184106731089 0 -45.016184106731089 -39.859586072614547 0 0 0 0 270.82171337009277 -205.16327646022728 0 -205.16327646022728 -314.63458775810568 0 0 0 0 80.700499188922549 -169.24862448060048 0 -169.24862448060048 241.31875407719872 0 0 0 0 244.24584263037468 -273.05202243335748 0 -273.05202243335748 -46.665736381316492 0 0 0 0 642.76341385777778 1281.5128386634992 0 1281.5128386634992 1174.951806598162 0 0 0 0 26.514109736911252 3.8390483661793233 0 3.8390483661793233 1.726929307333027 0 0 0 0 5.7996430423518177 649.7908482417597 0 649.7908482417597 644.36234094634528 0 0 0 0 -121.16345091767198 511.73775986922408 0 511.73775986922408 573.65790950645533 0 0 0 0 597.99911247520504 647.16861360033454 0 647.16861360033454 292.14283027459715 0 0 0 0 320.87530795145722 -362.49109952044046 0 -362.49109952044046 473.08468607511657 0 0 0 0 282.60753772476164 -71.951756920531011 0 -71.951756920531011 141.50746164919917 0 0 0 0 672.96728814957896 -134.24088071749276 0 -134.24088071749276 68.951624822385725 0 0 0 0 687.4646118331475 -459.11080298608908 0 -459.11080298608908 415.61422535382189 0 0 0 0 1375.0637905808399 -1132.8860353412729 0 -1132.8860353412729 1324.8900627354662 0 0 0 0 779.43607718851399 -445.46765828259242 0 -445.46765828259242 553.57528740413954 0 0 0 0 779.62525524038938 -445.64231937676504 0 -445.64231937676504 477.63216801916769 0 0 0 0 348.72137436689809 -407.5432649211125 0 -407.5432649211125 673.92949546240641 0 0 0 0 717.8828653634846 -679.40646467927979 0 -679.40646467927979 564.49627847261922 0 0 0 0 1428.6921892972896 -873.64081044357681 0 -873.64081044357681 659.01290317545897 0 0 0 0 930.65150209693093 -398.37623825887636 0 -398.37623825887636 345.59545079449322 0 0 0 0 606.30585589027032 -351.32864990088399 0 -351.32864990088399 338.82888512016734 0 0 0 0 656.97723787589348 -519.71617811632655 0 -519.71617811632655 416.11279446636348 0 0 0 0 518.49699477664399 -504.93859198471773 0 -504.93859198471773 469.03797600177018 0 0 0 0 531.45960021896644 -463.69614819671096 0 -463.69614819671096 418.27692438396843 0 0 0 0 503.05412659608555 -472.46512602210095 0 -472.46512602210095 474.30871579478207 0 0 0 0 690.59549613222771 -236.52178360690908 0 -236.52178360690908 218.53600613483769 0 0 0 0 496.41792408124093 -66.582034514197886 0 -66.582034514197886 463.21374333345017 0 0 0 0 3491.1336067137672 1006.4576077904976 0 1006.4576077904976 -112.07501172595074 0 0 0 0 1012.4287660284062 288.75061571093704 0 288.75061571093704 -12.994057541701295 0 0 0 0 317.16279485786799 1371.6277296543351 0 1371.6277296543351 670.95842291813119 0 0 0 0 3496.3794257331901 -13.249358591176952 0 -13.249358591176952 9.0988757331958574 0 0 0 0 -284.01029148994712 106.50083696218297 0 106.50083696218297 -38.583120956876201 0 0 0 0 -1080.6721238111786 830.29539247412322 0 830.29539247412322 527.00182205353804 0 0 0 0 15.16137932949524 2.2424947239323529 0 2.2424947239323529 3.2698721638476038 0 0 0 0 18.507110202570914 -22.616765637355265 0 -22.616765637355265 14.750615602108839 0 0 0 0 -124.94805226346944 39.315696619225434 0 39.315696619225434 126.55380419261587 0 0 0 0 111.72667093220662 451.27409067037252 0 451.27409067037252 -611.86311678081154 0 0 0 0 360.18215651946139 19.66144258972728 0 19.66144258972728 54.735615426043978 0 0 0 0 3500.4224348540511 -683.96429961676301 0 -683.96429961676301 230.16406947549325 0 0 0 0 3352.8688657753446 -944.78769340850749 0 -944.78769340850749 265.72160139095519 0 0 0 0 4.3278082777119806 -25.06819515816558 0 -25.06819515816558 9.3809395244594782 0 0 0 0 77.827648776806768 12.832397855744567 0 12.832397855744567 -2.3467713335167431 0 0 0 0 136.27285963945906 -20.635159763282672 0 -20.635159763282672 -43.839340718680432 0 0 0 0 -2.3296419659959469 -17.529052741575327 0 -17.529052741575327 4.1472125364329804 0 0 0 0 53.964468661804858 -202.0567500771549 0 -202.0567500771549 -181.23714618224108 0 0 0 0 81.142546243476204 -40.228239868320507 0 -40.228239868320507 -4.2116034550567747 0 0 0 0 82.044417049240337 -89.991058085031668 0 -89.991058085031668 -398.50114692013608 0 0 0 0 186.93114101617539 -248.02671913419584 0 -248.02671913419584 -66.48008571993887 0 0 0 0 83.793260814220361 16.350514136716114 0 16.350514136716114 -4.7561753402713904 0 0 0 0 199.95242556877929 382.31703595813156 0 382.31703595813156 -680.9596454450932 0 0 0 0 396.58341343754 -397.81227910099773 0 -397.81227910099773 -3.7634360060089307 0 0 0 0 -4.1461629950426868 -21.452536468355788 0 -21.452536468355788 199.55203994903573 0 0 0 0 83.915066563142659 15.153421401232862 0 15.153421401232862 -5.7480504973946172 0 0 0 0 247.05629600029351 66.374787342854589 0 66.374787342854589 -457.59960865050436 0 0 0 0 -108.9776671223226 -598.82722514552972 0 -598.82722514552972 456.37747926458707 0 0 0 0 334.10557215016161 -1157.9047880158375 0 -1157.9047880158375 418.93115795225185 0 0 0 0 925.55834269261686 -1250.7292747526119 0 -1250.7292747526119 284.03681932569401 0 0 0 0 1581.2594295762974 -1137.4370025554713 0 -1137.4370025554713 -11.175144867659355 0 0 0 0 2071.7500348363865 -104.26254306069887 0 -104.26254306069887 -11.030083346392075 0 0 0 0 1056.4450820611237 -640.8575159918978 0 -640.8575159918978 96.231339682995895 0 0 0 0 719.28801637962169 -774.36360724541191 0 -774.36360724541191 199.35700115460759 0 0 0 0 829.23451427449618 -718.16312245194035 0 -718.16312245194035 190.64080913159023 0 0 0 0 786.45636993154767 -191.46787796567435 0 -191.46787796567435 69.073450332679897 0 0 0 0 783.54571080184542 -751.10426077337138 0 -751.10426077337138 146.3352975686679 0 0 0 0 860.39714464190183 -237.73339237623554 0 -237.73339237623554 15.32108553318335 0 0 0 0 678.69193402562087 -686.75442496199935 0 -686.75442496199935 310.35700934197848 0 0 0 0 672.18408759127306 -551.00039498458386 0 -551.00039498458386 44.278850464172251 0 0 0 0 51.752925187688959 -6.6466725091880221 0 -6.6466725091880221 3.0890559443519896 0 0 0 0 52.508546065990231 27.210028169198665 0 27.210028169198665 74.085777598229697 0 0 0 0 100.9540310200363 26.640649381110094 0 26.640649381110094 -3.9876708410393009 0 0 0 0 118.82016013073735 -225.01868795630799 0 -225.01868795630799 455.99232597109449 0 0 0 0 390.36054876656272 -134.26615797706182 0 -134.26615797706182 42.309454166043309 0 0 0 0 27.159843311407997 2.6285346900492641 0 2.6285346900492641 10.553716980621662 0 0 0 0 23.571575765018679 8.188924109520201 0 8.188924109520201 4.0336268277178391 0 0 0 0 105.31292077309789 40.374609597969261 0 40.374609597969261 -14.45520258027174 0 0 0 0 47.794490451051388 402.43297610047148 0 402.43297610047148 -48.208970725096378 0 0 0 0 64.543101635063522 43.509462276859821 0 43.509462276859821 18.444080231214048 0 0 0 0 10.833286693439533 23.167889237594913 0 23.167889237594913 -22.169249223367444 0 0 0 0 273.8751687249387 163.07697460946429 0 163.07697460946429 -65.408446287599077 0 0 0 0 130.77996901836013 21.149627198891721 0 21.149627198891721 11.745940537295155 0 0 0 0 156.40003228437854 -12.61146797726343 0 -12.61146797726343 -148.15334300909473 0 0 0 0 252.7932485097117 53.973584262094164 0 53.973584262094164 -156.93570596588324 0 0 0 0 95.264744833761142 53.920574161208322 0 53.920574161208322 -3.4205043877063872 0 0 0 0 97.659345908465184 69.345875967941083 0 69.345875967941083 0.8428183371306659 0 0 0 0 101.41243998701975 60.573851958562955 0 60.573851958562955 0.41479512700718146 0 0 0 0 89.009529541861411 79.689873515878844 0 79.689873515878844 15.189124731844458 0 0 0 0 86.586760454916657 34.921632423995561 0 34.921632423995561 -42.80748786971526 0 0 0 0 -8.0636205829891026 5.4359487905297641 0 5.4359487905297641 -6.7770770016861981 0 0 0 0 478.6129208185157 -439.78292351879145 0 -439.78292351879145 535.34624160892531 0 0 0 0 235.99910896015354 -804.63309337774535 0 -804.63309337774535 1561.4584794899301 0 0 0 0 10.479779031660371 2.7542763995155326 0 2.7542763995155326 5.8120847164532377 0 0 0 0 1136.9716913325683 -53.532979574284354 0 -53.532979574284354 781.49510144523981 0 0 0 0 1461.7782709928724 -833.22195392955518 0 -833.22195392955518 337.04602055897521 0 0 0 0 47.423061345798487 54.700544300069851 0 54.700544300069851 10.936986905094273 0 0 0 0 50.276572618977113 36.51135389010765 0 36.51135389010765 19.907399196925276 0 0 0 0 732.65499580342293 -773.14888107496915 0 -773.14888107496915 487.32366275301774 0 0 0 0 41.623638708001636 68.210249688983595 0 68.210249688983595 29.094800084196322 0 0 0 0 34.226851664752758 67.813884182921356 0 67.813884182921356 29.475000359430169 0 0 0 0 143.22185802055174 263.22176527899853 0 263.22176527899853 35.530410459598102 0 0 0 0 -20.973070424600152 20.328506827976156 0 20.328506827976156 26.398318188998736 0 0 0 0 1499.8214394846873 -404.37222568671586 0 -404.37222568671586 146.73542213427038 0 0 0 0 2146.5800580157666 -602.87671864025879 0 -602.87671864025879 186.68407993495748 0 0 0 0 -8.4214574104106248 0.52946257739250768 0 0.52946257739250768 9.6901378266669411 0 0 0 0 106.11611303265818 155.67887697850045 0 155.67887697850045 -11.497374547249308 0 0 0 0 739.52735080887942 -319.22822825468984 0 -319.22822825468984 153.26151608787541 0 0 0 0 91.664610770823856 -99.51292152572131 0 -99.51292152572131 110.00126260943034 0 0 0 0 47.819653721995564 85.167932842990695 0 85.167932842990695 21.985207758572869 0 0 0 0 -24.797449584281679 20.996784568791739 0 20.996784568791739 28.439392384558332 0 0 0 0 -35.113025575948996 11.023230357171087 0 11.023230357171087 110.09317780550464 0 0 0 0 -40.790979872814205 32.487253405692115 0 32.487253405692115 74.59710081637337 0 0 0 0 242.92778770017685 -65.947160276576739 0 -65.947160276576739 77.404324598521839 0 0 0 0 155.5933076056026 96.366757397182795 0 96.366757397182795 47.380821746244976 0 0 0 0 200.5712138795061 142.48467450337557 0 142.48467450337557 -64.012007671612196 0 0 0 0 52.00991132533818 106.64100934054659 0 106.64100934054659 40.070418080601485 0 0 0 0 78.543762740600869 166.46699990354614 0 166.46699990354614 156.67219541521627 0 0 0 0 -132.16479795792839 299.51013298279577 0 299.51013298279577 -118.04456780196779 0 0 0 0 -9.7401001470716437 66.463172503891656 0 66.463172503891656 213.60248681168514 0 0 0 0 0.68813040746798038 11.652076783564294 0 11.652076783564294 13.152186149728745 0 0 0 0 -401.99438872886822 321.88189857832731 0 321.88189857832731 29.149607943472802 0 0 0 0 -554.52172874893586 -29.61871837792296 0 -29.61871837792296 257.91469235289333 0 0 0 0 87.237248317695048 -176.44760104032684 0 -176.44760104032684 209.06170986598227 0 0 0 0 -184.80145200624247 122.34230677987398 0 122.34230677987398 100.93207426732988 0 0 0 0 -255.39394672259368 100.00246803913524 0 100.00246803913524 169.38415998265191 0 0 0 0 47.678250694574672 -117.25358831818448 0 -117.25358831818448 181.64103127770625 0 0 0 0 -308.72424059786135 -48.847988865421939 0 -48.847988865421939 76.198656467283854 0 0 0 0 -8.9459137835689688 -3.2221031960925401 0 -3.2221031960925401 7.0565913607158421 0 0 0 0 -143.94023793641099 108.58012316526219 0 108.58012316526219 33.766603213229246 0 0 0 0 -44.385397433434264 34.539210865881614 0 34.539210865881614 -260.84674868524326 0 0 0 0 -4.3123057421746722 22.301864571749562 0 22.301864571749562 38.46002378039595 0 0 0 0 -14.364386617264245 4.9975830288278758 0 4.9975830288278758 20.184096608268646 0 0 0 0 18.58415685053842 54.515816426926449 0 54.515816426926449 25.864659656053846 0 0 0 0 -26.808438029423996 65.542481992550165 0 65.542481992550165 28.510304479751539 0 0 0 0 13.4993743314337 29.003507536256897 0 29.003507536256897 42.115387485263696 0 0 0 0 4.0617221294395591 5.9005276481893816 0 5.9005276481893816 3.3951893854601565 0 0 0 0 204.61226113533485 -112.11382888543631 0 -112.11382888543631 -15.299256479168889 0 0 0 0 223.56963040799019 -251.04801909975231 0 -251.04801909975231 145.48322808349803 0 0 0 0 -197.87472699132923 114.76194805054502 0 114.76194805054502 62.496492571091949 0 0 0 0 137.26208990079613 -41.642871858623948 0 -41.642871858623948 81.34843425726649 0 0 0 0 5.373918202312268 1.9494901047442639 0 1.9494901047442639 0.90615868736598948 0 0 0 0 210.05078594903171 9.2891280372492133 0 9.2891280372492133 -65.33361384529033 0 0 0 0 38.998741989646078 -14.322102040455462 0 -14.322102040455462 -45.498350424177033 0 0 0 0 -0.098830014860141091 105.31741952460911 0 105.31741952460911 13.570536340814755 0 0 0 0 -49.499361668509664 7.5394030056104384 0 7.5394030056104384 135.19843647136258 0 0 0 0 3.6137799331487201 14.845592990791367 0 14.845592990791367 15.119262042035048 0 0 0 0 -57.588720382511383 84.056684267051935 0 84.056684267051935 97.239526155567006 0 0 0 0 -41.280418459857174 16.395909279055633 0 16.395909279055633 26.48023292528751 0 0 0 0 32.9699064844026 88.322829832380123 0 88.322829832380123 94.637603679180756 0 0 0 0 26.877191658815718 127.25616802039485 0 127.25616802039485 32.305903909969672 0 0 0 0 -158.36089313094999 -86.436780824387995 0 -86.436780824387995 594.28992439851356 0 0 0 0 -45.504435020819074 284.5054002699768 0 284.5054002699768 19.067604653190756 0 0 0 0 45.24942624601772 -48.862199470242665 0 -48.862199470242665 275.61456350832736 0 0 0 0 -228.07412851714616 255.39535204951437 0 255.39535204951437 477.64635468007179 0 0 0 0 41.800893966872536 18.646351006994337 0 18.646351006994337 14.616397921879525 0 0 0 0 643.54974096565275 -546.99540089481604 0 -546.99540089481604 -275.40339818366613 0 0 0 0 28.801631047733025 2.4391075585288107 0 2.4391075585288107 -9.7622475089614014 0 0 0 0 452.40915823460091 353.44380832128331 0 353.44380832128331 -23.234474047260392 0 0 0 0 15.186032139700899 18.240721032999701 0 18.240721032999701 7.7042126243548061 0 0 0 0 346.16639988419774 -66.41422455941256 0 -66.41422455941256 -20.051416049003819 0 0 0 0 -138.17182285533636 141.45813773966393 0 141.45813773966393 197.10589261289238 0 0 0 0 159.08207583011244 -345.04159261398195 0 -345.04159261398195 417.94385482585409 0 0 0 0 0.73209425397578798 1.8217212922320769 0 1.8217212922320769 1.9810041385196013 0 0 0 0 104.22875175873196 196.114883922215 0 196.114883922215 -29.01270630781454 0 0 0 0 -37.483919284419244 24.911868702953932 0 24.911868702953932 359.60226609109679 0 0 0 0 3.8503536628145127 -0.066555402651360396 0 -0.066555402651360396 -2.5187334560727126 0 0 0 0 477.4657039558515 -56.476891670408477 0 -56.476891670408477 96.729770797901679 0 0 0 0 464.44622285194055 -367.39510972782995 0 -367.39510972782995 296.75820127241519 0 0 0 0 689.40664005012877 -499.87713244455637 0 -499.87713244455637 259.80597473931243 0 0 0 0 626.71509290163704 -309.88574923778287 0 -309.88574923778287 494.82205622872334 0 0 0 0 619.927801618167 -353.7815488304978 0 -353.7815488304978 223.46681004221068 0 0 0 0 284.88590457204555 -16.900454408467311 0 -16.900454408467311 110.47960986393343 0 0 0 0 1703.6549145809913 12.109875661079826 0 12.109875661079826 -201.764036638443 0 0 0 0 869.12864140151942 -453.0926079674569 0 -453.0926079674569 369.38109126040058 0 0 0 0 1622.9002448959945 79.255869010517642 0 79.255869010517642 327.49118247625671 0 0 0 0 1079.4410324884666 -173.86812853237382 0 -173.86812853237382 314.76982072875938 0 0 0 0 3503.0339578888015 -238.1608712386064 0 -238.1608712386064 -229.18068653604254 0 0 0 0 1607.1604082154372 -827.80500083839252 0 -827.80500083839252 144.50549281520429 0 0 0 0 1480.9056319312731 -674.49979186422274 0 -674.49979186422274 67.534491626450745 0 0 0 0 3489.7268392689366 -2322.713533201123 0 -2322.713533201123 970.13439637260331 0 0 0 0 -13.69989222795266 260.62508898021088 0 260.62508898021088 182.02283327430041 0 0 0 0 584.67353928092052 -828.58497806579805 0 -828.58497806579805 1076.3285908343883 0 0 0 0 12.332278921975131 -7.5810662305297924 0 -7.5810662305297924 6.9488790966948493 0 0 0 0 79.9770024664831 -673.10296009471176 0 -673.10296009471176 1029.5878406241261 0 0 0 0 3494.4322441939694 866.22132543347948 0 866.22132543347948 -243.01437267077645 0 0 0 0 26.251972484664947 -18.76188498315841 0 -18.76188498315841 15.045293452372038 0 0 0 0 25.564293923394871 -127.25823948424477 0 -127.25823948424477 -253.27649829777511 0 0 0 0 234.10834000147588 -24.31638397287179 0 -24.31638397287179 -340.30340162164975 0 0 0 0 497.32256549826798 -167.17820933915294 0 -167.17820933915294 -40.389675755771172 0 0 0 0 577.47162067545469 -486.55921361330019 0 -486.55921361330019 405.90568204609809 0 0 0 0 -293.65593789606646 -0.23364596166613438 0 -0.23364596166613438 234.0859176174217 0 0 0 0 635.53438566545083 -13.879223511251325 0 -13.879223511251325 -33.929872764152606 0 0 0 0 1292.7123603338478 -1164.4231954275954 0 -1164.4231954275954 733.39622074545173 0 0 0 0 1151.6158482779647 64.118239822602959 0 64.118239822602959 -229.36162566973576 0 0 0 0 3398.2053942985731 -508.60024064983702 0 -508.60024064983702 -261.46656029553498 0 0 0 0 30.441287575580645 11.639294795827482 0 11.639294795827482 11.104031876665886 0 0 0 0 214.88104218601075 167.70715595600677 0 167.70715595600677 -98.7398526085708 0 0 0 0 72.28857662435621 32.108701712197217 0 32.108701712197217 -172.83979654039967 0 0 0 0 17.150437357297264 11.436371267249029 0 11.436371267249029 2.9412673467305055 0 0 0 0 30.994135329412529 9.4765729707517039 0 9.4765729707517039 13.401819214425814 0 0 0 0 17.987067755428143 27.107288457395043 0 27.107288457395043 -17.855728052483755 0 0 0 0 13.07234059313582 -0.88529760587499595 0 -0.88529760587499595 -1.2687981686042349 0 0 0 0 28.536239623680444 -7.1762296403709342 0 -7.1762296403709342 6.6504312924079336 0 0 0 0 25.831672704356578 -8.5545569376054686 0 -8.5545569376054686 11.224099958202329 0 0 0 0 -230.09210041828919 -57.062326625285209 0 -57.062326625285209 -87.090368150095628 0 0 0 0 15.643991733610164 -1.9251144578574895 0 -1.9251144578574895 -0.28979938926204341 0 0 0 0 28.761874650139248 -4.5602249362229514 0 -4.5602249362229514 7.2013386728898237 0 0 0 0 23.701797824440291 0.70678092627440492 0 0.70678092627440492 6.9239044786882005 0 0 0 0 15.238307971065339 -1.8827393628782119 0 -1.8827393628782119 5.858039582471152 0 0 0 0 27.224380287450913 7.1108487586539013 0 7.1108487586539013 12.169146178866413 0 0 0 0 29.202169803866127 10.385337571154423 0 10.385337571154423 17.380640792634949 0 0 0 0 16.576584437127167 5.5960285542601635 0 5.5960285542601635 6.9675469942557013 0 0 0 0 8.6949195600391249 2.8905547327149179 0 2.8905547327149179 9.863683692228733 0 0 0 0 19.870221954166482 -2.6483392126665422 0 -2.6483392126665422 4.7427436149973801 0 0 0 0 12.47042862785834 0.91849094842376644 0 0.91849094842376644 4.9991338715616322 0 0 0 0 19.866511896223528 -3.2465616415674958 0 -3.2465616415674958 -3.0275535135615428 0 0 0 0 17.118979637718752 -1.8859186622206874 0 -1.8859186622206874 5.6970003620621457 0 0 0 0 27.983078490171465 0.1091571274364469 0 0.1091571274364469 5.7188338864798425 0 0 0 0 22.220764216060374 0.98930096289824121 0 0.98930096289824121 3.5305096591749141 0 0 0 0 19.692450313649829 2.3677589228119729 0 2.3677589228119729 10.319473744203581 0 0 0 0 -310.83017989718064 131.49217996079915 0 131.49217996079915 159.22804396933486 0 0 0 0 32.677856994127069 0.25964347014064515 0 0.25964347014064515 3.1119623770900944 0 0 0 0 32.831609151398453 2.7825019206206489 0 2.7825019206206489 5.9082815133819668 0 0 0 0 47.5555211107785 1.4401264734879078 0 1.4401264734879078 -46.907015455544752 0 0 0 0 9.2779490513385099 -71.396213817830017 0 -71.396213817830017 13.518907684880105 0 0 0 0 -20.31787588957377 -0.70435203026363524 0 -0.70435203026363524 32.169083919686273 0 0 0 0 11.416415634526423 -13.563844044485634 0 -13.563844044485634 10.686651336251277 0 0 0 0 46.264178898454702 -98.118275648561507 0 -98.118275648561507 30.41339223295563 0 0 0 0 44.624452968593687 -1.8417738912403365 0 -1.8417738912403365 3.871715348993348 0 0 0 0 4.9850452212558594 51.369107996131788 0 51.369107996131788 70.789157698392955 0 0 0 0 5.1369445063028252 11.505733909463743 0 11.505733909463743 49.886006127353994 0 0 0 0 1.7888279465781096 -1.1139272151505253 0 -1.1139272151505253 1.3808495135572336 0 0 0 0 5.724934921869135 -8.1294313797388895 0 -8.1294313797388895 42.448236004920545 0 0 0 0 3499.2143162768566 -1133.0180982162067 0 -1133.0180982162067 604.06190799555259 0 0 0 0 3651.9957065524068 -347.79030353005811 0 -347.79030353005811 35.457947521652123 0 0 0 0 4.4935010684179133 -3.3258223473565565 0 -3.3258223473565565 2.8036137182681888 0 0 0 0 5.3319858669471074 -2.5778746922596127 0 -2.5778746922596127 3.3848474860764042 0 0 0 0 -429.29172015721269 -334.31021081687982 0 -334.31021081687982 585.70309352012032 0 0 0 0 385.51713115897292 209.35585297149797 0 209.35585297149797 -194.52358207063594 0 0 0 0 241.48663996285177 -132.74204165793634 0 -132.74204165793634 42.875252429696275 0 0 0 0 18.519756151573404 2.3234832617690628 0 2.3234832617690628 4.8178479955438904 0 0 0 0 -304.45432793002692 105.79877926424956 0 105.79877926424956 187.30861139896604 0 0 0 0 18.567377132261754 -0.21840372934730112 0 -0.21840372934730112 8.3728095007580237 0 0 0 0 11.293838928149981 6.9725696115138049 0 6.9725696115138049 7.6728984864023841 0 0 0 0 13.123491630340141 42.146485519650014 0 42.146485519650014 39.455119414021283 0 0 0 0 252.48064361902652 178.48902887588974 0 178.48902887588974 81.778482151201388 0 0 0 0 3481.2798399325111 1733.4140619987579 0 1733.4140619987579 -547.91082054440415 0 0 0 0 1841.2509856038414 -591.80176174960866 0 -591.80176174960866 102.36617374464953 0 0 0 0 8.7332170118620098 -2.3468131962922669 0 -2.3468131962922669 8.0462159885834659 0 0 0 0 30.504321154397985 -9.7134149475459708 0 -9.7134149475459708 100.76779922040319 0 0 0 0 3497.8769241148802 749.37199022602761 0 749.37199022602761 87.055043923180861 0 0 0 0 7.7685693141917511 -5.1730324769844174 0 -5.1730324769844174 3.7170273462131176 0 0 0 0 7.0628162611454286 2.0731632823487445 0 2.0731632823487445 5.0173276812989087 0 0 0 0 7.2590304964724055 8.2618171291289855 0 8.2618171291289855 1.1470841640731351 0 0 0 0 251.56264978144463 -154.16885376746723 0 -154.16885376746723 -75.533202625042577 0 0 0 0 4.4015955391564958 -0.69830636979151706 0 -0.69830636979151706 2.2269544230804792 0 0 0 0 -38.476063364507354 17.878191808956444 0 17.878191808956444 32.524980471818708 0 0 0 0 -57.157775622981717 11.935374014353329 0 11.935374014353329 44.374801234062943 0 0 0 0 1.3928504099308441 -1.7334268435202205 0 -1.7334268435202205 1.5454407354698443 0 0 0 0 -46.523358715814538 -0.62024203260671129 0 -0.62024203260671129 58.620652887882784 0 0 0 0 8.4178309712165316 -15.661715893011305 0 -15.661715893011305 12.185770918655519 0 0 0 0 -71.479430082385079 -17.808127932162279 0 -17.808127932162279 14.703435754692691 0 0 0 0 -3.7017201859271154 26.874054709907796 0 26.874054709907796 38.825880425118157 0 0 0 0 65.333078420342645 -27.61900760518165 0 -27.61900760518165 -32.658747447329006 0 0 0 0 46.072063919316861 1.5301324451957043 0 1.5301324451957043 -76.717446793797535 0 0 0 0 -14.553187690100458 34.029197441957876 0 34.029197441957876 -38.95734744033507 0 0 0 0 249.80366934716369 124.07386509232069 0 124.07386509232069 -15.625240098122958 0 0 0 0 -51.236250490816019 34.221039617073757 0 34.221039617073757 11.600792001165246 0 0 0 0 -23.834365783892281 -64.243015803028811 0 -64.243015803028811 -20.871417664432556 0 0 0 0 1.2857103600221862 -1.2200807262834985 0 -1.2200807262834985 -0.15687538519584709 0 0 0 0 211.83740990849952 -61.969518560905378 0 -61.969518560905378 122.18970335026029 0 0 0 0 14.944597746653017 9.0986224417570156 0 9.0986224417570156 36.842053522633023 0 0 0 0 209.40441704787372 105.94366503833191 0 105.94366503833191 -1.1522821910825201 0 0 0 0 -48.020658120047301 -77.418991544792107 0 -77.418991544792107 5.3909474556860459 0 0 0 0 2.7769187288476118 -4.1022546850026274 0 -4.1022546850026274 4.840983097089576 0 0 0 0 107.12629962208484 -88.202784795393853 0 -88.202784795393853 74.506035793922592 0 0 0 0 -135.04194125753565 128.37701506800659 0 128.37701506800659 42.237809989963353 0 0 0 0 51.88102907728171 -22.640615769285773 0 -22.640615769285773 -31.698244134725428 0 0 0 0 58.329342375467604 -26.270831018275885 0 -26.270831018275885 -2.9091882016064119 0 0 0 0 5.0916644922056875 -1.8950259167309937 0 -1.8950259167309937 0.82820017720717232 0 0 0 0 73.510898357599217 -164.04136187955868 0 -164.04136187955868 -4.8664080641262899 0 0 0 0 55.606762254530622 31.513968152628479 0 31.513968152628479 -38.341400046819032 0 0 0 0 192.95077499833133 45.694388134555567 0 45.694388134555567 -45.404438025070931 0 0 0 0 19.266844844343723 1.9804315223007052 0 1.9804315223007052 -7.7974113517647226 0 0 0 0 2752.9884638765252 -717.59451555788837 0 -717.59451555788837 -370.70845547561021 0 0 0 0 3491.7130775053083 -185.20013460611409 0 -185.20013460611409 -609.59627858016438 0 0 0 0 1000.182269594799 1450.2151813572905 0 1450.2151813572905 51.505536324332638 0 0 0 0 1062.9782646870444 -454.56188290994714 0 -454.56188290994714 78.228326716729271 0 0 0 0 3501.9160979629887 775.02320266398112 0 775.02320266398112 -182.97016126319065 0 0 0 0 10.720973038515261 -13.082493649964867 0 -13.082493649964867 4.3503538186691761 0 0 0 0 2047.2697951303126 -88.64420371476686 0 -88.64420371476686 -492.76352375044689 0 0 0 0 3541.4924010891264 639.02425436311103 0 639.02425436311103 202.12092614338755 0 0 0 0 9.1031852022685342 -0.62561221557153601 0 -0.62561221557153601 0.40936944054565472 0 0 0 0 -9.9282938984215434 -33.296113045080972 0 -33.296113045080972 42.947322979860928 0 0 0 0 14.38607182065607 0.3728787233641242 0 0.3728787233641242 -5.1669561584365056 0 0 0 0 27.154916721381596 -85.04284657419521 0 -85.04284657419521 -42.781808800762519 0 0 0 0 -44.846199921652442 -52.627537423015383 0 -52.627537423015383 49.19578057864419 0 0 0 0 -2.4990307815169217 -55.637303339767641 0 -55.637303339767641 -78.566789826647437 0 0 0 0 32.368651561948354 -12.593849332546597 0 -12.593849332546597 24.497442467378278 0 0 0 0 52.166462759225396 -50.218550222543399 0 -50.218550222543399 89.258076012172751 0 0 0 0 265.84216218895745 -32.928233780927712 0 -32.928233780927712 98.960413337259524 0 0 0 0 149.96913964257692 61.352924257576888 0 61.352924257576888 48.73152247243118 0 0 0 0 331.0325798230042 86.266063159773921 0 86.266063159773921 73.914690945142866 0 0 0 0 78.676706511272641 -47.892255566733184 0 -47.892255566733184 47.875174665214303 0 0 0 0 276.31159772919636 52.998884821738557 0 52.998884821738557 -32.636199267634765 0 0 0 0 18.225260153063573 -96.841542199681271 0 -96.841542199681271 5.1802394010572357 0 0 0 0 56.010430844282382 -141.6952273573504 0 -141.6952273573504 -131.09958587666415 0 0 0 0 -156.51333526420058 -194.88018787872716 0 -194.88018787872716 -135.48130477076529 0 0 0 0 -19.493086463975487 11.153639487073633 0 11.153639487073633 -75.213317989526331 0 0 0 0 68.208949683707033 -7.7805864724414278 0 -7.7805864724414278 -90.06510105817506 0 0 0 0 -110.02214913087664 -43.449982558406191 0 -43.449982558406191 -37.406924967423038 0 0 0 0 -104.11756181495821 -153.26211976545605 0 -153.26211976545605 -73.74930828831566 0 0 0 0 -16.959094562229438 -129.73872413748586 0 -129.73872413748586 -245.76957498084994 0 0 0 0 7.9903278930199377 -3.9865087624187723 0 -3.9865087624187723 1.6321735633262335 0 0 0 0 -22.201228288919083 -140.77608554218386 0 -140.77608554218386 -169.07554336809335 0 0 0 0 15.047871805436444 -10.970477123870751 0 -10.970477123870751 -0.86469471847118484 0 0 0 0 28.933357126443653 -13.05317157995183 0 -13.05317157995183 3.2766835633655971 0 0 0 0 14.024408686480456 -3.6839620013997774 0 -3.6839620013997774 35.307523466886323 0 0 0 0 23.512498469558764 -13.793222331029504 0 -13.793222331029504 6.7473176349951096 0 0 0 0 196.79795610997826 -249.00115370097774 0 -249.00115370097774 190.21615152859886 0 0 0 0 -461.24102726077399 -48.515717212221716 0 -48.515717212221716 414.84357868559164 0 0 0 0 -151.72250605896988 -241.1512800084538 0 -241.1512800084538 286.82491651465261 0 0 0 0 -20.586529278225498 -18.919425313088141 0 -18.919425313088141 -224.08547400975158 0 0 0 0 -32.628047677506402 -59.603903639293094 0 -59.603903639293094 24.137745674126563 0 0 0 0 -47.193419194940361 -54.951826353199976 0 -54.951826353199976 72.779365498059221 0 0 0 0 -261.9882120062066 138.8934047396956 0 138.8934047396956 75.384645950965933 0 0 0 0 -15.021537519594858 -73.96639705235475 0 -73.96639705235475 34.400833167426754 0 0 0 0 -19.258144749284838 -1.8361876688204575 0 -1.8361876688204575 68.669353002293519 0 0 0 0 -71.372916195927246 -56.657266275504298 0 -56.657266275504298 130.87666239004648 0 0 0 0 -6.9038432792658568 -62.196209785103747 0 -62.196209785103747 127.72179698529908 0 0 0 0 14.473783596640715 -56.211482757554222 0 -56.211482757554222 54.323311108302732 0 0 0 0 -4.0330064010922797 -57.024212092002927 0 -57.024212092002927 95.412578064537229 0 0 0 0 56.718586677936401 -18.275234032628987 0 -18.275234032628987 -49.829796546806392 0 0 0 0 -0.083114966394745693 -0.34011800354385002 0 -0.34011800354385002 3.6106707139175036 0 0 0 0 114.73533538692573 -176.2473468406497 0 -176.2473468406497 99.80286242395232 0 0 0 0 6.9438939977626433 -5.5337216304151298 0 -5.5337216304151298 24.13414191414995 0 0 0 0 -134.99532913787152 -21.304212346728718 0 -21.304212346728718 51.250851766941196 0 0 0 0 28.302359677858476 23.234145749327581 0 23.234145749327581 15.867897738635293 0 0 0 0 -0.40437404444090674 0.48493667439672095 0 0.48493667439672095 8.5444569675074185 0 0 0 0 9.6135121309926035 30.968503703979877 0 30.968503703979877 18.860232601271036 0 0 0 0 36.633409101217694 -4.0649118158371493 0 -4.0649118158371493 80.599758016614942 0 0 0 0 -30.967253422488284 28.508437485455033 0 28.508437485455033 29.445734799547154 0 0 0 0 -10.87418459901528 -40.74946108729273 0 -40.74946108729273 72.610444949332305 0 0 0 0 156.98030089493113 41.342449852696518 0 41.342449852696518 118.28091215843597 0 0 0 0 152.84457637174637 13.039318320379607 0 13.039318320379607 43.110300209845263 0 0 0 0 100.81692480478523 -27.07456734715015 0 -27.07456734715015 85.887703954941571 0 0 0 0 39.271962251732475 -15.738457486593688 0 -15.738457486593688 117.49112248267556 0 0 0 0 29.254806282533536 -6.1745780315995944 0 -6.1745780315995944 127.10984598429968 0 0 0 0 160.67640858641971 -13.601414610683605 0 -13.601414610683605 100.20531382554327 0 0 0 0 117.67308586973377 30.207122042580522 0 30.207122042580522 133.18529529753141 0 0 0 0 65.479637237833231 31.066506406938061 0 31.066506406938061 112.86962280369335 0 0 0 0 13.499878898197494 -41.302580285986551 0 -41.302580285986551 115.93888004927612 0 0 0 0 352.91633215777983 11.92876271032128 0 11.92876271032128 88.703012495381699 0 0 0 0 214.41722330443736 82.228344739083695 0 82.228344739083695 133.49279616206491 0 0 0 0 445.55229819923625 102.64654536696571 0 102.64654536696571 54.343813138504629 0 0 0 0 259.42200822113591 55.954575576330569 0 55.954575576330569 148.89343650989576 0 0 0 0 251.81240363530378 4.7208985918214239 0 4.7208985918214239 72.195652403579516 0 0 0 0 309.375247077729 -11.577607447085938 0 -11.577607447085938 36.988231306642774 0 0 0 0 219.10584419856605 32.370038779075003 0 32.370038779075003 48.955560041471699 0 0 0 0 86.160015421970456 70.988886136132351 0 70.988886136132351 31.405473110162347 0 0 0 0 53.215706312344992 -0.57617413462594413 0 -0.57617413462594413 83.180601998441489 0 0 0 0 166.60110836708554 -36.782975398723465 0 -36.782975398723465 78.707682340758765 0 0 0 0 -17.177184097046847 40.350718939323997 0 40.350718939323997 56.800097368194201 0 0 0 0 483.98525880400769 -60.775633743267548 0 -60.775633743267548 -27.446118478190328 0 0 0 0 123.37015030405018 -118.08768588519524 0 -118.08768588519524 11.06186109920236 0 0 0 0 0.9008374692984944 -1.1571709976904003 0 -1.1571709976904003 20.926437185695249 0 0 0 0 0.11407020110345911 1.3941590134709259 0 1.3941590134709259 12.806805096748576 0 0 0 0 2.8328602721037583 -1.9669132530157754 0 -1.9669132530157754 5.6304424257389698 0 0 0 0 6.2184715042531025 -6.4412955372004035 0 -6.4412955372004035 20.778179417131469 0 0 0 0 5.4300175747157482 13.876525352625094 0 13.876525352625094 12.155491654913931 0 0 0 0 -0.40254277864112709 -1.6184430412510693 0 -1.6184430412510693 4.8683375936990103 0 0 0 0 -41.912116643230547 -13.668555976531934 0 -13.668555976531934 29.640373516142063 0 0 0 0 -104.09988995830645 67.853847087702889 0 67.853847087702889 16.397821632503565 0 0 0 0 40.117687257894431 44.877819441082465 0 44.877819441082465 5.1235363981395494 0 0 0 0 77.902521216594323 75.837466907821181 0 75.837466907821181 10.612925252291461 0 0 0 0 -0.25137446495795146 -0.7109116333536889 0 -0.7109116333536889 2.0625078339816056 0 0 0 0 49.332632525947702 47.051605342492621 0 47.051605342492621 55.580949462259014 0 0 0 0 28.797420951384993 82.886841781730254 0 82.886841781730254 43.627117127363363 0 0 0 0 50.94989718675788 49.061415667139727 0 49.061415667139727 -15.948691506055184 0 0 0 0 2.5115811390060117 -5.4564257143156283 0 -5.4564257143156283 -39.962568644055864 0 0 0 0 -10.51949042603519 5.5456317503176251 0 5.5456317503176251 17.000320145059959 0 0 0 0 0.43278829190967372 22.058694178548194 0 22.058694178548194 17.017445298275561 0 0 0 0 7.7649739727610552 4.0548827468729058 0 4.0548827468729058 10.53835933373351 0 0 0 0 3.2010363175795646 4.2718252815720916 0 4.2718252815720916 14.85524736838488 0 0 0 0 25.986785993685771 13.624945869382145 0 13.624945869382145 15.711224544855213 0 0 0 0 16.269567779801491 18.207542879569438 0 18.207542879569438 20.246574729305813 0 0 0 0 -34.157768383091025 107.56745208577013 0 107.56745208577013 171.88773834144013 0 0 0 0 -3.101499317123853 6.4477248668342177 0 6.4477248668342177 5.7522830662496407 0 0 0 0 -16.485526209726231 -32.654872992527089 0 -32.654872992527089 -77.210874800600322 0 0 0 0 37.163686884639901 -33.348788130471803 0 -33.348788130471803 -73.659290737305128 0 0 0 0 -15.822001395878033 -72.154137230296328 0 -72.154137230296328 199.1817519478991 0 0 0 0 54.400913287703588 113.90159347084318 0 113.90159347084318 -17.674998778333247 0 0 0 0 7.2180065324629084 6.5781526939556088 0 6.5781526939556088 5.8481186418976137 0 0 0 0 -10.658942723435757 44.096819916042477 0 44.096819916042477 56.586274251561917 0 0 0 0 25.646828266300574 34.74661906063583 0 34.74661906063583 42.000060346338024 0 0 0 0 28.286359636652236 12.763069773439689 0 12.763069773439689 -3.4611115029689978 0 0 0 0 34.630773137931101 18.258684791225505 0 18.258684791225505 17.83077216942911 0 0 0 0 44.867407096178795 90.308324200403376 0 90.308324200403376 -172.24751316787081 0 0 0 0 0.92578301022321341 -0.72814620584981071 0 -0.72814620584981071 -1.1351897498723851 0 0 0 0 387.37579884672232 39.774977765070616 0 39.774977765070616 -7.1643320265520742 0 0 0 0 16.929385874864238 99.925366304145427 0 99.925366304145427 23.06820082491322 0 0 0 0 -21.211676491206163 23.626301740860981 0 23.626301740860981 47.643619136786583 0 0 0 0 -86.160232665257354 31.86018928122985 0 31.86018928122985 107.94194693850659 0 0 0 0 -8.4687602183712443 -32.140077827441473 0 -32.140077827441473 126.89409643889485 0 0 0 0 497.25193465315897 -91.795323707060561 0 -91.795323707060561 2.6735567429877847 0 0 0 0 704.29284405666112 -168.65408209881389 0 -168.65408209881389 -41.29839375283882 0 0 0 0 428.80225174314091 -110.03077580313186 0 -110.03077580313186 11.714002946040637 0 0 0 0 652.82789441995556 -22.431475289398804 0 -22.431475289398804 -59.080292517936869 0 0 0 0 803.27167444742372 -30.729461900979913 0 -30.729461900979913 -77.978442542553239 0 0 0 0 1172.0421482889033 -32.175265678271899 0 -32.175265678271899 -92.598798363038441 0 0 0 0 712.99429400022746 -33.599388516562556 0 -33.599388516562556 -39.377045778201136 0 0 0 0 713.50273766975806 134.7162988733553 0 134.7162988733553 47.22870526483166 0 0 0 0 742.60831286367466 238.02764091728034 0 238.02764091728034 64.106054691546888 0 0 0 0 755.30706757622829 854.33578219671017 0 854.33578219671017 -450.61575077157568 0 0 0 0 1.698216424505091 4.2233068460142391 0 4.2233068460142391 -10.895849037100881 0 0 0 0 664.36076737543044 127.94813189454453 0 127.94813189454453 -13.423802922538016 0 0 0 0 313.67223694201675 137.10395139869252 0 137.10395139869252 94.195368456199503 0 0 0 0 465.31502349857328 202.50849313517119 0 202.50849313517119 67.461308830435883 0 0 0 0 812.61481744189223 124.09882982395084 0 124.09882982395084 -9.4783993923138041 0 0 0 0 645.95814088289626 38.266958226357019 0 38.266958226357019 -53.172062377902876 0 0 0 0 714.80135935942963 19.441903653435475 0 19.441903653435475 -60.088394499373862 0 0 0 0 552.22873161180905 41.654120927721124 0 41.654120927721124 0.354149769952528 0 0 0 0 442.63630718587592 117.26002456127776 0 117.26002456127776 57.883632055232738 0 0 0 0 459.81497156804107 68.484891267391504 0 68.484891267391504 -3.925940030880156 0 0 0 0 415.94944102114096 -12.327732781987834 0 -12.327732781987834 66.0500536109721 0 0 0 0 238.51703832112253 1.4085496693696768 0 1.4085496693696768 75.797798150875224 0 0 0 0 705.87315593251697 -55.684959499163597 0 -55.684959499163597 -62.104538102630158 0 0 0 0 568.56293619024837 -25.417011918346702 0 -25.417011918346702 -55.852636233625162 0 0 0 0 661.71675528032938 0.46477378141480585 0 0.46477378141480585 -77.605376636325673 0 0 0 0 725.79103599059727 28.515976627227133 0 28.515976627227133 -72.280729777172382 0 0 0 0 484.71359203014435 28.976942063827664 0 28.976942063827664 7.7619829509353622 0 0 0 0 661.50023504767887 54.032407889825663 0 54.032407889825663 -40.811028122891003 0 0 0 0 653.02569775773736 -44.693022172121346 0 -44.693022172121346 -6.7593936864723219 0 0 0 0 482.71183168827582 4.4918491662856539 0 4.4918491662856539 -17.146559902213994 0 0 0 0 706.07760612387756 -15.37755284371724 0 -15.37755284371724 -72.328254931548145 0 0 0 0 214.97611081794093 9.4778274422415052 0 9.4778274422415052 -385.69256255188338 0 0 0 0 13.256077512740774 8.3752924608157393 0 8.3752924608157393 2.1128233763095814 0 0 0 0 -1.335544182544254 426.09693478323197 0 426.09693478323197 -434.52689040022778 0 0 0 0 135.01854278307292 77.164492043689734 0 77.164492043689734 -439.82370228082686 0 0 0 0 -510.86128504763747 318.33178922142633 0 318.33178922142633 146.43708474259256 0 0 0 0 643.5983795550128 -85.020396602692927 0 -85.020396602692927 34.114766649177241 0 0 0 0 5.7998653799647428 3.9296649698605712 0 3.9296649698605712 1.3881920404094679 0 0 0 0 283.58218342137116 -292.28430529706111 0 -292.28430529706111 29.578941175454446 0 0 0 0 220.65107895183428 -114.01154244067607 0 -114.01154244067607 -200.99042718058445 0 0 0 0 481.63021024436603 -194.98158717438037 0 -194.98158717438037 -412.0649644529567 0 0 0 0 379.87119300639279 15.595231570947135 0 15.595231570947135 -525.3176152189717 0 0 0 0 71.518173175474658 -128.596115297285 0 -128.596115297285 259.523554846548 0 0 0 0 740.15384053545495 477.20354024368862 0 477.20354024368862 411.97356739295128 0 0 0 0 315.64158648098351 111.39858678274993 0 111.39858678274993 82.570764650290585 0 0 0 0 0.44751556525375236 2.3494025030802561 0 2.3494025030802561 -4.5719857168476672 0 0 0 0 626.90524568411638 357.95518557583637 0 357.95518557583637 902.71157114603557 0 0 0 0 261.02005191867283 165.18523751777229 0 165.18523751777229 39.870766655505577 0 0 0 0 334.00277327442018 76.480686202365177 0 76.480686202365177 69.520651839880884 0 0 0 0 265.88861757288396 114.08838545198887 0 114.08838545198887 51.618432906454473 0 0 0 0 217.50079685195669 123.77373628145779 0 123.77373628145779 110.96827838615536 0 0 0 0 259.89576476154616 45.723792943286753 0 45.723792943286753 122.41835398496551 0 0 0 0 150.50788687053137 133.98874880278072 0 133.98874880278072 109.67382593414732 0 0 0 0 37.117292201379314 206.75185837182289 0 206.75185837182289 202.92222914866943 0 0 0 0 71.596177213039482 136.50934734470684 0 136.50934734470684 178.52636960571908 0 0 0 0 134.84416861117643 197.36758368840128 0 197.36758368840128 74.135943404569844 0 0 0 0 142.08610972693714 206.63581272542069 0 206.63581272542069 65.302283446577349 0 0 0 0 135.11170469113858 230.08259959660609 0 230.08259959660609 37.681775324901082 0 0 0 0 1.3290361153558479 330.52549526473013 0 330.52549526473013 56.507873170561652 0 0 0 0 64.823517454162356 240.1357009388139 0 240.1357009388139 171.55164173374942 0 0 0 0 -101.60087542872498 252.70279449850932 0 252.70279449850932 293.8280043903369 0 0 0 0 -25.035303961289173 356.81590711647004 0 356.81590711647004 322.22357611041662 0 0 0 0 -30.591224245421472 460.7120505776511 0 460.7120505776511 152.41760205911669 0 0 0 0 108.9714122709338 557.93555422393183 0 557.93555422393183 213.01878871714507 0 0 0 0 21.695697354974982 808.86172987944337 0 808.86172987944337 158.48442696907387 0 0 0 0 -360.40035776635341 737.5013177828414 0 737.5013177828414 145.40607499947328 0 0 0 0 529.92929943210038 1134.6247669044424 0 1134.6247669044424 -116.43494014834687 0 0 0 0 113.45479998189694 501.91304656910233 0 501.91304656910233 -378.77951716157622 0 0 0 0 -83.470827203638692 335.00708143529027 0 335.00708143529027 142.78468228665952 0 0 0 0 211.80370630402831 435.57022818244559 0 435.57022818244559 152.9688539703784 0 0 0 0 -207.51127601572807 707.93355989644078 0 707.93355989644078 155.1102683248937 0 0 0 0 -62.215562119225069 453.8017405091764 0 453.8017405091764 455.75711754235454 0 0 0 0 56.770357101995614 319.62631191625769 0 319.62631191625769 371.52579764117399 0 0 0 0 292.17210021898791 599.21734092313454 0 599.21734092313454 424.35096429678379 0 0 0 0 52.250321064180753 327.83544657952825 0 327.83544657952825 629.22089853306261 0 0 0 0 550.68131740123863 304.35724115240737 0 304.35724115240737 -140.60368297651257 0 0 0 0 664.07559129261972 149.9156707476227 0 149.9156707476227 -57.616363642287979 0 0 0 0 540.74610888353709 -21.937637261122518 0 -21.937637261122518 -448.00849996890975 0 0 0 0 542.21361458462707 852.61586730040585 0 852.61586730040585 1459.7716637868452 0 0 0 0 306.62471677227222 251.03106801859462 0 251.03106801859462 486.01787634449283 0 0 0 0 -19.070771523285657 339.46972435758016 0 339.46972435758016 704.51230884499637 0 0 0 0 -77.167944640073983 323.21860087895493 0 323.21860087895493 495.87677302052543 0 0 0 0 -148.52747025166536 115.93718720095285 0 115.93718720095285 439.62991791110653 0 0 0 0 -229.80678412027191 -214.77660819935409 0 -214.77660819935409 611.19836159726776 0 0 0 0 -119.78429366751516 -286.3668813171148 0 -286.3668813171148 -34.849505117899753 0 0 0 0 40.725557524019678 -181.11840165449121 0 -181.11840165449121 -279.29900435692343 0 0 0 0 -96.845252669489128 39.54479982660223 0 39.54479982660223 127.22845032649457 0 0 0 0 -66.52970220529096 27.046972489514701 0 27.046972489514701 -77.064822087861103 0 0 0 0 -167.0256691602408 -87.439611959407557 0 -87.439611959407557 357.39076860772366 0 0 0 0 -104.34270338628994 127.38274544359047 0 127.38274544359047 304.70415387425624 0 0 0 0 -58.950435011101945 224.77665441997124 0 224.77665441997124 299.57654266407917 0 0 0 0 -69.684029825071775 194.23452010326673 0 194.23452010326673 213.50004787983562 0 0 0 0 -132.30054473307246 98.247969417318018 0 98.247969417318018 294.08050480981728 0 0 0 0 -54.201992227863229 80.053715084276519 0 80.053715084276519 105.82449591814293 0 0 0 0 -62.019302241278638 102.5838984720358 0 102.5838984720358 202.61623053921721 0 0 0 0 11.455540889110125 136.45466762680189 0 136.45466762680189 200.6670236860009 0 0 0 0 40.830866953183431 143.69022151333229 0 143.69022151333229 176.90856990637803 0 0 0 0 34.712984040845186 73.627499412732504 0 73.627499412732504 156.08786453043831 0 0 0 0 85.449368100442371 48.828302153940967 0 48.828302153940967 168.12005203936133 0 0 0 0 25.752996402152348 53.259665177001807 0 53.259665177001807 127.83170737920227 0 0 0 0 -38.337575223486056 73.124682488703911 0 73.124682488703911 123.58534608990158 0 0 0 0 12.034736182058523 -2.826312526249982 0 -2.826312526249982 -0.2650410570668793 0 0 0 0 -51.065014416300983 -22.59157571026708 0 -22.59157571026708 -44.046113144497212 0 0 0 0 46.252133038120519 9.1188684267053759 0 9.1188684267053759 -167.48317093370588 0 0 0 0 10.412482480422 1.4304171755129929 0 1.4304171755129929 -0.91061445460225876 0 0 0 0 -103.6145019147516 -152.03971858006889 0 -152.03971858006889 -432.54659694129441 0 0 0 0 9.9414940950131836 1.2171304659785598 0 1.2171304659785598 -1.3753592969748922 0 0 0 0 11.857389507742482 6.6160471969949413 0 6.6160471969949413 -3.1765382426765427 0 0 0 0 -177.64836773295428 255.55901561671271 0 255.55901561671271 451.8242239012925 0 0 0 0 257.97458326297783 -328.39438967635306 0 -328.39438967635306 -692.64855878719482 0 0 0 0 93.667015132810775 47.062324277021162 0 47.062324277021162 428.91801109762309 0 0 0 0 -370.76531688667819 77.508823470141351 0 77.508823470141351 339.75887883495488 0 0 0 0 41.639801327648456 141.37011844869448 0 141.37011844869448 346.35791284762308 0 0 0 0 -153.65730712711411 386.88799666138243 0 386.88799666138243 -22.529516253468501 0 0 0 0 99.298065613831568 88.194132665299549 0 88.194132665299549 282.22618169152156 0 0 0 0 138.90043225076079 171.48344241734776 0 171.48344241734776 7.3648761406559515 0 0 0 0 126.41430722242512 166.42928196060802 0 166.42928196060802 5.400242507830626 0 0 0 0 7.9915980163574147 -2.6480084085149187 0 -2.6480084085149187 0.027059229826146947 0 0 0 0 -154.45653716144625 -119.69198767735986 0 -119.69198767735986 -197.10193922870349 0 0 0 0 139.59133035697232 -418.588140119733 0 -418.588140119733 -614.59497852986078 0 0 0 0 100.38529552423643 167.10198214024831 0 167.10198214024831 35.835796515657421 0 0 0 0 57.562125452968758 54.495540335192345 0 54.495540335192345 -80.847121134459485 0 0 0 0 25.260484172732063 -1.7437212733838976 0 -1.7437212733838976 -2.0502300555045476 0 0 0 0 14.527319576926033 4.9938874239548561 0 4.9938874239548561 -3.1622369486910049 0 0 0 0 140.71767654377618 150.12890742436866 0 150.12890742436866 -20.72229041984474 0 0 0 0 54.667984433770471 144.19784818925837 0 144.19784818925837 28.416832586669443 0 0 0 0 27.314284175765351 92.580968675401891 0 92.580968675401891 -63.484289143203569 0 0 0 0 99.188237624432077 81.28278748228513 0 81.28278748228513 -85.787331004592488 0 0 0 0 87.945581250263785 181.46458125649042 0 181.46458125649042 -10.223507089747272 0 0 0 0 -50.559356070603826 65.361224084099376 0 65.361224084099376 -27.056659099448325 0 0 0 0 -108.1037597777904 -63.861721899611439 0 -63.861721899611439 -127.83614758998374 0 0 0 0 42.887547759200388 -0.05447817143894973 0 -0.05447817143894973 -3.2128837139087811 0 0 0 0 9.4764785174536286 3.4859178005817526 0 3.4859178005817526 -3.7855384270745223 0 0 0 0 667.71358438763127 -633.41476990475803 0 -633.41476990475803 -1202.1721664648528 0 0 0 0 -44.572868392819146 -33.713584921666609 0 -33.713584921666609 74.099089793389567 0 0 0 0 183.42300188510126 229.77567201359307 0 229.77567201359307 -210.40166055965437 0 0 0 0 169.48888979787444 -82.392353135859594 0 -82.392353135859594 -413.27985811220333 0 0 0 0 17.968551365960593 -151.10297227899446 0 -151.10297227899446 -264.52735112010851 0 0 0 0 82.762759569418904 -68.377272708919577 0 -68.377272708919577 -288.42162860687131 0 0 0 0 126.37151500996697 61.150770807785648 0 61.150770807785648 -426.46960362032587 0 0 0 0 3.1442007847233953 0.53357995105624312 0 0.53357995105624312 -0.26599296487974344 0 0 0 0 -46.097960600302031 -400.8975114054474 0 -400.8975114054474 558.97590799491445 0 0 0 0 -336.56816150722625 386.9873717261687 0 386.9873717261687 -379.92829387836809 0 0 0 0 713.0984636225694 100.07303073514868 0 100.07303073514868 582.77887532523164 0 0 0 0 714.5234384131254 103.72765412468334 0 103.72765412468334 106.74046404214459 0 0 0 0 1416.339000603075 131.91067225260667 0 131.91067225260667 -13.773147916595917 0 0 0 0 1084.4011337490156 -89.262783348137418 0 -89.262783348137418 100.35074671155326 0 0 0 0 535.70482023230943 22.416387355139705 0 22.416387355139705 167.90077581834885 0 0 0 0 426.37184516998241 133.90669235888981 0 133.90669235888981 166.07924868774717 0 0 0 0 702.63287177589518 192.42474923581221 0 192.42474923581221 90.265619953783244 0 0 0 0 812.3993359519518 15.634122891350671 0 15.634122891350671 -70.373775034817299 0 0 0 0 755.36725888966976 -25.779666011862446 0 -25.779666011862446 -51.210275722101869 0 0 0 0 477.64820194857748 -235.90004966426932 0 -235.90004966426932 65.890617025041138 0 0 0 0 786.671721230603 -43.590449106717642 0 -43.590449106717642 -61.133167745955234 0 0 0 0 513.5566805791459 -172.84017714682341 0 -172.84017714682341 61.276201168113175 0 0 0 0 389.08535826674779 -49.973754125428968 0 -49.973754125428968 82.104038908094481 0 0 0 0 109.42838202029634 -102.31727218109472 0 -102.31727218109472 196.53629400102363 0 0 0 0 -81.557538273598766 54.217955141900347 0 54.217955141900347 139.08759999543918 0 0 0 0 68.086704217617807 -268.69727312949817 0 -268.69727312949817 291.22587504647527 0 0 0 0 29.941803062069084 92.984782428574363 0 92.984782428574363 -87.206049615753727 0 0 0 0 434.96419818879804 -375.41274029544002 0 -375.41274029544002 229.90978418792611 0 0 0 0 6.965899609614965 -0.42675281239668905 0 -0.42675281239668905 -0.20145987040115987 0 0 0 0 1422.4641873145301 314.39089947680077 0 314.39089947680077 -351.51205834420489 0 0 0 0 930.11371835728642 -422.34995622061706 0 -422.34995622061706 75.286570069230947 0 0 0 0 1007.4862179006013 259.40232439611191 0 259.40232439611191 -151.39754589499353 0 0 0 0 1097.2785012601016 134.66739644496738 0 134.66739644496738 16.767295090467087 0 0 0 0 744.89338848865009 395.61166343344667 0 395.61166343344667 235.42227126867147 0 0 0 0 1027.3506858109831 168.75291090262249 0 168.75291090262249 101.00181283998063 0 0 0 0 857.01130331415334 70.882010959086983 0 70.882010959086983 268.8160006563574 0 0 0 0 855.12999197390036 97.305426645512739 0 97.305426645512739 11.291000374763826 0 0 0 0 2.8305126691602993 0.6190292165607687 0 0.6190292165607687 -0.81512072393636537 0 0 0 0 840.62712741459836 277.82996005692803 0 277.82996005692803 44.805683714557745 0 0 0 0 2.9592520694986888 4.3163905625929146 0 4.3163905625929146 96.736294677125443 0 0 0 0 4.1067422264685121 3.0124130910213722 0 3.0124130910213722 -0.70452031916120283 0 0 0 0 315.78630587478983 317.76944012886815 0 317.76944012886815 838.51302040339715 0 0 0 0 -829.73802783910651 104.89215806189168 0 104.89215806189168 -176.69085203210489 0 0 0 0 866.66865572661482 379.65990297492363 0 379.65990297492363 374.85215601060008 0 0 0 0 23.575433729874931 -15.290777516422622 0 -15.290777516422622 572.07486154673461 0 0 0 0 466.70584791341389 103.79606325554687 0 103.79606325554687 134.63711928661542 0 0 0 0 90.974992953102628 -158.71703828233058 0 -158.71703828233058 -3.0373138335307885 0 0 0 0 14.929822962105391 52.124382853706265 0 52.124382853706265 557.79803820263305 0 0 0 0 484.00274135569634 163.16028548274153 0 163.16028548274153 337.61180374828359 0 0 0 0 534.665310935663 -27.155242725727021 0 -27.155242725727021 -69.318589913794312 0 0 0 0 477.72351101577078 165.36568524390805 0 165.36568524390805 -312.39553877813478 0 0 0 0 889.28017529990757 -53.47775386805688 0 -53.47775386805688 -143.86094272207265 0 0 0 0 830.47568002304615 4.2340849632482787 0 4.2340849632482787 31.539634262517211 0 0 0 0 733.08915050029464 95.228057696119777 0 95.228057696119777 -20.271890745786095 0 0 0 0 919.7271707853215 -2.639526971623809 0 -2.639526971623809 -103.55371723133317 0 0 0 0 777.82009924176236 89.382055308811687 0 89.382055308811687 -36.727599184407154 0 0 0 0 949.94033460349601 50.108651355653819 0 50.108651355653819 -29.439406045214128 0 0 0 0 720.76315698011604 -47.788631018808246 0 -47.788631018808246 10.761959294242843 0 0 0 0 783.5466750162559 -7.7864711684341046 0 -7.7864711684341046 -1.1351535298672388 0 0 0 0 768.96434830719772 47.834496888708372 0 47.834496888708372 45.816547743323099 0 0 0 0 506.82307015174592 -15.244208620342306 0 -15.244208620342306 87.360655437936202 0 0 0 0 513.35536351524206 41.767599656552193 0 41.767599656552193 271.69493929845339 0 0 0 0 369.80609781368548 -58.854679870101791 0 -58.854679870101791 69.603372918210482 0 0 0 0 559.64384002573206 -20.450387034567029 0 -20.450387034567029 -68.530991749149905 0 0 0 0 559.43818628182999 79.517003677752655 0 79.517003677752655 -56.847344576259275 0 0 0 0 331.96461941959569 126.93978060045913 0 126.93978060045913 -30.972289027965871 0 0 0 0 322.42802307916554 -47.706570935904949 0 -47.706570935904949 -79.520399537256253 0 0 0 0 446.46235915019042 275.84141523834455 0 275.84141523834455 81.058219018022783 0 0 0 0 1367.0044299029323 515.24540654016448 0 515.24540654016448 134.76508216739978 0 0 0 0 9.8625478874564863 -5.0450193409064426 0 -5.0450193409064426 3.26259797297985 0 0 0 0 733.27502063429347 114.51534854008037 0 114.51534854008037 -149.5507293703813 0 0 0 0 1111.3801509582481 117.07038568907319 0 117.07038568907319 -152.56781176391496 0 0 0 0 881.28806842324957 -136.26792443342225 0 -136.26792443342225 7.1147325126271426 0 0 0 0 660.39730265048274 -1.9463664943828007 0 -1.9463664943828007 -69.131755581919833 0 0 0 0 625.80989859016699 113.67523758204516 0 113.67523758204516 -192.6662626701501 0 0 0 0 300.46042208662038 -36.920995457142908 0 -36.920995457142908 105.56810909792694 0 0 0 0 68.63749374775216 137.91288447447363 0 137.91288447447363 115.69955260481333 0 0 0 0 471.72256563295377 -181.55033836893605 0 -181.55033836893605 265.73617339455416 0 0 0 0 1323.0925444977547 -454.56021389909051 0 -454.56021389909051 516.20805289070813 0 0 0 0 604.95121674665643 100.08640788616529 0 100.08640788616529 90.487867747487854 0 0 0 0 449.51717023199853 263.89174578261719 0 263.89174578261719 654.27765802525437 0 0 0 0 444.18778979755893 320.25105994707468 0 320.25105994707468 153.39259555940896 0 0 0 0 664.58420784719056 158.49602671884338 0 158.49602671884338 -320.96940331245918 0 0 0 0 -11.291496717538394 28.140547903704601 0 28.140547903704601 -7.9628671814373888 0 0 0 0 1213.404650694647 432.05053858509842 0 432.05053858509842 -224.96937419119357 0 0 0 0 715.15191794799466 164.1667603076844 0 164.1667603076844 -308.28247031007936 0 0 0 0 679.64540990430396 94.564757036938602 0 94.564757036938602 -430.29833803927966 0 0 0 0 387.732977913176 26.693805548790195 0 26.693805548790195 -199.12716795223116 0 0 0 0 131.86108094045812 -427.48074195525874 0 -427.48074195525874 108.276040371935 0 0 0 0 -10.925652470212299 -70.978761092168952 0 -70.978761092168952 371.76819864545718 0 0 0 0 102.64072032389595 -353.70754557084661 0 -353.70754557084661 790.58006879819413 0 0 0 0 1107.5310124402313 -441.83753643515655 0 -441.83753643515655 26.545802452613231 0 0 0 0 316.67956079546946 319.86837807836304 0 319.86837807836304 215.81476717621194 0 0 0 0 6.6162626470829906 0.24010759606717968 0 0.24010759606717968 -0.43779521518706721 0 0 0 0 312.48440339514127 44.539734511604593 0 44.539734511604593 -46.810725718497451 0 0 0 0 2.07203775243579 75.444080183479571 0 75.444080183479571 503.42154785953767 0 0 0 0 496.91684556723703 36.984616585563288 0 36.984616585563288 -11.816123871158197 0 0 0 0 126.08928022887267 35.768206018417004 0 35.768206018417004 -11.330500198891514 0 0 0 0 89.00541906377839 78.195017203875295 0 78.195017203875295 -54.68735219490145 0 0 0 0 185.3317445170469 120.49510969539028 0 120.49510969539028 -220.59094316313713 0 0 0 0 291.9116094927449 18.110894733511941 0 18.110894733511941 -125.78727139810417 0 0 0 0 158.22868327207107 -29.928007797954251 0 -29.928007797954251 -274.48859401173104 0 0 0 0 218.25045145818149 65.108258800762997 0 65.108258800762997 -209.69323537742594 0 0 0 0 112.12096198077052 56.207948880984077 0 56.207948880984077 -149.57751901961819 0 0 0 0 305.11032460220304 217.5560279211636 0 217.5560279211636 -48.876163981759646 0 0 0 0 327.56045684800665 383.45420108911571 0 383.45420108911571 183.98265745558888 0 0 0 0 112.89016965890551 203.90424788537666 0 203.90424788537666 130.3150417911661 0 0 0 0 89.484916821646038 160.41001939086848 0 160.41001939086848 165.33318575690123 0 0 0 0 117.0622623781419 164.84100206066796 0 164.84100206066796 21.011611446980169 0 0 0 0 121.14539976752008 186.54333742629291 0 186.54333742629291 -6.0196631777162111 0 0 0 0 98.963283112952922 156.35250015397673 0 156.35250015397673 38.937669245026882 0 0 0 0 105.85834370080556 215.54163908199524 0 215.54163908199524 48.721071705623217 0 0 0 0 139.23998148828105 123.31729505403018 0 123.31729505403018 95.254601049520716 0 0 0 0 4.6259995512452576 19.179104578029367 0 19.179104578029367 -5.2310039394026173 0 0 0 0 38.889275934648765 116.77263520632452 0 116.77263520632452 160.05900446085991 0 0 0 0 109.24950391711718 119.26623701442708 0 119.26623701442708 123.53543670273035 0 0 0 0 39.341503086856392 148.57177629544435 0 148.57177629544435 499.46752683731097 0 0 0 0 88.748687082872493 -95.095848810395182 0 -95.095848810395182 185.56274148469493 0 0 0 0 5.5192942275597296 4.3547106382170853 0 4.3547106382170853 -1.2593189014519268 0 0 0 0 -46.271565473279679 50.881129625985757 0 50.881129625985757 71.031359685629923 0 0 0 0 -48.290235809860178 73.615291559601374 0 73.615291559601374 25.348271053880808 0 0 0 0 143.36250043453038 152.71973607816841 0 152.71973607816841 -40.816105781460799 0 0 0 0 143.98707772657508 144.43833071628706 0 144.43833071628706 36.827304858535058 0 0 0 0 -210.06024135970438 -101.3956483057093 0 -101.3956483057093 41.686776302136877 0 0 0 0 -3.2095044685613345 1.982811574182719 0 1.982811574182719 -5.7823108726509638 0 0 0 0 -182.26498413602894 253.89222358978884 0 253.89222358978884 14.655783817054498 0 0 0 0 18.950215134944301 12.136598437483741 0 12.136598437483741 91.776094778874437 0 0 0 0 -106.42394249585777 103.26366689267803 0 103.26366689267803 148.60045544354361 0 0 0 0 0.026050921732235111 332.22583859693668 0 332.22583859693668 -250.89300991972596 0 0 0 0 -25.21109288272055 329.24172476394568 0 329.24172476394568 -102.58099586889449 0 0 0 0 72.828478799046849 52.61791315356988 0 52.61791315356988 36.966821079829863 0 0 0 0 100.87954897438885 -32.530672279310238 0 -32.530672279310238 -78.624488391895284 0 0 0 0 116.87952900603932 12.841382618369607 0 12.841382618369607 40.033238053965761 0 0 0 0 222.32351412856951 53.600546410845709 0 53.600546410845709 -239.35983395850781 0 0 0 0 87.473413462951413 57.916911361832803 0 57.916911361832803 29.405050260561495 0 0 0 0 -82.823148370382114 156.13532850357078 0 156.13532850357078 7.881377205423064 0 0 0 0 67.470611512746572 -8.1672057997843552 0 -8.1672057997843552 -28.993250561838749 0 0 0 0 288.81304746338992 148.99316925245876 0 148.99316925245876 -184.86301295352678 0 0 0 0 24.137138156594922 -17.87735531136326 0 -17.87735531136326 -46.912025527371668 0 0 0 0 286.6096859325371 136.41047446943412 0 136.41047446943412 -226.16916084217519 0 0 0 0 -53.86248793493769 30.138178095487632 0 30.138178095487632 -23.846417294220373 0 0 0 0 49.187566429413607 33.434106664713582 0 33.434106664713582 -2.0538959577473994 0 0 0 0 270.54160235836935 151.13620997225189 0 151.13620997225189 -77.625091091071226 0 0 0 0 54.235676532755917 -16.744382040881764 0 -16.744382040881764 -11.051118264736854 0 0 0 0 41.113514873182453 -23.660647269935104 0 -23.660647269935104 -34.404596195615994 0 0 0 0 43.216757933392728 91.258002225139705 0 91.258002225139705 122.58996576623213 0 0 0 0 135.01219556826254 -46.621762043169156 0 -46.621762043169156 -20.500530687544142 0 0 0 0 41.427845505496713 -12.261072719831288 0 -12.261072719831288 -23.236745178099095 0 0 0 0 139.38582646725081 -31.35542567376649 0 -31.35542567376649 -97.378391100645786 0 0 0 0 77.793008202123019 -50.867224676830602 0 -50.867224676830602 -61.287185013827113 0 0 0 0 90.359124995487946 -10.482689365080319 0 -10.482689365080319 -115.06729864648025 0 0 0 0 31.735878042332843 -32.63848663506505 0 -32.63848663506505 -87.106337301734811 0 0 0 0 9.110607727984231 11.472948882315269 0 11.472948882315269 -44.703686123567294 0 0 0 0 72.736121152292981 -2.7055398241005548 0 -2.7055398241005548 -89.403386601376837 0 0 0 0 510.87537280471611 -66.146037691142965 0 -66.146037691142965 -173.43596806454116 0 0 0 0 129.07927468480898 47.977268285836942 0 47.977268285836942 -50.748376394020738 0 0 0 0 -16.43689546067435 78.211779060809135 0 78.211779060809135 -19.355354560348701 0 0 0 0 399.90554135135721 -88.591176343381449 0 -88.591176343381449 8.9298443211682752 0 0 0 0 317.25983395175865 29.07936745781717 0 29.07936745781717 -29.781778456651409 0 0 0 0 226.14441029413547 54.680499650244201 0 54.680499650244201 17.809747332263839 0 0 0 0 29.737456518530962 40.38683868264161 0 40.38683868264161 -199.9683550736911 0 0 0 0 296.30337734304476 163.37604252871597 0 163.37604252871597 -166.42780293044962 0 0 0 0 339.07931630899458 15.304474455647323 0 15.304474455647323 -123.64760146847834 0 0 0 0 201.67835958465594 104.43595000637492 0 104.43595000637492 -8.4160376895979425 0 0 0 0 494.72988864164518 162.60050076260336 0 162.60050076260336 1.7983438404617118 0 0 0 0 404.84636692327763 55.565814316587648 0 55.565814316587648 -30.602213966251384 0 0 0 0 603.71038907033153 120.95116217671489 0 120.95116217671489 -18.257094497849721 0 0 0 0 513.24509229714886 185.25072386500955 0 185.25072386500955 -51.171700909047786 0 0 0 0 718.22805372035259 334.6464897909982 0 334.6464897909982 -158.50711514751583 0 0 0 0 644.74947630936583 263.70371759183718 0 263.70371759183718 -20.731394210161397 0 0 0 0 523.05665398386918 -8.0207115415155386 0 -8.0207115415155386 -167.3716036532245 0 0 0 0 451.96968676622737 -694.92286379528105 0 -694.92286379528105 -111.70290302462399 0 0 0 0 -9.0628217092976229 -222.29715169474798 0 -222.29715169474798 103.41181371737412 0 0 0 0 3.8099138140781701 16.945559093581966 0 16.945559093581966 12.956743368168532 0 0 0 0 1083.2810292220893 39.957583170474663 0 39.957583170474663 -198.06896747374276 0 0 0 0 529.45040210132265 -35.877954580630615 0 -35.877954580630615 -64.213569511559854 0 0 0 0 497.82912205299181 -76.909698353120802 0 -76.909698353120802 -51.810631084186525 0 0 0 0 448.99706522029146 -39.466716723518118 0 -39.466716723518118 -61.214104390078546 0 0 0 0 475.87908175727262 0.18854158837143586 0 0.18854158837143586 -31.534041299212348 0 0 0 0 348.29112727134088 216.61924867626954 0 216.61924867626954 -48.776743309023459 0 0 0 0 3.6774002331905189 15.500562341728564 0 15.500562341728564 -15.258517670788148 0 0 0 0 2.5338480626014643 -250.4308547114814 0 -250.4308547114814 252.86035487505592 0 0 0 0 372.39272271329537 -124.0839727435058 0 -124.0839727435058 -33.492115214906335 0 0 0 0 -188.44012528758503 -31.835063051727616 0 -31.835063051727616 178.07150062095661 0 0 0 0 4.6673793994350348 -1.6591684365201331 0 -1.6591684365201331 0.53738126566762467 0 0 0 0 347.62907259305939 88.418244158035876 0 88.418244158035876 -17.612208300996826 0 0 0 0 58.445183816236749 -116.68894650441257 0 -116.68894650441257 175.23560780882258 0 0 0 0 135.32430123734957 142.48361154618465 0 142.48361154618465 130.35145218770487 0 0 0 0 286.12640230512602 -172.40803318949 0 -172.40803318949 29.127786435931966 0 0 0 0 132.2968957520734 -52.499563033794466 0 -52.499563033794466 -61.720237909679454 0 0 0 0 1148.8038624627152 -933.13263258847678 0 -933.13263258847678 -204.78354761678074 0 0 0 0 -485.84689893763061 59.742299745036064 0 59.742299745036064 560.45849491694094 0 0 0 0 -88.090349555444845 -32.246328802358278 0 -32.246328802358278 -184.09925430386681 0 0 0 0 115.36453279654233 -339.00708924294236 0 -339.00708924294236 -650.121029716983 0 0 0 0 15.145773907281736 -1.7947666904732964 0 -1.7947666904732964 -1.2799366187088215 0 0 0 0 897.91174880454491 246.75048180833977 0 246.75048180833977 -900.26358005488964 0 0 0 0 587.42351415655867 452.05155577678471 0 452.05155577678471 -575.14610180757541 0 0 0 0 1067.6199977068682 -69.651051240184074 0 -69.651051240184074 -364.66542662145804 0 0 0 0 -301.74050973542762 -516.38430588238703 0 -516.38430588238703 2040.4616933397665 0 0 0 0 61.799632160672132 42.991176564397712 0 42.991176564397712 27.571655173345832 0 0 0 0 -115.87765527691408 454.27477400879252 0 454.27477400879252 -179.09926064755382 0 0 0 0 -78.835538411964762 496.65648157191504 0 496.65648157191504 -147.28861215680445 0 0 0 0 110.9623044411419 533.81682435954417 0 533.81682435954417 -140.60085734113323 0 0 0 0 380.23750327440212 458.04241699426757 0 458.04241699426757 -162.48737228671689 0 0 0 0 -165.14183953116844 417.84585995083307 0 417.84585995083307 -93.268729075198735 0 0 0 0 -229.99646113016752 329.25298304126954 0 329.25298304126954 -208.96619569070572 0 0 0 0 40.671093297296544 24.81497105716721 0 24.81497105716721 14.967040482266139 0 0 0 0 1316.8511761172358 -878.49351132794652 0 -878.49351132794652 -307.03980754846361 0 0 0 0 -433.54508936085313 131.94472129759129 0 131.94472129759129 -112.12759556145556 0 0 0 0 -288.59619332259717 464.0703864482673 0 464.0703864482673 -475.27521143020522 0 0 0 0 0.31450470115900941 -1.2063944048874138 0 -1.2063944048874138 -2.8100555345573728 0 0 0 0 -1187.453166392841 115.82068204085101 0 115.82068204085101 132.00760875398782 0 0 0 0 841.57793820759525 288.26024726598996 0 288.26024726598996 -153.37325601000146 0 0 0 0 542.85680537971075 109.5430370847327 0 109.5430370847327 27.431973273689778 0 0 0 0 322.02999386301872 221.34485828723155 0 221.34485828723155 116.46451437936639 0 0 0 0 -1.8215864087438636 1.8563964246598132 0 1.8563964246598132 -7.4701848716143324 0 0 0 0 -579.43254117961169 73.431903831546606 0 73.431903831546606 152.30793770543778 0 0 0 0 508.07818330169061 187.97609678652685 0 187.97609678652685 60.957180711401634 0 0 0 0 -462.8535274412643 31.495558273788902 0 31.495558273788902 -157.78508421892195 0 0 0 0 -502.27956895092075 139.63741638958456 0 139.63741638958456 211.78281273069558 0 0 0 0 -56.060207853231987 276.5960190081671 0 276.5960190081671 -8.9713026657495902 0 0 0 0 501.74810970153703 607.38064064913442 0 607.38064064913442 152.88340546545061 0 0 0 0 -81.197445622960004 293.80027499131972 0 293.80027499131972 166.11505551632172 0 0 0 0 -47.760085163987242 242.65794876421683 0 242.65794876421683 -243.2547966958391 0 0 0 0 -59.693226229178435 240.21961096026376 0 240.21961096026376 356.62776638603304 0 0 0 0 1677.2162745877104 -1173.0432964578658 0 -1173.0432964578658 699.96858297647134 0 0 0 0 11.825552311979671 6.6791339577599249 0 6.6791339577599249 5.6818005764222264 0 0 0 0 1144.8973963507851 303.65892583004904 0 303.65892583004904 -94.527823486274428 0 0 0 0 1158.6133474134476 -355.24401022658355 0 -355.24401022658355 31.092656453013433 0 0 0 0 311.96694098434091 -363.80509236667967 0 -363.80509236667967 1030.9129730066572 0 0 0 0 303.35297068578802 -184.06488769415137 0 -184.06488769415137 162.76278332512902 0 0 0 0 6.8578180057270401 123.76520433317469 0 123.76520433317469 667.32507433747401 0 0 0 0 411.69409606602494 586.75908775592518 0 586.75908775592518 988.02645784726565 0 0 0 0 334.65919802350982 268.84229995988602 0 268.84229995988602 211.15140771558492 0 0 0 0 -416.69795303924911 179.8181017526731 0 179.8181017526731 205.68984950369975 0 0 0 0 1077.8969676886973 174.93530474272734 0 174.93530474272734 -1192.5924582031164 0 0 0 0 165.60223061848046 585.52546284395351 0 585.52546284395351 -61.780450589280917 0 0 0 0 11.996086279336254 0.55102504913290939 0 0.55102504913290939 -0.21197604829380523 0 0 0 0 24.45759333074966 -298.96583996407765 0 -298.96583996407765 26.740915746284259 0 0 0 0 274.83184019552209 -411.05628652723658 0 -411.05628652723658 47.092309686979661 0 0 0 0 69.980052005921607 -135.69348401035734 0 -135.69348401035734 -347.76526915797928 0 0 0 0 27.004159264847303 -0.33219472718269427 0 -0.33219472718269427 -1.7996706505569828 0 0 0 0 615.31105188794618 139.5023960748421 0 139.5023960748421 -264.55049079238586 0 0 0 0 -313.57965299276839 347.93745883958201 0 347.93745883958201 355.08727385185517 0 0 0 0 625.50472519078539 -310.92606129900446 0 -310.92606129900446 -144.7786389612138 0 0 0 0 687.9316220633882 309.71132928470718 0 309.71132928470718 -27.561894495863953 0 0 0 0 90.481246170371378 -356.70848962436048 0 -356.70848962436048 154.43174972425061 0 0 0 0 239.16779688795759 -105.33075864899838 0 -105.33075864899838 -176.48920676321302 0 0 0 0 -505.26754131949383 -190.33716132944403 0 -190.33716132944403 148.48578804260467 0 0 0 0 27.383769490912528 132.06398153367795 0 132.06398153367795 -5.1283343076343932 0 0 0 0 8.1207777454793586 145.3711375233741 0 145.3711375233741 31.233311667066971 0 0 0 0 -78.907870584829652 -75.215406652755519 0 -75.215406652755519 210.79113366756906 0 0 0 0 -82.077480622118856 -42.767530578868985 0 -42.767530578868985 -40.305872908944366 0 0 0 0 37.823491374957072 -48.817747596881759 0 -48.817747596881759 -8.8601553096059131 0 0 0 0 -356.69429706507799 -246.0664821159138 0 -246.0664821159138 -45.689212538215088 0 0 0 0 934.04079283176452 1123.1043211037963 0 1123.1043211037963 883.63556300609503 0 0 0 0 321.92759646761306 306.10565024721365 0 306.10565024721365 61.004771910080308 0 0 0 0 1330.6023647853985 1432.0782185146086 0 1432.0782185146086 99.916393828034188 0 0 0 0 1458.2588555030093 -544.04426794508072 0 -544.04426794508072 -1076.5193417450043 0 0 0 0 2206.604596547696 326.56033156322002 0 326.56033156322002 121.88632389023323 0 0 0 0 35.236303945171578 -38.523007987085592 0 -38.523007987085592 -21.003490883722971 0 0 0 0 18.342388790611651 7.5332795314308898 0 7.5332795314308898 16.809066958141553 0 0 0 0 112.7324193887307 -13.649336409338957 0 -13.649336409338957 374.28975669762622 0 0 0 0 18.550882722700223 -3.2728971104614812 0 -3.2728971104614812 0.42282024327867573 0 0 0 0 629.81907963596495 -1804.7031014832146 0 -1804.7031014832146 374.89088155883155 0 0 0 0 -19.319170425132143 410.30018536700675 0 410.30018536700675 1011.6264355787955 0 0 0 0 1997.1581195363078 354.06177539594944 0 354.06177539594944 892.56615966958827 0 0 0 0 3492.0221392643407 -1062.3833651059938 0 -1062.3833651059938 157.87779337945065 0 0 0 0 1770.2252332333605 -113.10193956984641 0 -113.10193956984641 -68.141543227199492 0 0 0 0 2800.9006756070248 -4.2314875396552054 0 -4.2314875396552054 -57.178934229108947 0 0 0 0 2107.5438729418775 198.80456914758059 0 198.80456914758059 52.590865601519226 0 0 0 0 2822.8858359069291 540.58771581306746 0 540.58771581306746 -327.71811732070694 0 0 0 0 3500.8895687617505 236.01421066545737 0 236.01421066545737 -429.29869075097156 0 0 0 0 1132.972044937811 -40.168576282864535 0 -40.168576282864535 111.21111625383297 0 0 0 0 2033.6435237761425 461.63694092433741 0 461.63694092433741 -74.446360715630362 0 0 0 0 73.852004940543338 0.97303672485793413 0 0.97303672485793413 9.583714192262164 0 0 0 0 20.2461955602319 -20.266673649755749 0 -20.266673649755749 6.9575316887659939 0 0 0 0 11.841864625523762 -4.7130111967132606 0 -4.7130111967132606 -2.0209392332391545 0 0 0 0 49.071111333365479 -20.755866596840718 0 -20.755866596840718 10.254443908373901 0 0 0 0 34.607191408234939 -10.044395411500972 0 -10.044395411500972 5.781812374343815 0 0 0 0 75.228503538626683 5.1581236463990905 0 5.1581236463990905 -3.5644568662627307 0 0 0 0 1484.428446946366 252.40015264090209 0 252.40015264090209 -7.7615264800319324 0 0 0 0 13.899318854012382 -18.50503232486545 0 -18.50503232486545 1.771046319239431 0 0 0 0 24.82777506731145 -2.152042134688827 0 -2.152042134688827 15.117198407896296 0 0 0 0 28.629834153115567 -5.9727757635509526 0 -5.9727757635509526 -0.74999795865443208 0 0 0 0 31.942901231543146 -33.49879782513554 0 -33.49879782513554 -9.8098620374295251 0 0 0 0 36.99232650182239 -28.724769279552504 0 -28.724769279552504 -26.631781690841763 0 0 0 0 2513.9471156372929 518.51703146293301 0 518.51703146293301 -328.96885490875081 0 0 0 0 2283.7604020631761 868.56245371096225 0 868.56245371096225 64.476155265256182 0 0 0 0 3499.5361703868712 1266.1099977791941 0 1266.1099977791941 -147.09061280866501 0 0 0 0 2021.4373319067254 1028.97535194479 0 1028.97535194479 88.656078360850756 0 0 0 0 1991.3302977761996 1136.4367174906426 0 1136.4367174906426 504.55613574606491 0 0 0 0 1372.2532458922815 519.39233460608602 0 519.39233460608602 207.41685426633637 0 0 0 0 47.385093201559357 -42.304500696433877 0 -42.304500696433877 -1.8189315183218326 0 0 0 0 17.564182806278069 -9.8126163476149273 0 -9.8126163476149273 -3.4083035893967373 0 0 0 0 305.83781247087063 -65.066897472121582 0 -65.066897472121582 -6.7941389372540471 0 0 0 0 29.994936213114812 -12.791022610297247 0 -12.791022610297247 0.0051159515715095694 0 0 0 0 3495.5673098711759 2578.2183922189006 0 2578.2183922189006 1401.1697903896634 0 0 0 0 39.921139198630044 -422.31761920120272 0 -422.31761920120272 780.25169311513957 0 0 0 0 14.603165821763241 -1.0498473303961795 0 -1.0498473303961795 1.8381214767582419 0 0 0 0 44.503314498437248 4.6203852417156099 0 4.6203852417156099 2.431577868127988 0 0 0 0 36.819817722343942 5.227545152690638 0 5.227545152690638 15.800560148058594 0 0 0 0 22.430859321201602 -11.208295073516719 0 -11.208295073516719 -5.4311672511911695 0 0 0 0 45.910196987446398 -10.125308559742194 0 -10.125308559742194 -14.194490340393827 0 0 0 0 57.828974160085636 -11.202243626483437 0 -11.202243626483437 -27.807754971146437 0 0 0 0 34.648239582880336 -11.862131716298972 0 -11.862131716298972 -1.8080361292088933 0 0 0 0 81.476936232324078 2.0103669637810242 0 2.0103669637810242 -11.670714451146353 0 0 0 0 2.6470038271218925 -5.2625035067863166 0 -5.2625035067863166 5.7770579765372752 0 0 0 0 46.879528121253315 23.36585164755526 0 23.36585164755526 1.2014659277028841 0 0 0 0 29.430666070431471 7.3181025316631008 0 7.3181025316631008 -13.133642758893529 0 0 0 0 22.494000222595787 14.647293301373963 0 14.647293301373963 9.4536438238136498 0 0 0 0 8.5843831546971785 -3.7196918994466941 0 -3.7196918994466941 5.0918379143232215 0 0 0 0 41.686431928810634 -8.7902983146645113 0 -8.7902983146645113 -7.5655145726591826 0 0 0 0 77.864077534613898 22.124104813232634 0 22.124104813232634 6.4150246967851672 0 0 0 0 96.306221255661512 -36.112685600187206 0 -36.112685600187206 -10.585618562312902 0 0 0 0 13.857369666423381 9.6386919469525623 0 9.6386919469525623 -6.2569451280867252 0 0 0 0 15.649895380024532 1.1867101722230515 0 1.1867101722230515 -13.482482094603645 0 0 0 0 38.424905520179891 -4.4091305951237132 0 -4.4091305951237132 0.46391594708498474 0 0 0 0 64.910233633308962 -39.962244400871782 0 -39.962244400871782 -1.4462576396244913 0 0 0 0 67.317229876472993 -45.351352163575257 0 -45.351352163575257 -12.427035228300156 0 0 0 0 35.611460012340871 -24.520394462124468 0 -24.520394462124468 13.142255119747105 0 0 0 0 14.520876853701338 -67.217242775249417 0 -67.217242775249417 103.68529248111975 0 0 0 0 24.345903566624841 -15.463899168138227 0 -15.463899168138227 10.093322091062237 0 0 0 0 64.097457181591381 -64.579507091113385 0 -64.579507091113385 -0.96857415736349139 0 0 0 0 40.203480877433321 -36.203156458803846 0 -36.203156458803846 -0.26097920349687342 0 0 0 0 187.58374660030677 -71.865221206071624 0 -71.865221206071624 -1.6953114048476436 0 0 0 0 89.858159970043744 -132.73915632989019 0 -132.73915632989019 -33.541493769116698 0 0 0 0 78.868246489204466 -166.96961633355377 0 -166.96961633355377 35.191440857997492 0 0 0 0 -4.515984448386007 -119.4284961258369 0 -119.4284961258369 66.116711684242176 0 0 0 0 -31.869591440108707 -162.44431855308233 0 -162.44431855308233 43.199292939980467 0 0 0 0 281.82946667561919 -185.78348864487705 0 -185.78348864487705 -30.755562813564325 0 0 0 0 261.90980931387458 -116.13289882130584 0 -116.13289882130584 -249.11164205891905 0 0 0 0 186.97770827846762 -129.4040356913552 0 -129.4040356913552 -161.42728130934142 0 0 0 0 35.533521504479722 -20.116388339265342 0 -20.116388339265342 -4.5324067314300009 0 0 0 0 31.021210636317846 -25.379613277287604 0 -25.379613277287604 0.13038016205064196 0 0 0 0 -29.251619430335268 225.99882892120044 0 225.99882892120044 -216.5261184659422 0 0 0 0 1.4146947981030493 -1.6039689029223325 0 -1.6039689029223325 -0.94930869671372275 0 0 0 0 48.654494967711798 -0.85195211400963444 0 -0.85195211400963444 1.0728964487743724 0 0 0 0 5.192738870880369 -0.27098241627325592 0 -0.27098241627325592 -1.1422038344733541 0 0 0 0 61.876152161683422 -3.392203660121595 0 -3.392203660121595 5.9254318827446468 0 0 0 0 36.596659760811434 -1.0426887874075703 0 -1.0426887874075703 -0.42306481777974148 0 0 0 0 -5.9828929222421721 -19.926873996863151 0 -19.926873996863151 -1.4240166370789211 0 0 0 0 153.46317451450159 37.163238350699203 0 37.163238350699203 -0.15292160959734247 0 0 0 0 1.9964058952342612 1.52962118773684 0 1.52962118773684 0.25481565850953913 0 0 0 0 137.67382665939931 -40.89935051428472 0 -40.89935051428472 -68.09118347926119 0 0 0 0 124.5620470007816 -31.410098461308266 0 -31.410098461308266 -34.988013978356811 0 0 0 0 95.804109090991915 -43.783307074197182 0 -43.783307074197182 -39.466648702632483 0 0 0 0 90.870647460768851 -36.951755351198834 0 -36.951755351198834 -24.828386535122711 0 0 0 0 43.105573968288809 -86.671432373500977 0 -86.671432373500977 -64.181905390895309 0 0 0 0 24.620940693484247 0.52614488171680129 0 0.52614488171680129 -1.2646909174127434 0 0 0 0 142.20778647275256 -35.313584187866809 0 -35.313584187866809 -113.75915420395563 0 0 0 0 68.368382276563352 31.522506952564072 0 31.522506952564072 -38.193137748962727 0 0 0 0 166.71475331308648 5.460841485666208 0 5.460841485666208 -63.428072298628194 0 0 0 0 165.81119115128786 -9.6532956774258309 0 -9.6532956774258309 -39.825194039401595 0 0 0 0 167.51629740458611 21.845511036377502 0 21.845511036377502 -11.492439089706295 0 0 0 0 157.5021019900089 1.3175910632504184 0 1.3175910632504184 -34.24992295395873 0 0 0 0 159.26289033363236 14.371174466641563 0 14.371174466641563 9.2377583610666534 0 0 0 0 156.8311991911396 -13.550069594774527 0 -13.550069594774527 -11.635481137785519 0 0 0 0 156.98165516722929 -9.848690107653681 0 -9.848690107653681 -24.141690581645292 0 0 0 0 149.62708184527128 -27.082677710246983 0 -27.082677710246983 -43.233817112890634 0 0 0 0 160.28771725781189 -16.282862328987932 0 -16.282862328987932 -51.824481503093466 0 0 0 0 157.05483631440529 -5.9646389986105532 0 -5.9646389986105532 -30.625041307147626 0 0 0 0 170.31370089204893 -25.041826967443576 0 -25.041826967443576 -50.989384571107763 0 0 0 0 200.49124043030497 -13.456183918626976 0 -13.456183918626976 -46.547302056498808 0 0 0 0 173.58950372092113 -12.785680100591662 0 -12.785680100591662 -37.929948709793734 0 0 0 0 179.07171002425457 -36.488158102312354 0 -36.488158102312354 -64.135223001685063 0 0 0 0 250.35108746777041 -4.4044987521515395 0 -4.4044987521515395 -76.676017616519857 0 0 0 0 200.36707498520627 25.113322359266931 0 25.113322359266931 15.473503044136578 0 0 0 0 164.97825462013861 7.8185622350358699 0 7.8185622350358699 -8.6412420747528813 0 0 0 0 137.83612770069703 -17.087452297987284 0 -17.087452297987284 -30.712407144848868 0 0 0 0 50.549127132397189 -46.043130330854979 0 -46.043130330854979 -26.77878448676779 0 0 0 0 153.30853190500056 -10.092772870900639 0 -10.092772870900639 -14.846836310148262 0 0 0 0 192.892429359174 -83.306106595470965 0 -83.306106595470965 -82.962538549009423 0 0 0 0 278.28678372654394 23.190176020852277 0 23.190176020852277 -56.889079950398809 0 0 0 0 333.45377978934994 -109.43338714855611 0 -109.43338714855611 -220.88267573575013 0 0 0 0 148.46553151855187 -106.92026634658805 0 -106.92026634658805 -92.888620725396777 0 0 0 0 -109.72939506715556 -288.3335546089213 0 -288.3335546089213 -60.899676123726749 0 0 0 0 93.473824443793092 -20.77339468655191 0 -20.77339468655191 -56.830151726921258 0 0 0 0 50.650609437725961 79.033313451530262 0 79.033313451530262 10.231826339310373 0 0 0 0 -115.73393108331402 49.452004493261256 0 49.452004493261256 -80.296736720283207 0 0 0 0 0.8870370693179721 -1.1263036346607596 0 -1.1263036346607596 0.45397986244068811 0 0 0 0 -6.3652129091788083 12.475094657223053 0 12.475094657223053 -3.5541857284415528 0 0 0 0 192.97536398677119 38.904325681296712 0 38.904325681296712 1.0974858862937253 0 0 0 0 -454.51174344262836 -94.100379456455812 0 -94.100379456455812 -138.94331684391273 0 0 0 0 235.67032839121202 173.69722579021732 0 173.69722579021732 61.656750780628116 0 0 0 0 0.20267193765476499 0.2868842637127651 0 0.2868842637127651 -0.049286240979837359 0 0 0 0 499.79296355946644 -328.91677221491682 0 -328.91677221491682 -329.81280949129905 0 0 0 0 57.922517857034109 -84.776718588303993 0 -84.776718588303993 142.48489752945079 0 0 0 0 0.62428077541987648 0.8717080591015347 0 0.8717080591015347 0.37568120253785714 0 0 0 0 379.89628608531712 129.79435635707114 0 129.79435635707114 13.091091809475984 0 0 0 0 552.48305787769641 38.83942857800912 0 38.83942857800912 -166.21141688892385 0 0 0 0 213.64334933280588 14.158634442890616 0 14.158634442890616 120.93403905578498 0 0 0 0 298.98227391576484 -29.247972435032978 0 -29.247972435032978 4.8528154888781501 0 0 0 0 132.73000065586348 -26.564529842975617 0 -26.564529842975617 -0.5782992713046724 0 0 0 0 164.77198311199027 3.4152479802062317 0 3.4152479802062317 19.18153249913621 0 0 0 0 204.41590072387589 -19.334022378234295 0 -19.334022378234295 5.0088628134409419 0 0 0 0 211.04869906151089 12.422828606418761 0 12.422828606418761 -8.1768702560075326 0 0 0 0 178.6189340683195 -43.44636117997743 0 -43.44636117997743 -3.9232579485499173 0 0 0 0 71.542422883459949 -60.838446070659529 0 -60.838446070659529 -18.605900496039339 0 0 0 0 66.014996852066361 -41.588579978917778 0 -41.588579978917778 5.8457547466321103 0 0 0 0 60.021980067854898 -37.444401840906011 0 -37.444401840906011 -11.959529452208693 0 0 0 0 30.67757965087003 -38.191324971716313 0 -38.191324971716313 -23.534551311737687 0 0 0 0 96.848026293363361 -39.908866537628114 0 -39.908866537628114 -39.120274303373662 0 0 0 0 128.7900968852623 -17.542524002576954 0 -17.542524002576954 -13.711901284031683 0 0 0 0 96.857714252857477 -24.263733334994981 0 -24.263733334994981 -8.8433344981467599 0 0 0 0 112.04314455035819 -16.93674639621176 0 -16.93674639621176 -23.748200454335105 0 0 0 0 137.48644063018617 -11.365080616680565 0 -11.365080616680565 -23.965179268987868 0 0 0 0 88.878583427711419 -21.107923721180555 0 -21.107923721180555 -26.492554560391909 0 0 0 0 108.31860650671206 -26.94378089975185 0 -26.94378089975185 -26.880244418981874 0 0 0 0 92.230145456704122 -28.184471811173438 0 -28.184471811173438 -25.155189426662389 0 0 0 0 127.70398574296269 -24.042664134086465 0 -24.042664134086465 -38.255797736627727 0 0 0 0 145.53800604836761 -20.438836677826593 0 -20.438836677826593 -37.967481627507595 0 0 0 0 90.529613643309858 -33.521763156650877 0 -33.521763156650877 -21.631047617954266 0 0 0 0 79.228092197412479 -34.61725515195144 0 -34.61725515195144 -21.205263715370478 0 0 0 0 97.71858962296028 -34.574058959969989 0 -34.574058959969989 -33.793577836258009 0 0 0 0 54.064623152946396 -29.6134385579617 0 -29.6134385579617 -11.892229322988332 0 0 0 0 120.58941869079717 -17.286313376751195 0 -17.286313376751195 -15.222095901993271 0 0 0 0 26.123179865043618 5.3362065653567647 0 5.3362065653567647 -7.8714800600255854 0 0 0 0 29.410039576072467 5.8030690794117703 0 5.8030690794117703 -10.09401653869887 0 0 0 0 102.68538076412369 -4.261009691340405 0 -4.261009691340405 10.107939226440976 0 0 0 0 198.59474753162795 -68.933469371947467 0 -68.933469371947467 -27.166291586347143 0 0 0 0 73.485919947510752 -44.372687581315049 0 -44.372687581315049 -6.5339864895704522 0 0 0 0 25.492493796802048 -17.135677888995687 0 -17.135677888995687 -12.402448267684505 0 0 0 0 178.70049375774761 32.73952505593229 0 32.73952505593229 48.425945610449162 0 0 0 0 103.7078896686744 -64.781879349819974 0 -64.781879349819974 -24.749859412732349 0 0 0 0 126.23076186578328 -4.8708983192686901 0 -4.8708983192686901 -4.3665626282158883 0 0 0 0 129.33195954908297 -7.797925808869536 0 -7.797925808869536 -36.602425314297761 0 0 0 0 165.47078011730991 1.9719489438898563 0 1.9719489438898563 -15.515225994183311 0 0 0 0 143.47520833300223 14.415589507947516 0 14.415589507947516 17.022306392294922 0 0 0 0 131.74393242816586 -11.713281481996091 0 -11.713281481996091 -9.5040083694266286 0 0 0 0 141.18409873601922 3.4559401568972135 0 3.4559401568972135 9.9713089134538677 0 0 0 0 151.50321073789746 -3.4548209319846137 0 -3.4548209319846137 -17.605287597851657 0 0 0 0 149.49968174961396 4.2584662973649756 0 4.2584662973649756 -17.027525019982932 0 0 0 0 144.36003253141826 8.3055661845455688 0 8.3055661845455688 -6.9231276847640402 0 0 0 0 141.11718882196783 -10.947834774731689 0 -10.947834774731689 -15.929681315552443 0 0 0 0 0.55356964699574718 -0.56762384608519056 0 -0.56762384608519056 -0.16074897044077119 0 0 0 0 -27.366296900454472 -14.808053416310941 0 -14.808053416310941 21.897045386154787 0 0 0 0 140.91664965999735 -27.508981603787106 0 -27.508981603787106 15.533603308715669 0 0 0 0 122.56996305520443 -13.53018110345829 0 -13.53018110345829 -0.85570978961550281 0 0 0 0 187.08758097568716 -27.285697759724826 0 -27.285697759724826 -19.931915712656519 0 0 0 0 213.01407697129525 61.877557919790434 0 61.877557919790434 16.425484713605329 0 0 0 0 117.60397748405376 10.206366373629862 0 10.206366373629862 -10.097482376155313 0 0 0 0 73.14602809781951 -46.113127153690542 0 -46.113127153690542 -19.440176959173851 0 0 0 0 159.95098056684657 2.8618766355131235 0 2.8618766355131235 -95.480908913077656 0 0 0 0 136.49166474204958 -13.648444307118552 0 -13.648444307118552 -27.093688385390124 0 0 0 0 123.43445590892225 -6.6513983691991143 0 -6.6513983691991143 -5.2871717896559858 0 0 0 0 63.688799851012163 -198.84918967755033 0 -198.84918967755033 39.975825692764374 0 0 0 0 84.898067764062617 -41.282772513102422 0 -41.282772513102422 -16.198446114089293 0 0 0 0 111.84929182299311 -52.568870912884904 0 -52.568870912884904 -22.525882396816826 0 0 0 0 125.94676869079376 -20.725830741801019 0 -20.725830741801019 -101.79235866324825 0 0 0 0 83.212583219781436 -70.601736332511337 0 -70.601736332511337 17.496202706121039 0 0 0 0 169.32779598175057 -100.23995841052442 0 -100.23995841052442 15.169923390967142 0 0 0 0 192.47905092590645 -108.06396470251843 0 -108.06396470251843 -87.498549295128214 0 0 0 0 165.62809676182314 -58.19472635549198 0 -58.19472635549198 -178.03932106449292 0 0 0 0 -7.4419948274960817 -13.743082801135309 0 -13.743082801135309 -1.5661137818704693 0 0 0 0 133.39167505339992 -100.19251452375056 0 -100.19251452375056 -97.578507465485927 0 0 0 0 12.391199767766011 -30.565925491047437 0 -30.565925491047437 -82.32503693547369 0 0 0 0 192.2504203054641 -19.881436952661261 0 -19.881436952661261 -42.836974435680531 0 0 0 0 200.6387524917227 -6.2845475582357722 0 -6.2845475582357722 -103.85147217946587 0 0 0 0 105.14264554810143 32.028597512210126 0 32.028597512210126 -6.2058715839084471 0 0 0 0 85.455651480816414 17.358825342820637 0 17.358825342820637 -0.92196673696162179 0 0 0 0 103.39720119432695 -41.688231470802407 0 -41.688231470802407 -33.973752924652217 0 0 0 0 60.169358795895342 -20.340585160014246 0 -20.340585160014246 -7.5135614446064363 0 0 0 0 49.303105145050267 -27.99587677965701 0 -27.99587677965701 -16.945423899634989 0 0 0 0 41.257802286976258 -18.44544013616057 0 -18.44544013616057 -7.0320528027213207 0 0 0 0 -5.8123668415050815 -195.43111204868811 0 -195.43111204868811 -130.90747740192728 0 0 0 0 48.733520997872709 -11.913476650598788 0 -11.913476650598788 -7.4001933606677994 0 0 0 0 70.39784346950529 -3.3138629527123165 0 -3.3138629527123165 -6.5088809882967809 0 0 0 0 -158.2753286321863 -259.38244918724013 0 -259.38244918724013 -47.859281324119365 0 0 0 0 32.691870801433694 -21.234343058329067 0 -21.234343058329067 -5.2196225771327356 0 0 0 0 126.89972125237728 -162.77206549046241 0 -162.77206549046241 -68.716114606755582 0 0 0 0 -30.569967817567886 -34.292073362976225 0 -34.292073362976225 -132.84683840464348 0 0 0 0 166.62721563432387 -20.606900069647054 0 -20.606900069647054 -45.255783498032997 0 0 0 0 7.9993795101163414 -273.20953553487834 0 -273.20953553487834 53.654913295189544 0 0 0 0 -140.43598995268621 -93.669254376223762 0 -93.669254376223762 -116.58979697145469 0 0 0 0 221.71637881277729 84.177093544481068 0 84.177093544481068 46.432714368113011 0 0 0 0 276.54391511266476 76.954766367263801 0 76.954766367263801 -53.680380970747535 0 0 0 0 215.01787013145076 8.8898704648875082 0 8.8898704648875082 13.068891165908099 0 0 0 0 236.96491816501111 18.865387334647494 0 18.865387334647494 -114.74492003489183 0 0 0 0 382.76052381584395 62.553505111653521 0 62.553505111653521 -50.463921158504945 0 0 0 0 401.02700377101064 226.56413724384265 0 226.56413724384265 69.434594274788424 0 0 0 0 199.46065942408131 267.69080866074557 0 267.69080866074557 293.08056360722458 0 0 0 0 174.64027046595675 222.28337906948309 0 222.28337906948309 248.79543603260845 0 0 0 0 138.46889674729482 141.17401388952567 0 141.17401388952567 190.42571843207907 0 0 0 0 177.99273285950767 126.89455963620094 0 126.89455963620094 195.3298215935115 0 0 0 0 234.67956582147781 95.728144633185366 0 95.728144633185366 27.562454987857564 0 0 0 0 167.00759269397713 23.871780466890414 0 23.871780466890414 56.381762219271991 0 0 0 0 211.18655661044977 3.7565043125691773 0 3.7565043125691773 -23.675903487377582 0 0 0 0 182.99078742916208 27.855205884665565 0 27.855205884665565 16.174620016003246 0 0 0 0 155.67242824751065 68.65473916000542 0 68.65473916000542 82.83818464062233 0 0 0 0 156.26351037175573 41.389785023664444 0 41.389785023664444 99.667975377515177 0 0 0 0 174.336119103903 4.5950040618022285 0 4.5950040618022285 30.460519639848371 0 0 0 0 140.74646505162946 -8.313240092881415 0 -8.313240092881415 19.779287751588527 0 0 0 0 160.7870545650203 31.425361996280117 0 31.425361996280117 -0.081855202936822025 0 0 0 0 113.13242753075701 -40.75999069853151 0 -40.75999069853151 -5.2290933162921647 0 0 0 0 164.23821459969258 -16.864113018511034 0 -16.864113018511034 -17.209086417895378 0 0 0 0 164.4654840389602 42.355715535698437 0 42.355715535698437 2.0464985542380418 0 0 0 0 179.07619684423275 3.9227481831252362 0 3.9227481831252362 1.8488548341765636 0 0 0 0 171.88550100137672 36.233597900857148 0 36.233597900857148 49.403862787876278 0 0 0 0 162.10862908720992 -32.816022573356349 0 -32.816022573356349 125.61997327832296 0 0 0 0 142.56563110684601 74.667136868684793 0 74.667136868684793 224.80856832854943 0 0 0 0 185.21538895224069 -13.063494153536681 0 -13.063494153536681 8.4234080475907831 0 0 0 0 80.129252847921634 65.030401500333028 0 65.030401500333028 293.62346605494895 0 0 0 0 86.979539548100348 124.24739106196466 0 124.24739106196466 487.7053669820998 0 0 0 0 140.87892556162205 154.2421086283839 0 154.2421086283839 244.27235841002596 0 0 0 0 133.58270889536288 63.915233692411675 0 63.915233692411675 227.55136500835852 0 0 0 0 94.22404256710297 153.17084458537875 0 153.17084458537875 418.88043287073197 0 0 0 0 381.9058527775087 337.35461789742567 0 337.35461789742567 276.99261085165426 0 0 0 0 -434.10031202366827 -30.33904156700828 0 -30.33904156700828 338.21072165206442 0 0 0 0 -1.0147210016826926 -0.43197788080432886 0 -0.43197788080432886 0.62976591725672293 0 0 0 0 -131.27312885426136 179.75323970594081 0 179.75323970594081 428.95559406347184 0 0 0 0 283.01319999757379 3.3493733852592413 0 3.3493733852592413 209.04861139510285 0 0 0 0 387.16666827663175 71.58105121169865 0 71.58105121169865 422.20256668022336 0 0 0 0 354.09030577428962 41.470937747826838 0 41.470937747826838 478.65228167898022 0 0 0 0 911.38384031099872 115.94551594115046 0 115.94551594115046 140.29568302702955 0 0 0 0 575.25859193133556 -132.29904275561557 0 -132.29904275561557 359.70412544157625 0 0 0 0 709.71520611005235 -114.65791107164478 0 -114.65791107164478 350.3484431756433 0 0 0 0 246.10122981488257 -152.60289647763602 0 -152.60289647763602 595.65746359567129 0 0 0 0 1131.1825877797323 -589.36322416972416 0 -589.36322416972416 592.17112538231959 0 0 0 0 1739.5054827419447 -120.82766723336863 0 -120.82766723336863 76.977121783494113 0 0 0 0 1621.3801570975875 394.09699022823179 0 394.09699022823179 -32.6354580294078 0 0 0 0 880.62611116305106 683.33222126313467 0 683.33222126313467 482.64385161093469 0 0 0 0 971.76170709685562 451.44510876986669 0 451.44510876986669 11.7374423709025 0 0 0 0 906.37732306555313 360.0474585444847 0 360.0474585444847 -6.1917008345753857 0 0 0 0 958.51239656301198 96.369070561288936 0 96.369070561288936 19.655811075272823 0 0 0 0 1154.888709260189 319.07364892202986 0 319.07364892202986 -0.54441093576861022 0 0 0 0 889.07117922209613 376.36524706754699 0 376.36524706754699 45.432531024383024 0 0 0 0 702.02102639672478 166.84859255479319 0 166.84859255479319 137.71640364123596 0 0 0 0 817.43108898310106 370.79023443471056 0 370.79023443471056 74.589695883513741 0 0 0 0 913.0244817619481 359.03855231231501 0 359.03855231231501 7.1817654203988468 0 0 0 0 944.46953571256677 459.63966164508884 0 459.63966164508884 -7.6954469259508187 0 0 0 0 960.94883082248862 421.29626751402293 0 421.29626751402293 73.807498276575643 0 0 0 0 908.11386875872358 341.5225512748475 0 341.5225512748475 100.48847249329674 0 0 0 0 1023.3451422160192 387.45737403149678 0 387.45737403149678 58.193128465042719 0 0 0 0 970.95906273150695 321.35700464590491 0 321.35700464590491 93.938758104727867 0 0 0 0 911.01750395632212 411.0191921459359 0 411.0191921459359 63.942687518176172 0 0 0 0 735.93187849663832 280.3602580049178 0 280.3602580049178 55.575866133381936 0 0 0 0 697.87424802906935 317.76616960202296 0 317.76616960202296 75.440629107931272 0 0 0 0 358.13342409513916 40.61167571259557 0 40.61167571259557 -12.195566985809648 0 0 0 0 101.22036819922596 -95.212655989952964 0 -95.212655989952964 263.02999376330831 0 0 0 0 395.39537610776142 207.82244043395991 0 207.82244043395991 326.5164906603768 0 0 0 0 0.28133877163625032 -0.9453246816084464 0 -0.9453246816084464 2.5290967557183528 0 0 0 0 643.90668817913001 251.14269746608943 0 251.14269746608943 17.615175935053287 0 0 0 0 -8.2040962356513774 -33.812516723159831 0 -33.812516723159831 73.435335417054262 0 0 0 0 91.548004882868554 -116.9619316659381 0 -116.9619316659381 -3.9029681946986869 0 0 0 0 13.633703858928129 -33.062411552982439 0 -33.062411552982439 -26.243657879373131 0 0 0 0 13.968488542249339 -2.483077905451748 0 -2.483077905451748 1.5711510655632468 0 0 0 0 31.836939607212116 8.8709164682652499 0 8.8709164682652499 -10.228880487043455 0 0 0 0 19.055482600824689 -36.68964369524214 0 -36.68964369524214 -15.569241555227023 0 0 0 0 17.829190615460902 -29.746342185602373 0 -29.746342185602373 -24.039842881648383 0 0 0 0 27.521383844819866 -20.821381909360923 0 -20.821381909360923 -29.817182928777683 0 0 0 0 39.105214812516351 -21.560026620801509 0 -21.560026620801509 -33.486542621561512 0 0 0 0 12.82455395969447 -15.633568077546204 0 -15.633568077546204 -28.548260550026271 0 0 0 0 20.347031850559944 -9.1359057991621828 0 -9.1359057991621828 -9.6729369526666673 0 0 0 0 167.82253969112253 98.064895679187885 0 98.064895679187885 224.19550096141575 0 0 0 0 13.742666617132979 -16.097598953652408 0 -16.097598953652408 -39.664191339329449 0 0 0 0 24.182549589215341 -24.856105730279751 0 -24.856105730279751 -53.153235942676048 0 0 0 0 901.52418153962617 391.6266485429951 0 391.6266485429951 -103.02046686523681 0 0 0 0 13.890710163901344 -15.125791137730683 0 -15.125791137730683 -24.292232830512269 0 0 0 0 523.76475381540558 212.95700658819055 0 212.95700658819055 70.364022323096833 0 0 0 0 48.102290236217414 -24.786516811695964 0 -24.786516811695964 -44.027399133202238 0 0 0 0 1241.5383662620916 -109.85243643521608 0 -109.85243643521608 -256.73163852885773 0 0 0 0 829.4228858961178 415.15224496279689 0 415.15224496279689 163.89179838330529 0 0 0 0 1274.8390725086438 541.46564492240168 0 541.46564492240168 220.56054011486913 0 0 0 0 -0.97032532035876784 -3.0033854795935451 0 -3.0033854795935451 0.75608287670910634 0 0 0 0 1225.9736281075525 217.84246124200081 0 217.84246124200081 140.02582528238219 0 0 0 0 1122.5463455701274 375.63656172547121 0 375.63656172547121 62.508968808806458 0 0 0 0 7.8516263574209644 3.138759398323085 0 3.138759398323085 7.1672486535075635 0 0 0 0 49.853901515247344 19.841851325352764 0 19.841851325352764 -5.7530852091858833 0 0 0 0 34.73191744792166 24.666056231729726 0 24.666056231729726 4.7490820810744481 0 0 0 0 45.443086757046331 36.394715632792668 0 36.394715632792668 -0.17618301977017836 0 0 0 0 71.600164143557777 12.861373034045755 0 12.861373034045755 -12.002024135299507 0 0 0 0 77.676257021039419 22.654616338862979 0 22.654616338862979 -7.1903265138098504 0 0 0 0 58.474931083435109 -0.13290492472632298 0 -0.13290492472632298 -11.822394161968289 0 0 0 0 30.215890887357091 -46.510132758994246 0 -46.510132758994246 -60.484520146444993 0 0 0 0 8.9414573357207701 -40.764712925181243 0 -40.764712925181243 -36.116975137832014 0 0 0 0 42.848394572403777 -32.077294134504271 0 -32.077294134504271 -53.654390792975221 0 0 0 0 26.343399310882887 -29.631895039610328 0 -29.631895039610328 -36.536745622438588 0 0 0 0 28.875388639517041 -26.839683909403703 0 -26.839683909403703 -37.004538379081744 0 0 0 0 51.251898977796372 -55.574723720775694 0 -55.574723720775694 -27.112980149321942 0 0 0 0 35.892378055617883 -32.679022259347292 0 -32.679022259347292 -45.193157328868779 0 0 0 0 31.231884033082679 -78.951669415222341 0 -78.951669415222341 -53.721984771648067 0 0 0 0 88.19071978493912 -65.299531203579377 0 -65.299531203579377 -70.516281379430666 0 0 0 0 18.398307390570608 -3.1031274229928556 0 -3.1031274229928556 -33.092298577474139 0 0 0 0 94.446668424356176 -21.126096846997143 0 -21.126096846997143 -50.377825972131404 0 0 0 0 192.88822671425805 6.694798977143364 0 6.694798977143364 -78.225809077871645 0 0 0 0 108.01179611698626 -14.095659299624458 0 -14.095659299624458 -52.112649594604591 0 0 0 0 72.043152943012231 -5.9640535909450465 0 -5.9640535909450465 -12.356186874124248 0 0 0 0 3.2383441966740065 -128.47047979124159 0 -128.47047979124159 -106.43294333150459 0 0 0 0 15.579786718187499 6.8745836045076487 0 6.8745836045076487 -1.3239734521765238 0 0 0 0 61.479451922689805 -85.484244808669615 0 -85.484244808669615 -141.09607993787995 0 0 0 0 18.973596769248616 -48.03049680698274 0 -48.03049680698274 -93.512238414816636 0 0 0 0 33.786931270007415 -12.618294115806446 0 -12.618294115806446 0.96574056046355483 0 0 0 0 97.960484183215158 -82.316634913505297 0 -82.316634913505297 -78.822175994962578 0 0 0 0 22.638826271214384 -68.701591490585002 0 -68.701591490585002 -29.786196489633753 0 0 0 0 82.708007688008365 145.1506146284687 0 145.1506146284687 85.461718001567817 0 0 0 0 41.724035113496427 -21.144249618800018 0 -21.144249618800018 -35.907328998062098 0 0 0 0 50.921418253565328 -6.8155447803693212 0 -6.8155447803693212 -16.356732908466739 0 0 0 0 84.401775379941682 -29.588985210006285 0 -29.588985210006285 24.723468566317024 0 0 0 0 85.884953220915122 65.763868718849608 0 65.763868718849608 4.7875776018913712 0 0 0 0 98.230557577400759 26.153099809644573 0 26.153099809644573 -5.9017683141491943 0 0 0 0 149.16436578759567 16.954420837719226 0 16.954420837719226 65.922444027953134 0 0 0 0 86.347278374953021 1.7981255378394962 0 1.7981255378394962 70.60045710594386 0 0 0 0 12.514117352333415 139.46576717671849 0 139.46576717671849 225.28301744136408 0 0 0 0 82.51689960593103 2.6151905695039659 0 2.6151905695039659 219.46160695672506 0 0 0 0 81.283994195091509 103.22203333210791 0 103.22203333210791 291.98365460690025 0 0 0 0 828.80944255414215 -91.540754280941982 0 -91.540754280941982 69.187320635322806 0 0 0 0 712.04918360277588 186.98213247664128 0 186.98213247664128 177.1081369106974 0 0 0 0 1.111456755848252 -1.0155179691076857 0 -1.0155179691076857 1.719981490882434 0 0 0 0 26.061452038947209 -21.754450318091131 0 -21.754450318091131 79.211775214290356 0 0 0 0 90.472282807066222 43.952475415307163 0 43.952475415307163 -1.442662847959582 0 0 0 0 117.59678605593217 4.8613952661680742 0 4.8613952661680742 -10.805890271238241 0 0 0 0 1174.1247899452953 339.689525038395 0 339.689525038395 26.843035990865246 0 0 0 0 1166.1191517040343 323.90089986957969 0 323.90089986957969 116.89749111397623 0 0 0 0 1568.4390925648363 414.70598474393915 0 414.70598474393915 40.210391419806911 0 0 0 0 1149.2037481521318 393.17914577566535 0 393.17914577566535 5.7393033372823083 0 0 0 0 1156.4284968974462 349.25754383223193 0 349.25754383223193 253.08329353204908 0 0 0 0 1138.9996953774171 198.71730057830814 0 198.71730057830814 154.78927016809314 0 0 0 0 1311.8402142606137 161.58341777331347 0 161.58341777331347 -109.12748727655804 0 0 0 0 1408.1928712156505 164.23322037876179 0 164.23322037876179 -120.27072264709227 0 0 0 0 1397.6793071894531 -105.08466877673567 0 -105.08466877673567 -11.847792946750587 0 0 0 0 2248.2356949799478 18.098127485967126 0 18.098127485967126 -158.89039716343217 0 0 0 0 2641.224058640345 742.57109188601771 0 742.57109188601771 -124.24743541129737 0 0 0 0 2285.3690905632579 1165.9358160156953 0 1165.9358160156953 586.97508530337905 0 0 0 0 2008.962157681357 35.96001604421042 0 35.96001604421042 -764.64612536561845 0 0 0 0 1462.0917212918466 -42.112684670286399 0 -42.112684670286399 379.14114305919566 0 0 0 0 1482.6167001013728 -255.61232827003877 0 -255.61232827003877 -131.58316834255766 0 0 0 0 19.54576097390985 3.4127697772595944 0 3.4127697772595944 -1.7914337104593197 0 0 0 0 805.53117072122404 -215.85094545669017 0 -215.85094545669017 -63.810417276769385 0 0 0 0 1033.2841683582828 -528.87127971769314 0 -528.87127971769314 -995.30123359361755 0 0 0 0 799.83988809049424 -260.11921972541847 0 -260.11921972541847 -261.04502176842243 0 0 0 0 -111.01609446476505 -616.00618106939396 0 -616.00618106939396 -323.31025774295972 0 0 0 0 -634.49209580806564 -255.23542577977651 0 -255.23542577977651 204.14756047938135 0 0 0 0 39.653681872616289 -120.80127424197485 0 -120.80127424197485 52.992452809919314 0 0 0 0 92.403059615979146 -59.062829852130335 0 -59.062829852130335 88.692075020428547 0 0 0 0 216.70169418214937 116.52751495975727 0 116.52751495975727 191.76489838267915 0 0 0 0 665.26508412476142 -232.2117524211302 0 -232.2117524211302 31.701207637079101 0 0 0 0 708.75542336159378 -123.45191174535813 0 -123.45191174535813 167.23763769087475 0 0 0 0 156.10559369666589 -43.659079231593473 0 -43.659079231593473 276.09903156253063 0 0 0 0 163.23162575794959 70.298850116125564 0 70.298850116125564 187.00462530501255 0 0 0 0 -83.034243346861331 61.180467243391831 0 61.180467243391831 218.87805140248042 0 0 0 0 -19.361383987528825 139.81514898222611 0 139.81514898222611 3.4791290460748314 0 0 0 0 141.32344606473998 -0.42159071540919513 0 -0.42159071540919513 15.291612038706489 0 0 0 0 -232.26675851310756 243.14208751441379 0 243.14208751441379 40.226097257651418 0 0 0 0 4.2583766975381394 2.6759883093638859 0 2.6759883093638859 -2.54256438499739 0 0 0 0 88.524359353130421 212.93540096720619 0 212.93540096720619 -497.85759214942118 0 0 0 0 -91.88618294799744 -46.225327923987606 0 -46.225327923987606 -66.534435773134192 0 0 0 0 53.504457588471269 -206.51139830440661 0 -206.51139830440661 -615.23526560838798 0 0 0 0 -257.70475087281375 -122.35998739919705 0 -122.35998739919705 -129.16063361821261 0 0 0 0 -56.871425661243848 -145.15275326111055 0 -145.15275326111055 -137.99671953098039 0 0 0 0 125.95664003492857 31.520797563495762 0 31.520797563495762 -229.17130747847114 0 0 0 0 -179.65203811149331 96.05806965094871 0 96.05806965094871 -229.1124380251581 0 0 0 0 -63.823681339139966 100.92525437298906 0 100.92525437298906 55.672444197105506 0 0 0 0 15.589138452225598 93.729209419812037 0 93.729209419812037 47.74647029189498 0 0 0 0 -84.884942934810169 113.47713043064192 0 113.47713043064192 261.85667540777445 0 0 0 0 41.743904968665447 167.41000374382057 0 167.41000374382057 246.6552003467832 0 0 0 0 -58.600428428935402 11.977838267795647 0 11.977838267795647 141.30869872359222 0 0 0 0 19.078058705501689 -25.342515289952047 0 -25.342515289952047 58.450983552095522 0 0 0 0 0.064334102928726156 -1.5075261461476144 0 -1.5075261461476144 1.9390130036360129 0 0 0 0 218.20112016075473 35.685433665105023 0 35.685433665105023 -40.107337542301934 0 0 0 0 51.4647628194571 115.41978965537274 0 115.41978965537274 126.57983404721381 0 0 0 0 123.3260095910091 28.138171030509739 0 28.138171030509739 6.0452717836378724 0 0 0 0 0.14712271585348996 -0.98301142292316879 0 -0.98301142292316879 4.3632346822014121 0 0 0 0 334.78094629247278 125.7989966243008 0 125.7989966243008 -12.850814857580076 0 0 0 0 344.48819696346266 99.030298353350986 0 99.030298353350986 59.449818182962872 0 0 0 0 562.91242433707987 392.16252701647471 0 392.16252701647471 170.34267978800426 0 0 0 0 882.74019153237168 278.16863454347958 0 278.16863454347958 19.841042569367801 0 0 0 0 963.75204783606659 397.08159042589705 0 397.08159042589705 132.45228229143913 0 0 0 0 982.22991784523401 268.04820916608571 0 268.04820916608571 75.373969152725977 0 0 0 0 1494.68068790293 357.54861248956178 0 357.54861248956178 -10.260709308034961 0 0 0 0 822.00232239796958 432.23870873666328 0 432.23870873666328 106.02371463317786 0 0 0 0 422.7292612487945 235.16103763806933 0 235.16103763806933 105.93999542838588 0 0 0 0 -0.72489127018798172 181.72534334094757 0 181.72534334094757 372.82682924792209 0 0 0 0 1286.2066204996715 993.62156316088976 0 993.62156316088976 547.26637586493598 0 0 0 0 285.71606467291258 490.44610053204019 0 490.44610053204019 311.40259865859377 0 0 0 0 1121.911633682475 734.09920478979234 0 734.09920478979234 268.50458555223963 0 0 0 0 1307.4309858885081 -28.506539588388165 0 -28.506539588388165 -731.0838156293388 0 0 0 0 7.575924945431332 4.291784601830793 0 4.291784601830793 -0.2081123072230264 0 0 0 0 40.830696059291768 -424.01662823713764 0 -424.01662823713764 233.05274120960348 0 0 0 0 1238.8730139052204 -395.59374924525264 0 -395.59374924525264 790.39333657589486 0 0 0 0 -80.973242425539866 192.19029661162585 0 192.19029661162585 -148.61019950069885 0 0 0 0 12.444701756282871 6.5659315077249047 0 6.5659315077249047 -0.49752308221736236 0 0 0 0 -3.6640986666595836 124.81489742623179 0 124.81489742623179 -241.56471066691904 0 0 0 0 -19.550022458546323 60.168169691339699 0 60.168169691339699 -99.621104114472018 0 0 0 0 17.893774861931661 114.52485536172316 0 114.52485536172316 -167.53912542038438 0 0 0 0 246.8807886303606 -36.358005808388171 0 -36.358005808388171 -68.219147672495637 0 0 0 0 325.01456871916162 -115.2567843505426 0 -115.2567843505426 -236.67740235710869 0 0 0 0 -40.832860252387377 -135.24446114179997 0 -135.24446114179997 -43.346791268026323 0 0 0 0 -14.475572543238741 16.050164072722282 0 16.050164072722282 -4.9656642923919136 0 0 0 0 5.4266672826087294 5.6367386943477111 0 5.6367386943477111 0.10940669656284463 0 0 0 0 206.36921687396966 -3.024518907964989 0 -3.024518907964989 -283.63469802881809 0 0 0 0 -31.925955213638531 16.641727633400478 0 16.641727633400478 4.6192538305895141 0 0 0 0 13.778117747043725 1.2380476403116074 0 1.2380476403116074 -7.7011665926584669 0 0 0 0 -19.858767766884284 8.8457332926382151 0 8.8457332926382151 9.3574435347791223 0 0 0 0 -52.177676229346616 -11.886461716743042 0 -11.886461716743042 4.8258380793290598 0 0 0 0 -113.82987346786103 8.2515479323471936 0 8.2515479323471936 9.7014761211457881 0 0 0 0 -130.82926428340306 -121.10775429340356 0 -121.10775429340356 -13.313185226075802 0 0 0 0 -274.9791271442009 -17.432240623846155 0 -17.432240623846155 -58.800706582024759 0 0 0 0 -232.44117920545659 -134.34182987492932 0 -134.34182987492932 6.8864645541907521 0 0 0 0 -93.207856114394872 -54.095731613408134 0 -54.095731613408134 -72.136180262888956 0 0 0 0 -156.35836402300623 47.340512659317028 0 47.340512659317028 -30.510873026309127 0 0 0 0 5.5221606520468587 -9.9877563057456271 0 -9.9877563057456271 -3.0513895461706433 0 0 0 0 -114.29223426879844 -164.01117015101227 0 -164.01117015101227 97.994465796553868 0 0 0 0 -91.003436433757088 -47.761781390542637 0 -47.761781390542637 71.033798655657165 0 0 0 0 -95.10587765033506 -67.491854202071863 0 -67.491854202071863 4.2054306239024299 0 0 0 0 -38.431125442469693 -124.96059793969152 0 -124.96059793969152 181.90093997350777 0 0 0 0 -151.11447217602017 19.808026898158005 0 19.808026898158005 154.12078635006401 0 0 0 0 -93.999243476145921 46.406202411349796 0 46.406202411349796 60.181341141626035 0 0 0 0 -147.06039861422369 -8.5453439002003506 0 -8.5453439002003506 78.964361030519285 0 0 0 0 -106.45929039772636 36.196937938414521 0 36.196937938414521 128.6667979822023 0 0 0 0 -86.003403616949981 165.73941351462963 0 165.73941351462963 57.165722281966282 0 0 0 0 306.43118230031541 -156.79878102985458 0 -156.79878102985458 136.60799646937721 0 0 0 0 47.485937163019116 -173.07863160967554 0 -173.07863160967554 286.88393943020702 0 0 0 0 -298.55039416108684 171.19736409748452 0 171.19736409748452 282.80282952790731 0 0 0 0 304.78070005433165 -150.46206487051768 0 -150.46206487051768 312.43693176467968 0 0 0 0 852.31404063940863 100.21672416260458 0 100.21672416260458 389.29319058636111 0 0 0 0 1056.0699434044291 -341.24540500196599 0 -341.24540500196599 259.4947791726197 0 0 0 0 776.69670859054349 -221.52350095960719 0 -221.52350095960719 73.138658000465512 0 0 0 0 292.10024427942699 -102.93021430289446 0 -102.93021430289446 84.623990004766711 0 0 0 0 75.839747870754763 -200.04661835255956 0 -200.04661835255956 133.84217358078263 0 0 0 0 59.130473213909681 -80.734415092008931 0 -80.734415092008931 157.96412128919656 0 0 0 0 312.95713478684956 -106.47134971470587 0 -106.47134971470587 -92.455776587601576 0 0 0 0 298.50107785011187 -150.28622744978838 0 -150.28622744978838 -10.150756445504157 0 0 0 0 142.99970502199903 -194.5419554504133 0 -194.5419554504133 -2.5784896612342436 0 0 0 0 400.10754794518107 -183.36439884531137 0 -183.36439884531137 -28.241488124821444 0 0 0 0 522.66566597507153 107.63295737581575 0 107.63295737581575 -35.831887549367821 0 0 0 0 244.92697615933139 25.42524711907754 0 25.42524711907754 -214.60286257864936 0 0 0 0 268.21051379713572 -90.06364545913857 0 -90.06364545913857 -180.20800265948128 0 0 0 0 159.65803380737452 -116.10734012093417 0 -116.10734012093417 -92.259635153340326 0 0 0 0 173.73397235308403 -119.24139048975485 0 -119.24139048975485 -116.40035776581499 0 0 0 0 52.857505897908595 -155.01908018078393 0 -155.01908018078393 -65.389877941204759 0 0 0 0 126.02328839890652 3.1879563560678434 0 3.1879563560678434 -7.3424780703253418 0 0 0 0 31.795157133293259 -37.416903203536457 0 -37.416903203536457 -18.793308397321717 0 0 0 0 111.8672071170684 -175.05662118130385 0 -175.05662118130385 -74.486723241618165 0 0 0 0 99.726611782418331 -11.955139716145368 0 -11.955139716145368 -2.4612898402319843 0 0 0 0 42.326037472786425 -35.415721051547173 0 -35.415721051547173 -10.780643144928824 0 0 0 0 -189.85977619785194 -139.24709136146612 0 -139.24709136146612 55.196282557184531 0 0 0 0 105.41946887394806 5.7887928089669458 0 5.7887928089669458 -2.5270882440436253 0 0 0 0 91.452672686578978 -122.66525462063328 0 -122.66525462063328 -94.790163168694562 0 0 0 0 -116.015475406316 -66.491770971362712 0 -66.491770971362712 16.292742521264699 0 0 0 0 26.665132885927505 -96.186225942071815 0 -96.186225942071815 16.367207549250452 0 0 0 0 959.23197933672782 436.19441088229814 0 436.19441088229814 -75.161326039312826 0 0 0 0 93.542084784934559 493.89669182076796 0 493.89669182076796 -57.917388860971187 0 0 0 0 520.37992911260517 413.48220643740751 0 413.48220643740751 -334.09880938363131 0 0 0 0 926.31248846914968 -477.2081997495593 0 -477.2081997495593 -738.52744512500431 0 0 0 0 -88.081368530620239 -646.73583667635239 0 -646.73583667635239 -695.10675722613178 0 0 0 0 -198.88743663375499 -104.29882781605374 0 -104.29882781605374 351.16259132949017 0 0 0 0 -22.819997161539504 570.925493311933 0 570.925493311933 -515.26245960278811 0 0 0 0 -529.99080499828415 193.88744613266226 0 193.88744613266226 -332.99533596033666 0 0 0 0 43.227431499003004 2.5598773582187064 0 2.5598773582187064 -3.7933737822711286 0 0 0 0 484.87580552453801 219.67112086687871 0 219.67112086687871 -819.52487386904181 0 0 0 0 136.42711141717882 510.55910089460895 0 510.55910089460895 -491.85429771074359 0 0 0 0 -77.494018257606513 111.10112524589863 0 111.10112524589863 -83.71673747340563 0 0 0 0 499.39691483259662 832.91466792579376 0 832.91466792579376 172.97355712413264 0 0 0 0 540.90042997730052 878.22122083982777 0 878.22122083982777 117.31023204204757 0 0 0 0 529.39961164876877 1093.8788943322497 0 1093.8788943322497 302.44320728399725 0 0 0 0 491.95502479487914 313.09275309100212 0 313.09275309100212 -391.58766357902641 0 0 0 0 956.68495966307819 775.02481413638498 0 775.02481413638498 200.52561036635234 0 0 0 0 553.80974937969108 978.40161821317588 0 978.40161821317588 292.21125956475771 0 0 0 0 137.92102571196756 793.27766492560431 0 793.27766492560431 1232.4092146940293 0 0 0 0 856.93119382047007 1290.4379001844381 0 1290.4379001844381 1528.8341912014894 0 0 0 0 1039.8125538864369 796.73485932258382 0 796.73485932258382 333.18207927905951 0 0 0 0 1395.201722806989 770.7059218502709 0 770.7059218502709 296.50336522999669 0 0 0 0 2639.792795307987 795.74535741503723 0 795.74535741503723 119.24190471785369 0 0 0 0 1551.3757990176236 1408.9228934219846 0 1408.9228934219846 1037.5889333518517 0 0 0 0 2411.4609682633818 -259.57559735927543 0 -259.57559735927543 284.695658402753 0 0 0 0 1105.573095477994 43.653745058932543 0 43.653745058932543 319.57548364778995 0 0 0 0 1687.602406815713 17.682284693103611 0 17.682284693103611 75.441134105159108 0 0 0 0 774.5045445407427 143.7007415283295 0 143.7007415283295 113.96589419873635 0 0 0 0 1107.3373777605666 308.18972955795016 0 308.18972955795016 47.796387902972128 0 0 0 0 845.72326844136842 503.09761800733395 0 503.09761800733395 177.55276587211665 0 0 0 0 563.41575980285779 225.37465813507515 0 225.37465813507515 -25.457334087624986 0 0 0 0 443.33711318870701 154.65300449811184 0 154.65300449811184 18.282745328090186 0 0 0 0 263.55946549716191 233.63470841944729 0 233.63470841944729 1.6083775596853229 0 0 0 0 277.29661798395318 -42.932645510982184 0 -42.932645510982184 -128.00044576818073 0 0 0 0 -101.77005989933969 120.52372937976634 0 120.52372937976634 139.37233327407012 0 0 0 0 345.36619136222362 100.51261424627864 0 100.51261424627864 -323.52926130046581 0 0 0 0 414.32788213834647 603.33392222622024 0 603.33392222622024 417.41703200760458 0 0 0 0 411.32457311673716 749.33695565530434 0 749.33695565530434 205.45391890152518 0 0 0 0 1018.7543663846081 1281.7185027887208 0 1281.7185027887208 600.49890524239254 0 0 0 0 329.7236871484638 954.94430041814553 0 954.94430041814553 448.89704865542444 0 0 0 0 1796.2959222676145 -753.45024697342706 0 -753.45024697342706 356.13487873228405 0 0 0 0 -144.81050525826515 800.23751316398204 0 800.23751316398204 1026.4697773597927 0 0 0 0 17.001639019232897 10.738064711841973 0 10.738064711841973 8.0295649746606124 0 0 0 0 2159.3249479639817 470.13852839663832 0 470.13852839663832 160.40564408975115 0 0 0 0 835.10643051306215 -687.62368573318963 0 -687.62368573318963 899.51692202772028 0 0 0 0 1727.137038820998 724.28972878731292 0 724.28972878731292 -8.4908737671194103 0 0 0 0 1196.2853159169026 -18.700047501539302 0 -18.700047501539302 -221.3221044545171 0 0 0 0 663.58333128751474 -115.44025075644731 0 -115.44025075644731 -226.28345440367184 0 0 0 0 768.30795477155698 297.13927996487064 0 297.13927996487064 138.90045147965975 0 0 0 0 596.23100420267292 -437.12303924733396 0 -437.12303924733396 275.43159578281802 0 0 0 0 451.44300093194579 -112.0773502672007 0 -112.0773502672007 -6.027137042117829 0 0 0 0 362.44166108622449 -107.43314724738048 0 -107.43314724738048 -0.24188105520988756 0 0 0 0 48.165111327289466 27.939937166417032 0 27.939937166417032 16.244143800312102 0 0 0 0 398.58405578150814 -159.91237515523835 0 -159.91237515523835 85.5428373622035 0 0 0 0 226.04968621536318 -7.7364882023975952 0 -7.7364882023975952 -256.02429933374879 0 0 0 0 10.778992182607908 351.87118080381879 0 351.87118080381879 -393.08539926669573 0 0 0 0 189.56837740860647 89.077735957946516 0 89.077735957946516 -17.131411696071154 0 0 0 0 103.47651657199094 -44.497634882350667 0 -44.497634882350667 66.868441855895071 0 0 0 0 409.88844611860986 21.372747065664953 0 21.372747065664953 11.633989119784019 0 0 0 0 303.35659884681081 11.728540641533073 0 11.728540641533073 15.911302231792433 0 0 0 0 116.48417937502381 84.61341450290638 0 84.61341450290638 106.00041488523675 0 0 0 0 87.429727439870476 101.86998986599201 0 101.86998986599201 53.506748525867806 0 0 0 0 311.22219850472175 400.15871217067252 0 400.15871217067252 -73.18283713440178 0 0 0 0 6.3588477801677072 237.58742826897378 0 237.58742826897378 20.215227079839678 0 0 0 0 125.74618566489153 193.43955057740504 0 193.43955057740504 19.645209520906064 0 0 0 0 507.40744437702233 274.21965167563394 0 274.21965167563394 68.819479129855608 0 0 0 0 449.08521599627056 164.89866708724389 0 164.89866708724389 22.139098254821874 0 0 0 0 441.37715268640022 264.46120101668203 0 264.46120101668203 116.08892369188834 0 0 0 0 304.61900486299419 199.91372581031101 0 199.91372581031101 102.39395296291332 0 0 0 0 381.99911274234182 74.890005773093435 0 74.890005773093435 -21.5222620815548 0 0 0 0 466.7069422629138 146.44184445790415 0 146.44184445790415 34.835013365740451 0 0 0 0 514.75836381148838 78.576583607555222 0 78.576583607555222 -72.156025376114485 0 0 0 0 525.56000704459439 202.49127633885291 0 202.49127633885291 36.9706664796322 0 0 0 0 525.76548209905559 146.38610122999009 0 146.38610122999009 -25.24826728914195 0 0 0 0 569.28569430057541 194.19720252670595 0 194.19720252670595 3.3095864393653756 0 0 0 0 576.21124171371048 194.97330645192233 0 194.97330645192233 -9.3924868322465045 0 0 0 0 583.44321947619028 231.98936889811739 0 231.98936889811739 9.3705419108555361 0 0 0 0 586.64254099017126 204.53441624492734 0 204.53441624492734 -71.63381739343663 0 0 0 0 577.48348353053007 201.72451551030827 0 201.72451551030827 6.7907978757684759 0 0 0 0 590.36870235731476 124.11515315871566 0 124.11515315871566 -45.225617903881357 0 0 0 0 606.75310987202101 144.82677970053919 0 144.82677970053919 -83.386220343863897 0 0 0 0 621.70556067367215 -82.932059404410666 0 -82.932059404410666 -50.691623329677896 0 0 0 0 448.3524500002095 36.402376241261663 0 36.402376241261663 -63.263237928836588 0 0 0 0 458.22674110961088 61.52871601818515 0 61.52871601818515 -22.656614957213606 0 0 0 0 696.01484140457615 -53.964310267534074 0 -53.964310267534074 -223.6971282754439 0 0 0 0 693.28000697468997 -34.151348198464575 0 -34.151348198464575 -348.4498195555334 0 0 0 0 750.62104618319427 103.33316616331558 0 103.33316616331558 -199.54146584865134 0 0 0 0 678.84955904234448 20.686511454084211 0 20.686511454084211 -281.44510509838256 0 0 0 0 871.7305517177665 150.89788182475695 0 150.89788182475695 -274.7918089479453 0 0 0 0 304.57571340574577 -141.69108553584465 0 -141.69108553584465 -148.50677003011697 0 0 0 0 590.23599180566089 71.807831552639527 0 71.807831552639527 -288.34147263204977 0 0 0 0 108.91966949016205 8.4807063624830334 0 8.4807063624830334 19.764216008734365 0 0 0 0 54.643697228887646 -22.570063488798397 0 -22.570063488798397 -18.917812345741766 0 0 0 0 94.317083259142237 9.3500548539959709 0 9.3500548539959709 23.334443862426269 0 0 0 0 48.786732414606377 -15.536489166795036 0 -15.536489166795036 -6.1952458447995014 0 0 0 0 60.983151635687818 -13.864865375803134 0 -13.864865375803134 -10.487548488900487 0 0 0 0 69.052573961089365 -33.657503585548966 0 -33.657503585548966 -26.665088573103105 0 0 0 0 70.611497599726135 -25.880684682383503 0 -25.880684682383503 8.2886046743578845 0 0 0 0 48.135390117437055 -25.471254892031538 0 -25.471254892031538 -15.112662413683211 0 0 0 0 64.59109716690665 -16.498456494702559 0 -16.498456494702559 -12.959316395529527 0 0 0 0 59.920399297827515 -24.904764881027354 0 -24.904764881027354 -13.888873412037178 0 0 0 0 75.170537364669144 -63.568846325845925 0 -63.568846325845925 -26.958604917987032 0 0 0 0 137.04837876300735 3.3757605519040226 0 3.3757605519040226 -8.6792757096300193 0 0 0 0 113.53599047530952 -93.856791938633251 0 -93.856791938633251 -25.894277317078377 0 0 0 0 243.51593592509562 91.784313047895921 0 91.784313047895921 -110.78190678381907 0 0 0 0 117.45935234674653 -74.416598880756283 0 -74.416598880756283 -128.79832135396282 0 0 0 0 163.03531364026639 -77.191046664091118 0 -77.191046664091118 -253.74803833688566 0 0 0 0 216.02646590809309 29.534852287131798 0 29.534852287131798 -301.16903399517469 0 0 0 0 115.69790812505198 -21.063967637424867 0 -21.063967637424867 -210.94304150993412 0 0 0 0 69.937195128062001 41.893455543152498 0 41.893455543152498 21.549485211956032 0 0 0 0 76.738173757963523 66.823235396999735 0 66.823235396999735 -301.61353520752459 0 0 0 0 82.565541718529857 -63.995923427812158 0 -63.995923427812158 -253.64210377109157 0 0 0 0 50.596802885825561 -24.213570406959477 0 -24.213570406959477 -19.829091039231791 0 0 0 0 240.12568848477258 70.547826920785155 0 70.547826920785155 37.86497307974787 0 0 0 0 24.368635354218181 11.550184082667073 0 11.550184082667073 2.9947210538283286 0 0 0 0 104.7496270017582 14.609542361096828 0 14.609542361096828 17.218121004843852 0 0 0 0 221.01412422231624 103.97369744075695 0 103.97369744075695 47.869492024226929 0 0 0 0 168.75490591089329 104.2365101753021 0 104.2365101753021 48.211406076576168 0 0 0 0 83.563435942349315 50.870068634822076 0 50.870068634822076 21.019540793782859 0 0 0 0 107.30557952399977 13.289653546686168 0 13.289653546686168 27.190300010479405 0 0 0 0 84.797415594948689 30.343890942865983 0 30.343890942865983 16.479401711927494 0 0 0 0 7.1131268495824145 -29.926108017060535 0 -29.926108017060535 -18.111731979717213 0 0 0 0 8.9406734521783804 4.3975767931654772 0 4.3975767931654772 1.7107329821541342 0 0 0 0 127.15120382668101 25.147887706535585 0 25.147887706535585 14.023743075314997 0 0 0 0 45.303218464282764 0.097528874691349188 0 0.097528874691349188 3.7661748851580654 0 0 0 0 69.188089565694099 2.0783254296693485 0 2.0783254296693485 -0.16506678268251562 0 0 0 0 34.19456120640119 -24.270632464314289 0 -24.270632464314289 -12.105046276004481 0 0 0 0 61.185626435646554 36.342117600881465 0 36.342117600881465 34.289894703619211 0 0 0 0 30.150420547346769 -2.1998658722073827 0 -2.1998658722073827 8.7578860781951704 0 0 0 0 69.23137273084059 -10.816096849980987 0 -10.816096849980987 -21.446586485945872 0 0 0 0 67.26815847249236 25.510957135193166 0 25.510957135193166 4.5475741977825237 0 0 0 0 127.92668506700647 21.557678854485403 0 21.557678854485403 17.928417160030222 0 0 0 0 11.536379556054314 6.0603021608438041 0 6.0603021608438041 4.6516285913093647 0 0 0 0 63.463441789353965 18.919916898490555 0 18.919916898490555 49.168041814878961 0 0 0 0 131.60519817063505 24.442464117187797 0 24.442464117187797 65.282647755937433 0 0 0 0 261.16017096357245 1.7491453744751198 0 1.7491453744751198 88.821638558942368 0 0 0 0 123.51740674360917 125.96531745060292 0 125.96531745060292 89.30782687529063 0 0 0 0 12.977640565480073 14.343554039153595 0 14.343554039153595 -2.9984995490338875 0 0 0 0 48.914425756025594 27.187272131317513 0 27.187272131317513 48.474654983932851 0 0 0 0 106.69210688394378 -31.218734157495419 0 -31.218734157495419 77.005679311900167 0 0 0 0 382.90005837397803 10.79505610657236 0 10.79505610657236 -23.39198873418718 0 0 0 0 35.689826985650143 24.827676976520138 0 24.827676976520138 25.694694342098956 0 0 0 0 81.92348734621919 6.6289000181259325 0 6.6289000181259325 21.536419910220502 0 0 0 0 31.313933011617337 -7.8019021560558031 0 -7.8019021560558031 52.321179826162734 0 0 0 0 115.35271987578017 -10.179729894360207 0 -10.179729894360207 -13.726165447770654 0 0 0 0 38.2202548584537 48.658969225908095 0 48.658969225908095 -25.766207088294323 0 0 0 0 25.176182101455623 -12.918190224515953 0 -12.918190224515953 0.96771025998194204 0 0 0 0 -6.8053232070524246 -45.087302192827792 0 -45.087302192827792 20.273507204240104 0 0 0 0 63.704835105250822 14.297465036386711 0 14.297465036386711 27.305008855413689 0 0 0 0 26.071665517977422 -7.4556068586751394 0 -7.4556068586751394 6.0863743485149975 0 0 0 0 94.136811637188657 25.858911086746048 0 25.858911086746048 18.813277964966005 0 0 0 0 21.48598573505744 -22.449530165552432 0 -22.449530165552432 -12.165999743994384 0 0 0 0 56.214016829209868 -61.544497825966573 0 -61.544497825966573 18.041403329874811 0 0 0 0 55.771280395711074 -46.981397171222852 0 -46.981397171222852 27.425021897936858 0 0 0 0 93.633334246304003 -37.096672804364061 0 -37.096672804364061 -33.165983979140947 0 0 0 0 197.48606694988848 -39.415929620708084 0 -39.415929620708084 -21.555003839789606 0 0 0 0 121.47343575346167 20.373152194736122 0 20.373152194736122 -11.333330068151554 0 0 0 0 78.492098193688435 -25.331866832402739 0 -25.331866832402739 -21.742906568522812 0 0 0 0 40.575423388661875 -49.203558980731486 0 -49.203558980731486 -26.421996281024803 0 0 0 0 80.941090302978409 -9.322781919211593 0 -9.322781919211593 -30.204841557187251 0 0 0 0 84.01015389733584 -1.5824498571266759 0 -1.5824498571266759 -8.5829845197222312 0 0 0 0 80.634103568998398 -9.8563324499671126 0 -9.8563324499671126 -27.715110268914941 0 0 0 0 125.0521380949649 3.6273898998697405 0 3.6273898998697405 -28.012514884083089 0 0 0 0 79.609150237483846 17.050674862765163 0 17.050674862765163 1.0642127000755863 0 0 0 0 39.741280766669661 45.805960674651942 0 45.805960674651942 43.986359219679798 0 0 0 0 83.545233007978823 23.304710415130785 0 23.304710415130785 -14.089010272009546 0 0 0 0 129.37409414253489 34.897435901476456 0 34.897435901476456 -11.295662109550904 0 0 0 0 9.3305242387141334 -6.112944354550109 0 -6.112944354550109 16.749419595562813 0 0 0 0 37.121848283808504 -15.401720675915158 0 -15.401720675915158 -3.604266305343117 0 0 0 0 47.500327188785377 -49.537001957678171 0 -49.537001957678171 60.078619219256325 0 0 0 0 71.120771582900488 8.8849118619921228 0 8.8849118619921228 -5.768244656357183 0 0 0 0 -0.45515862160422671 -0.35177459452309279 0 -0.35177459452309279 0.59505956559742756 0 0 0 0 39.976897532360454 -39.938635482500104 0 -39.938635482500104 31.06797378874785 0 0 0 0 111.8246101319528 -125.93459599824973 0 -125.93459599824973 120.17232947823288 0 0 0 0 135.83430679923913 -96.134389806322133 0 -96.134389806322133 127.58501956323016 0 0 0 0 138.49843080202118 -106.09710156997016 0 -106.09710156997016 31.950477694600067 0 0 0 0 42.172960453310225 -55.965883751903448 0 -55.965883751903448 54.362489619512417 0 0 0 0 256.88328128459398 -205.5629406484577 0 -205.5629406484577 63.694146801756688 0 0 0 0 213.15870547147642 -73.601421985375509 0 -73.601421985375509 -71.466616935176262 0 0 0 0 148.52124705490678 -83.557152493509136 0 -83.557152493509136 -56.014372268369698 0 0 0 0 128.67091363188229 -44.007253378914584 0 -44.007253378914584 -23.259452682958454 0 0 0 0 157.06060186130344 -25.700170751466317 0 -25.700170751466317 -40.402615007616077 0 0 0 0 156.52143876849004 -17.696277418893828 0 -17.696277418893828 -105.85335035400431 0 0 0 0 138.1746161756455 4.4791901289731868 0 4.4791901289731868 -46.558094347144447 0 0 0 0 83.244415642315289 -41.879479829939555 0 -41.879479829939555 13.631919338846501 0 0 0 0 81.599697895289864 -50.349120779929535 0 -50.349120779929535 -22.411150742876544 0 0 0 0 92.28348859691323 -33.419546795665156 0 -33.419546795665156 -20.998195112269968 0 0 0 0 70.106134159963403 -16.287957906031124 0 -16.287957906031124 -13.95379954042528 0 0 0 0 44.188659557692596 -26.197721440216014 0 -26.197721440216014 -12.286884583126 0 0 0 0 72.449904382840032 -7.704103177185516 0 -7.704103177185516 -7.1768928700435026 0 0 0 0 90.202375559741995 -34.163343349770571 0 -34.163343349770571 -32.239308526470268 0 0 0 0 75.269446064579625 -21.245297725180855 0 -21.245297725180855 -7.8293779583215271 0 0 0 0 66.640776148386209 -21.447695056228241 0 -21.447695056228241 -14.651400731701621 0 0 0 0 99.29674426260317 11.014478566999514 0 11.014478566999514 -8.0691712785969685 0 0 0 0 88.322313330263569 -53.121149308786471 0 -53.121149308786471 -23.180669142606121 0 0 0 0 92.680327499721898 -36.075091899418908 0 -36.075091899418908 -43.338071214498314 0 0 0 0 120.78539458333398 -18.094091915987065 0 -18.094091915987065 -37.972953717393466 0 0 0 0 132.817880074399 -15.925234183150337 0 -15.925234183150337 -17.523752755529358 0 0 0 0 145.38290284924733 -0.26835542812841595 0 -0.26835542812841595 -47.651817587436881 0 0 0 0 83.36736193356046 6.2602562151479333 0 6.2602562151479333 -20.674523752928138 0 0 0 0 127.23570815439598 -6.5023937483267673 0 -6.5023937483267673 4.9440654291279316 0 0 0 0 89.283797877940373 5.4635494694376732 0 5.4635494694376732 -5.2561185901241796 0 0 0 0 86.602251031546388 -22.242702949670552 0 -22.242702949670552 -9.0482179020421452 0 0 0 0 140.1020454419413 -1.6878207861805095 0 -1.6878207861805095 -28.992968330426606 0 0 0 0 89.717477430895087 -37.908906931912014 0 -37.908906931912014 -22.204067261300111 0 0 0 0 102.24403306980639 -14.720589758141955 0 -14.720589758141955 -16.830206101732301 0 0 0 0 66.368460440292722 -18.766760508222241 0 -18.766760508222241 -7.8413446087872929 0 0 0 0 102.81376941556118 -14.722639122883663 0 -14.722639122883663 -21.420303820483696 0 0 0 0 65.929577922314309 -6.6088772229869086 0 -6.6088772229869086 -10.132227501705666 0 0 0 0 71.574432922250708 1.0387568014612043 0 1.0387568014612043 -20.306422327981863 0 0 0 0 56.600864110398106 -3.5844603136520163 0 -3.5844603136520163 -9.2489285726951493 0 0 0 0 164.82755643559722 -33.767360451937293 0 -33.767360451937293 -15.228667904168105 0 0 0 0 99.820826465607752 -10.838198025091458 0 -10.838198025091458 -11.174307611129962 0 0 0 0 112.28618673050551 -17.788824732746548 0 -17.788824732746548 -8.9228445804487819 0 0 0 0 21.616694951956188 4.3522830346542776 0 4.3522830346542776 -14.504408938493503 0 0 0 0 100.27833089797423 -8.9490283476534955 0 -8.9490283476534955 -18.51613495285369 0 0 0 0 117.59459605583015 -5.6760406887929094 0 -5.6760406887929094 -13.316051141352546 0 0 0 0 163.78836485099691 -13.32611407199829 0 -13.32611407199829 -28.476660801768503 0 0 0 0 159.44334564290966 -13.028422968877294 0 -13.028422968877294 -20.097077481600763 0 0 0 0 106.77727647097345 8.0349642030645327 0 8.0349642030645327 -18.328852372998881 0 0 0 0 180.33625810523245 46.989385081710907 0 46.989385081710907 -4.0624704994415879 0 0 0 0 143.39813138672616 4.0316641785275351 0 4.0316641785275351 -20.328537453380932 0 0 0 0 80.288268503939435 -15.962635242635997 0 -15.962635242635997 -7.2276938016975691 0 0 0 0 83.196088889354655 4.0930212895869795 0 4.0930212895869795 -4.7993191787671243 0 0 0 0 118.48890606248733 -17.664125709309701 0 -17.664125709309701 -24.99303926157404 0 0 0 0 70.775116851625214 -29.831234048661955 0 -29.831234048661955 -17.016589438031925 0 0 0 0 124.12202461653578 -24.018486619482246 0 -24.018486619482246 18.325874359678892 0 0 0 0 138.91157439062408 -43.9122758367605 0 -43.9122758367605 34.011603042677052 0 0 0 0 88.967937688317761 -0.58354677585521131 0 -0.58354677585521131 4.3549787846432082 0 0 0 0 86.186529275491012 -9.2545165451180083 0 -9.2545165451180083 47.814093780621079 0 0 0 0 48.813027423217136 -17.816393627909292 0 -17.816393627909292 50.440051416330789 0 0 0 0 73.971442898387977 -40.011950542246495 0 -40.011950542246495 39.446722313309692 0 0 0 0 110.19172759405774 -32.138069314801669 0 -32.138069314801669 36.307310166799653 0 0 0 0 75.1687130360624 -80.155399334816138 0 -80.155399334816138 -29.268930876468403 0 0 0 0 113.88374654953441 -35.845371938139351 0 -35.845371938139351 32.892188618870932 0 0 0 0 142.51805636693462 -20.817115635074515 0 -20.817115635074515 28.993401130031657 0 0 0 0 239.52382974314605 -54.40077751955323 0 -54.40077751955323 16.046045484240494 0 0 0 0 157.53710969378153 -55.487528956815595 0 -55.487528956815595 80.691537435757709 0 0 0 0 -0.9432432180547039 -26.375528115606357 0 -26.375528115606357 41.105212019084092 0 0 0 0 0.58845084340950393 -1.8707869407044022 0 -1.8707869407044022 -1.4071257901830556 0 0 0 0 179.77026785237831 79.593568565144778 0 79.593568565144778 40.909965206510606 0 0 0 0 5.7338868398101495 -19.945927232661543 0 -19.945927232661543 -3.3105299308644511 0 0 0 0 96.868000236590888 48.222184271816786 0 48.222184271816786 4.3267678302941022 0 0 0 0 -50.045031799985736 -10.190188439730946 0 -10.190188439730946 32.686054573836373 0 0 0 0 65.403147785196737 3.0159472889906027 0 3.0159472889906027 -2.8467234489969506 0 0 0 0 162.1492164689771 67.305044254209861 0 67.305044254209861 2.3012430675591986 0 0 0 0 140.91786159913863 18.628528420004955 0 18.628528420004955 -3.4480936087875307 0 0 0 0 17.44627306656184 -3.1209288515070597 0 -3.1209288515070597 0.17709658185225585 0 0 0 0 167.77746260365529 -20.082500299312869 0 -20.082500299312869 -10.927820101488123 0 0 0 0 167.3078729330191 -12.765127742444747 0 -12.765127742444747 -4.1348288439221506 0 0 0 0 252.2099062115376 38.297063409241218 0 38.297063409241218 -1.1605386557548627 0 0 0 0 161.70116133213742 22.389791929001149 0 22.389791929001149 -15.16046213875461 0 0 0 0 151.99281601619441 6.2231924531149616 0 6.2231924531149616 -29.982286048156311 0 0 0 0 82.14511316541325 8.1007070508367036 0 8.1007070508367036 -6.6479146446688349 0 0 0 0 132.56751780281775 -5.1979942339353329 0 -5.1979942339353329 -16.808534600926805 0 0 0 0 37.118945780613636 6.9501174171251492 0 6.9501174171251492 -5.7025541850934713 0 0 0 0 69.34160021821981 2.5651967458702245 0 2.5651967458702245 -10.55197555314885 0 0 0 0 125.44342267779939 3.5612921437423211 0 3.5612921437423211 -21.534674909150453 0 0 0 0 135.11286053854565 -2.0039147556481112 0 -2.0039147556481112 -40.852207132365493 0 0 0 0 33.508300623798277 -6.80335488489618 0 -6.80335488489618 -16.443482183119386 0 0 0 0 153.42781168039073 7.7355926543618807 0 7.7355926543618807 -27.566376907845097 0 0 0 0 141.0989725216532 -7.9499467525039336 0 -7.9499467525039336 -36.308973290102585 0 0 0 0 156.91173007314501 20.437877562734684 0 20.437877562734684 -23.382497979251639 0 0 0 0 57.276977471968763 9.265702582685023 0 9.265702582685023 -16.587240935673051 0 0 0 0 5.1109287904940288 5.308803167121404 0 5.308803167121404 -6.6497999664969196 0 0 0 0 44.602966234175256 6.0110826453085338 0 6.0110826453085338 -26.458553422681689 0 0 0 0 79.096391308363309 -21.769475331368596 0 -21.769475331368596 -9.0914660931057369 0 0 0 0 54.733613236219441 7.2481171232768169 0 7.2481171232768169 -11.688423929696111 0 0 0 0 87.494145223594387 -42.317408230975161 0 -42.317408230975161 -50.868500565280556 0 0 0 0 154.9145547899534 16.638156032258621 0 16.638156032258621 -83.635501766407856 0 0 0 0 8.734194957849553 -15.186019525883584 0 -15.186019525883584 -3.6978811577843196 0 0 0 0 115.54601606026088 -12.668681471533318 0 -12.668681471533318 -6.4700532018462855 0 0 0 0 145.86477952977111 -17.862837639803956 0 -17.862837639803956 -11.326402054398386 0 0 0 0 210.7924269911673 -113.79891028525708 0 -113.79891028525708 -91.341602878553658 0 0 0 0 3.3390133782086195 7.0997897723650567 0 7.0997897723650567 11.195520789228794 0 0 0 0 337.4396153310372 -27.953408666681753 0 -27.953408666681753 1.5866615653571898 0 0 0 0 136.92008106043795 6.410148444635638 0 6.410148444635638 96.940586859940368 0 0 0 0 265.33671496126772 115.94087421190255 0 115.94087421190255 31.843036077254737 0 0 0 0 229.14822509579244 79.309092181599112 0 79.309092181599112 6.6188813607159318 0 0 0 0 188.67625423261961 -13.353776229753283 0 -13.353776229753283 -2.8295954265554997 0 0 0 0 177.53186677564372 19.742643999432971 0 19.742643999432971 -20.811735811364997 0 0 0 0 277.28252652102674 25.152090697515632 0 25.152090697515632 -36.835917973323149 0 0 0 0 245.36267515360669 -27.549301304969049 0 -27.549301304969049 -121.36650269397796 0 0 0 0 267.80350903926592 155.96559889522132 0 155.96559889522132 84.92988990790127 0 0 0 0 180.77760034483799 73.062093216087078 0 73.062093216087078 14.812690042303757 0 0 0 0 110.6175536189985 44.082681586550393 0 44.082681586550393 -114.31265389801683 0 0 0 0 88.477829712457606 1.1301739564208546 0 1.1301739564208546 8.5804325867060669 0 0 0 0 99.62313873966923 -17.189565372211732 0 -17.189565372211732 -24.65066350606142 0 0 0 0 4.6823745133373933 -7.9026299298256504 0 -7.9026299298256504 -17.513204116586557 0 0 0 0 -2.7494587500370642 -3.0877622259883282 0 -3.0877622259883282 -4.5529512473448577 0 0 0 0 -267.65076680693892 340.30702972403424 0 340.30702972403424 -115.161048345778 0 0 0 0 230.17881897975894 -28.626707322713628 0 -28.626707322713628 -28.503089708387506 0 0 0 0 100.52604875103862 -17.165306392154434 0 -17.165306392154434 -129.39133721080896 0 0 0 0 196.44533823333768 23.170118152701434 0 23.170118152701434 -195.33842881156488 0 0 0 0 275.87735913855431 -120.56502633785658 0 -120.56502633785658 -101.45732970376139 0 0 0 0 291.68117740624257 -70.053841272428883 0 -70.053841272428883 -45.501993955499529 0 0 0 0 -372.51897102902876 -89.842643367816436 0 -89.842643367816436 296.81163153019816 0 0 0 0 482.24199101535669 393.71583914351618 0 393.71583914351618 -320.27008720693357 0 0 0 0 531.59587924812513 647.34813696351614 0 647.34813696351614 607.57970588028002 0 0 0 0 5.5427831351153429 0.72915953591617466 0 0.72915953591617466 -1.0556290565046034 0 0 0 0 685.84952673527005 -234.79677054209606 0 -234.79677054209606 21.701505797427217 0 0 0 0 244.4318150335821 -234.98040463507982 0 -234.98040463507982 295.24643269295484 0 0 0 0 -92.561315253682551 41.116555365231306 0 41.116555365231306 17.15110979798601 0 0 0 0 16.039359091381471 -0.84874521809344117 0 -0.84874521809344117 -2.0430884455359246 0 0 0 0 346.30398753625923 369.9079760538234 0 369.9079760538234 179.95749920688036 0 0 0 0 532.71720235598332 282.95181470150055 0 282.95181470150055 -255.57974531922036 0 0 0 0 142.57608782848547 -131.94715431167788 0 -131.94715431167788 -134.14452665877889 0 0 0 0 188.69590453548881 407.49894776930887 0 407.49894776930887 323.25080842019906 0 0 0 0 42.580797383394383 346.31331580947472 0 346.31331580947472 423.71732330361192 0 0 0 0 131.65301604092747 243.32804184898828 0 243.32804184898828 765.03214200382899 0 0 0 0 153.83416731156285 275.40615554941621 0 275.40615554941621 331.31144201348252 0 0 0 0 36.899671306062373 215.17217499651451 0 215.17217499651451 446.31121298487051 0 0 0 0 121.62157544333604 21.445703758552554 0 21.445703758552554 287.27099994378477 0 0 0 0 89.25677152890421 108.84605289552792 0 108.84605289552792 101.10461238216885 0 0 0 0 306.34492632938418 235.28327846714365 0 235.28327846714365 190.32449485872348 0 0 0 0 97.808313000990893 99.782706831072574 0 99.782706831072574 184.97069496537705 0 0 0 0 373.74444834651513 79.265588813545946 0 79.265588813545946 -95.422148296695013 0 0 0 0 -5.8077202689237311 -4.6022537028056831 0 -4.6022537028056831 88.92234264495346 0 0 0 0 160.68370526182844 68.893830822765722 0 68.893830822765722 -79.5690337191445 0 0 0 0 869.19335712978864 365.02283114570764 0 365.02283114570764 -67.727485412691749 0 0 0 0 473.21357991163677 215.31732390096022 0 215.31732390096022 278.60502323283959 0 0 0 0 408.0847877237984 361.64014474660951 0 361.64014474660951 31.78430292117082 0 0 0 0 833.52274323029997 570.69830427272154 0 570.69830427272154 281.02576561307342 0 0 0 0 718.31380513760087 499.93667517083759 0 499.93667517083759 243.7790755644437 0 0 0 0 554.24034823486727 556.74669814193976 0 556.74669814193976 387.25603651224901 0 0 0 0 11.296087009559187 0.48189951306580525 0 0.48189951306580525 -0.036714180533883312 0 0 0 0 669.1967437666608 618.86427555266278 0 618.86427555266278 417.23061065637103 0 0 0 0 702.53499277688388 -49.177051558779567 0 -49.177051558779567 344.24246764225927 0 0 0 0 1064.3726988028793 390.5067305241605 0 390.5067305241605 152.30724665263006 0 0 0 0 751.70116123175467 -189.22414439635509 0 -189.22414439635509 40.361354140379262 0 0 0 0 394.02828917003353 -24.89679282760153 0 -24.89679282760153 218.6808871238843 0 0 0 0 389.94641487203626 -243.76767269958009 0 -243.76767269958009 98.381816813307523 0 0 0 0 -40.227725486758573 81.981772885828377 0 81.981772885828377 42.997827854650041 0 0 0 0 -13.112117862365267 -145.02097659907486 0 -145.02097659907486 263.01945756069381 0 0 0 0 -7.9984886002639541 -19.670498499458972 0 -19.670498499458972 163.19183293899505 0 0 0 0 19.099118547925173 19.050021959873789 0 19.050021959873789 -1.0473790099713369 0 0 0 0 51.864371281473723 33.791603138008213 0 33.791603138008213 -76.230563524577519 0 0 0 0 68.396987143467413 10.481650661116873 0 10.481650661116873 9.8656147205272191 0 0 0 0 27.92945954395492 1.7368060927782807 0 1.7368060927782807 0.59371099095833024 0 0 0 0 12.011994684903442 4.5797242094170585 0 4.5797242094170585 5.6714267127713569 0 0 0 0 4.2001744581502862 6.5801099503396472 0 6.5801099503396472 32.214842003915692 0 0 0 0 11.508780584030319 -6.1699133713959782 0 -6.1699133713959782 3.2257157443518736 0 0 0 0 2.1566046129504386 -1.0992637189420407 0 -1.0992637189420407 1.2080595887264423 0 0 0 0 0.92132600109877671 -2.4763721572943211 0 -2.4763721572943211 1.0489093708374764 0 0 0 0 13.775076129968511 -61.697823617168979 0 -61.697823617168979 17.758418171828453 0 0 0 0 15.879092620132724 2.2621381011886115 0 2.2621381011886115 -4.9479237444511455 0 0 0 0 13.268740475628874 7.4488041062631964 0 7.4488041062631964 44.43112675002385 0 0 0 0 23.802249312589993 9.1488935254974422 0 9.1488935254974422 -1.1551447575799045 0 0 0 0 30.217977162403571 4.0306684050940973 0 4.0306684050940973 -2.3000064791981494 0 0 0 0 32.259899525131914 -17.106068370934736 0 -17.106068370934736 -9.0823133868304922 0 0 0 0 21.129256022832124 0.47463241642799403 0 0.47463241642799403 -5.4682720340006199 0 0 0 0 22.685637806667728 16.146116166596926 0 16.146116166596926 -20.919884556729812 0 0 0 0 23.958952383048853 1.5392669666612662 0 1.5392669666612662 -1.6837775744957302 0 0 0 0 53.433496681216639 -67.28469400029644 0 -67.28469400029644 -76.238500847281102 0 0 0 0 55.041850445467873 -7.7532155921847874 0 -7.7532155921847874 -2.5676888977695782 0 0 0 0 52.648875464685261 23.898086348120614 0 23.898086348120614 -86.602773558748595 0 0 0 0 36.17533777614517 -6.2390317851866257 0 -6.2390317851866257 -6.5563361492204422 0 0 0 0 22.608997235698666 -10.811522571194033 0 -10.811522571194033 -2.4043251975880295 0 0 0 0 13.929350072947273 30.945736725907409 0 30.945736725907409 -40.387681235210039 0 0 0 0 68.173048563789052 -20.485870133946719 0 -20.485870133946719 18.332417198819712 0 0 0 0 9.2978315454511034 -5.8228427143658053 0 -5.8228427143658053 -12.252583002575925 0 0 0 0 80.030504862079397 -6.5012173723407614 0 -6.5012173723407614 -29.936912794173622 0 0 0 0 181.58763696531241 70.112696765785586 0 70.112696765785586 66.462599553070504 0 0 0 0 -123.43301919446822 151.40434508155795 0 151.40434508155795 -148.53864937824073 0 0 0 0 -2.0009790480691834 -2.7817650702191088 0 -2.7817650702191088 -3.5107047669966818 0 0 0 0 41.3502640924562 45.632197168105449 0 45.632197168105449 -32.546078191626293 0 0 0 0 -53.573444218789518 54.186754429179928 0 54.186754429179928 -24.253571794395612 0 0 0 0 264.33436635150429 -123.41303327516016 0 -123.41303327516016 28.444139359467954 0 0 0 0 -1.8936370131468721 215.65228950973483 0 215.65228950973483 435.55763850278345 0 0 0 0 0.34321598742639026 3.9988542062201873 0 3.9988542062201873 5.0455336104319883 0 0 0 0 64.532593660977 41.713079780448425 0 41.713079780448425 -59.009359517242046 0 0 0 0 111.58047099517717 -8.3989160606924997 0 -8.3989160606924997 -49.195240578698986 0 0 0 0 695.20954446893302 627.74228974022662 0 627.74228974022662 126.79499250423123 0 0 0 0 555.19503660313785 486.79012946162584 0 486.79012946162584 12.45189841885167 0 0 0 0 688.64775448580622 476.77777808849532 0 476.77777808849532 -179.58931762492648 0 0 0 0 408.91372355059138 168.18276837427629 0 168.18276837427629 -384.10153840645944 0 0 0 0 874.76456898760807 332.28462067308283 0 332.28462067308283 -165.09739478965093 0 0 0 0 539.99782010087802 463.369253338833 0 463.369253338833 -201.90320760832674 0 0 0 0 704.72974382919347 680.83758268861766 0 680.83758268861766 8.3780620310317317 0 0 0 0 456.13276522303931 465.79435673649823 0 465.79435673649823 -177.52597012643309 0 0 0 0 85.95863081979769 45.365771397483059 0 45.365771397483059 -359.11138938503973 0 0 0 0 327.99228491491522 -255.38606536273437 0 -255.38606536273437 -225.25956550972842 0 0 0 0 172.45038740398741 -84.977445759424882 0 -84.977445759424882 -174.53832784654878 0 0 0 0 190.05067710224466 -193.86642012716038 0 -193.86642012716038 -85.849246597190358 0 0 0 0 640.93087849422591 -83.801964828766359 0 -83.801964828766359 -61.048366196262577 0 0 0 0 288.6312903999933 -459.7851525094502 0 -459.7851525094502 79.835562196847604 0 0 0 0 -36.194399359811541 -387.88690325823586 0 -387.88690325823586 149.76826196958427 0 0 0 0 138.93851657019695 -324.68163622632892 0 -324.68163622632892 31.460545242075568 0 0 0 0 71.878953535342589 -274.4785156748203 0 -274.4785156748203 15.650786526806769 0 0 0 0 -251.36680680018617 -97.930650985412285 0 -97.930650985412285 7.2357648203251301 0 0 0 0 -159.44495685687798 -337.78332736532093 0 -337.78332736532093 177.130564386076 0 0 0 0 -165.28906866152101 -368.3336068387116 0 -368.3336068387116 296.02162869596941 0 0 0 0 536.15030232997378 -338.11208734926913 0 -338.11208734926913 57.130699516797904 0 0 0 0 353.43815054972947 -596.62096859923258 0 -596.62096859923258 295.58586381199348 0 0 0 0 904.40129177892595 -96.859927791018663 0 -96.859927791018663 129.65697378608456 0 0 0 0 855.55543721964932 -462.90899483178509 0 -462.90899483178509 -33.738033909605292 0 0 0 0 1091.7685106018616 -236.98707577885398 0 -236.98707577885398 -89.034215111274534 0 0 0 0 1992.114159096207 -512.98914344029799 0 -512.98914344029799 154.5759735636384 0 0 0 0 2000.0800598776259 -698.67679028938437 0 -698.67679028938437 1494.6698280012715 0 0 0 0 1223.7847646173759 19.341342778752733 0 19.341342778752733 1095.0147060390445 0 0 0 0 654.35581692971755 -533.67219398772068 0 -533.67219398772068 842.35130210415809 0 0 0 0 754.29478907721932 -580.00555497558889 0 -580.00555497558889 1135.3660653183179 0 0 0 0 -22.464745367848082 48.25553398399461 0 48.25553398399461 848.77385180470628 0 0 0 0 -419.72211995107136 -593.58077769188048 0 -593.58077769188048 -174.80180017871317 0 0 0 0 798.10402047677781 -287.73193699161857 0 -287.73193699161857 235.21791429335281 0 0 0 0 124.29958774515035 322.49212381786083 0 322.49212381786083 352.64989301059904 0 0 0 0 2169.4084117764796 569.79996407810506 0 569.79996407810506 -20.428298125505535 0 0 0 0 1010.7856833669066 1077.2927462411099 0 1077.2927462411099 971.65513681151788 0 0 0 0 990.39790896519662 509.19527812439947 0 509.19527812439947 46.15187107157908 0 0 0 0 3331.6001460523985 726.95826374465832 0 726.95826374465832 -296.92912248314315 0 0 0 0 10.766461353233865 3.5485043559012155 0 3.5485043559012155 -2.1492023059587559 0 0 0 0 659.00583486477262 -313.28293823793138 0 -313.28293823793138 -655.81157891550902 0 0 0 0 -379.2492852775249 56.795189839433988 0 56.795189839433988 42.808050994477526 0 0 0 0 99.96487601242552 -18.329541399494701 0 -18.329541399494701 32.652082393890169 0 0 0 0 18.043657450558385 14.225543325047511 0 14.225543325047511 -346.15868560049421 0 0 0 0 278.10717969158213 138.31059563027929 0 138.31059563027929 -237.25876455784601 0 0 0 0 21.818326871362387 4.2004697315420927 0 4.2004697315420927 -4.2265386508566927 0 0 0 0 32.035188015957829 224.0360987265185 0 224.0360987265185 20.591911375908239 0 0 0 0 115.6381419282261 108.37851655858503 0 108.37851655858503 -48.354107707522417 0 0 0 0 126.42017546200077 149.90737479122799 0 149.90737479122799 -7.7218016923534378 0 0 0 0 -111.71811710754264 18.173589611553325 0 18.173589611553325 12.172131300183537 0 0 0 0 319.15204965742305 64.552353347260578 0 64.552353347260578 -44.994137936479092 0 0 0 0 328.19698563097336 20.988755423599287 0 20.988755423599287 20.096715740954096 0 0 0 0 371.72582728290581 105.84237997271339 0 105.84237997271339 -54.757320208831516 0 0 0 0 323.97123476145498 44.876697826304735 0 44.876697826304735 2.1533995702338871 0 0 0 0 31.569987583839975 20.302829196220046 0 20.302829196220046 -35.821676719540847 0 0 0 0 -10.124243595389999 69.30652155505777 0 69.30652155505777 -67.803063642702909 0 0 0 0 2.7974639845835441 1.2655431681297671 0 1.2655431681297671 4.4089840543849164 0 0 0 0 -98.677811333080172 36.176331354776266 0 36.176331354776266 -73.86771738370453 0 0 0 0 13.439968892140314 126.51229001581396 0 126.51229001581396 -8.8269629432434158 0 0 0 0 114.18951962063147 330.48090486590809 0 330.48090486590809 -33.662392166395875 0 0 0 0 -226.22030378969794 129.36501936583227 0 129.36501936583227 380.90471498015177 0 0 0 0 455.04639117838815 208.86736103329895 0 208.86736103329895 -140.59691761396243 0 0 0 0 531.8066939857672 -74.585926396794093 0 -74.585926396794093 -41.092216346485657 0 0 0 0 20.179648703619648 3.9971191773332961 0 3.9971191773332961 -4.3514523021458835 0 0 0 0 -165.46463450297597 138.40838456454867 0 138.40838456454867 161.9323429042488 0 0 0 0 -1.3906876725053223 -2.0259613990198346 0 -2.0259613990198346 3.3777434913442406 0 0 0 0 782.87523554686049 -104.62917122584258 0 -104.62917122584258 -104.20794316172214 0 0 0 0 -240.59923267949489 45.06351697250102 0 45.06351697250102 61.017661004210822 0 0 0 0 160.74001877158298 -102.99286218524139 0 -102.99286218524139 -674.09820506385768 0 0 0 0 4.136085347054177 90.627856341027837 0 90.627856341027837 -456.07897307635358 0 0 0 0 9.0314913943388433 3.1178765946972931 0 3.1178765946972931 -2.6376487439432807 0 0 0 0 -36.557895005607861 497.18420910156237 0 497.18420910156237 546.65058480502921 0 0 0 0 184.71217676378728 -202.90033051052797 0 -202.90033051052797 -1015.3738131289265 0 0 0 0 -198.36090633438289 -145.96966978960336 0 -145.96966978960336 -453.13798726391906 0 0 0 0 -86.347124074178282 -265.38032680096421 0 -265.38032680096421 -651.44686855974214 0 0 0 0 40.676500375142496 -39.16585125588972 0 -39.16585125588972 -209.52994753689563 0 0 0 0 76.684161076380406 -46.388989256545756 0 -46.388989256545756 -694.44231805588697 0 0 0 0 114.78034080418001 -10.121403977720547 0 -10.121403977720547 -304.01032472097995 0 0 0 0 -59.433972720478778 70.500657911814415 0 70.500657911814415 -341.18865187983374 0 0 0 0 -41.860195430370368 85.091770445707425 0 85.091770445707425 -72.274416845251835 0 0 0 0 38.618023860284666 157.26009919806211 0 157.26009919806211 -105.87459190721347 0 0 0 0 130.505560625621 -32.970215902520067 0 -32.970215902520067 -347.37406270417705 0 0 0 0 361.87257183928159 136.07159566763585 0 136.07159566763585 -145.12378105561857 0 0 0 0 515.14594639028655 343.98455514829584 0 343.98455514829584 -66.530682610313931 0 0 0 0 509.05563803433324 387.62081721293271 0 387.62081721293271 -174.26860815156033 0 0 0 0 173.14823704372975 258.48657424794874 0 258.48657424794874 -99.601343859597364 0 0 0 0 501.80398485616206 302.88745961310269 0 302.88745961310269 -234.60910123556459 0 0 0 0 -3.0902364721187041 -89.015410211887684 0 -89.015410211887684 -334.96716462372569 0 0 0 0 247.49039471766446 219.96338594479585 0 219.96338594479585 -200.07467144197835 0 0 0 0 632.5231949711042 87.97431943726329 0 87.97431943726329 -484.07981998709874 0 0 0 0 -140.98868364925875 222.01429521420596 0 222.01429521420596 54.293868540303265 0 0 0 0 70.91311317797215 -37.885495410915553 0 -37.885495410915553 -23.514091188961224 0 0 0 0 332.46239706168126 211.73450661955758 0 211.73450661955758 28.828588423546535 0 0 0 0 303.99989924138936 119.81548476409807 0 119.81548476409807 22.522064734282139 0 0 0 0 12.823155378571457 -9.8124040482783528 0 -9.8124040482783528 -0.47173568892723949 0 0 0 0 355.46460299472528 187.27766555012113 0 187.27766555012113 -38.482501711998339 0 0 0 0 330.22652300338086 198.29092040081923 0 198.29092040081923 52.370489324124719 0 0 0 0 370.43102276555146 -124.97976816840674 0 -124.97976816840674 -641.89223809430587 0 0 0 0 -269.74901901797421 -934.76815149808863 0 -934.76815149808863 69.748364486637001 0 0 0 0 239.31209798016062 247.77754892227131 0 247.77754892227131 42.715054544776649 0 0 0 0 362.04496839868443 63.89103022043173 0 63.89103022043173 309.93113745237861 0 0 0 0 -410.75600453796505 724.86753628908809 0 724.86753628908809 -34.480896346222835 0 0 0 0 1722.2706649333268 -150.01037153783454 0 -150.01037153783454 62.216145838995999 0 0 0 0 188.87394871766082 -437.37356784776739 0 -437.37356784776739 997.47338107054384 0 0 0 0 286.39023193773755 811.10564372287809 0 811.10564372287809 1083.9093017819691 0 0 0 0 785.21537767614063 1507.9233842675058 0 1507.9233842675058 -12.17888823560952 0 0 0 0 7.2590059627645047 4.4897576475221896 0 4.4897576475221896 0.84257094600550531 0 0 0 0 998.47710632887538 -187.03772015430945 0 -187.03772015430945 -270.5882040411152 0 0 0 0 934.32073203689288 678.1515121001753 0 678.1515121001753 182.51928041343763 0 0 0 0 1236.1174448914826 348.47265432048971 0 348.47265432048971 -196.00143985006798 0 0 0 0 713.94859687927237 319.1538680706949 0 319.1538680706949 17.305405771392543 0 0 0 0 465.41203860688256 293.43283224583956 0 293.43283224583956 19.220766248898144 0 0 0 0 0.22486518237928976 513.08254759047122 0 513.08254759047122 893.40700537903103 0 0 0 0 -518.83402427214605 21.509853462288447 0 21.509853462288447 802.63455787322528 0 0 0 0 383.66453513616943 303.89503923442999 0 303.89503923442999 173.21046226208273 0 0 0 0 -1071.4266083875082 291.5817058424218 0 291.5817058424218 688.61370751571303 0 0 0 0 753.08863757664221 466.9026332313988 0 466.9026332313988 47.201497181134982 0 0 0 0 5.5823829353634977 -4.8525186052461109 0 -4.8525186052461109 2.1284683029313669 0 0 0 0 956.62173457189056 417.15468668819267 0 417.15468668819267 -75.613016011157015 0 0 0 0 -618.3760254423687 -416.56290302673733 0 -416.56290302673733 432.21973287062065 0 0 0 0 81.655570734132198 287.3425604790682 0 287.3425604790682 78.991988849436893 0 0 0 0 453.51189489422541 376.91821251054535 0 376.91821251054535 -117.5185963043441 0 0 0 0 865.89103525962855 272.00926460389201 0 272.00926460389201 -173.71124026961843 0 0 0 0 1234.3068870447605 -279.5814650112643 0 -279.5814650112643 142.76431233129551 0 0 0 0 746.96879548736615 47.658770434085454 0 47.658770434085454 6.5336723224609159 0 0 0 0 371.76871859272069 110.69502535218089 0 110.69502535218089 -1.4015462752904568 0 0 0 0 78.720387605178985 -347.7809644267345 0 -347.7809644267345 -270.85716678023164 0 0 0 0 -146.23641015424982 -279.9743386437342 0 -279.9743386437342 -23.716570745054923 0 0 0 0 126.56911054272496 -15.522508579784699 0 -15.522508579784699 232.34564063384096 0 0 0 0 434.69695413704903 90.857010913090562 0 90.857010913090562 39.992993738957011 0 0 0 0 443.89672637029435 270.29819910932929 0 270.29819910932929 149.10744160039576 0 0 0 0 585.72499423906265 21.671121613590003 0 21.671121613590003 -43.865878227301437 0 0 0 0 170.33546921919333 -204.08309261533941 0 -204.08309261533941 -491.46982182495412 0 0 0 0 204.23229764258576 -316.60865333125003 0 -316.60865333125003 -289.83929704244656 0 0 0 0 185.90712530913879 -297.41525204802929 0 -297.41525204802929 -171.89938148882356 0 0 0 0 -113.41025212779641 459.60175954338047 0 459.60175954338047 -1001.1695706398459 0 0 0 0 686.56517568939671 153.43117217297413 0 153.43117217297413 -50.004516249573498 0 0 0 0 2916.5265321428305 426.26172123510332 0 426.26172123510332 -1018.1727011347575 0 0 0 0 442.02057093722397 -276.55891023259392 0 -276.55891023259392 739.37695471315237 0 0 0 0 592.48339520825539 235.27359107085067 0 235.27359107085067 588.92493857647423 0 0 0 0 994.38123907175031 -185.07561130727481 0 -185.07561130727481 -127.87320390020614 0 0 0 0 318.13574470451567 -10.167201748437947 0 -10.167201748437947 456.01687190542907 0 0 0 0 347.06860315264203 -35.907032829309173 0 -35.907032829309173 45.741526974510634 0 0 0 0 568.6010040192632 182.85701464192607 0 182.85701464192607 16.9058501327454 0 0 0 0 569.33868028820143 196.88077862610226 0 196.88077862610226 7.3664542456390336 0 0 0 0 569.49168924921833 193.58473908194173 0 193.58473908194173 25.239038460487791 0 0 0 0 568.78269316120713 180.58974080932603 0 180.58974080932603 29.493009519581392 0 0 0 0 599.62063001476054 252.27652482641679 0 252.27652482641679 14.917936711477523 0 0 0 0 -2.502407985065048 -0.12571947082610535 0 -0.12571947082610535 -3.0035778716105277 0 0 0 0 17.53494597072131 157.98638227985248 0 157.98638227985248 9.0989667266767356 0 0 0 0 -111.23371738003334 167.1380551467264 0 167.1380551467264 86.439865157150052 0 0 0 0 19.799042952348827 171.68664444619662 0 171.68664444619662 88.515684641079133 0 0 0 0 149.76059167152562 15.534499726976719 0 15.534499726976719 154.61721076906269 0 0 0 0 281.91902048311567 126.42277221241807 0 126.42277221241807 242.81659082391707 0 0 0 0 415.52880632142114 -153.80371019095674 0 -153.80371019095674 184.3607842410529 0 0 0 0 25.342809825961012 195.68266655930074 0 195.68266655930074 -26.865523721009595 0 0 0 0 42.690316062167909 -18.912645719679404 0 -18.912645719679404 -2.2536877096375392 0 0 0 0 38.758124179046717 -39.963838707115428 0 -39.963838707115428 -1.8730694807964028 0 0 0 0 -77.946269105363172 -356.73341073123447 0 -356.73341073123447 154.49356156320755 0 0 0 0 222.62735009437893 -164.65725940749326 0 -164.65725940749326 -79.075474929145457 0 0 0 0 266.19746118137846 -352.93586274924019 0 -352.93586274924019 415.83714153907749 0 0 0 0 52.03317651380695 -25.141873139439227 0 -25.141873139439227 -9.9672022668754163 0 0 0 0 153.40206038406177 23.187369362303798 0 23.187369362303798 -22.6471190461898 0 0 0 0 17.968876999857045 -2.7490507153120234 0 -2.7490507153120234 7.1570895441875635 0 0 0 0 116.18908337885659 19.649398970052516 0 19.649398970052516 93.90507229499417 0 0 0 0 80.906667754206865 0.83874862995071453 0 0.83874862995071453 -43.724304067062803 0 0 0 0 58.679019915376557 -44.793845074123965 0 -44.793845074123965 109.33103757628487 0 0 0 0 642.85963280576107 241.35714534238468 0 241.35714534238468 -155.73517230587413 0 0 0 0 83.398521827904247 -40.238915953100886 0 -40.238915953100886 -15.631623787310367 0 0 0 0 173.11729797801308 -94.470946213724346 0 -94.470946213724346 -85.106373906555746 0 0 0 0 252.76427896999667 -195.31869987163554 0 -195.31869987163554 15.598633157303993 0 0 0 0 -11.404418405974539 -13.610686378779619 0 -13.610686378779619 0.26211345887022119 0 0 0 0 487.65858318452956 228.66637542013996 0 228.66637542013996 403.2662656880384 0 0 0 0 291.01374391134595 49.674974438084973 0 49.674974438084973 -145.0175577645814 0 0 0 0 15.070867110640393 97.437351624892926 0 97.437351624892926 29.842418385054771 0 0 0 0 226.10676603409229 136.5457241102722 0 136.5457241102722 230.22938378830804 0 0 0 0 319.74206013717048 -0.44028475338700446 0 -0.44028475338700446 -60.974111799216189 0 0 0 0 353.12787487267633 92.593855690539385 0 92.593855690539385 -76.250603125325142 0 0 0 0 17.642411623077351 -6.7293519678273697 0 -6.7293519678273697 17.184732370558777 0 0 0 0 4.2430829971927579 -6.9712278956298519 0 -6.9712278956298519 7.4644053601922629 0 0 0 0 -7.1613441137160407 -14.568558564606974 0 -14.568558564606974 -3.0689202641715383 0 0 0 0 -4.2475225178350229 5.2599909730543004 0 5.2599909730543004 25.883949573281825 0 0 0 0 -0.021017378118258989 0.14877972342628709 0 0.14877972342628709 3.5575299103948907 0 0 0 0 46.667603515197698 -43.02484114293793 0 -43.02484114293793 -9.3408084967722971 0 0 0 0 55.046946225652903 -8.1387255907601563 0 -8.1387255907601563 0.58214067818782222 0 0 0 0 -13.57602566920832 35.405146739657994 0 35.405146739657994 -39.530560074304958 0 0 0 0 586.21705485472921 -188.47298033987681 0 -188.47298033987681 -78.340151137607791 0 0 0 0 66.634189720050927 -34.354767135470183 0 -34.354767135470183 21.890039487603644 0 0 0 0 -101.22719531721668 -33.023829272395233 0 -33.023829272395233 18.574265080974328 0 0 0 0 15.511628450450758 -19.788286508584008 0 -19.788286508584008 8.1804357788623498 0 0 0 0 -0.62627998376495952 -3.8596456244263528 0 -3.8596456244263528 4.3785093898279763 0 0 0 0 43.817806612118147 60.183553708539876 0 60.183553708539876 63.593261128618906 0 0 0 0 16.814347993064644 4.315638584469454 0 4.315638584469454 -0.34649657309428861 0 0 0 0 61.62913158419542 11.012956304753061 0 11.012956304753061 -34.358329592337213 0 0 0 0 49.284173484304119 8.4309144989293827 0 8.4309144989293827 -11.061025017577776 0 0 0 0 35.436763816142772 -10.438422775354283 0 -10.438422775354283 -0.89030760633373873 0 0 0 0 81.022951305712922 2.5507443260075888 0 2.5507443260075888 -6.0359194365310032 0 0 0 0 43.790509199029145 -11.227769507963217 0 -11.227769507963217 -5.4870780274921973 0 0 0 0 66.869772682839539 2.9855906825073362 0 2.9855906825073362 14.093321721788016 0 0 0 0 -105.9942434748591 -38.073180969495297 0 -38.073180969495297 15.804169118092886 0 0 0 0 54.74721941477037 -9.7061416726628522 0 -9.7061416726628522 4.4345324925598106 0 0 0 0 25.952442682015032 -21.397989615712923 0 -21.397989615712923 -3.3919315228101468 0 0 0 0 111.24505141797272 3.474264039956779 0 3.474264039956779 -17.513739444471867 0 0 0 0 31.107958466791843 -11.161465807930824 0 -11.161465807930824 -0.99407485958231234 0 0 0 0 17.457104802527446 -14.037222867912092 0 -14.037222867912092 -4.7847269000011146 0 0 0 0 -7.9949402180063771 1.1999703217263686 0 1.1999703217263686 -3.6049208471622478 0 0 0 0 -10.122945592520409 15.574628858217693 0 15.574628858217693 27.837825867008178 0 0 0 0 5.5480678466711311 -2.4346097923515302 0 -2.4346097923515302 0.89096260032832753 0 0 0 0 64.788601269086939 36.027712342197447 0 36.027712342197447 -1.4369279824459227 0 0 0 0 57.544066706803278 31.594953890762554 0 31.594953890762554 -62.430252611212381 0 0 0 0 36.941269776638364 60.161872807176223 0 60.161872807176223 33.194805341219762 0 0 0 0 45.768244033282826 -2.4506586608672478 0 -2.4506586608672478 -5.9365613591799047 0 0 0 0 10.805051695730072 37.21907455001292 0 37.21907455001292 -0.34513104769030178 0 0 0 0 57.86140859556582 -6.0015847817060148 0 -6.0015847817060148 0.59224806340342218 0 0 0 0 159.84592136771244 -25.14008680424422 0 -25.14008680424422 -166.80274618649128 0 0 0 0 43.320464562217239 0.51171273057116196 0 0.51171273057116196 4.6314138984562305 0 0 0 0 5.9011881818296388 -0.67512450848153094 0 -0.67512450848153094 5.8232592538388417 0 0 0 0 84.357323196250945 77.521923527428044 0 77.521923527428044 86.83906659076456 0 0 0 0 282.1568575866113 119.53188480253812 0 119.53188480253812 89.136731176837941 0 0 0 0 2.735381514315236 -0.047327149774218924 0 -0.047327149774218924 -0.36533517037709906 0 0 0 0 254.57692503804719 -57.398921766998228 0 -57.398921766998228 -27.3224504401187 0 0 0 0 233.72628547605564 -124.34115245792191 0 -124.34115245792191 56.897185384581462 0 0 0 0 354.37261408011545 59.846881884574941 0 59.846881884574941 -7.8860266257997864 0 0 0 0 48.262032201513648 -62.587360388128218 0 -62.587360388128218 102.36188649966516 0 0 0 0 -1.0359562684489845 0.102383881786551 0 0.102383881786551 0.83712771950113307 0 0 0 0 79.797449209465412 13.209082587104604 0 13.209082587104604 82.395850129203609 0 0 0 0 80.432165177815477 31.292898114382297 0 31.292898114382297 319.50752890063268 0 0 0 0 112.64584111083241 -10.927806949702244 0 -10.927806949702244 33.743837198720939 0 0 0 0 252.50458491387508 -124.91789955700176 0 -124.91789955700176 124.98966736140937 0 0 0 0 18.406729968668515 -47.95250197131827 0 -47.95250197131827 31.881505381930765 0 0 0 0 60.053483010444324 -97.539960439981769 0 -97.539960439981769 85.229910383305736 0 0 0 0 28.831487406045198 -99.223255924459409 0 -99.223255924459409 5.2089218741671175 0 0 0 0 65.491066422924632 31.311224928599586 0 31.311224928599586 -65.226606077465931 0 0 0 0 18.741402951825876 33.816914605985403 0 33.816914605985403 -34.971009644361402 0 0 0 0 84.78030822754954 -9.2143257444622577 0 -9.2143257444622577 -25.282593144561133 0 0 0 0 177.3265499867266 -20.616769625564302 0 -20.616769625564302 -205.76112709655695 0 0 0 0 375.98680075007724 -181.97584600753271 0 -181.97584600753271 -18.505511014689546 0 0 0 0 -444.21153957485512 -73.268337787449127 0 -73.268337787449127 206.7119602075627 0 0 0 0 84.466494419582887 21.955041431802783 0 21.955041431802783 40.369319638308298 0 0 0 0 146.77040923049935 -74.899975717294183 0 -74.899975717294183 31.378845539438771 0 0 0 0 -0.0027221910429204854 2.1944680329849859 0 2.1944680329849859 10.813405984486849 0 0 0 0 260.29988737335952 -159.06244155938748 0 -159.06244155938748 30.720122146880499 0 0 0 0 44.709185090530809 -19.381685686141054 0 -19.381685686141054 10.726502453810099 0 0 0 0 17.416899466901668 3.5835402529273779 0 3.5835402529273779 18.652274776089143 0 0 0 0 40.273992243382963 -4.5194065111327291 0 -4.5194065111327291 8.2346329331157904 0 0 0 0 4.6747027502493523 4.3832091542814737 0 4.3832091542814737 19.919180175380113 0 0 0 0 35.362405973097339 -224.90088247290123 0 -224.90088247290123 72.811886496070656 0 0 0 0 -30.718487374440883 -229.43539765436253 0 -229.43539765436253 87.704517926902554 0 0 0 0 42.520671484337072 -11.893133412639145 0 -11.893133412639145 20.741178053529438 0 0 0 0 157.99625584541354 -86.294743229074811 0 -86.294743229074811 87.991258099900733 0 0 0 0 -29.214567222333244 -233.0523909465029 0 -233.0523909465029 95.207552364634466 0 0 0 0 -217.36050045550655 -136.28601967326722 0 -136.28601967326722 58.271350922550482 0 0 0 0 -607.14714952046052 -444.501924319713 0 -444.501924319713 -157.73705540921219 0 0 0 0 3.5088599448740467 3.2867337168029849 0 3.2867337168029849 2.824478844753628 0 0 0 0 16.030051368352844 -8.2333036908097768 0 -8.2333036908097768 12.195227047340119 0 0 0 0 -187.60301506755059 -114.44948840840516 0 -114.44948840840516 -223.93724511285836 0 0 0 0 -855.75774137545523 260.59214902881922 0 260.59214902881922 463.80890304104469 0 0 0 0 48.734114116472483 1.0783567829726053 0 1.0783567829726053 21.578040427359156 0 0 0 0 32.528536780650029 9.5995456217906394 0 9.5995456217906394 34.769677468890222 0 0 0 0 16.199298970863481 20.787136317298121 0 20.787136317298121 19.393401909145368 0 0 0 0 23.132059253344778 13.225304268355103 0 13.225304268355103 23.815536093117771 0 0 0 0 12.829601222849476 -1.9205808838411258 0 -1.9205808838411258 9.339028674622206 0 0 0 0 29.449933491836418 2.9750344984968251 0 2.9750344984968251 24.263197560250774 0 0 0 0 34.097435727861011 4.901755570232126 0 4.901755570232126 10.194662538835473 0 0 0 0 34.803038251251564 8.3117839186543279 0 8.3117839186543279 26.215697961350088 0 0 0 0 24.646018904375524 3.9123890716673486 0 3.9123890716673486 21.337937025287829 0 0 0 0 23.01924817028339 -3.9741743261291731 0 -3.9741743261291731 -1.4828890184817283 0 0 0 0 23.188845320662949 14.526809228511411 0 14.526809228511411 7.0159317413122153 0 0 0 0 379.67820245132316 337.92309957877842 0 337.92309957877842 541.37198201681167 0 0 0 0 3.7478738009899928 2.6860704094369083 0 2.6860704094369083 10.036400684556114 0 0 0 0 907.86133283886738 -18.560830513822339 0 -18.560830513822339 -679.04033381442332 0 0 0 0 -97.624733943041065 -177.79019632857853 0 -177.79019632857853 75.383535350104466 0 0 0 0 -133.79909448885883 -62.797830276688046 0 -62.797830276688046 109.57176653045104 0 0 0 0 -85.690076728657004 -118.30036058525502 0 -118.30036058525502 -68.014582263160264 0 0 0 0 2.01360955547716 -18.439018974113878 0 -18.439018974113878 -44.784776649578816 0 0 0 0 -4.517228848007278 -6.8464635244762633 0 -6.8464635244762633 1.4389279269977813 0 0 0 0 -4.9745629891986027 -1.6128456900634092 0 -1.6128456900634092 7.2590849542284559 0 0 0 0 -0.64089587045600638 -13.336091181390657 0 -13.336091181390657 17.11164721726891 0 0 0 0 -38.604047448076017 -21.388915835803346 0 -21.388915835803346 16.948167633087905 0 0 0 0 8.0279626789268974 -18.637724870974012 0 -18.637724870974012 3.792421985921365 0 0 0 0 39.363767118062242 4.9457259886221436 0 4.9457259886221436 7.4680892167839374 0 0 0 0 6.5712724594850442 -6.6043997502824823 0 -6.6043997502824823 12.861274350085296 0 0 0 0 8.7896292958185143 -0.026850267095014146 0 -0.026850267095014146 5.7581134918995502 0 0 0 0 465.58878145000199 252.50106467799924 0 252.50106467799924 32.335050903062438 0 0 0 0 2.6264433849266453 -3.497817294486893 0 -3.497817294486893 7.2697719106768233 0 0 0 0 187.20015182553834 -32.449780905190551 0 -32.449780905190551 37.116267990320921 0 0 0 0 495.32089926804474 132.94628448361345 0 132.94628448361345 -46.660411542672591 0 0 0 0 287.71837757674075 -34.775724523779445 0 -34.775724523779445 55.946161735142596 0 0 0 0 0.68148234517755668 -0.6379429990157206 0 -0.6379429990157206 2.4727869575092996 0 0 0 0 -2.89343109181209 4.7188886622734572 0 4.7188886622734572 53.806749333426524 0 0 0 0 642.77677332638268 280.2668014383421 0 280.2668014383421 28.704047746721699 0 0 0 0 8.3728150835086126 -4.5019531754105628 0 -4.5019531754105628 12.716710407681774 0 0 0 0 -0.85514860101491763 -3.2965201410355007 0 -3.2965201410355007 15.290099788311842 0 0 0 0 0.17314404755190083 -1.5443116854220307 0 -1.5443116854220307 9.7353788953118752 0 0 0 0 -68.279829465085641 -79.824501815396616 0 -79.824501815396616 0.096270307677514211 0 0 0 0 45.510171218524192 -61.809802802599847 0 -61.809802802599847 51.169389422034328 0 0 0 0 -138.23038544293377 -37.335339678086257 0 -37.335339678086257 -18.95033411413101 0 0 0 0 227.67793878693919 -28.428102160819435 0 -28.428102160819435 -10.185180648925325 0 0 0 0 220.69253758912964 -108.28417485947284 0 -108.28417485947284 34.433918471270772 0 0 0 0 113.39876318819006 -53.576604123516518 0 -53.576604123516518 202.15979685970933 0 0 0 0 221.78994107075414 140.66684491512274 0 140.66684491512274 109.06473203298992 0 0 0 0 376.04168647352344 38.173099579988502 0 38.173099579988502 -13.130266793161354 0 0 0 0 196.46719825617038 2.2460656496305091 0 2.2460656496305091 -9.920914979238006 0 0 0 0 97.965290675958386 94.090901766841853 0 94.090901766841853 50.225063593283721 0 0 0 0 184.7274948476479 9.9272200116913609 0 9.9272200116913609 77.239463933131447 0 0 0 0 82.499426124944875 98.380327100787554 0 98.380327100787554 100.43868707644287 0 0 0 0 121.87913821627592 85.683305427071474 0 85.683305427071474 30.243918536119054 0 0 0 0 -0.28819409114657901 23.059940969816125 0 23.059940969816125 35.172620607517217 0 0 0 0 107.26445196584973 3.5156557345985675 0 3.5156557345985675 -107.79823689745899 0 0 0 0 77.391220580117078 68.837858453182434 0 68.837858453182434 23.638884068175685 0 0 0 0 82.594338364331634 52.548444486834796 0 52.548444486834796 69.311057107712031 0 0 0 0 -61.033232443558518 58.009708062833852 0 58.009708062833852 50.698738799382681 0 0 0 0 -79.072156750116847 -223.29146065496616 0 -223.29146065496616 14.148758877517366 0 0 0 0 297.66832139668441 190.02123456377058 0 190.02123456377058 7.2222772321292723 0 0 0 0 63.022218089340697 -29.385515404899934 0 -29.385515404899934 -33.995610786177643 0 0 0 0 -56.834340255605639 70.863320843304791 0 70.863320843304791 101.79342841741527 0 0 0 0 425.16912603529636 -107.03318628527813 0 -107.03318628527813 9.8110094015182767 0 0 0 0 288.53712325340166 135.68256741626647 0 135.68256741626647 96.925587734546752 0 0 0 0 29.893464838914269 -226.35551671831348 0 -226.35551671831348 -52.005773524667347 0 0 0 0 300.73262684749352 16.000008998310477 0 16.000008998310477 -243.91029598252135 0 0 0 0 249.99869832047989 96.173610167911647 0 96.173610167911647 112.66940344588511 0 0 0 0 77.972945275597795 -236.83039202905752 0 -236.83039202905752 -215.61766018664457 0 0 0 0 12.012936824718906 -7.4846269920208215 0 -7.4846269920208215 -13.957361574543995 0 0 0 0 49.362446705650655 7.9918579620175478 0 7.9918579620175478 -41.172417012114238 0 0 0 0 46.406027180639285 7.7605975658024136 0 7.7605975658024136 -17.490704123612886 0 0 0 0 44.968269485001656 17.725191820127293 0 17.725191820127293 5.5271485169578227 0 0 0 0 45.215667827578727 -0.24138509108342987 0 -0.24138509108342987 -8.3053563977828162 0 0 0 0 43.781160513171926 7.8255448507561596 0 7.8255448507561596 -10.306278653159211 0 0 0 0 54.460285663211835 25.082907133093158 0 25.082907133093158 -7.4242556450657275 0 0 0 0 54.995848610968096 31.807824311347758 0 31.807824311347758 10.597959778094207 0 0 0 0 51.965044332318939 11.180079843240492 0 11.180079843240492 11.395530849469139 0 0 0 0 64.933625713805668 14.226191248766554 0 14.226191248766554 35.594137765428968 0 0 0 0 108.34451887261821 10.893015557724539 0 10.893015557724539 11.443323772867188 0 0 0 0 75.882679637201363 16.513808950771818 0 16.513808950771818 13.163763963785641 0 0 0 0 101.13105383695802 13.41022287324995 0 13.41022287324995 3.5925588226127729 0 0 0 0 104.55745315577951 19.357960216902484 0 19.357960216902484 9.866145076462999 0 0 0 0 75.066185358391522 20.607184359085636 0 20.607184359085636 3.5823824792823871 0 0 0 0 52.081895032257307 11.414778890224625 0 11.414778890224625 9.2234671442110994 0 0 0 0 52.753584710153518 11.802081772725614 0 11.802081772725614 -0.09590495850352454 0 0 0 0 36.493391528376378 -0.28969597480499942 0 -0.28969597480499942 -1.0992938280360249 0 0 0 0 108.52168788865674 30.291002375177413 0 30.291002375177413 22.680575138258064 0 0 0 0 29.950906534176198 -16.473826888905393 0 -16.473826888905393 7.8533713714736111 0 0 0 0 21.389119904764812 -15.404347185109145 0 -15.404347185109145 -0.2680616935249418 0 0 0 0 45.147015359194484 8.0398184317018604 0 8.0398184317018604 5.2140192768274574 0 0 0 0 30.307573403173592 3.4310231061681407 0 3.4310231061681407 10.138364458674914 0 0 0 0 74.315204902901314 18.467385895608459 0 18.467385895608459 3.9000806994044979 0 0 0 0 69.62683783529792 20.883082248248684 0 20.883082248248684 10.370237120296224 0 0 0 0 70.189628570544301 22.66328138926383 0 22.66328138926383 15.069292115163989 0 0 0 0 44.160514636256266 10.889423612345126 0 10.889423612345126 9.5003978993709097 0 0 0 0 29.124569985782728 14.113170272670686 0 14.113170272670686 32.025691653123431 0 0 0 0 58.202357870526612 24.164885818379844 0 24.164885818379844 29.626734605135425 0 0 0 0 68.041644029202871 16.772708784821589 0 16.772708784821589 10.871915645434001 0 0 0 0 68.029168093702538 18.11122650667734 0 18.11122650667734 16.345934981065511 0 0 0 0 29.411263330664951 15.423188528675382 0 15.423188528675382 26.974202929741296 0 0 0 0 -8.5901606476254528 -17.397271058592651 0 -17.397271058592651 20.036214019630279 0 0 0 0 3.0735638649202883 14.888766815820418 0 14.888766815820418 32.335680641828731 0 0 0 0 20.44464104558574 0.89806243584007461 0 0.89806243584007461 17.703492310603906 0 0 0 0 16.018648283206858 7.6127097471180605 0 7.6127097471180605 22.08925205853302 0 0 0 0 101.72235106229346 15.082091802559489 0 15.082091802559489 7.2810660097857181 0 0 0 0 83.612684516701847 12.527774397869507 0 12.527774397869507 7.1453141597312424 0 0 0 0 74.56917134347168 19.961433376625223 0 19.961433376625223 10.913917197416595 0 0 0 0 102.75150338670937 25.630563010130572 0 25.630563010130572 17.435303976673822 0 0 0 0 100.51597134943586 23.080488685755881 0 23.080488685755881 9.2651628266576154 0 0 0 0 80.98757630475302 17.012164318085297 0 17.012164318085297 14.034970371048985 0 0 0 0 81.945681470562704 21.141638862698528 0 21.141638862698528 15.380540901827771 0 0 0 0 118.92938719887752 19.517725659366988 0 19.517725659366988 7.1832553904423548 0 0 0 0 109.03464601468295 26.183871230057775 0 26.183871230057775 16.648970617311534 0 0 0 0 78.88214812532533 28.198832878750181 0 28.198832878750181 30.023023303677178 0 0 0 0 106.49446227194858 20.278839732735833 0 20.278839732735833 13.41950616243048 0 0 0 0 -28.309500506660356 -129.38344306170461 0 -129.38344306170461 -188.8397108168499 0 0 0 0 89.681593114917632 -6.4929889552288387 0 -6.4929889552288387 -143.75597373253092 0 0 0 0 55.838539647578727 -9.8075137225096114 0 -9.8075137225096114 -60.655622216798463 0 0 0 0 -27.334342835325515 -44.988559679465084 0 -44.988559679465084 -95.736563611210158 0 0 0 0 46.010616447435154 -7.944274771969301 0 -7.944274771969301 -0.1319741376855198 0 0 0 0 43.96312112006126 -12.553069407184921 0 -12.553069407184921 -34.06128581998928 0 0 0 0 25.566874162905151 -34.249307069551378 0 -34.249307069551378 -23.198144751719155 0 0 0 0 32.181308200408239 -3.706650757441821 0 -3.706650757441821 2.2108328702070139 0 0 0 0 64.10063590748905 -33.441817637105828 0 -33.441817637105828 16.069619788031105 0 0 0 0 48.086690783631639 33.876350830291926 0 33.876350830291926 -98.300994253022964 0 0 0 0 48.729669208041742 84.929514751064062 0 84.929514751064062 113.09358447598504 0 0 0 0 19.943448314996203 16.413641982401941 0 16.413641982401941 77.125306222586488 0 0 0 0 49.752723067547777 25.651720755541191 0 25.651720755541191 4.2522313084796224 0 0 0 0 60.001529014509288 -133.77703871661367 0 -133.77703871661367 -312.33095511994566 0 0 0 0 19.162788293833728 21.798468281079295 0 21.798468281079295 4.3479965821316 0 0 0 0 69.757628151128301 98.886844071894302 0 98.886844071894302 -188.1024193501766 0 0 0 0 62.777118773665279 -37.509470427876295 0 -37.509470427876295 -145.45008495527895 0 0 0 0 82.657776255568024 -22.019513284416917 0 -22.019513284416917 -180.27403850209339 0 0 0 0 58.519793284300249 -64.86514828920258 0 -64.86514828920258 -213.72214012475436 0 0 0 0 123.59508388384711 25.608607198371828 0 25.608607198371828 14.905805599675659 0 0 0 0 94.177904777025105 -29.220539199118207 0 -29.220539199118207 -377.53072051915092 0 0 0 0 124.07196105759067 24.99156686838046 0 24.99156686838046 14.369994734017382 0 0 0 0 121.22207216377137 17.840477177206594 0 17.840477177206594 26.186304061689953 0 0 0 0 -362.65809479857853 159.19041445580183 0 159.19041445580183 115.6728043725434 0 0 0 0 72.755826318491017 76.952959436460333 0 76.952959436460333 -345.13397773389852 0 0 0 0 293.54319154264522 -62.233371839358824 0 -62.233371839358824 4.4010518201635023 0 0 0 0 459.82692997727281 -150.14037635189959 0 -150.14037635189959 1.5136824939800135 0 0 0 0 168.74960158701288 -222.44042129083937 0 -222.44042129083937 168.1907582982322 0 0 0 0 -0.40430724172311727 0.36878152157458999 0 0.36878152157458999 3.8328260354225154 0 0 0 0 30.665777690430332 -128.35768945134308 0 -128.35768945134308 176.2559788663375 0 0 0 0 -156.38347849640195 -127.56277117051826 0 -127.56277117051826 -165.5969527509651 0 0 0 0 51.649259851914394 -454.75124547476082 0 -454.75124547476082 23.868849350188611 0 0 0 0 103.45913756298251 82.817070745125875 0 82.817070745125875 138.30478981524732 0 0 0 0 18.332998471789665 -10.205649973878906 0 -10.205649973878906 5.5172571924179188 0 0 0 0 145.43697233665443 206.91530326223528 0 206.91530326223528 110.78232957490115 0 0 0 0 178.56743226036269 81.855734116868803 0 81.855734116868803 -42.881054657886125 0 0 0 0 75.892587379601537 -27.443830911047201 0 -27.443830911047201 -27.85799161707746 0 0 0 0 90.632303866208531 48.393462529884346 0 48.393462529884346 17.61205635341139 0 0 0 0 107.31984687363729 40.397313426647997 0 40.397313426647997 -6.1497174083551727 0 0 0 0 -1.9067074649739482 -4.5110352866779806 0 -4.5110352866779806 0.87553642319971559 0 0 0 0 114.20001237888937 29.870121874437245 0 29.870121874437245 22.446998228374923 0 0 0 0 123.34852507419419 24.453807934978613 0 24.453807934978613 13.981109337406451 0 0 0 0 127.00067980779568 28.363975948388543 0 28.363975948388543 12.750964176083244 0 0 0 0 122.58261845225934 25.302355793641254 0 25.302355793641254 15.11255324292415 0 0 0 0 125.93439178931294 24.98744743057614 0 24.98744743057614 8.1212032427902159 0 0 0 0 115.74327113630716 22.199837288517301 0 22.199837288517301 13.476924343300198 0 0 0 0 115.74470593250589 22.107125175318288 0 22.107125175318288 13.626885086752736 0 0 0 0 118.95193866401678 19.119657711581567 0 19.119657711581567 3.2346196645194141 0 0 0 0 119.84883322674432 11.876091626458219 0 11.876091626458219 3.2422120455084951 0 0 0 0 127.72342439991189 21.503435806995185 0 21.503435806995185 2.5878288743663234 0 0 0 0 155.07635910389945 34.574126430819888 0 34.574126430819888 -2.3474745320085049 0 0 0 0 121.99560793598357 36.841883837746082 0 36.841883837746082 -1.5814678391143389 0 0 0 0 127.98718646311318 54.534457160282727 0 54.534457160282727 -0.64451124117567815 0 0 0 0 147.92026656935923 8.6245566260740816 0 8.6245566260740816 -1.2474988717003725 0 0 0 0 123.10533246386331 5.8726502163190162 0 5.8726502163190162 12.289596236022476 0 0 0 0 175.31067993883335 -25.037588622003113 0 -25.037588622003113 26.110859826333581 0 0 0 0 108.77833390734031 17.322774224779238 0 17.322774224779238 11.268604406668601 0 0 0 0 206.95437858137302 60.123627542028771 0 60.123627542028771 -2.919992989580237 0 0 0 0 -25.519821319510811 -19.153094375395767 0 -19.153094375395767 -25.676148573023056 0 0 0 0 1.3655405500116728 -0.68821504257743982 0 -0.68821504257743982 0.41905321023592634 0 0 0 0 -21.633704522624612 -43.504261666368166 0 -43.504261666368166 -6.476831653235422 0 0 0 0 -25.687734756269492 -28.769439621967194 0 -28.769439621967194 -51.480211953383332 0 0 0 0 -2.4789476680743974 -18.172291570232773 0 -18.172291570232773 -11.763501275260069 0 0 0 0 11.821872543369629 -16.744380987665068 0 -16.744380987665068 -18.084852169810542 0 0 0 0 0.51701381792690881 -4.4590235664880282 0 -4.4590235664880282 -0.6149803617291516 0 0 0 0 42.506920222338522 -93.349781109888454 0 -93.349781109888454 55.561009433359914 0 0 0 0 170.23786085382744 143.97908069727845 0 143.97908069727845 100.84191105815607 0 0 0 0 1.2090276928806816 -0.58294116549396335 0 -0.58294116549396335 0.22990741560304839 0 0 0 0 194.51764030804043 -51.35198765111187 0 -51.35198765111187 -49.435252627336126 0 0 0 0 7.7124672145291697 -7.2012641688928909 0 -7.2012641688928909 -6.874624011151468 0 0 0 0 3.7307666725802875 0.63587128994927866 0 0.63587128994927866 -0.022011896477291515 0 0 0 0 -109.71936436387477 -119.14987437509262 0 -119.14987437509262 -117.22661672483082 0 0 0 0 165.88380473407597 40.262478524993412 0 40.262478524993412 -43.153725694590321 0 0 0 0 62.62280126560654 -59.085656731097629 0 -59.085656731097629 -24.143729314269109 0 0 0 0 307.57064008861926 -19.831722178412519 0 -19.831722178412519 -41.133502278832111 0 0 0 0 24.113204624973605 -16.21638630324378 0 -16.21638630324378 -10.893704328645086 0 0 0 0 -17.571881242101881 -52.634077766062461 0 -52.634077766062461 -48.159930912825985 0 0 0 0 -12.057856606792484 -73.347185731334093 0 -73.347185731334093 -11.97973852883797 0 0 0 0 4.4926914011485906 -3.3998902343664383 0 -3.3998902343664383 3.3035611099877329 0 0 0 0 -164.62863675321569 181.87282299222579 0 181.87282299222579 342.51848788855864 0 0 0 0 29.801544491860142 -9.8814501630155007 0 -9.8814501630155007 -3.2085436641814828 0 0 0 0 30.848650285413896 -413.48823495339821 0 -413.48823495339821 -270.80054077774003 0 0 0 0 53.946571415755898 28.225318314550805 0 28.225318314550805 -25.917888368403524 0 0 0 0 371.98049673862988 585.12292433482526 0 585.12292433482526 189.50163478820377 0 0 0 0 67.263705620741348 -14.072819240117056 0 -14.072819240117056 -43.9616944405102 0 0 0 0 80.490135617670603 2.767680973256347 0 2.767680973256347 -23.328872469076941 0 0 0 0 23.241692309267819 29.627006453384979 0 29.627006453384979 -35.741242516306158 0 0 0 0 74.526701697965109 26.844009698344266 0 26.844009698344266 -51.329082427877893 0 0 0 0 23.950160924244585 19.121460200156079 0 19.121460200156079 19.312065919559959 0 0 0 0 53.279708045098232 47.984311104963652 0 47.984311104963652 -43.138324290309583 0 0 0 0 37.230397704945062 12.514330406043428 0 12.514330406043428 26.266834775105849 0 0 0 0 57.617788270472374 5.9052682835374526 0 5.9052682835374526 20.113039523105726 0 0 0 0 37.473746938165277 16.566294850832946 0 16.566294850832946 31.068163145917879 0 0 0 0 79.664907497543027 9.2672329573215393 0 9.2672329573215393 20.398130517224956 0 0 0 0 13.796139315090841 14.838191236383565 0 14.838191236383565 14.105011243568093 0 0 0 0 -23.395556214658427 134.28502651524909 0 134.28502651524909 -49.570616602187442 0 0 0 0 52.070610878261505 25.354943736580012 0 25.354943736580012 -67.249102984304841 0 0 0 0 166.73279326504598 74.302326872401437 0 74.302326872401437 -31.132758269373085 0 0 0 0 202.52971955506655 -72.039479104214109 0 -72.039479104214109 2.7228412008650515 0 0 0 0 42.308363349118736 21.063945125434273 0 21.063945125434273 101.52934150630566 0 0 0 0 -50.553842937471927 10.737809519954489 0 10.737809519954489 82.241815526906947 0 0 0 0 131.5935879682911 -9.2625598892750851 0 -9.2625598892750851 -31.118172613841026 0 0 0 0 24.143671679717954 13.065342531771211 0 13.065342531771211 23.050528380081762 0 0 0 0 -2.4570660413737642 -74.215960632503752 0 -74.215960632503752 35.796956210581286 0 0 0 0 0.44331580548305283 -0.27565301929865882 0 -0.27565301929865882 0.14198041042978571 0 0 0 0 147.50212487393037 71.267483485683812 0 71.267483485683812 8.0191537454742488 0 0 0 0 78.626422245812137 25.323247252433784 0 25.323247252433784 14.675132541106905 0 0 0 0 82.490334091897239 18.967562096075103 0 18.967562096075103 -0.78509527776595789 0 0 0 0 92.762677081700531 22.21002208098313 0 22.21002208098313 -10.32994272106839 0 0 0 0 89.790076631630654 5.9053334153414561 0 5.9053334153414561 -20.186833034801168 0 0 0 0 79.806311316380743 1.56001773823503 0 1.56001773823503 -0.06504355870692316 0 0 0 0 74.576189098625036 18.226864546120598 0 18.226864546120598 2.2534260486506401 0 0 0 0 56.000222544302233 19.802307195357006 0 19.802307195357006 2.1315086661989149 0 0 0 0 35.006376297540555 0.22120209592255322 0 0.22120209592255322 0.041877899065990487 0 0 0 0 242.8863385376535 0.81255431219736396 0 0.81255431219736396 1.0740821411533099 0 0 0 0 0.67629966802806507 -0.20792769933925115 0 -0.20792769933925115 -0.027717226580812649 0 0 0 0 250.0737053326302 73.730659548865717 0 73.730659548865717 18.978088527142308 0 0 0 0 4.2584758021265685 1.4356009777890222 0 1.4356009777890222 0.013222627083763372 0 0 0 0 120.01308460753353 38.872217252115647 0 38.872217252115647 -12.17547152874794 0 0 0 0 100.30656945983355 37.078890560375676 0 37.078890560375676 14.062823505776223 0 0 0 0 1.0100767693391504 -0.58361843405234026 0 -0.58361843405234026 0.028340692317944026 0 0 0 0 95.83414112860919 18.169326892176528 0 18.169326892176528 -20.19203810296117 0 0 0 0 94.871679880496231 70.802442094864887 0 70.802442094864887 -25.023468952884812 0 0 0 0 91.848097744976258 52.690015378426644 0 52.690015378426644 20.202652365273416 0 0 0 0 93.510965091194521 40.059811329019198 0 40.059811329019198 32.234375630736032 0 0 0 0 37.151333500036117 -7.557215262004604 0 -7.557215262004604 -11.847899082259906 0 0 0 0 1.5704640647745691 -111.48183708740908 0 -111.48183708740908 -59.624528665613184 0 0 0 0 19.148080311584636 -154.42708618368761 0 -154.42708618368761 35.789915174972748 0 0 0 0 73.467460979009047 13.526705927386956 0 13.526705927386956 71.144265751750481 0 0 0 0 111.98726351432197 97.128628517683069 0 97.128628517683069 -50.913936900088629 0 0 0 0 43.010212437014161 2.9727094410160078 0 2.9727094410160078 -11.005696777476853 0 0 0 0 40.682191168138729 -3.7795215467582324 0 -3.7795215467582324 -9.9919956309211884 0 0 0 0 85.846094320120756 -14.503713354770298 0 -14.503713354770298 -97.901954860630212 0 0 0 0 43.613014466688583 2.5352534886186162 0 2.5352534886186162 -1.2828531659494971 0 0 0 0 42.913381290643883 3.3034624642631334 0 3.3034624642631334 0.69643527520060644 0 0 0 0 44.002488493022611 7.7976355300683995 0 7.7976355300683995 -4.034946156831607 0 0 0 0 -0.29081006460708636 0.21165942268874005 0 0.21165942268874005 -0.059146020630531912 0 0 0 0 42.34976948563417 8.7733762637934305 0 8.7733762637934305 -0.0089689223877687067 0 0 0 0 42.267092189362302 9.830338672649777 0 9.830338672649777 -7.1223575486356587 0 0 0 0 41.584564169956138 3.908179190830996 0 3.908179190830996 -11.617400853314658 0 0 0 0 42.275743383492227 6.8243637681568137 0 6.8243637681568137 -4.811107528485806 0 0 0 0 41.952906191167131 12.627804812373764 0 12.627804812373764 0.020997313745226408 0 0 0 0 45.902458947210107 15.466075297370153 0 15.466075297370153 -11.390134709691448 0 0 0 0 55.211793244059663 26.4434486532286 0 26.4434486532286 -12.168625287279518 0 0 0 0 98.837705716083292 -15.994661807226043 0 -15.994661807226043 -0.0017224620803411488 0 0 0 0 45.056505771208322 7.2471733672976022 0 7.2471733672976022 29.44675576658048 0 0 0 0 38.585382234290705 -3.867507185098944 0 -3.867507185098944 -10.509364361329325 0 0 0 0 54.617349494852533 -1.0876993002190432 0 -1.0876993002190432 -48.945349675628925 0 0 0 0 58.821994061478108 32.513972859586147 0 32.513972859586147 3.5043335379823475 0 0 0 0 53.872091664845357 29.574678108456283 0 29.574678108456283 2.0591525567510871 0 0 0 0 48.724978542959434 20.725026994560722 0 20.725026994560722 -12.339738282815233 0 0 0 0 64.706021524980315 34.570584564331057 0 34.570584564331057 -17.687029103879695 0 0 0 0 64.230538247331424 51.238208334647993 0 51.238208334647993 17.950629654924342 0 0 0 0 49.091420261800522 26.659197396937543 0 26.659197396937543 6.4403084039613532 0 0 0 0 58.071369784884155 28.940512620384197 0 28.940512620384197 -5.4358786362827232 0 0 0 0 61.299324247571349 39.853365438775654 0 39.853365438775654 -4.4545156596905144 0 0 0 0 57.499074611463584 35.846904681279284 0 35.846904681279284 -8.1508656020178023 0 0 0 0 9.9571114626322412 10.642199550095853 0 10.642199550095853 2.0021164490628642 0 0 0 0 -3.8309679137091734 102.78197686342401 0 102.78197686342401 -8.5564755278028315 0 0 0 0 18.506880007493237 158.01746337003647 0 158.01746337003647 -56.641303131274981 0 0 0 0 650.22579965562909 127.62637453737898 0 127.62637453737898 -299.95503303261557 0 0 0 0 170.18768062398885 -94.848517283985075 0 -94.848517283985075 -160.64714394895827 0 0 0 0 -166.09726875437627 241.06711384233449 0 241.06711384233449 134.3068392863579 0 0 0 0 35.603289068538288 116.4794782469744 0 116.4794782469744 61.769482840812998 0 0 0 0 12.182989662396722 254.78753924683224 0 254.78753924683224 -178.6927310145262 0 0 0 0 53.919597125699511 55.973883712776114 0 55.973883712776114 -47.037042971419396 0 0 0 0 44.015897884528385 126.43082094373699 0 126.43082094373699 -6.7155697800026246 0 0 0 0 53.384943975028818 12.628392931407447 0 12.628392931407447 -8.0444468227398893 0 0 0 0 76.078234646443889 41.510686540457982 0 41.510686540457982 -37.799671968238727 0 0 0 0 45.550776978008798 15.79922360634464 0 15.79922360634464 -23.223026315852621 0 0 0 0 23.566271946207948 8.4920945291105454 0 8.4920945291105454 -10.667294188262009 0 0 0 0 77.256893478974234 8.5622266569516796 0 8.5622266569516796 -237.38201851968324 0 0 0 0 160.28798192561953 -1.6101985342174885 0 -1.6101985342174885 -59.720152451984177 0 0 0 0 55.009285521315377 -0.025302010122842944 0 -0.025302010122842944 -32.375175085050856 0 0 0 0 118.70382874286588 72.235190695628262 0 72.235190695628262 -35.914318298571743 0 0 0 0 62.078840526519343 7.4967332693786375 0 7.4967332693786375 -21.283087181340306 0 0 0 0 9.397509718524816 -6.7071039080315131 0 -6.7071039080315131 -34.654764380196866 0 0 0 0 24.226994577483524 9.5508444713692313 0 9.5508444713692313 -23.267520627640266 0 0 0 0 37.923956473401631 -37.390819886536519 0 -37.390819886536519 -57.420049520619614 0 0 0 0 144.3555722508172 3.3824379871402925 0 3.3824379871402925 -60.544343357192702 0 0 0 0 -31.054308372491505 8.5329383482130652 0 8.5329383482130652 5.1205467350664549 0 0 0 0 26.525004904882195 -3.5439558904890305 0 -3.5439558904890305 -26.801721577690095 0 0 0 0 114.24799994323985 -83.201340507883288 0 -83.201340507883288 -2.8751207749082823 0 0 0 0 0.57594231125716533 0.79544005430582843 0 0.79544005430582843 -1.9927915018617171 0 0 0 0 23.788923572061378 10.774237324769345 0 10.774237324769345 -20.110104792725259 0 0 0 0 34.237893908044498 12.522296196147181 0 12.522296196147181 -20.418661239389621 0 0 0 0 42.231217709138434 8.1109177733664666 0 8.1109177733664666 -27.032679266697119 0 0 0 0 247.55247387757299 103.92325255846504 0 103.92325255846504 -28.219600400254421 0 0 0 0 291.95636644904152 -46.744273874410283 0 -46.744273874410283 -85.532618580989947 0 0 0 0 247.1109673707615 40.982456089791413 0 40.982456089791413 17.896731581982749 0 0 0 0 21.833652797300601 118.8154658779531 0 118.8154658779531 4.1037263479047397 0 0 0 0 129.43898929015268 90.60502972501672 0 90.60502972501672 -5.6189216308193863 0 0 0 0 90.559103926338054 35.98243534465999 0 35.98243534465999 7.4070972808819064 0 0 0 0 424.49817747171619 80.156294532510401 0 80.156294532510401 -157.32341034595174 0 0 0 0 55.76531009378192 22.366397104287842 0 22.366397104287842 9.7023525645676507 0 0 0 0 -71.894104991253698 -17.18839014635887 0 -17.18839014635887 115.71420278704318 0 0 0 0 21.242287912485324 6.0084192642108079 0 6.0084192642108079 2.1586819060296314 0 0 0 0 1225.6812698450813 -817.18327278448305 0 -817.18327278448305 355.66161592634194 0 0 0 0 24.164056290319422 -78.174210896735531 0 -78.174210896735531 34.502437256634948 0 0 0 0 1763.3169546278077 -1008.6523802838819 0 -1008.6523802838819 378.67218414716262 0 0 0 0 2687.0270638584334 -282.84846353013199 0 -282.84846353013199 -173.75745101846769 0 0 0 0 1459.0155821572189 52.163662267297468 0 52.163662267297468 -221.86974338832079 0 0 0 0 1115.0360705669154 -33.34155426439429 0 -33.34155426439429 -448.9196427305651 0 0 0 0 1144.1899555953278 -184.5005537476236 0 -184.5005537476236 -266.3224683250055 0 0 0 0 351.73730019829964 -250.35391468081207 0 -250.35391468081207 18.114378557699638 0 0 0 0 19.438036012405647 30.041577608646364 0 30.041577608646364 25.529180333713178 0 0 0 0 -468.91218784690136 1101.730742855978 0 1101.730742855978 309.87400434053734 0 0 0 0 -165.27006244600489 92.030026558010832 0 92.030026558010832 332.28635703123291 0 0 0 0 1305.1538810017519 755.82472682002481 0 755.82472682002481 237.15607079168967 0 0 0 0 1300.9288721479243 794.56701161780984 0 794.56701161780984 1365.1097479302694 0 0 0 0 563.46999433179735 330.97011662163095 0 330.97011662163095 -353.61300338403089 0 0 0 0 1124.3118217378651 -150.81353084369948 0 -150.81353084369948 -335.28458611858878 0 0 0 0 1180.6223349157171 133.76538376768383 0 133.76538376768383 -584.16216367251036 0 0 0 0 50.311416936194291 36.152563972107714 0 36.152563972107714 23.710215691627582 0 0 0 0 21.821109754032278 30.067802758288764 0 30.067802758288764 21.652109814872077 0 0 0 0 789.42213514309697 -55.267275642019285 0 -55.267275642019285 -135.05881158408192 0 0 0 0 19.535015159801333 24.446839492794879 0 24.446839492794879 14.490351803797589 0 0 0 0 1273.0379113376985 -318.0717986455893 0 -318.0717986455893 -97.515913233570245 0 0 0 0 8.1212873602999025 125.68365859914772 0 125.68365859914772 309.68771983368492 0 0 0 0 9.2044207928993558 8.5608666033305951 0 8.5608666033305951 7.0286104717506941 0 0 0 0 176.25168893081718 -119.59899312153516 0 -119.59899312153516 -60.142837556208065 0 0 0 0 -57.68917172147485 116.6464473709448 0 116.6464473709448 -68.443501328183629 0 0 0 0 591.07291324280959 -7.7589641811227921 0 -7.7589641811227921 -122.45199932776359 0 0 0 0 926.06166369648417 -173.69600878866459 0 -173.69600878866459 -259.9654373026724 0 0 0 0 1079.3372138114064 -274.60961997782397 0 -274.60961997782397 -5.3156992172198443 0 0 0 0 1048.4763807763666 -93.431363035792856 0 -93.431363035792856 -218.88673684277455 0 0 0 0 1052.9435474886122 -264.8284253264992 0 -264.8284253264992 -65.996303766521123 0 0 0 0 1165.7763605968212 -167.47614119618265 0 -167.47614119618265 17.88448933618929 0 0 0 0 1047.7562073185406 3.4525692532954864 0 3.4525692532954864 -212.02532361618978 0 0 0 0 865.69683878576325 -139.54995229970336 0 -139.54995229970336 -36.382366738778728 0 0 0 0 1103.0329508643008 149.77251405266736 0 149.77251405266736 -98.287864782961151 0 0 0 0 1270.9842996622028 -315.70378192746034 0 -315.70378192746034 119.39367241860691 0 0 0 0 1236.6561771985725 -54.313860060713978 0 -54.313860060713978 -93.506155943953218 0 0 0 0 1822.0222500990421 -575.99766460008311 0 -575.99766460008311 47.593416054310183 0 0 0 0 1277.4693782369759 -478.97427751539726 0 -478.97427751539726 274.28192445661989 0 0 0 0 14.501933307829006 15.98543312109328 0 15.98543312109328 7.8218422536689491 0 0 0 0 257.81742656705319 527.52404008013878 0 527.52404008013878 694.87595166891879 0 0 0 0 276.92250867698749 178.03515705555517 0 178.03515705555517 -312.6871071066596 0 0 0 0 1563.032646980042 -181.57819968076046 0 -181.57819968076046 123.56927563817271 0 0 0 0 1720.7889506356441 -619.94954851667103 0 -619.94954851667103 455.89185132531298 0 0 0 0 1612.5162880647076 78.339911631710137 0 78.339911631710137 -45.745217211515865 0 0 0 0 26.392694129099254 52.653438078519741 0 52.653438078519741 55.750793456507814 0 0 0 0 -80.796853778942022 -2.3568101000073511 0 -2.3568101000073511 38.043617651188825 0 0 0 0 3.1875406569816107 2.6158694292688551 0 2.6158694292688551 1.8641635109172197 0 0 0 0 38.530738680652576 -485.72303736346225 0 -485.72303736346225 -424.53855574534055 0 0 0 0 -90.347946842724923 114.62172891904981 0 114.62172891904981 158.4171024605952 0 0 0 0 73.278848660222138 137.08596377659453 0 137.08596377659453 -126.79873851434105 0 0 0 0 146.76796321512666 330.5607420365626 0 330.5607420365626 155.80373268938703 0 0 0 0 59.478899855574127 93.460401548782656 0 93.460401548782656 -3.2405528713365612 0 0 0 0 98.173101400079759 40.914676739994817 0 40.914676739994817 -80.551806476256644 0 0 0 0 88.6878606442624 98.543504745790841 0 98.543504745790841 -76.351537367616459 0 0 0 0 143.62503614718298 -9.4639463032383766 0 -9.4639463032383766 -37.544854814715428 0 0 0 0 171.69413617439932 48.025538249185431 0 48.025538249185431 -152.27104932463567 0 0 0 0 98.204935238671169 -8.3233050028629023 0 -8.3233050028629023 0.14141170449273954 0 0 0 0 1317.5494577202626 -280.33691072535817 0 -280.33691072535817 325.52504193071172 0 0 0 0 2986.0140724127996 -802.44749109198813 0 -802.44749109198813 -98.351269748860403 0 0 0 0 2321.0953128251058 296.1460269358667 0 296.1460269358667 -29.716207868078129 0 0 0 0 6.5632492269201066 5.3740801110230905 0 5.3740801110230905 2.2453634083269947 0 0 0 0 -323.19465811963164 123.6303871845178 0 123.6303871845178 6.0108295106455927 0 0 0 0 -30.443653478592751 -132.22696746439408 0 -132.22696746439408 -338.13556728090049 0 0 0 0 -24.027098967562779 196.23910708596492 0 196.23910708596492 8.9397437721473239 0 0 0 0 1280.2307855692052 -70.71291982741792 0 -70.71291982741792 -0.1856648711402609 0 0 0 0 1270.7320806642383 -70.75938333947613 0 -70.75938333947613 321.58409974472153 0 0 0 0 1234.6726668030606 67.611754760139092 0 67.611754760139092 -0.0059906975104287025 0 0 0 0 472.87389008783794 -88.781775227184255 0 -88.781775227184255 311.33038734196168 0 0 0 0 10.945599166589091 149.9541718768148 0 149.9541718768148 0.2756085846494547 0 0 0 0 471.93704566532688 -131.45680453305803 0 -131.45680453305803 -162.83234220102582 0 0 0 0 98.868964577970473 185.46032912813027 0 185.46032912813027 -318.56001952325647 0 0 0 0 40.623252641758882 141.76454560071468 0 141.76454560071468 235.98125839518025 0 0 0 0 470.65668531107076 169.03772297672731 0 169.03772297672731 -116.02106539613533 0 0 0 0 1174.9933846053755 174.66995207159289 0 174.66995207159289 -8.0080075519206275 0 0 0 0 453.13660658805748 3.0705534217750028 0 3.0705534217750028 289.02189748917863 0 0 0 0 974.68687296233838 -143.64114139696426 0 -143.64114139696426 125.72063363632378 0 0 0 0 678.95913719912642 300.3761362915003 0 300.3761362915003 -1.3221631357314436 0 0 0 0 -139.65219448444259 194.43396496670084 0 194.43396496670084 207.58742122960484 0 0 0 0 -129.73131863705294 461.69077457917075 0 461.69077457917075 -121.70079759531836 0 0 0 0 357.21229833678808 -10.043352653623629 0 -10.043352653623629 -54.590230182099276 0 0 0 0 -181.52164608737803 252.2346558638601 0 252.2346558638601 133.18243083092239 0 0 0 0 793.34184109614398 170.5287887893486 0 170.5287887893486 -125.3936630536964 0 0 0 0 547.27644891993259 -31.084934508868173 0 -31.084934508868173 -15.609197997827323 0 0 0 0 281.41661965975072 378.3528495155183 0 378.3528495155183 -160.27285798289745 0 0 0 0 -7.6877555230700523 7.2438415602683 0 7.2438415602683 3.65642818008785 0 0 0 0 4.3645274121299735 69.123701963114172 0 69.123701963114172 46.413336845880622 0 0 0 0 7.2604128779348684 113.79983046504663 0 113.79983046504663 156.62418647852382 0 0 0 0 -2.7924876305232829 -2.5509566100923817 0 -2.5509566100923817 0.0069941601583961843 0 0 0 0 49.612217287154635 123.3092154387673 0 123.3092154387673 63.198077186587739 0 0 0 0 -146.86506738350727 120.08755151012087 0 120.08755151012087 463.33454326343553 0 0 0 0 -48.358055291966593 65.321979750855917 0 65.321979750855917 12.538832373744754 0 0 0 0 -164.33134890161455 295.44340563697483 0 295.44340563697483 -424.83517224426248 0 0 0 0 50.4413876413455 38.65642074509897 0 38.65642074509897 -15.863477552146925 0 0 0 0 -35.611659070607857 64.784737255086156 0 64.784737255086156 -22.909772032684792 0 0 0 0 2.6261813524167792 10.993542421306074 0 10.993542421306074 -1.9861070287782887 0 0 0 0 82.578356182872085 78.316078950143947 0 78.316078950143947 -287.14994893683928 0 0 0 0 -23.442429265516694 43.595538744810071 0 43.595538744810071 -14.582401394173225 0 0 0 0 -449.87374702756642 414.79325516375599 0 414.79325516375599 52.39676953772053 0 0 0 0 -1.604933887644961 2.1410068243877731 0 2.1410068243877731 -2.1610136092852219 0 0 0 0 -640.28952817020763 120.07892074233891 0 120.07892074233891 37.266671040688287 0 0 0 0 -488.06907238939311 -19.154187089273414 0 -19.154187089273414 29.874217716992433 0 0 0 0 -306.63148998683027 279.25299051178195 0 279.25299051178195 -119.87436796589631 0 0 0 0 -82.652902561640076 97.44217275884256 0 97.44217275884256 -0.11526850024963232 0 0 0 0 0.15454241912084399 91.070405635410879 0 91.070405635410879 -83.735671378490906 0 0 0 0 47.764981266125687 26.613882924232094 0 26.613882924232094 -0.059184186149063921 0 0 0 0 26.065636059458484 -0.34275796587659357 0 -0.34275796587659357 -49.2190203275836 0 0 0 0 72.305110342873377 18.32391268367115 0 18.32391268367115 0.010017455872007558 0 0 0 0 62.106935743046051 30.804898418855394 0 30.804898418855394 -12.218197101804439 0 0 0 0 86.823684015791514 0.70346480735192429 0 0.70346480735192429 -17.870539970676528 0 0 0 0 108.67927114159465 81.748145743376114 0 81.748145743376114 40.34308117790637 0 0 0 0 135.87721332405636 32.565291187154308 0 32.565291187154308 -12.334778055968325 0 0 0 0 2.6902081712448194 1.8818834659970776 0 1.8818834659970776 0.75646489833139663 0 0 0 0 98.70497305894969 34.020877630444716 0 34.020877630444716 -18.189468433852397 0 0 0 0 70.426960647302622 2.3560360156941735 0 2.3560360156941735 -16.904558141031274 0 0 0 0 59.985648836009204 19.028206879653197 0 19.028206879653197 0.20985554658288219 0 0 0 0 105.58617682429031 -34.205759566501911 0 -34.205759566501911 -180.37238703207214 0 0 0 0 51.298003405565396 25.262020088729969 0 25.262020088729969 -43.352198938159745 0 0 0 0 64.780038032569166 13.541811039827977 0 13.541811039827977 0.43955986953053233 0 0 0 0 45.884363005736759 -24.19434277620411 0 -24.19434277620411 -10.207946758063372 0 0 0 0 62.131174624380947 -4.756156067584925 0 -4.756156067584925 -59.353086746941699 0 0 0 0 65.235042986041321 17.898334075586313 0 17.898334075586313 -1.6486064828049107 0 0 0 0 19.282227225870884 24.122345420341112 0 24.122345420341112 11.72872816364233 0 0 0 0 51.170019670185866 2.7976662553757792 0 2.7976662553757792 -2.9235578413882561 0 0 0 0 59.931731235628831 24.574638625056217 0 24.574638625056217 -31.189885874631425 0 0 0 0 -12.169883440097692 129.09942402604736 0 129.09942402604736 104.69998580136235 0 0 0 0 207.13653325857013 215.02678009173451 0 215.02678009173451 66.347736149489265 0 0 0 0 -30.009185854243697 -20.84019718214131 0 -20.84019718214131 47.390606345325068 0 0 0 0 140.19525345761213 57.093150442977276 0 57.093150442977276 -3.6698438259923023 0 0 0 0 227.27080009269412 121.08122081438887 0 121.08122081438887 -142.61935128552082 0 0 0 0 -32.989557024831015 37.312682374849118 0 37.312682374849118 9.9946821332460623 0 0 0 0 -16.056195221960166 1.5684994587892902 0 1.5684994587892902 1.9804911512269072 0 0 0 0 -58.556086356285959 33.914100816340579 0 33.914100816340579 33.936869752992607 0 0 0 0 61.89582333227969 21.100287220035717 0 21.100287220035717 -1.2081930200952178 0 0 0 0 11.975790138214023 28.770164213865769 0 28.770164213865769 -0.62927152503666761 0 0 0 0 -5.285420145104581 18.77046082693596 0 18.77046082693596 -0.78600423707939626 0 0 0 0 360.8229642901133 98.073471900373079 0 98.073471900373079 10.66092126932017 0 0 0 0 2.6014807448041495 15.040160199399708 0 15.040160199399708 -1.7935737057352554 0 0 0 0 180.46786532744591 99.868115706639401 0 99.868115706639401 10.762864267018813 0 0 0 0 24.939478824242542 7.5227965725466674 0 7.5227965725466674 -52.744778941098048 0 0 0 0 37.427744079905096 31.751994824170652 0 31.751994824170652 -8.7152727473621781 0 0 0 0 11.405474245253572 18.839660499219718 0 18.839660499219718 2.2554547193392107 0 0 0 0 44.832483671867521 59.643099714389791 0 59.643099714389791 -38.168759775414173 0 0 0 0 26.072344342064753 36.333661830718484 0 36.333661830718484 -9.0164166248014226 0 0 0 0 508.50621794522158 68.65598549915012 0 68.65598549915012 -142.69462108757034 0 0 0 0 2.8599858232266513 1.2302367078707448 0 1.2302367078707448 -0.94369866983500827 0 0 0 0 304.93001879748772 86.169835313110525 0 86.169835313110525 22.524097554793116 0 0 0 0 252.59543351367756 187.15334773603718 0 187.15334773603718 7.9146820304376888 0 0 0 0 257.97832805846701 145.08962372622227 0 145.08962372622227 -124.54159827159492 0 0 0 0 190.37238374935896 55.161300445234787 0 55.161300445234787 -17.870238279170735 0 0 0 0 241.66613598589902 69.182957685117799 0 69.182957685117799 20.589128563458871 0 0 0 0 230.23204021193669 208.93031594892273 0 208.93031594892273 98.115979566650822 0 0 0 0 187.955828435272 112.24580286735883 0 112.24580286735883 94.780412731768592 0 0 0 0 -1.6671483171238606 1.7925619314444745 0 1.7925619314444745 1.3248480818815693 0 0 0 0 93.976694756573124 -1.0478974248362647 0 -1.0478974248362647 12.665474040433764 0 0 0 0 140.42894382790109 87.39468053089945 0 87.39468053089945 31.043744911889007 0 0 0 0 119.44097913979203 -12.69227181037877 0 -12.69227181037877 -24.65463422148423 0 0 0 0 67.651923570934741 -36.579887896344644 0 -36.579887896344644 28.354313379297309 0 0 0 0 130.58102929170127 11.734574581118977 0 11.734574581118977 -9.6872713559760086 0 0 0 0 113.12610404094448 28.198884396088033 0 28.198884396088033 31.616821345347489 0 0 0 0 43.538757040172641 -4.1623032982683981 0 -4.1623032982683981 -13.951880209528099 0 0 0 0 35.762141380786488 5.7862634459993387 0 5.7862634459993387 3.926946313683402 0 0 0 0 34.863467443268746 15.589512336054668 0 15.589512336054668 -10.679290834408675 0 0 0 0 7.5090962316146488 9.3950390095594827 0 9.3950390095594827 -0.95206152432916102 0 0 0 0 329.56390117706906 -140.58359237727109 0 -140.58359237727109 44.233961183310385 0 0 0 0 307.19516207856941 71.23047790619421 0 71.23047790619421 -18.785380093328968 0 0 0 0 23.589738047492574 6.6195507725988136 0 6.6195507725988136 23.229686455060687 0 0 0 0 127.35515814363316 -80.353428187313057 0 -80.353428187313057 27.394753843625949 0 0 0 0 350.18224345585622 168.306700522151 0 168.306700522151 -21.536439319969531 0 0 0 0 3.9994017820889667 0.58083430106149692 0 0.58083430106149692 0.36290644047036213 0 0 0 0 39.312482485704095 124.18970433599975 0 124.18970433599975 248.11256890373625 0 0 0 0 2.9245889127996634 42.09495057917502 0 42.09495057917502 21.078516273078094 0 0 0 0 8.9250697637289704 37.02359976160767 0 37.02359976160767 25.315551877638427 0 0 0 0 13.550321214538688 40.433181810995208 0 40.433181810995208 5.0722213566664109 0 0 0 0 89.384609633663786 75.457844318858861 0 75.457844318858861 -92.987283148452207 0 0 0 0 50.001432560617104 65.193148805625697 0 65.193148805625697 -21.764441536309278 0 0 0 0 46.613544436811935 93.188486398366877 0 93.188486398366877 28.4354131549062 0 0 0 0 73.20566390856402 34.403630881751724 0 34.403630881751724 -63.176216204700722 0 0 0 0 88.91822012400371 108.85806668532223 0 108.85806668532223 -42.070010581462157 0 0 0 0 217.03652819206764 50.43739653411194 0 50.43739653411194 -247.48253443719477 0 0 0 0 41.996780262168613 -72.714082142268126 0 -72.714082142268126 -34.756407392053006 0 0 0 0 89.67559125169646 -75.365018935328408 0 -75.365018935328408 -175.31109263778205 0 0 0 0 82.615811821637806 9.8066436845547962 0 9.8066436845547962 -12.704351952818534 0 0 0 0 49.171111146879412 -17.622267124222162 0 -17.622267124222162 -76.922610850408091 0 0 0 0 15.310313330584904 -38.380247638226137 0 -38.380247638226137 54.793169003726689 0 0 0 0 80.876029747043503 -72.839795550291456 0 -72.839795550291456 -45.789140074695297 0 0 0 0 28.993127626657952 64.960185797011945 0 64.960185797011945 28.388762858259724 0 0 0 0 42.828534581960412 155.92674373801492 0 155.92674373801492 324.131018083448 0 0 0 0 82.176168657329981 -9.4449538371400195 0 -9.4449538371400195 -21.488538778192606 0 0 0 0 271.95919222554949 -179.64219687094646 0 -179.64219687094646 130.90327750049073 0 0 0 0 -76.738630059786374 137.03404756422788 0 137.03404756422788 -361.11467227350317 0 0 0 0 597.0361835531221 141.43968714464245 0 141.43968714464245 -414.96955712251793 0 0 0 0 518.64949372444244 -26.209828061695589 0 -26.209828061695589 -456.20155407091943 0 0 0 0 231.4659426923572 -80.820661539180946 0 -80.820661539180946 -283.51308115523352 0 0 0 0 -160.73363343574238 485.39354055108697 0 485.39354055108697 -289.03183482115128 0 0 0 0 -76.013348063122976 574.62200841782897 0 574.62200841782897 -588.51337080230041 0 0 0 0 10.649767514669662 6.3154154712617654 0 6.3154154712617654 0.094945600425667465 0 0 0 0 -166.60793503515015 115.09697580826014 0 115.09697580826014 -312.83634193821899 0 0 0 0 38.543643646713463 173.4103639294317 0 173.4103639294317 -226.46639060612142 0 0 0 0 -28.722973072974128 398.28653524504989 0 398.28653524504989 -457.24915684231564 0 0 0 0 -369.48830219754018 162.7702245088567 0 162.7702245088567 203.2809369270617 0 0 0 0 -61.310602056226344 73.100278657811941 0 73.100278657811941 -2.1022505125447424 0 0 0 0 21.345587596987158 34.942287223817388 0 34.942287223817388 -14.492454309403641 0 0 0 0 -0.67119238342274912 -34.554518606220768 0 -34.554518606220768 -37.18519009415769 0 0 0 0 153.81925391138793 -17.156933873897742 0 -17.156933873897742 84.248314587788173 0 0 0 0 222.65115123704891 -16.955446556411516 0 -16.955446556411516 -45.297356186009893 0 0 0 0 67.773631706073502 197.55329771347942 0 197.55329771347942 -142.5379507954749 0 0 0 0 -70.953493588093352 272.79567020352636 0 272.79567020352636 -78.108642669186338 0 0 0 0 -316.45864140830963 434.88995746267642 0 434.88995746267642 -322.24839141019856 0 0 0 0 -86.871016150664218 214.45826701482093 0 214.45826701482093 -178.22258139208679 0 0 0 0 -189.12562614661874 98.85233512128724 0 98.85233512128724 -48.612810928190299 0 0 0 0 9.2880344465011149 27.773281800832478 0 27.773281800832478 -6.270960121508665 0 0 0 0 12.595189344577193 6.7325696841017191 0 6.7325696841017191 -0.62197985576098391 0 0 0 0 63.8221264415306 11.618327561087789 0 11.618327561087789 -15.768376683821035 0 0 0 0 70.627832356360159 9.0370248051640374 0 9.0370248051640374 -11.009554920695905 0 0 0 0 184.28143713425379 -31.272803284648376 0 -31.272803284648376 -37.760609663593641 0 0 0 0 12.513367566823618 -1.8240317236389245 0 -1.8240317236389245 -2.6976587700632599 0 0 0 0 10.073305798509402 6.5317660094193286 0 6.5317660094193286 -8.2950217525008263 0 0 0 0 73.394153136119712 8.3844404398810184 0 8.3844404398810184 -13.763340153152967 0 0 0 0 71.448530800174922 7.5991791783008011 0 7.5991791783008011 -12.814754609407828 0 0 0 0 44.755058480489453 9.6492341654299594 0 9.6492341654299594 -16.953789660072115 0 0 0 0 66.445096802315675 3.155151453020153 0 3.155151453020153 -14.347294312912709 0 0 0 0 72.657464960066136 4.7023493148308262 0 4.7023493148308262 -13.983402974039564 0 0 0 0 63.829541566723492 6.2820106265990034 0 6.2820106265990034 -11.386210508116164 0 0 0 0 72.033663768335828 6.6388314296154931 0 6.6388314296154931 -15.154853446550987 0 0 0 0 57.98149321693927 1.0223784719537434 0 1.0223784719537434 -12.133250511527422 0 0 0 0 24.331003359576243 34.702160402781644 0 34.702160402781644 -34.628439896360305 0 0 0 0 27.000735154520953 25.737283005247889 0 25.737283005247889 -29.253232999588306 0 0 0 0 24.318160969720338 34.878662607012302 0 34.878662607012302 -23.005810798463358 0 0 0 0 -170.0862606574301 48.150590139956648 0 48.150590139956648 -206.95976175040443 0 0 0 0 -97.089505207608454 427.69086785004197 0 427.69086785004197 -459.32392621827341 0 0 0 0 6.896896049607335 2.8933627703550826 0 2.8933627703550826 -1.4550926340878099 0 0 0 0 -190.70974412386568 460.97792004726205 0 460.97792004726205 -378.29077472140636 0 0 0 0 -308.4118663467998 330.78869442108908 0 330.78869442108908 -366.46648681638953 0 0 0 0 282.94563373568235 654.90574268682894 0 654.90574268682894 -345.65544196694475 0 0 0 0 259.37012970034266 685.00634596775774 0 685.00634596775774 -310.93947234619748 0 0 0 0 4.6703242799593454 0.5312145559835173 0 0.5312145559835173 -0.11427563128454776 0 0 0 0 -77.895816512260353 22.226443966447221 0 22.226443966447221 85.998723686021663 0 0 0 0 692.58088968135417 132.8991595608727 0 132.8991595608727 -1073.8341834514733 0 0 0 0 -5.4382774659741528 1.7161365393985051 0 1.7161365393985051 0.67323896299979946 0 0 0 0 -37.801181762770284 35.233297970677086 0 35.233297970677086 13.934339498337067 0 0 0 0 85.903140932474344 -17.907125885954883 0 -17.907125885954883 11.834761357247771 0 0 0 0 147.02849660323409 23.350281417207043 0 23.350281417207043 -26.413537163759429 0 0 0 0 167.2169432277442 -65.74250692414671 0 -65.74250692414671 61.86788777901802 0 0 0 0 -1.0788659234368936 14.057382110494927 0 14.057382110494927 -5.6795518379329089 0 0 0 0 26.999836568444152 25.83492579969959 0 25.83492579969959 -39.71914666746494 0 0 0 0 18.772159585176269 11.888669340590241 0 11.888669340590241 -11.645586568930412 0 0 0 0 16.782958073953012 17.069268402337428 0 17.069268402337428 -7.0909675564512638 0 0 0 0 21.560709265221575 7.0191204754682985 0 7.0191204754682985 -13.074086586030335 0 0 0 0 29.184811991406605 11.714267448622991 0 11.714267448622991 -22.404978635946918 0 0 0 0 55.207711787719745 -2.0097517846588744 0 -2.0097517846588744 -22.41537305052907 0 0 0 0 33.230632988449315 14.373642242196894 0 14.373642242196894 -8.5444910648082697 0 0 0 0 26.481137794151437 26.687785219350189 0 26.687785219350189 -29.815712041557163 0 0 0 0 45.659425004017493 28.668951111751227 0 28.668951111751227 -19.567588714516027 0 0 0 0 42.382109551923349 31.424440173881521 0 31.424440173881521 -28.986744234089201 0 0 0 0 49.36891418430578 7.8932843892302458 0 7.8932843892302458 -14.477833995635265 0 0 0 0 36.892181708336182 18.786587921564262 0 18.786587921564262 -10.117970939042646 0 0 0 0 28.074327066260594 39.796621981356168 0 39.796621981356168 -24.643526681024014 0 0 0 0 32.822924215375679 40.902582121534124 0 40.902582121534124 -24.922095304784307 0 0 0 0 61.6566290888004 38.752379476380156 0 38.752379476380156 17.366726799590111 0 0 0 0 38.550533751066212 19.126528012351145 0 19.126528012351145 -0.78533198375834301 0 0 0 0 59.822848898795201 12.025134543223317 0 12.025134543223317 -3.8456721174570667 0 0 0 0 28.6146804638866 33.096700719448016 0 33.096700719448016 -11.123425502539614 0 0 0 0 74.552235103015846 28.706124416674442 0 28.706124416674442 -38.430388791010273 0 0 0 0 54.237010763288538 8.2268585655298683 0 8.2268585655298683 -11.018246727381058 0 0 0 0 10.655430370317902 4.5868067219376467 0 4.5868067219376467 -3.1311312962789764 0 0 0 0 107.50255982309318 -6.0784619106257196 0 -6.0784619106257196 -73.829443562638517 0 0 0 0 59.799369425920304 11.641062840152699 0 11.641062840152699 -8.3086611743265166 0 0 0 0 55.519591613813205 10.666391149660626 0 10.666391149660626 -11.548780866914562 0 0 0 0 82.76634583302075 2.0266771319658119 0 2.0266771319658119 -15.552272787822574 0 0 0 0 15.336923902585738 8.2820690968987094 0 8.2820690968987094 -17.243935140504473 0 0 0 0 63.975662537239259 8.2302061643363231 0 8.2302061643363231 -12.192115816553041 0 0 0 0 74.381826324191934 9.4792040891634315 0 9.4792040891634315 -15.936173534247246 0 0 0 0 54.50269213959109 7.1066225392250999 0 7.1066225392250999 -12.635651211712684 0 0 0 0 42.418721276721101 1.7742188032014248 0 1.7742188032014248 -2.4166558140251717 0 0 0 0 61.170198189269286 3.2860684849028985 0 3.2860684849028985 -12.92342717921747 0 0 0 0 59.741854438412702 7.403424042030565 0 7.403424042030565 -16.538884133457941 0 0 0 0 100.78324413966038 -41.612973687788269 0 -41.612973687788269 -75.469311420582926 0 0 0 0 52.556239714300318 5.704837973396053 0 5.704837973396053 -8.4138071732312483 0 0 0 0 33.460636475736237 -0.69276519435598516 0 -0.69276519435598516 -3.8137785624634564 0 0 0 0 26.666747442990179 14.785879268317814 0 14.785879268317814 5.4515513005047653 0 0 0 0 32.926118619681802 6.3560529844914981 0 6.3560529844914981 -3.8779308456084678 0 0 0 0 58.914900414267322 29.424720285495646 0 29.424720285495646 19.56268551486626 0 0 0 0 -12.991800986696035 -45.261156614544689 0 -45.261156614544689 -94.979594944163523 0 0 0 0 -63.102260848478181 -87.570564451182179 0 -87.570564451182179 -38.923904669655741 0 0 0 0 29.635022408794612 -64.195307588217275 0 -64.195307588217275 -47.914540161063172 0 0 0 0 -79.160254432223155 -119.52249841387759 0 -119.52249841387759 -159.67756359188922 0 0 0 0 2.6181335999438247 1.7428805807968502 0 1.7428805807968502 -0.50660525967609749 0 0 0 0 10.844136197920307 27.934242548884818 0 27.934242548884818 6.0337962488443964 0 0 0 0 -11.085596205724869 52.468753402076103 0 52.468753402076103 -11.898394841517998 0 0 0 0 93.568619406025391 17.427116910859567 0 17.427116910859567 -72.703434339578834 0 0 0 0 195.40053425666702 -24.281273741933255 0 -24.281273741933255 -76.47981151616645 0 0 0 0 189.88630038562405 66.020394849652504 0 66.020394849652504 -38.068498945913575 0 0 0 0 57.597093847303768 -29.253967703874004 0 -29.253967703874004 71.518811501112353 0 0 0 0 168.12168630078668 37.912642664402711 0 37.912642664402711 -0.010054398741065786 0 0 0 0 59.685698554065311 -1.2525055011405895 0 -1.2525055011405895 -26.094963769137145 0 0 0 0 32.713875048910268 48.834652788782407 0 48.834652788782407 70.609956016701659 0 0 0 0 -8.7630123646667926 10.734121871156709 0 10.734121871156709 4.7725274659536296 0 0 0 0 101.40509004087653 -43.438348299277784 0 -43.438348299277784 -3.2536426390901401 0 0 0 0 67.054634357253235 -30.214489302193666 0 -30.214489302193666 0.76172060378922879 0 0 0 0 40.411812973992255 -0.80100755268925639 0 -0.80100755268925639 -6.6703963515995035 0 0 0 0 45.115201059961691 10.256281187415425 0 10.256281187415425 -8.6564967634863024 0 0 0 0 58.892025534722052 20.893488257783282 0 20.893488257783282 -38.686667349743914 0 0 0 0 87.487415889924193 -34.289667841525343 0 -34.289667841525343 2.011730203047768 0 0 0 0 37.335362377751153 14.4991345108632 0 14.4991345108632 -8.4941144177644219 0 0 0 0 42.953865181096745 11.960031030197072 0 11.960031030197072 -6.010174567972439 0 0 0 0 29.514464989612605 7.5898794889342582 0 7.5898794889342582 3.755101160446968 0 0 0 0 44.264266119454987 -7.2805577138346962 0 -7.2805577138346962 -26.04633626851502 0 0 0 0 102.44562805521855 104.33491740336871 0 104.33491740336871 66.29911987630048 0 0 0 0 5.3948789577836465 3.1849912920478261 0 3.1849912920478261 0.55223826086839034 0 0 0 0 4.4721991756246098 3.2338632448231976 0 3.2338632448231976 -1.0819693448420575 0 0 0 0 81.842156898681424 -24.814149044107165 0 -24.814149044107165 -20.60744671900316 0 0 0 0 40.645250135519746 25.736983634781502 0 25.736983634781502 -0.0029607590044284805 0 0 0 0 168.9541331694636 -15.09358610929686 0 -15.09358610929686 5.5408904654605067 0 0 0 0 9.7189177451582509 9.4127132672335581 0 9.4127132672335581 -6.3010695869154718 0 0 0 0 3.4766518630858343 -0.50036275174042544 0 -0.50036275174042544 -0.16774735890501485 0 0 0 0 198.32515042161685 27.345298826299121 0 27.345298826299121 -0.19848666590065872 0 0 0 0 162.14734125608811 31.969203379711146 0 31.969203379711146 25.055824452958056 0 0 0 0 141.95969784999033 -16.815052028414573 0 -16.815052028414573 -22.413985898603798 0 0 0 0 140.33221513848412 18.586864756749645 0 18.586864756749645 23.520461039183942 0 0 0 0 174.78300831691013 13.736524954449486 0 13.736524954449486 0.85050435426364857 0 0 0 0 118.64177961970563 -26.437072942263097 0 -26.437072942263097 16.741994078239657 0 0 0 0 116.84803967716289 -22.466783972797842 0 -22.466783972797842 8.3289793010315947 0 0 0 0 17.510857124813185 -4.7469631273311563 0 -4.7469631273311563 -3.28808846157402 0 0 0 0 222.40251919323055 30.340059122881769 0 30.340059122881769 30.791009636383215 0 0 0 0 170.61172573946533 10.979928216668528 0 10.979928216668528 36.124981994660502 0 0 0 0 187.3967331405147 48.361334194366783 0 48.361334194366783 33.597195461425684 0 0 0 0 243.89310401227704 81.243570910090426 0 81.243570910090426 43.39825111269414 0 0 0 0 455.32104584257468 134.48416213284946 0 134.48416213284946 19.365482295868745 0 0 0 0 306.54860116667987 56.078631922371294 0 56.078631922371294 0.79395258398007296 0 0 0 0 300.76718913743389 311.42890842092061 0 311.42890842092061 232.2253725576933 0 0 0 0 1.8695333238267722 0.22805336832911394 0 0.22805336832911394 -0.12359257243984505 0 0 0 0 427.04049182187009 265.86394311058046 0 265.86394311058046 131.74911924642063 0 0 0 0 314.23831627007166 155.25280253763879 0 155.25280253763879 55.672096460435668 0 0 0 0 274.69790921715321 155.34792318972131 0 155.34792318972131 75.708864890437724 0 0 0 0 272.77752649371541 86.357124005868627 0 86.357124005868627 41.369312852377377 0 0 0 0 277.73691997105198 77.944039881225976 0 77.944039881225976 55.617199480170591 0 0 0 0 207.78421556694229 58.002110306416768 0 58.002110306416768 67.265339190132977 0 0 0 0 216.23554841813166 65.063370462771942 0 65.063370462771942 71.210666440653739 0 0 0 0 233.27027580124559 93.550978994619669 0 93.550978994619669 113.05244248854473 0 0 0 0 177.58849236126116 54.81982797438895 0 54.81982797438895 128.35902325288046 0 0 0 0 229.5272958369751 133.55287785947274 0 133.55287785947274 83.072163689215145 0 0 0 0 234.23890421749093 157.51287683508667 0 157.51287683508667 71.835531920961756 0 0 0 0 223.99915591336321 121.41983629422168 0 121.41983629422168 116.5216935387116 0 0 0 0 165.32873134579859 179.65781039913156 0 179.65781039913156 280.06005370323976 0 0 0 0 196.33469658479589 150.90478815571277 0 150.90478815571277 219.89284965425136 0 0 0 0 163.21972988339257 89.291262085822439 0 89.291262085822439 214.39217447204237 0 0 0 0 199.06828193174442 138.24794212815647 0 138.24794212815647 135.04018023235949 0 0 0 0 156.03696785791544 116.1273972669791 0 116.1273972669791 274.20099624298552 0 0 0 0 179.13350885138789 57.885504285505704 0 57.885504285505704 128.73591388296157 0 0 0 0 243.98101341561414 -150.29849102318258 0 -150.29849102318258 -34.030065319841015 0 0 0 0 83.258765546490451 -34.696312315004263 0 -34.696312315004263 10.934799770428267 0 0 0 0 15.983283307415718 5.9858989654233454 0 5.9858989654233454 -3.2247465428719426 0 0 0 0 162.1337728354556 66.932866337233122 0 66.932866337233122 142.58683657411027 0 0 0 0 -156.07093906663431 -408.28073953312833 0 -408.28073953312833 -432.02669618838218 0 0 0 0 -888.26878121180926 291.23759475323277 0 291.23759475323277 -197.21532203291508 0 0 0 0 -3.1344077921539792 -3.0982709467747824 0 -3.0982709467747824 4.4911483568733992 0 0 0 0 -29.782685428974219 -125.66173990514108 0 -125.66173990514108 -484.42420210416367 0 0 0 0 -76.189242807740811 -132.45429343250862 0 -132.45429343250862 -368.64579082456385 0 0 0 0 -87.77099049964454 -96.678301460497096 0 -96.678301460497096 -424.40013859464852 0 0 0 0 -26.489061938598752 -152.72795103849967 0 -152.72795103849967 -445.7844408435476 0 0 0 0 76.886538461927557 119.45162691269206 0 119.45162691269206 -259.6864089769042 0 0 0 0 -98.183897818962578 -13.135368804546033 0 -13.135368804546033 -297.34579365355148 0 0 0 0 -185.31119994237088 -286.99771082537245 0 -286.99771082537245 -454.79077576493364 0 0 0 0 -379.93370374839287 -40.35604487900855 0 -40.35604487900855 -232.66809424854227 0 0 0 0 79.732116694343858 298.41137944084721 0 298.41137944084721 -213.16094606725346 0 0 0 0 218.16786041652085 178.39613020982642 0 178.39613020982642 -312.32446566338513 0 0 0 0 164.30820001802931 76.156909895639728 0 76.156909895639728 -361.4815462265824 0 0 0 0 384.17007290694164 115.93841173243163 0 115.93841173243163 -345.16376895042629 0 0 0 0 404.63324990683759 -156.82741495824666 0 -156.82741495824666 -73.000785302035638 0 0 0 0 210.96549203619361 108.09962956993195 0 108.09962956993195 28.182728898401365 0 0 0 0 258.45060981321149 18.938464831403508 0 18.938464831403508 -110.52437519796126 0 0 0 0 228.88406681019114 128.32812779934284 0 128.32812779934284 -221.65226136050251 0 0 0 0 334.11060667014317 3.605066604124886 0 3.605066604124886 -140.37224877289373 0 0 0 0 577.81361077132169 64.144683168594383 0 64.144683168594383 -362.18546617107268 0 0 0 0 -166.23185900301905 283.69447589825268 0 283.69447589825268 120.88771850273224 0 0 0 0 50.278456026682761 -12.953291232272335 0 -12.953291232272335 3.3311764622643261 0 0 0 0 22.931764459164697 -7.145163591882465 0 -7.145163591882465 -9.2086507760859604 0 0 0 0 59.875252239008717 -22.719922044325685 0 -22.719922044325685 2.8836785672926606 0 0 0 0 140.35892447314109 20.909830237096234 0 20.909830237096234 50.315217719386162 0 0 0 0 215.84554026104161 51.637206412412311 0 51.637206412412311 52.90706114052697 0 0 0 0 145.43997218777076 14.38397121350161 0 14.38397121350161 77.513721488620973 0 0 0 0 158.83276936545735 -3.9118906485855547 0 -3.9118906485855547 29.739347900235252 0 0 0 0 813.64412110851845 -915.20620809730553 0 -915.20620809730553 -219.77583784886883 0 0 0 0 106.83546086872437 -32.717007616279091 0 -32.717007616279091 7.4631890412738064 0 0 0 0 435.89389250488966 10.989289869428001 0 10.989289869428001 -46.927706597378922 0 0 0 0 319.93301796024025 191.84256162689815 0 191.84256162689815 95.526784998930822 0 0 0 0 292.49504003041511 28.225262834534437 0 28.225262834534437 -0.11455507471780729 0 0 0 0 119.67918067969003 102.31594537813214 0 102.31594537813214 55.675654823189241 0 0 0 0 81.992162153073878 4.45344635979703 0 4.45344635979703 -6.3214216140669812 0 0 0 0 1.9377396630288786 -0.32087455886448879 0 -0.32087455886448879 -0.059962931220577387 0 0 0 0 118.37243921568734 161.72019511684317 0 161.72019511684317 1.5046794325398167 0 0 0 0 126.84797697953763 36.171850858923023 0 36.171850858923023 -63.061216198980247 0 0 0 0 3.6311517878077666 -0.33319511463187723 0 -0.33319511463187723 -0.443392190339371 0 0 0 0 62.69386616905831 17.56080754729593 0 17.56080754729593 7.9675671087543289 0 0 0 0 61.167692317379988 2.2221665024040167 0 2.2221665024040167 0.11319691549107611 0 0 0 0 5.4680111947818659 14.489526950634541 0 14.489526950634541 8.8419900780236897 0 0 0 0 -2.3055038128513843 -5.2928934827031897 0 -5.2928934827031897 -0.031181866653273924 0 0 0 0 195.49337301003834 230.99658631098274 0 230.99658631098274 215.72510637493917 0 0 0 0 63.376480599239585 96.264578289380481 0 96.264578289380481 107.42292983871712 0 0 0 0 203.39721141775954 190.97266526606617 0 190.97266526606617 67.174738051723907 0 0 0 0 233.11915442475583 154.58324764852421 0 154.58324764852421 101.48076068393812 0 0 0 0 118.08819870388834 124.9301915982139 0 124.9301915982139 110.53636257644328 0 0 0 0 200.59543600433972 168.60823844689656 0 168.60823844689656 106.008575421042 0 0 0 0 225.46461418551917 139.48703231106651 0 139.48703231106651 116.25185191732709 0 0 0 0 198.08674703907309 169.49031387688495 0 169.49031387688495 136.15852443860078 0 0 0 0 174.76368716732395 169.11250738705303 0 169.11250738705303 224.13910298651524 0 0 0 0 210.26719420538575 164.34136610456784 0 164.34136610456784 222.26016502849083 0 0 0 0 194.80147893403773 101.37466154683563 0 101.37466154683563 89.807194183629008 0 0 0 0 134.27906810661079 153.04990363229774 0 153.04990363229774 219.1056567703418 0 0 0 0 213.53412369466969 152.84570227492713 0 152.84570227492713 215.39965199064937 0 0 0 0 141.59701587363452 -132.84043901889785 0 -132.84043901889785 -123.48070854111049 0 0 0 0 2.7327562320497236 81.265384063884696 0 81.265384063884696 108.76336857622891 0 0 0 0 191.50180395742791 144.58352926925969 0 144.58352926925969 236.0579986459926 0 0 0 0 368.37012404195048 23.728981283107672 0 23.728981283107672 -6.6292110369907959 0 0 0 0 379.75068869051756 51.278997075387792 0 51.278997075387792 2.6969430662856553 0 0 0 0 343.48503084182084 241.95410185282759 0 241.95410185282759 278.41002003184008 0 0 0 0 223.66115417757828 146.44431221621244 0 146.44431221621244 231.60544562853761 0 0 0 0 329.01354922543214 324.08744010689992 0 324.08744010689992 444.59652445187976 0 0 0 0 -56.557374336727662 -258.84048588044971 0 -258.84048588044971 -437.82241421942308 0 0 0 0 33.226663851009107 -12.816250645995837 0 -12.816250645995837 4.706944100240019 0 0 0 0 -72.713008176782751 -127.17948424479164 0 -127.17948424479164 -285.46648587609957 0 0 0 0 171.23752058227547 241.0130523061091 0 241.0130523061091 411.67066465455235 0 0 0 0 53.791461819084589 -20.234614079130743 0 -20.234614079130743 6.4494992434687006 0 0 0 0 224.0512529581207 226.86087702056398 0 226.86087702056398 325.80887494364197 0 0 0 0 164.1786993636706 155.24748946444146 0 155.24748946444146 368.98292140630315 0 0 0 0 -149.97873947321386 -80.154529527471681 0 -80.154529527471681 -337.71983885586496 0 0 0 0 -128.46369612507988 -347.62082219825322 0 -347.62082219825322 -470.50498897927162 0 0 0 0 -36.568784667149885 -176.67794053130115 0 -176.67794053130115 -249.54408941272413 0 0 0 0 18.831940272837528 -127.43234971064794 0 -127.43234971064794 -79.310216958490855 0 0 0 0 -92.913919023016206 -110.00217992937235 0 -110.00217992937235 -58.602378567065443 0 0 0 0 14.365077012815163 -26.198893703422073 0 -26.198893703422073 -42.188955947404793 0 0 0 0 -34.064788291783771 -93.9364178916112 0 -93.9364178916112 -105.61290995941954 0 0 0 0 -88.40480016310903 -204.83130039281355 0 -204.83130039281355 -160.61364976696859 0 0 0 0 -117.16845687063324 -158.50151087632366 0 -158.50151087632366 -213.12196953906096 0 0 0 0 -24.626706972034299 -252.15384086466747 0 -252.15384086466747 -77.176398237715603 0 0 0 0 232.98764635059342 -198.84885344289114 0 -198.84885344289114 -140.41748955261392 0 0 0 0 -104.0696092138387 -118.20468185859772 0 -118.20468185859772 -158.83000974053266 0 0 0 0 26.348011204569048 -429.44004369381196 0 -429.44004369381196 -113.30574605155061 0 0 0 0 358.653856981633 72.717885807042791 0 72.717885807042791 -208.11964870932394 0 0 0 0 308.48998418622068 -0.41438589814981697 0 -0.41438589814981697 -219.4049860145164 0 0 0 0 308.91830661994754 19.169948517408443 0 19.169948517408443 -285.74553067982038 0 0 0 0 261.87997129197174 -56.132489902308123 0 -56.132489902308123 -221.86013693157975 0 0 0 0 369.44368325698451 -44.861446953985705 0 -44.861446953985705 -232.29069292922804 0 0 0 0 345.01178962753329 6.9781999136666855 0 6.9781999136666855 -160.58885395865491 0 0 0 0 421.46341037927778 54.02823223716041 0 54.02823223716041 -218.56887471706932 0 0 0 0 374.52716835014871 81.015212275993463 0 81.015212275993463 -152.10986064865938 0 0 0 0 593.5977221315261 218.93931603249166 0 218.93931603249166 -199.6318608073716 0 0 0 0 568.24108672805596 612.3117475265052 0 612.3117475265052 -343.28772387973419 0 0 0 0 394.01625139718817 56.102111699011701 0 56.102111699011701 -210.30812255983065 0 0 0 0 387.24442957536667 178.13569537272474 0 178.13569537272474 126.435415680972 0 0 0 0 548.22333637182601 -167.44921527748227 0 -167.44921527748227 -249.97081570955419 0 0 0 0 425.23639339585498 -24.586016193998034 0 -24.586016193998034 -486.93248039994478 0 0 0 0 368.4870503672646 65.9109485682593 0 65.9109485682593 -405.9947983272051 0 0 0 0 404.91522315237671 267.62742964860263 0 267.62742964860263 -836.87487431722036 0 0 0 0 365.79754535015672 116.1816722923777 0 116.1816722923777 -534.04740906550251 0 0 0 0 134.17910154597485 542.32170996837169 0 542.32170996837169 -298.69343095109866 0 0 0 0 -253.95442360453308 575.22021095039975 0 575.22021095039975 -150.60837166372721 0 0 0 0 202.39684008897166 -195.84408751032902 0 -195.84408751032902 -764.87363359322308 0 0 0 0 272.41909656746429 343.67768371664806 0 343.67768371664806 -43.924111575997813 0 0 0 0 273.51343101846214 351.99743595440822 0 351.99743595440822 -563.28666517301463 0 0 0 0 295.07376003090758 212.66157084451788 0 212.66157084451788 -355.19413249624819 0 0 0 0 383.19264952472804 180.45474680185777 0 180.45474680185777 -445.07799183564748 0 0 0 0 385.55716203857446 182.79865897261197 0 182.79865897261197 -593.60909897095826 0 0 0 0 242.21687840102823 292.53783846345186 0 292.53783846345186 -352.2911627393496 0 0 0 0 347.32203751750058 132.21940000840823 0 132.21940000840823 -287.81541188571009 0 0 0 0 287.40487446970656 157.73780514243299 0 157.73780514243299 -430.0226738845804 0 0 0 0 191.9265563088411 120.37732306597582 0 120.37732306597582 -336.92977070299162 0 0 0 0 271.57757720578229 98.36367317514123 0 98.36367317514123 -406.4793283318304 0 0 0 0 353.75351848397986 75.32104102214862 0 75.32104102214862 -401.73701090718276 0 0 0 0 297.04273038817337 55.735956376180297 0 55.735956376180297 -399.79151830282132 0 0 0 0 333.89780940959463 -40.893286707505183 0 -40.893286707505183 -240.47726035216078 0 0 0 0 261.34649981338589 -21.415775827960033 0 -21.415775827960033 -348.33306720879227 0 0 0 0 264.31353804281389 -34.008254572405264 0 -34.008254572405264 -318.33374819573328 0 0 0 0 168.51264126997194 11.683991668448471 0 11.683991668448471 -368.48597780066848 0 0 0 0 41.519696230723639 -24.713028120494528 0 -24.713028120494528 -344.65389824461681 0 0 0 0 -90.214527852425817 -190.75052805686482 0 -190.75052805686482 -331.23699974041938 0 0 0 0 114.92532333199051 -93.583651461636009 0 -93.583651461636009 -373.93550913948366 0 0 0 0 119.95929131707089 -356.60127929559894 0 -356.60127929559894 -442.63941340754582 0 0 0 0 78.984250327572227 -280.77143127143961 0 -280.77143127143961 -370.63426338381396 0 0 0 0 92.099775821785443 -98.844510676452046 0 -98.844510676452046 -289.88840746174026 0 0 0 0 194.130746184499 -164.05406277639554 0 -164.05406277639554 -331.69502294055707 0 0 0 0 73.460166560992718 -25.648891365756164 0 -25.648891365756164 7.1609620472447606 0 0 0 0 202.46043177891988 -135.5814245299174 0 -135.5814245299174 -608.68847346787425 0 0 0 0 744.35865034529706 -479.19812975533387 0 -479.19812975533387 -450.99310227252136 0 0 0 0 256.23666468029842 -302.07580337258378 0 -302.07580337258378 -420.95335350773485 0 0 0 0 283.62555191007414 -278.06083602408006 0 -278.06083602408006 -432.55905962088855 0 0 0 0 86.271417647207272 -239.81550990269488 0 -239.81550990269488 -258.14191055726496 0 0 0 0 115.9418758367683 -128.59175268684567 0 -128.59175268684567 -270.20213259346178 0 0 0 0 238.81848738793633 -244.15758042964023 0 -244.15758042964023 -452.15752023106722 0 0 0 0 301.18655703254626 -73.621471207059813 0 -73.621471207059813 -300.92549930221082 0 0 0 0 201.77020710885699 -184.57291731640214 0 -184.57291731640214 -270.99361453998654 0 0 0 0 260.12984486859932 -183.16447658035861 0 -183.16447658035861 -331.54868519033101 0 0 0 0 296.70653509869589 -70.599188910277462 0 -70.599188910277462 -244.7978609978835 0 0 0 0 373.4142658837809 -59.412617761731781 0 -59.412617761731781 44.648543672943561 0 0 0 0 356.15815194989864 -152.52150570364216 0 -152.52150570364216 -141.4006488358209 0 0 0 0 460.179040439034 -43.699128163302703 0 -43.699128163302703 -114.64319023943972 0 0 0 0 26.421496012932039 -180.75744700230689 0 -180.75744700230689 160.40313467264878 0 0 0 0 229.63910713273435 -261.00417640516338 0 -261.00417640516338 -124.28044805338777 0 0 0 0 410.01877564594906 -238.01619605120482 0 -238.01619605120482 -136.53497598605736 0 0 0 0 -34.837589332644711 -38.4671697747699 0 -38.4671697747699 33.826987876502244 0 0 0 0 577.76322509412421 -157.8123078598469 0 -157.8123078598469 30.848262092185905 0 0 0 0 442.36138528473384 -310.93320060619226 0 -310.93320060619226 68.537602494897328 0 0 0 0 -1.3510622295134525 3.0789641877830718 0 3.0789641877830718 3.8567575407180499 0 0 0 0 519.64877965975029 -261.72467127115215 0 -261.72467127115215 99.838151200095126 0 0 0 0 678.76020646282996 -257.03851587508052 0 -257.03851587508052 -76.987985455170929 0 0 0 0 532.34087937367167 -146.61682281340998 0 -146.61682281340998 -159.67575162683897 0 0 0 0 560.959712797674 -71.264184785325597 0 -71.264184785325597 -112.12659006694957 0 0 0 0 448.67140865258261 18.003365750565536 0 18.003365750565536 -175.31993420827348 0 0 0 0 559.33285815178533 87.030162200444465 0 87.030162200444465 -179.94920498913461 0 0 0 0 494.37479961787176 -70.003102175379354 0 -70.003102175379354 -121.20784919136304 0 0 0 0 543.21873102681275 136.06307553613829 0 136.06307553613829 -329.0942307053956 0 0 0 0 638.70528953976464 13.37707976312231 0 13.37707976312231 -262.66369289899876 0 0 0 0 595.18371895761084 78.366246744489672 0 78.366246744489672 -352.13278035566873 0 0 0 0 520.73956599213125 122.50057033838993 0 122.50057033838993 -314.35575741787761 0 0 0 0 807.97989383719687 -94.391699394084753 0 -94.391699394084753 -340.47816971109518 0 0 0 0 952.41667304499424 -172.03334307367459 0 -172.03334307367459 -273.59836105633417 0 0 0 0 946.75345640683372 -42.544387523844762 0 -42.544387523844762 91.677573856701201 0 0 0 0 1155.6857884124984 -571.16469415038591 0 -571.16469415038591 48.019042398256715 0 0 0 0 73.417666557929806 0.18948138915880008 0 0.18948138915880008 1.1743801422380784 0 0 0 0 2908.9012288866688 -472.02067929646046 0 -472.02067929646046 -217.40268114707214 0 0 0 0 16.219792849299282 23.005774225141224 0 23.005774225141224 2.8574546999610533 0 0 0 0 1133.8898042236688 -439.8429870017917 0 -439.8429870017917 373.26290420917303 0 0 0 0 68.888415799970971 -36.438362639015395 0 -36.438362639015395 585.14276729346079 0 0 0 0 62.988982764752478 -8.5371802707198867 0 -8.5371802707198867 -3.5735823165627263 0 0 0 0 83.865795605881431 -8.189125180116207 0 -8.189125180116207 -0.50300170126365629 0 0 0 0 476.75061025198374 -583.90933212314121 0 -583.90933212314121 544.01040338526582 0 0 0 0 691.60949471486674 -305.90385858824629 0 -305.90385858824629 -103.05674739097685 0 0 0 0 75.826417797987233 -281.76289046574675 0 -281.76289046574675 319.90038655906119 0 0 0 0 598.75789239885125 -435.1805258343943 0 -435.1805258343943 166.22204136937398 0 0 0 0 195.88984008548141 12.363664642469303 0 12.363664642469303 16.580842195590094 0 0 0 0 106.0962106426814 -33.412558277641438 0 -33.412558277641438 4.2459582656811108 0 0 0 0 9.7033561250859037 -0.36308779199372054 0 -0.36308779199372054 6.7737815953634239 0 0 0 0 46.897577777075639 -24.091528969621095 0 -24.091528969621095 -17.80864055778693 0 0 0 0 14.727929753651551 -33.241497579831957 0 -33.241497579831957 -11.992124950800644 0 0 0 0 24.608784329684568 -17.196719077772286 0 -17.196719077772286 19.894663588298499 0 0 0 0 51.049144245445547 -20.567445293034531 0 -20.567445293034531 6.0322756266575102 0 0 0 0 210.9257630742286 -32.281742767120249 0 -32.281742767120249 -128.72789655666566 0 0 0 0 49.990139830915723 -18.298889546709688 0 -18.298889546709688 1.7533014072432707 0 0 0 0 27.132037061630399 -14.53158472220548 0 -14.53158472220548 -3.9098502051310788 0 0 0 0 31.396032954413016 -14.78489136581053 0 -14.78489136581053 2.9000846963101035 0 0 0 0 12.9723579117721 -2.476453362368801 0 -2.476453362368801 -1.8456011018393568 0 0 0 0 103.17818598593658 -0.25065023989714064 0 -0.25065023989714064 -7.6532921793477726 0 0 0 0 40.684173827801715 -21.264672442621304 0 -21.264672442621304 -9.6730752729472442 0 0 0 0 17.330009331381408 -20.878211883639935 0 -20.878211883639935 -10.015051353536833 0 0 0 0 28.531016325039673 -35.194211845775499 0 -35.194211845775499 -2.042446648083569 0 0 0 0 10.987624007626437 -27.49915064568313 0 -27.49915064568313 2.3202970002403163 0 0 0 0 11.199426789960157 -0.53315417747364791 0 -0.53315417747364791 -4.8231940008713536 0 0 0 0 -70.581184234604734 70.797906285303952 0 70.797906285303952 149.08862351331118 0 0 0 0 460.24130220478401 -120.27364629494241 0 -120.27364629494241 -154.65966355076762 0 0 0 0 -1.0903090434978893 0.75868267702090009 0 0.75868267702090009 -0.38588130279206467 0 0 0 0 -47.563500939249934 -36.639847642039058 0 -36.639847642039058 -21.623135977020866 0 0 0 0 115.18295409714483 -50.92332458263445 0 -50.92332458263445 23.025550832744557 0 0 0 0 43.992829199436528 0.80470472700289974 0 0.80470472700289974 -58.034367431770079 0 0 0 0 7.7346393540381939 -22.415120993406617 0 -22.415120993406617 -10.430520760122967 0 0 0 0 119.8018802193219 3.7024763803783571 0 3.7024763803783571 -16.480158237974138 0 0 0 0 -20.976930102318875 4.0828177611374485 0 4.0828177611374485 13.74522247320192 0 0 0 0 81.794607392126636 -7.0057286411301902 0 -7.0057286411301902 -0.1895271360881452 0 0 0 0 83.412279961077729 -11.173876710026889 0 -11.173876710026889 -10.758370048777579 0 0 0 0 28.422963767653805 31.326548061970186 0 31.326548061970186 3.7242374354804682 0 0 0 0 61.705983299107174 -1.3200799253222613 0 -1.3200799253222613 -3.9653291075210291 0 0 0 0 374.11351351450867 50.127749288000814 0 50.127749288000814 -179.38476318303583 0 0 0 0 1.6089616730290004 -16.144076320402426 0 -16.144076320402426 -16.85739737368722 0 0 0 0 74.489028315540054 4.6589972580786707 0 4.6589972580786707 -1.570703487173887 0 0 0 0 86.354331554128294 2.6953251215686578 0 2.6953251215686578 -13.600170319597964 0 0 0 0 2983.1675642789287 -2092.0103149154729 0 -2092.0103149154729 18.860838690590754 0 0 0 0 2898.9694725185545 -258.01058491908589 0 -258.01058491908589 1514.0787186894886 0 0 0 0 -0.23928188594641142 0.715905914274785 0 0.715905914274785 -0.57895675616629205 0 0 0 0 87.778931248030858 2.7725014418847422 0 2.7725014418847422 -0.94698983850139484 0 0 0 0 86.166361152318132 -2.7614455595848995 0 -2.7614455595848995 -7.541432247389821 0 0 0 0 83.435217707199627 -66.352321914738241 0 -66.352321914738241 -160.04483239213732 0 0 0 0 188.60261929615808 -84.191380558098899 0 -84.191380558098899 -157.61668728364384 0 0 0 0 107.11524165718583 -130.69853757328974 0 -130.69853757328974 -151.57851745981952 0 0 0 0 84.958106419668184 -81.698007723833143 0 -81.698007723833143 -100.73891033531618 0 0 0 0 44.957098890437919 -106.82948729515556 0 -106.82948729515556 -116.29107529457178 0 0 0 0 65.475763577487015 -23.798219240641842 0 -23.798219240641842 6.2736668677039358 0 0 0 0 51.33288260792142 -78.084291252859202 0 -78.084291252859202 -42.029560847211542 0 0 0 0 22.666035483220185 -66.73027196413932 0 -66.73027196413932 -21.96386081754099 0 0 0 0 -10.311052839737386 -124.94206544878489 0 -124.94206544878489 -72.492426065514337 0 0 0 0 -37.787113087575563 -56.582838514976402 0 -56.582838514976402 -15.835300354066931 0 0 0 0 57.434151466266485 -43.088733305095957 0 -43.088733305095957 -31.196598152028855 0 0 0 0 -39.940222682220337 -77.869892688406708 0 -77.869892688406708 7.5944375790495542 0 0 0 0 18.244726192831877 -94.464855813650047 0 -94.464855813650047 10.311537609912193 0 0 0 0 0.81835760437965632 -1.2974183693356025 0 -1.2974183693356025 2.3299801343255027 0 0 0 0 235.04087768051249 87.451708566296475 0 87.451708566296475 23.92913931642579 0 0 0 0 418.54880408133613 140.89070333189466 0 140.89070333189466 -46.263634237435326 0 0 0 0 9.8684322964545572 -25.307694854868714 0 -25.307694854868714 -41.963669599992045 0 0 0 0 -9.8267969688167796 -28.199935707380064 0 -28.199935707380064 -42.020461272965804 0 0 0 0 44.843149967331556 -67.284557667127046 0 -67.284557667127046 -18.169667564487099 0 0 0 0 2.5071789715293562 -72.44784669841647 0 -72.44784669841647 -6.844728166538971 0 0 0 0 80.337562051816064 -26.459115801073459 0 -26.459115801073459 7.508773640829034 0 0 0 0 72.348700666647346 -12.369780323970872 0 -12.369780323970872 -62.259116528572122 0 0 0 0 22.561736742536596 -9.4425706268943941 0 -9.4425706268943941 44.87746665377108 0 0 0 0 10.803995716036297 -14.368419610164892 0 -14.368419610164892 -48.834087588982584 0 0 0 0 -0.036423962552589728 -0.49296266997195914 0 -0.49296266997195914 -1.3665569288847834 0 0 0 0 159.32087698805844 -46.764422220109736 0 -46.764422220109736 -63.692799088430206 0 0 0 0 25.874651139074558 78.969511538875167 0 78.969511538875167 -155.27865381929951 0 0 0 0 130.67385415673743 -127.61565762233431 0 -127.61565762233431 39.41483448541112 0 0 0 0 113.05977231118595 -67.237302846376224 0 -67.237302846376224 -105.27568542596555 0 0 0 0 10.485776620422257 1.4283393389177945 0 1.4283393389177945 -133.26191376968654 0 0 0 0 183.76380495427293 51.521579926288723 0 51.521579926288723 -192.85431875414088 0 0 0 0 212.78885965536756 107.65049774942418 0 107.65049774942418 -107.34495837506483 0 0 0 0 77.916944490708516 -18.536226290094277 0 -18.536226290094277 -1.2328994845593502 0 0 0 0 37.831095702567836 28.355456876914104 0 28.355456876914104 54.172891728749164 0 0 0 0 4.6086265279262761 -2.5314500162096465 0 -2.5314500162096465 1.0470756910876489 0 0 0 0 83.461733084688603 -180.4684164309092 0 -180.4684164309092 329.65205612454702 0 0 0 0 5.1690811731305075 -1.3286140335712791 0 -1.3286140335712791 1.3759135425655327 0 0 0 0 188.70443392721063 -322.28364104194679 0 -322.28364104194679 -42.183584353897913 0 0 0 0 13.344141795809264 -12.045539006879153 0 -12.045539006879153 -52.839294147673172 0 0 0 0 106.01886439731697 330.43518396009131 0 330.43518396009131 62.503447061992119 0 0 0 0 1.0597953045736688 -5.1480619033484274 0 -5.1480619033484274 -3.0323712794681086 0 0 0 0 17.74809321920111 -325.9949720896991 0 -325.9949720896991 60.14433142213602 0 0 0 0 251.27529297705769 99.092776050069006 0 99.092776050069006 -161.02158650808997 0 0 0 0 35.231536188395111 -16.433985930674609 0 -16.433985930674609 -1.8281911889887255 0 0 0 0 42.063636235820013 -10.832510459069454 0 -10.832510459069454 -8.8912023315922966 0 0 0 0 44.546411371571907 -13.904188582599724 0 -13.904188582599724 -5.0233381497622158 0 0 0 0 36.152706799417501 0.83243680768828199 0 0.83243680768828199 -24.693278669499705 0 0 0 0 19.23032472392515 4.2610251656851688 0 4.2610251656851688 -19.427054889536521 0 0 0 0 29.241903659218224 16.106610802304203 0 16.106610802304203 -44.926824729129294 0 0 0 0 5.6931807337065692 -3.1297062644751463 0 -3.1297062644751463 1.2831470392277637 0 0 0 0 4.6267521280308017 -4.1163302344218238 0 -4.1163302344218238 5.366850850663063 0 0 0 0 121.74611656043999 -12.725749554023878 0 -12.725749554023878 9.2922355277532915 0 0 0 0 115.49238538448117 -33.710755103359361 0 -33.710755103359361 -61.124473308469533 0 0 0 0 73.831448489625473 -39.824814707164478 0 -39.824814707164478 13.706636612197485 0 0 0 0 60.54332043615068 -70.94378422615614 0 -70.94378422615614 18.321642110997345 0 0 0 0 -3.3152344005534076 12.711837416828285 0 12.711837416828285 -4.7221655211168088 0 0 0 0 10.909418142081336 -0.040331084222721358 0 -0.040331084222721358 -1.5412990038803756 0 0 0 0 11.305852110403066 113.4673985026111 0 113.4673985026111 56.776082681899425 0 0 0 0 86.857973823862267 -41.166641654885552 0 -41.166641654885552 -20.856707920283725 0 0 0 0 37.27706101883696 6.2553959724838109 0 6.2553959724838109 -26.374824156665781 0 0 0 0 25.540084999229293 54.090843840581329 0 54.090843840581329 -26.276589211421935 0 0 0 0 0.79365200198486718 0.23687455689753278 0 0.23687455689753278 -2.0095413535022146 0 0 0 0 111.74496220185392 40.092274623472804 0 40.092274623472804 -107.60974837029789 0 0 0 0 86.640183812894975 -16.24725858982913 0 -16.24725858982913 -47.609932649538223 0 0 0 0 86.572004662681138 -2.5525548815205639 0 -2.5525548815205639 -54.305077897177625 0 0 0 0 71.336575479115709 -35.670383080107058 0 -35.670383080107058 -15.518182803380682 0 0 0 0 57.980406686510833 7.3498166686190416 0 7.3498166686190416 -36.630555435164524 0 0 0 0 65.011841894505778 -4.2734798424269229 0 -4.2734798424269229 -73.475970798006074 0 0 0 0 46.492807869151875 -25.956056480860298 0 -25.956056480860298 17.842496126112508 0 0 0 0 45.876085881485778 -13.987746035266696 0 -13.987746035266696 -19.197270318887604 0 0 0 0 83.934254384605993 -21.476377962013245 0 -21.476377962013245 -20.857549784158891 0 0 0 0 21.965630139398783 -1.0456184883503639 0 -1.0456184883503639 -12.702648683215669 0 0 0 0 73.098406935867388 -7.3337987033961554 0 -7.3337987033961554 -24.905167490689564 0 0 0 0 4.0722316849132767 -5.4918676602262622 0 -5.4918676602262622 -24.349485632520981 0 0 0 0 56.200159783002164 -15.927791702049831 0 -15.927791702049831 -81.956217042478329 0 0 0 0 34.233127932879142 22.500770890646436 0 22.500770890646436 -76.778347399368982 0 0 0 0 63.556594253172079 22.143115936790082 0 22.143115936790082 -126.68179943961718 0 0 0 0 295.59223698459391 -289.40813248463462 0 -289.40813248463462 309.83249458673527 0 0 0 0 -76.187770525182714 149.86159335581351 0 149.86159335581351 -146.65866428961306 0 0 0 0 109.49480929333004 83.678328885297049 0 83.678328885297049 -170.68984171693205 0 0 0 0 12.527694318250553 4.8748144614999447 0 4.8748144614999447 0.34340883448806903 0 0 0 0 97.552238255637349 21.019400936361478 0 21.019400936361478 -127.45673075418318 0 0 0 0 -63.474017358937999 9.8137444364966768 0 9.8137444364966768 -85.965233868281757 0 0 0 0 34.902937731760176 -14.549175883423231 0 -14.549175883423231 -15.751952907783561 0 0 0 0 -1.3403297093848181 -19.00273192477659 0 -19.00273192477659 -26.898030563990524 0 0 0 0 71.472319968327724 -2.6386646010412562 0 -2.6386646010412562 5.2417779158822668 0 0 0 0 72.48482222942971 -24.012399350731329 0 -24.012399350731329 -29.716430754415342 0 0 0 0 26.542722646230686 -32.815166499648058 0 -32.815166499648058 -83.4304183070617 0 0 0 0 113.93416678172071 -11.025327945317258 0 -11.025327945317258 -88.656172129693005 0 0 0 0 124.24628482098342 -78.290537919306189 0 -78.290537919306189 -6.2079094247601461 0 0 0 0 -24.491570484431577 25.727207142627776 0 25.727207142627776 372.39405785207782 0 0 0 0 190.42857566294697 -85.205291141769521 0 -85.205291141769521 -42.630056586503088 0 0 0 0 106.57576388504094 -152.24828389304594 0 -152.24828389304594 161.85723371566019 0 0 0 0 2.4031920246471543 1.3620033338141635 0 1.3620033338141635 -2.0277162832284814 0 0 0 0 7.8545298331347553 -21.924397709596306 0 -21.924397709596306 -10.378961888693844 0 0 0 0 123.73978344167335 0.67185049974386857 0 0.67185049974386857 -25.836993505992723 0 0 0 0 58.656155154134467 -7.3047342063391625 0 -7.3047342063391625 -8.3826867548323207 0 0 0 0 294.5333270249248 358.44010316087406 0 358.44010316087406 148.34941414312561 0 0 0 0 58.452321794000454 144.08647161428235 0 144.08647161428235 348.46162891835615 0 0 0 0 173.30410314643814 131.69303621260951 0 131.69303621260951 -37.297721712813654 0 0 0 0 441.45228788478562 205.70914737640351 0 205.70914737640351 -232.52409639005054 0 0 0 0 305.51599868817721 -24.580486529519476 0 -24.580486529519476 -317.47637104444584 0 0 0 0 16.777597148769932 -25.012520887716335 0 -25.012520887716335 -15.599062595948588 0 0 0 0 41.905337961634046 12.676481606898918 0 12.676481606898918 -30.554871303096554 0 0 0 0 93.792151436558925 -31.031123562388075 0 -31.031123562388075 -54.780174269070812 0 0 0 0 72.476140361177386 -93.408197364246007 0 -93.408197364246007 -138.13700712057471 0 0 0 0 117.44524180307781 -30.037523045797116 0 -30.037523045797116 -30.061181884747384 0 0 0 0 73.629327655801035 -9.0827414654183372 0 -9.0827414654183372 -29.120421383095163 0 0 0 0 51.596933643441503 -12.914755407976209 0 -12.914755407976209 -10.875295086301012 0 0 0 0 69.561017326444016 -44.137367137071294 0 -44.137367137071294 -55.283337963897793 0 0 0 0 169.67533562927201 -45.418505962315066 0 -45.418505962315066 -48.108458341024743 0 0 0 0 62.897445120950579 -5.9179134906726176 0 -5.9179134906726176 -29.837821045475721 0 0 0 0 39.931266508047003 -7.9794794972586374 0 -7.9794794972586374 -18.143130370826334 0 0 0 0 33.338372544511003 -43.364232205695316 0 -43.364232205695316 -36.781931524559695 0 0 0 0 120.83862709501409 144.16783056681743 0 144.16783056681743 233.31365355046 0 0 0 0 333.76243649492244 243.46582494518589 0 243.46582494518589 46.345219531443945 0 0 0 0 262.93101311312785 39.915564193401224 0 39.915564193401224 -97.352281588322512 0 0 0 0 182.64467203024833 82.857679387376265 0 82.857679387376265 -11.800125922987718 0 0 0 0 241.27515435880923 132.62378388454817 0 132.62378388454817 28.384597581729395 0 0 0 0 347.70999006133206 82.912035735293102 0 82.912035735293102 -77.509818152895605 0 0 0 0 177.25129208821454 45.035464265984047 0 45.035464265984047 -89.39107214356045 0 0 0 0 284.92719934615161 171.05158095004663 0 171.05158095004663 -505.39679830303066 0 0 0 0 293.16214800500165 258.82208903626452 0 258.82208903626452 -79.816725922231853 0 0 0 0 385.85698885245074 48.5729244063441 0 48.5729244063441 -321.90497993348981 0 0 0 0 365.30637015502725 101.65350997878159 0 101.65350997878159 -69.684525272918108 0 0 0 0 -623.42555183020522 220.23904665641567 0 220.23904665641567 209.80870746605615 0 0 0 0 3.618070731495294 3.1424008122482903 0 3.1424008122482903 5.4547977848144527 0 0 0 0 -33.986777468009677 -222.4268933450976 0 -222.4268933450976 -379.21605293424 0 0 0 0 1970.9567669950045 -627.7151748553282 0 -627.7151748553282 176.59248352283612 0 0 0 0 13.044839436546951 14.293457886643985 0 14.293457886643985 8.8878456665484862 0 0 0 0 1626.0822357528814 -233.40486142875397 0 -233.40486142875397 62.285379520984861 0 0 0 0 1969.0400229785821 -998.58208026567399 0 -998.58208026567399 347.21877162973396 0 0 0 0 -533.45596551145718 539.86829732913429 0 539.86829732913429 491.09833376674942 0 0 0 0 410.0922254894831 213.55160027607781 0 213.55160027607781 -153.75040708835513 0 0 0 0 353.41092872321678 125.08186157881937 0 125.08186157881937 155.96588143955887 0 0 0 0 675.10532182999304 479.54153852273885 0 479.54153852273885 211.76710637874385 0 0 0 0 -120.13494151197301 -776.31766356271237 0 -776.31766356271237 1982.8429006807419 0 0 0 0 -0.88196637674697342 -5.9295551967665574 0 -5.9295551967665574 -3.4838333859862303 0 0 0 0 329.32574660846331 569.77252040516441 0 569.77252040516441 344.94847906079667 0 0 0 0 4.8661638535013054 3.9929631558832668 0 3.9929631558832668 -1.0797608162037022 0 0 0 0 782.21603097551997 -19.24920332628426 0 -19.24920332628426 -1241.7127636031655 0 0 0 0 22.132192434161745 23.000742136495418 0 23.000742136495418 5.9102985693942856 0 0 0 0 279.32107318810085 -161.81058269171444 0 -161.81058269171444 47.794140457735921 0 0 0 0 2004.4587174292537 -474.93083270870375 0 -474.93083270870375 138.9784190472019 0 0 0 0 1457.8416318735472 -556.14637942344234 0 -556.14637942344234 206.93933728383854 0 0 0 0 1426.9846140965965 -512.96472324500792 0 -512.96472324500792 836.4498528441527 0 0 0 0 1025.3866505273909 -429.06305088400404 0 -429.06305088400404 476.87824759134855 0 0 0 0 755.08523707832501 -554.16442039711001 0 -554.16442039711001 377.23418260571816 0 0 0 0 1057.461639648096 -557.00925897427715 0 -557.00925897427715 -491.79303457320384 0 0 0 0 1247.2837499493035 -890.10314657399113 0 -890.10314657399113 193.95805834468774 0 0 0 0 -227.42998215262196 -575.41002500785908 0 -575.41002500785908 164.17573671786522 0 0 0 0 1100.4622773488654 -339.57361707167684 0 -339.57361707167684 147.69291299848192 0 0 0 0 -177.1847136891738 77.910345516946109 0 77.910345516946109 246.5446612866217 0 0 0 0 1202.314352117879 -762.55148905067108 0 -762.55148905067108 807.79064504101916 0 0 0 0 2096.6904160663835 -1147.9221377584581 0 -1147.9221377584581 116.17568795547413 0 0 0 0 1027.9412586731341 -333.08051249402706 0 -333.08051249402706 194.89697030363459 0 0 0 0 1614.0235162540048 -814.28137849041377 0 -814.28137849041377 -46.902781445487562 0 0 0 0 1482.7617560586077 -1139.5453454022318 0 -1139.5453454022318 567.76686922492263 0 0 0 0 50.764624726296461 -1.1553741971101772 0 -1.1553741971101772 240.69288674702693 0 0 0 0 455.39852913664072 -68.87005203384615 0 -68.87005203384615 -4.0876962990678294 0 0 0 0 29.296658230948452 16.875769832285645 0 16.875769832285645 7.2430042903788383 0 0 0 0 -62.279279878348461 1127.7005360192179 0 1127.7005360192179 -679.82463014435416 0 0 0 0 -1.6253031928863493 39.312891456547732 0 39.312891456547732 12.858922497613094 0 0 0 0 1684.4299074078735 30.389774107257836 0 30.389774107257836 -718.1046859330977 0 0 0 0 195.05722767369298 -77.687840920096278 0 -77.687840920096278 462.83188508768217 0 0 0 0 373.29447775371955 359.81293392031876 0 359.81293392031876 428.79945862728346 0 0 0 0 1110.640084754079 -209.5010998873222 0 -209.5010998873222 267.31162964063697 0 0 0 0 439.04606993885682 379.52035602324759 0 379.52035602324759 337.87716320231993 0 0 0 0 -1026.1493222759673 -439.42825651426301 0 -439.42825651426301 1103.5448462380182 0 0 0 0 531.50441699291696 624.05644834699342 0 624.05644834699342 -434.96732139280357 0 0 0 0 2.2187628559196497 5.0547485455598888 0 5.0547485455598888 6.7175243860059055 0 0 0 0 -489.8828711229653 485.45651518883824 0 485.45651518883824 163.23034996440765 0 0 0 0 -504.39658294837864 592.70891229599783 0 592.70891229599783 -48.386874434518177 0 0 0 0 469.48916143140741 -166.89441433124921 0 -166.89441433124921 -538.08918487104165 0 0 0 0 1001.789567241889 -258.42918510734125 0 -258.42918510734125 460.54059527859863 0 0 0 0 1052.7793152655722 120.89972695260985 0 120.89972695260985 -255.04610966349173 0 0 0 0 594.10727543765825 129.14554331022282 0 129.14554331022282 106.31936207116814 0 0 0 0 1291.1954438644607 -461.69487172557092 0 -461.69487172557092 472.85497668655989 0 0 0 0 2670.1704667156591 -721.82797988155289 0 -721.82797988155289 126.65750142139041 0 0 0 0 1510.5344345234407 -165.91169428740977 0 -165.91169428740977 -165.43065934117385 0 0 0 0 199.17338977576583 131.43797747382996 0 131.43797747382996 -136.78461817464267 0 0 0 0 218.99456807035313 266.07712623324642 0 266.07712623324642 423.15890835656865 0 0 0 0 3.9524504308396899 3.736327079147145 0 3.736327079147145 9.3423312978411843 0 0 0 0 -940.84409142113873 349.27876947765981 0 349.27876947765981 262.6106233771643 0 0 0 0 17.084003969641344 33.977891951880338 0 33.977891951880338 41.918576577238127 0 0 0 0 -228.85580651238706 243.03102693415349 0 243.03102693415349 36.90256849974503 0 0 0 0 6.2123311661498519 12.964169048095016 0 12.964169048095016 17.218531291194417 0 0 0 0 -0.49638127082324957 -0.64408441536463101 0 -0.64408441536463101 0.7639637122143057 0 0 0 0 -324.15969990231679 92.220773680546699 0 92.220773680546699 48.934846072929304 0 0 0 0 -539.42083440149872 28.401397275415547 0 28.401397275415547 101.98053684080242 0 0 0 0 -357.3109645286313 26.664498079637269 0 26.664498079637269 31.896380627611506 0 0 0 0 -139.31177163332177 -0.7522538322082255 0 -0.7522538322082255 -37.736951024464361 0 0 0 0 245.30606399929093 585.65201116758453 0 585.65201116758453 11.604433944949051 0 0 0 0 253.17155985094359 328.36145486201485 0 328.36145486201485 3680.1091110688867 0 0 0 0 4.088127061127107 5.1413196379536288 0 5.1413196379536288 14.52434635014329 0 0 0 0 3.8167620906352511 12.557957164603067 0 12.557957164603067 17.440380888928033 0 0 0 0 -177.90016593538166 44.12449033284247 0 44.12449033284247 -5.9931059323243971 0 0 0 0 48.526868794275288 367.47388399201725 0 367.47388399201725 182.79656952887672 0 0 0 0 97.702120822308643 294.59465969348366 0 294.59465969348366 256.86867571164203 0 0 0 0 51.416788982911385 180.09785491143975 0 180.09785491143975 93.731354994509275 0 0 0 0 -153.57487444854451 54.893900295278058 0 54.893900295278058 17.266600396737886 0 0 0 0 20.199650878879766 133.5607630350637 0 133.5607630350637 132.16237471800196 0 0 0 0 14.880955504158919 168.86796401958782 0 168.86796401958782 211.44869409314197 0 0 0 0 43.681949662361149 193.80632318119831 0 193.80632318119831 191.85078391729257 0 0 0 0 8.4955841052724281 175.98883459215358 0 175.98883459215358 203.52772328452829 0 0 0 0 -8.5389423057058593 64.773866397385973 0 64.773866397385973 38.885181222669416 0 0 0 0 -14.910186970846553 102.30507585441774 0 102.30507585441774 248.75506742827383 0 0 0 0 -45.322894194770925 76.411188321296095 0 76.411188321296095 53.672764689039468 0 0 0 0 -76.786538238317007 -15.994638698015706 0 -15.994638698015706 17.793532636091186 0 0 0 0 15.330113611364652 91.730124556453248 0 91.730124556453248 35.082575024720427 0 0 0 0 -127.84996176547429 27.783509890037749 0 27.783509890037749 -6.8254017577710329 0 0 0 0 -6.1963129951764131 -8.7072127965038817 0 -8.7072127965038817 -50.084747143968343 0 0 0 0 -3.9773390245027258 68.627989606717165 0 68.627989606717165 -55.427714195440785 0 0 0 0 -250.42453002763796 46.767132538003352 0 46.767132538003352 -65.057768631833824 0 0 0 0 778.85854742632364 -420.40156586926787 0 -420.40156586926787 -81.109257559587604 0 0 0 0 638.36145155471604 91.91040406200591 0 91.91040406200591 -7.7719040060110274 0 0 0 0 11.144227407309756 8.2898949356133471 0 8.2898949356133471 5.9409603314406851 0 0 0 0 -0.096168567763522006 2.6166883796753382 0 2.6166883796753382 13.740454431537955 0 0 0 0 -245.05176376520831 -89.58213981346853 0 -89.58213981346853 53.751345236698398 0 0 0 0 1546.0308929726016 -930.57045413822198 0 -930.57045413822198 -4482.6727027653833 0 0 0 0 -320.28774726530537 43.193052553349844 0 43.193052553349844 75.036943411520269 0 0 0 0 -377.72311554179942 -68.091933874922915 0 -68.091933874922915 12.548992916468706 0 0 0 0 -319.87112814193824 49.958130864124541 0 49.958130864124541 -87.930673283539363 0 0 0 0 -388.87789190186595 -37.869215295479989 0 -37.869215295479989 40.418740881465055 0 0 0 0 -512.428761969466 78.160641200724967 0 78.160641200724967 24.629316330233451 0 0 0 0 -0.59627077157754726 0.3648671781587467 0 0.3648671781587467 0.26228987864983822 0 0 0 0 533.1789782345295 100.58567862561904 0 100.58567862561904 105.59305693915667 0 0 0 0 553.93654253846034 -1.4947576024951559 0 -1.4947576024951559 79.986374390782203 0 0 0 0 1029.879582477166 325.8737779934072 0 325.8737779934072 45.963219031287736 0 0 0 0 0.29983916752139272 1.5395431660041652 0 1.5395431660041652 4.2423526081366489 0 0 0 0 350.95399621759134 455.46808786835845 0 455.46808786835845 411.5686245295401 0 0 0 0 -401.51978928060271 46.902589754770815 0 46.902589754770815 -22.826469744517453 0 0 0 0 -0.35701300181939111 1.0245115420089093 0 1.0245115420089093 -3.4223224760182589 0 0 0 0 -323.52528828100185 245.84242784850539 0 245.84242784850539 298.93526598917197 0 0 0 0 198.8554427511699 374.21055302634159 0 374.21055302634159 -83.368471225217945 0 0 0 0 104.37031950522214 32.132553174415079 0 32.132553174415079 -133.55222432161645 0 0 0 0 102.32663998608768 273.92050489228859 0 273.92050489228859 -34.24672354719587 0 0 0 0 260.16092865027986 46.889315710654955 0 46.889315710654955 216.83415476161463 0 0 0 0 147.34065527046914 254.72970542535222 0 254.72970542535222 -102.95938023446342 0 0 0 0 4.4769741092386539 50.218838805109954 0 50.218838805109954 -261.46426065979722 0 0 0 0 127.46646894582227 144.10035712422814 0 144.10035712422814 -718.43136106486963 0 0 0 0 -71.402369124502002 94.168962954605377 0 94.168962954605377 -191.44928535197505 0 0 0 0 -161.65698521398735 -3.0367573780331441 0 -3.0367573780331441 76.067084890262777 0 0 0 0 -92.865226961293956 15.731997638899884 0 15.731997638899884 -31.750196986627998 0 0 0 0 -392.15369088208536 40.298094824036525 0 40.298094824036525 409.81577819183076 0 0 0 0 -158.67621918026271 707.90183825904751 0 707.90183825904751 -1376.2794824472585 0 0 0 0 -1377.1513842390486 764.00001745112786 0 764.00001745112786 269.35757629139698 0 0 0 0 164.3794776314171 10.573896407480788 0 10.573896407480788 -65.97358264210834 0 0 0 0 -352.21133039837287 541.88653658744329 0 541.88653658744329 -75.361535422205634 0 0 0 0 157.91052664008748 55.205030690498461 0 55.205030690498461 -189.32699963934647 0 0 0 0 765.45257148198289 391.50635614072507 0 391.50635614072507 -701.00621048823814 0 0 0 0 224.89248392556328 579.99157599942919 0 579.99157599942919 328.85815391398864 0 0 0 0 -124.89534433385415 4.3171786755083303 0 4.3171786755083303 -129.1929336197245 0 0 0 0 6.7119547565962421 -493.5415640822921 0 -493.5415640822921 -1062.8109544613276 0 0 0 0 -253.72378050353473 326.26011728905337 0 326.26011728905337 158.78629883908798 0 0 0 0 -3.338903197817757 4.1824623589571246 0 4.1824623589571246 -8.6714755402087249 0 0 0 0 -40.973806713322119 -8.9945011555892052 0 -8.9945011555892052 -2.636973756551015 0 0 0 0 79.418460286705226 11.653684420843451 0 11.653684420843451 -2.1747999531589182 0 0 0 0 146.41870770950482 -101.66849762874972 0 -101.66849762874972 -172.37604309992093 0 0 0 0 1.8763938729536846 20.508759914682997 0 20.508759914682997 -18.306124658418753 0 0 0 0 250.72170326858759 80.609060842212784 0 80.609060842212784 -67.863265506425023 0 0 0 0 22.733160719380976 -12.862545636079631 0 -12.862545636079631 -159.74326815730456 0 0 0 0 266.52548876623041 402.87748782317431 0 402.87748782317431 -927.32271128159846 0 0 0 0 -450.17839204285701 283.84415388385423 0 283.84415388385423 -437.26584907469805 0 0 0 0 -1164.4725637945376 107.43375349746566 0 107.43375349746566 -621.04729209257493 0 0 0 0 -261.47480960545363 293.97333007640736 0 293.97333007640736 -583.08670209659613 0 0 0 0 -125.96612102911968 317.31058397794033 0 317.31058397794033 -433.82689590606606 0 0 0 0 353.92039736303559 409.24519158219641 0 409.24519158219641 -740.73403633116504 0 0 0 0 -352.20463509891124 693.25555158080715 0 693.25555158080715 -757.73122779171899 0 0 0 0 525.30204758401669 125.38885277155805 0 125.38885277155805 -274.15736968371993 0 0 0 0 -0.0043200528642657332 1.0670919026870394 0 1.0670919026870394 -3.0378851184910118 0 0 0 0 -574.19314857357676 349.23302205986602 0 349.23302205986602 -1118.876942821018 0 0 0 0 250.09675900054572 448.13455744908788 0 448.13455744908788 -751.3498666252126 0 0 0 0 -89.384346676240966 18.645970365351786 0 18.645970365351786 62.720913359929909 0 0 0 0 93.361811530183331 317.84797383822797 0 317.84797383822797 -814.01925268077684 0 0 0 0 77.089024554813079 16.609874115738016 0 16.609874115738016 -5.5700031554624179 0 0 0 0 7.6453357127829804 171.80547613050112 0 171.80547613050112 -193.86619447450175 0 0 0 0 335.11874180583982 -231.87645542065184 0 -231.87645542065184 -1219.2327473086068 0 0 0 0 16.51441722070421 7.6253525316743804 0 7.6253525316743804 -7.9147122418066544 0 0 0 0 -841.03472853369021 1356.6438258478202 0 1356.6438258478202 -1255.7870591665815 0 0 0 0 -335.7379076530342 752.68919319330234 0 752.68919319330234 -1109.4170549071423 0 0 0 0 -151.66550815942173 610.76961931723235 0 610.76961931723235 -901.42526496337928 0 0 0 0 5.7777140152438733 3.3542551696946745 0 3.3542551696946745 -1.0750366972126955 0 0 0 0 -8.604519613989396 167.38264422501379 0 167.38264422501379 -695.75856584095163 0 0 0 0 -179.37692949641496 377.46946533082883 0 377.46946533082883 -448.20349360448745 0 0 0 0 1.8420699726026442 15.554952122916564 0 15.554952122916564 1.5698653701629914 0 0 0 0 -321.93762091762619 -281.51246279146653 0 -281.51246279146653 -1322.4762205628404 0 0 0 0 48.434855434927158 153.2828370856605 0 153.2828370856605 -847.22277638227388 0 0 0 0 -388.43810503189889 -88.627414158796455 0 -88.627414158796455 -624.80933510088653 0 0 0 0 -134.48884377898503 202.65505797464539 0 202.65505797464539 -598.60635937436746 0 0 0 0 -147.55519972270122 -2.4029800263269863 0 -2.4029800263269863 -188.24591187843907 0 0 0 0 -113.84103803789185 89.472849193902221 0 89.472849193902221 -521.79654475985626 0 0 0 0 -129.20537386421074 -91.582271513959682 0 -91.582271513959682 -232.20952246959132 0 0 0 0 -96.916612287677708 48.164275030702811 0 48.164275030702811 -262.95088965459036 0 0 0 0 -88.224401835934259 -114.53586560695476 0 -114.53586560695476 -144.53064799980484 0 0 0 0 -231.9811674864759 106.89396258251782 0 106.89396258251782 -99.043737389900798 0 0 0 0 -501.40446491455441 383.31683530122382 0 383.31683530122382 -198.49507941601041 0 0 0 0 -287.13229887782654 640.01667312217342 0 640.01667312217342 -673.56271519280745 0 0 0 0 -64.962126821141283 85.943911438632313 0 85.943911438632313 -106.66604304846032 0 0 0 0 0.93692503598867916 180.03601840087686 0 180.03601840087686 -569.08184151664125 0 0 0 0 474.01823841802252 211.53380533822383 0 211.53380533822383 -222.66536125114726 0 0 0 0 433.16798956559796 82.909265271392087 0 82.909265271392087 186.9396726757077 0 0 0 0 1520.1966727214312 525.81014350413807 0 525.81014350413807 54.846638599789003 0 0 0 0 1235.0903263902837 298.47704149792878 0 298.47704149792878 49.609103548064013 0 0 0 0 429.9315609112673 -33.874808310886692 0 -33.874808310886692 63.345390164202399 0 0 0 0 436.54994979317416 -77.308348973650027 0 -77.308348973650027 344.03044858557223 0 0 0 0 -90.17240253280761 149.82412134846982 0 149.82412134846982 50.574280904535044 0 0 0 0 -13.721209977651597 -34.363791287845743 0 -34.363791287845743 254.02889837241491 0 0 0 0 -43.417030591292132 -186.8170427146033 0 -186.8170427146033 60.197770159288893 0 0 0 0 1.0645955762447556 -232.54178043440152 0 -232.54178043440152 72.761505064874655 0 0 0 0 37.370496784315037 -53.606239275284679 0 -53.606239275284679 221.03631701144513 0 0 0 0 15.954537453128012 3.526184326229334 0 3.526184326229334 -0.32768340958024567 0 0 0 0 338.51920809256262 370.90462837482391 0 370.90462837482391 68.372771715284671 0 0 0 0 1648.2974869708269 -1037.4287987673488 0 -1037.4287987673488 492.05713153100805 0 0 0 0 2265.2031699418658 -995.80756494753041 0 -995.80756494753041 102.99793062624667 0 0 0 0 523.04982353368359 -556.24212481524728 0 -556.24212481524728 600.67836355088366 0 0 0 0 1837.8247175564029 -214.23077194243706 0 -214.23077194243706 287.28907335454824 0 0 0 0 31.731430714091772 13.223269779952854 0 13.223269779952854 2.5561786937785023 0 0 0 0 678.38867426501383 433.49234022857127 0 433.49234022857127 -463.94834491945949 0 0 0 0 12.653481126959377 -100.1082948980968 0 -100.1082948980968 -55.256178543610076 0 0 0 0 28.496372481120488 -43.317461038637703 0 -43.317461038637703 148.04558547094348 0 0 0 0 31.015519056425546 119.7485681886119 0 119.7485681886119 208.25487617498948 0 0 0 0 378.1406087276082 239.91321180054638 0 239.91321180054638 262.86172356969109 0 0 0 0 191.55979604457752 30.616362065504518 0 30.616362065504518 204.27727110263368 0 0 0 0 22.829179350366758 104.45340257187308 0 104.45340257187308 229.9592733313857 0 0 0 0 -39.123208836201229 -92.723941367286898 0 -92.723941367286898 152.06802314106835 0 0 0 0 8.8520205212862493 -89.594413751123056 0 -89.594413751123056 53.84470405884349 0 0 0 0 -132.78449063804874 43.144777699302722 0 43.144777699302722 -59.201668052583045 0 0 0 0 -158.66538561339985 -112.28123526328909 0 -112.28123526328909 39.574233449035091 0 0 0 0 -60.609355497421348 -47.471501190349954 0 -47.471501190349954 -205.32341642193796 0 0 0 0 -58.031471900612814 -45.404942510539513 0 -45.404942510539513 59.819196355878375 0 0 0 0 -77.80881998433324 -146.22127592694142 0 -146.22127592694142 51.702016726112561 0 0 0 0 -118.53070119016775 -95.98856389311095 0 -95.98856389311095 27.099396888908814 0 0 0 0 4409.825036300781 2358.0566356047443 0 2358.0566356047443 1369.2061248120999 0 0 0 0 4802.1144515741471 418.14983130061637 0 418.14983130061637 681.22259351809737 0 0 0 0 3291.5230847271741 956.44406008001545 0 956.44406008001545 415.84436200444401 0 0 0 0 3499.7656416965765 229.46854291166835 0 229.46854291166835 1120.176445714096 0 0 0 0 3478.3498651190748 -950.86360806006178 0 -950.86360806006178 -476.13965826280344 0 0 0 0 632.34124456964491 -281.44540518539543 0 -281.44540518539543 53.193533906555601 0 0 0 0 253.80851972039454 141.82672879414079 0 141.82672879414079 95.86655617508265 0 0 0 0 93.259166768417344 -290.86826620888633 0 -290.86826620888633 -687.56129126378846 0 0 0 0 -45.87497683870788 202.673134790278 0 202.673134790278 -258.4668081320284 0 0 0 0 223.30311287064978 -1286.4517711736794 0 -1286.4517711736794 -446.42565555323608 0 0 0 0 21.528100946496181 -6.3003816890699511 0 -6.3003816890699511 0.45212130281841967 0 0 0 0 1274.0947531021156 641.56233512890924 0 641.56233512890924 612.38184806504705 0 0 0 0 2199.6877560275461 1700.6939616893444 0 1700.6939616893444 1225.6151658548661 0 0 0 0 1198.1519629996765 765.60730676227422 0 765.60730676227422 427.42468358935287 0 0 0 0 49.501264753500266 -18.281936825951803 0 -18.281936825951803 -0.15500152091511188 0 0 0 0 4.4825188256900503 0.69415870180310435 0 0.69415870180310435 -5.6648722920379866 0 0 0 0 533.14227190229576 237.25716748723062 0 237.25716748723062 -171.08333875385779 0 0 0 0 166.53190488618566 134.84808500470081 0 134.84808500470081 44.447429270065072 0 0 0 0 2502.9756563777919 1121.524361068969 0 1121.524361068969 113.89397185441121 0 0 0 0 1838.0551274473983 1060.8962975156285 0 1060.8962975156285 262.93595055851432 0 0 0 0 3295.9415031778626 832.52767295941362 0 832.52767295941362 -18.251102712681643 0 0 0 0 2502.330510560826 1050.5384601382634 0 1050.5384601382634 159.78692046630181 0 0 0 0 3883.8046670093026 1188.7088959608275 0 1188.7088959608275 118.65642071667995 0 0 0 0 3500.1682499307426 751.06793930347465 0 751.06793930347465 158.42166378648696 0 0 0 0 3485.7106077159988 475.72446143507 0 475.72446143507 679.55566429864643 0 0 0 0 3187.921748802517 497.21447649561549 0 497.21447649561549 -16.903975157588718 0 0 0 0 3147.1884165322554 411.0314757937582 0 411.0314757937582 -149.37597063886665 0 0 0 0 3500.6658612497486 592.0556794114633 0 592.0556794114633 -201.63971643210238 0 0 0 0 2360.5600272003649 762.59017142986988 0 762.59017142986988 61.639592171010946 0 0 0 0 2085.5512416821875 211.4575577458277 0 211.4575577458277 -185.86068441248756 0 0 0 0 141.36920135011314 -0.1737390726268096 0 -0.1737390726268096 0.52500440080368926 0 0 0 0 3493.4601952203666 -289.25128015066281 0 -289.25128015066281 -345.86144114322917 0 0 0 0 2424.6048619839639 608.75874633327214 0 608.75874633327214 216.38494016664873 0 0 0 0 724.22854933069539 729.82180962579946 0 729.82180962579946 209.24232007892834 0 0 0 0 3476.4104320282349 467.78473351188615 0 467.78473351188615 0.81072599519244182 0 0 0 0 7.6289570003970653 -0.79203557359626586 0 -0.79203557359626586 -0.094030931001117202 0 0 0 0 1386.4623420849275 -979.38009812645532 0 -979.38009812645532 -189.04319551391703 0 0 0 0 1874.7352099424388 138.98086743351618 0 138.98086743351618 2.3964645128521633 0 0 0 0 8.4906252688759878 0.76334347323456342 0 0.76334347323456342 -0.056956588644023393 0 0 0 0 2756.4368021481714 701.02414016931868 0 701.02414016931868 -209.43289275093747 0 0 0 0 2326.6208802733599 1566.5718533075867 0 1566.5718533075867 113.59163145332903 0 0 0 0 2015.3366987636109 615.48071975208666 0 615.48071975208666 -212.9759503189002 0 0 0 0 1625.3701003255701 776.28584643151089 0 776.28584643151089 207.24624429709178 0 0 0 0 1934.687342311503 764.61925888069004 0 764.61925888069004 100.11431979691599 0 0 0 0 2268.0559453083915 876.76749110069341 0 876.76749110069341 16.569095710168199 0 0 0 0 2437.051466512934 947.11637235687147 0 947.11637235687147 135.50746157140466 0 0 0 0 1937.8221937041499 926.09222249536333 0 926.09222249536333 276.81899215091846 0 0 0 0 1776.9889785102168 888.44161104249429 0 888.44161104249429 310.75317304324915 0 0 0 0 582.06469168921467 31.842868639371829 0 31.842868639371829 -322.70804458326779 0 0 0 0 -44.135764589314931 -43.441080581865549 0 -43.441080581865549 284.27043280747682 0 0 0 0 66.754697962070168 -30.938967277812964 0 -30.938967277812964 0.078803607009922505 0 0 0 0 134.75542937331193 -430.76389350278157 0 -430.76389350278157 -364.48460822555899 0 0 0 0 -20.825161025830312 80.909389897166648 0 80.909389897166648 -129.15005672125017 0 0 0 0 1071.1468690161855 628.06939302089859 0 628.06939302089859 -54.635207136674353 0 0 0 0 932.32633942738175 -296.18201204889181 0 -296.18201204889181 -546.54683227163605 0 0 0 0 1369.0299130419298 377.34240679803878 0 377.34240679803878 101.81234027236289 0 0 0 0 5.4488665655533453 1.4888119155915263 0 1.4888119155915263 -8.8007659282308666 0 0 0 0 1313.8215846587991 646.11428361435583 0 646.11428361435583 137.71484396790171 0 0 0 0 764.12105669269658 65.26902101252692 0 65.26902101252692 -0.17159163107549677 0 0 0 0 3.3649921838616592 1.483509841314941 0 1.483509841314941 -3.2201595607886411 0 0 0 0 6203.5540791303501 -1263.115071767787 0 -1263.115071767787 -481.82755721344552 0 0 0 0 -48.408353864666424 81.468670189290194 0 81.468670189290194 -0.037362040949803881 0 0 0 0 12.02532106542256 7.9419501318127175 0 7.9419501318127175 2.3855721401221888 0 0 0 0 3428.7617610117013 765.62498923306202 0 765.62498923306202 4.1862752427360714 0 0 0 0 2635.6272503616783 270.34455394038417 0 270.34455394038417 421.70891155573486 0 0 0 0 2216.0582844426244 753.17723758462921 0 753.17723758462921 70.987344063498085 0 0 0 0 203.8328094935132 -601.6250708275129 0 -601.6250708275129 -287.48318596978379 0 0 0 0 2831.9928214853317 -2006.056738899304 0 -2006.056738899304 -1598.6667949855118 0 0 0 0 3199.2116548432095 113.04714817930198 0 113.04714817930198 -325.49592589707936 0 0 0 0 3902.505799922219 -591.21585821164581 0 -591.21585821164581 230.61054469089868 0 0 0 0 4453.1647897184375 1413.5879995168982 0 1413.5879995168982 916.13429093597824 0 0 0 0 2568.5228072466998 -1539.3337902938406 0 -1539.3337902938406 1164.6783175332866 0 0 0 0 5535.1058926277619 14.096915136043208 0 14.096915136043208 -1545.1452632280821 0 0 0 0 2127.1384113193781 -1424.2364592107415 0 -1424.2364592107415 905.74341288929645 0 0 0 0 -770.90769100138277 -545.56452413327929 0 -545.56452413327929 23.852581480364506 0 0 0 0 17.087438620795083 4.4587296898830289 0 4.4587296898830289 -19.003475045647654 0 0 0 0 25.139060578884994 -12.452528168194505 0 -12.452528168194505 -0.24533482458525668 0 0 0 0 12.251145481856973 12.988310908355501 0 12.988310908355501 -26.482673095530419 0 0 0 0 2670.9896894988342 740.50556002921576 0 740.50556002921576 22.903296182513714 0 0 0 0 5042.7815087213239 -1237.6960058587811 0 -1237.6960058587811 -205.35239972805812 0 0 0 0 5736.7629728371248 1842.3780047870391 0 1842.3780047870391 418.48196108087359 0 0 0 0 3039.7990448998462 -231.30602242310852 0 -231.30602242310852 -47.499830964836292 0 0 0 0 3761.1922166743898 -45.339669380015948 0 -45.339669380015948 -269.43330282776424 0 0 0 0 2841.4261824585556 -451.4749467739739 0 -451.4749467739739 -27.426712984512278 0 0 0 0 2575.9458375891627 59.92384539141085 0 59.92384539141085 -256.54243367936033 0 0 0 0 2555.7991117396741 97.329785661036112 0 97.329785661036112 -187.53313070518288 0 0 0 0 2921.5434048581519 -426.62034838944919 0 -426.62034838944919 -203.88442053192193 0 0 0 0 3.7983485021928161 -0.62873117990810101 0 -0.62873117990810101 -2.5752078000725636 0 0 0 0 2889.3976681824715 -4.2447523845285104 0 -4.2447523845285104 -253.20488296630919 0 0 0 0 1822.4620109103707 174.19585556274001 0 174.19585556274001 123.29675272397412 0 0 0 0 2359.1853818575073 417.76635532231182 0 417.76635532231182 11.485287442388653 0 0 0 0 2408.5260277360576 507.9950048049227 0 507.9950048049227 -58.971177182421343 0 0 0 0 231.96134680197065 -78.118746068818211 0 -78.118746068818211 -124.37250235833449 0 0 0 0 -21.636310655536363 31.559557382545108 0 31.559557382545108 34.128090272757845 0 0 0 0 347.44596329401247 -110.14790761827857 0 -110.14790761827857 -270.94568001825576 0 0 0 0 60.819876407704896 -25.717123507920505 0 -25.717123507920505 2.9978965368987383 0 0 0 0 76.869953693108982 -206.15614266589432 0 -206.15614266589432 -297.49142902951417 0 0 0 0 104.86691509201773 63.672263656624978 0 63.672263656624978 -264.87496046969562 0 0 0 0 416.17453766491963 78.925106066266153 0 78.925106066266153 -165.83676587468176 0 0 0 0 -1.6981915908244929 7.6049778590281392 0 7.6049778590281392 -16.007166425613594 0 0 0 0 113.41369608459354 11.662337208435588 0 11.662337208435588 33.304671480639627 0 0 0 0 1224.1043516604332 24.088066663877285 0 24.088066663877285 -27.001871216955578 0 0 0 0 0.64068146486228983 2.0865770466134705 0 2.0865770466134705 -5.8426748757404781 0 0 0 0 84.402581276226556 291.36775812876721 0 291.36775812876721 -24.842530541030747 0 0 0 0 120.95784438993724 271.21290169038974 0 271.21290169038974 -318.73552877029806 0 0 0 0 138.35975922469152 142.45879209412476 0 142.45879209412476 -134.56662911258968 0 0 0 0 440.71517550009958 338.66509530276852 0 338.66509530276852 -336.21189597799116 0 0 0 0 363.83413820783608 -9.4832797101633162 0 -9.4832797101633162 0.62302635546541296 0 0 0 0 714.56712008599425 561.07120287733869 0 561.07120287733869 -70.917571554676641 0 0 0 0 1589.8263002938183 44.717888280628074 0 44.717888280628074 -0.95654867607032656 0 0 0 0 1616.4274884257029 347.8523648248642 0 347.8523648248642 -450.0135393631187 0 0 0 0 2060.9070830691708 246.26898302642059 0 246.26898302642059 -79.128855303470402 0 0 0 0 2483.4423786977059 -75.415364629412451 0 -75.415364629412451 -243.57391394917192 0 0 0 0 5.1891386268354012 1.2545638605005536 0 1.2545638605005536 -4.5500522375620047 0 0 0 0 2102.2158609392936 -198.37170257719202 0 -198.37170257719202 147.90876635343142 0 0 0 0 1831.983956554046 382.74060807680371 0 382.74060807680371 -74.166395553458642 0 0 0 0 72.747007963916985 6.785965932458339 0 6.785965932458339 -0.94207645550886809 0 0 0 0 3.8612754823011386 11.348859673015767 0 11.348859673015767 -0.27663494736741789 0 0 0 0 2211.3756137258824 -96.054180896996741 0 -96.054180896996741 -47.039446868234791 0 0 0 0 74.100833872886142 4.191679145390367 0 4.191679145390367 1.191893653985062 0 0 0 0 2232.7777170112022 -135.99378950574271 0 -135.99378950574271 -98.617177790611265 0 0 0 0 58.709570953556977 10.849119838184947 0 10.849119838184947 -0.040932288172825793 0 0 0 0 14.758289916779887 20.488923959919191 0 20.488923959919191 -4.8072440622067845 0 0 0 0 109.68403040569683 -15.256874165433373 0 -15.256874165433373 -3.491281597110401 0 0 0 0 112.08786180918833 -7.8066154933852658 0 -7.8066154933852658 19.472337421236261 0 0 0 0 152.35143736141617 -13.445613745653645 0 -13.445613745653645 -11.645342455025457 0 0 0 0 212.69688576280896 -33.723011073183216 0 -33.723011073183216 -24.754039852570259 0 0 0 0 0.81963031873624459 1.009354267852018 0 1.009354267852018 -1.4044973141397836 0 0 0 0 94.547532364347717 -10.932658275407221 0 -10.932658275407221 -8.4149294751702257 0 0 0 0 70.934119516328792 27.793148306232638 0 27.793148306232638 -5.962432876479852 0 0 0 0 133.90282331984781 22.371781802391752 0 22.371781802391752 -28.354740747833603 0 0 0 0 110.42822413882823 30.777250414676018 0 30.777250414676018 -27.891928968356751 0 0 0 0 151.06292981072329 4.5592857305778125 0 4.5592857305778125 -26.943573884841953 0 0 0 0 137.45315127688809 10.337673783867103 0 10.337673783867103 -27.044324581270303 0 0 0 0 146.52260714277509 -21.796500836296445 0 -21.796500836296445 23.237006124487834 0 0 0 0 115.43502767956261 -84.586039111456174 0 -84.586039111456174 37.467808831526781 0 0 0 0 113.21688329108292 17.457387225166713 0 17.457387225166713 -12.704139559885789 0 0 0 0 227.01951102501698 -82.148800326760949 0 -82.148800326760949 14.652227434278302 0 0 0 0 164.93199602346795 -83.427318711870669 0 -83.427318711870669 42.380662665953423 0 0 0 0 177.01114194569891 -31.138526494497199 0 -31.138526494497199 -1.2287058200940919 0 0 0 0 200.7975185404066 -55.166699026001652 0 -55.166699026001652 14.91929448925066 0 0 0 0 178.98631887491501 -35.288021183754267 0 -35.288021183754267 31.642649106861427 0 0 0 0 221.90304154415207 -36.43433072394248 0 -36.43433072394248 18.726947717687835 0 0 0 0 103.37819377559936 21.773322661711063 0 21.773322661711063 -2.1143527285903474 0 0 0 0 194.07361393366591 -1.8455201716406009 0 -1.8455201716406009 -17.992701540410224 0 0 0 0 107.7510127738642 0.7194430221343282 0 0.7194430221343282 28.65959892897331 0 0 0 0 -43.664672064682236 50.101740932777147 0 50.101740932777147 19.545723432892032 0 0 0 0 16.589234991301154 22.76969699261619 0 22.76969699261619 5.0009423847804761 0 0 0 0 67.404853565079975 7.2759151947532246 0 7.2759151947532246 4.0498575886113031 0 0 0 0 16.640922834018866 22.302136864735445 0 22.302136864735445 -0.17231926695593636 0 0 0 0 20.406939153384883 50.999146958943243 0 50.999146958943243 -3.8561209480590151 0 0 0 0 68.283607465818932 3.9236075129285837 0 3.9236075129285837 7.5448362950710361 0 0 0 0 1954.7179966088324 35.305411391113154 0 35.305411391113154 67.771729789054916 0 0 0 0 5.3453182675459772 4.9190497588279811 0 4.9190497588279811 4.5782959711341906 0 0 0 0 64.214682647754671 1.1998026950500389 0 1.1998026950500389 9.6229039303827903 0 0 0 0 2533.4476374541555 -438.71467941679884 0 -438.71467941679884 -160.15950025284292 0 0 0 0 0.28731945505397505 -0.16538850110947578 0 -0.16538850110947578 -3.9386832044249012 0 0 0 0 2782.2133790927473 -230.06730414561025 0 -230.06730414561025 -411.65336698865394 0 0 0 0 70.606187472396414 3.6651476469348836 0 3.6651476469348836 10.430389077315112 0 0 0 0 2670.0274939978917 -181.16173875248251 0 -181.16173875248251 117.72369668332249 0 0 0 0 17.213563945188497 5.1585678277157569 0 5.1585678277157569 14.790404980179368 0 0 0 0 2597.8966075497301 -557.06933370667548 0 -557.06933370667548 -46.923533993613091 0 0 0 0 16.461134066417586 26.511540196447811 0 26.511540196447811 21.526266853642589 0 0 0 0 2861.2474947368719 -607.92478647071539 0 -607.92478647071539 -230.76403259937433 0 0 0 0 787.00112141415593 115.45786912981839 0 115.45786912981839 10.678101983686247 0 0 0 0 43.759202979839756 -101.78362401621007 0 -101.78362401621007 46.389548062845279 0 0 0 0 693.36252434733615 -388.2393859433414 0 -388.2393859433414 1072.9602910692784 0 0 0 0 3028.0529019466603 -404.06871161332754 0 -404.06871161332754 -284.33742170056939 0 0 0 0 94.568737771682208 66.374575650129259 0 66.374575650129259 -10.043034952159928 0 0 0 0 101.54060357488925 0.68607968202525171 0 0.68607968202525171 -2.0114776270464745 0 0 0 0 124.29072605940746 55.888126844587418 0 55.888126844587418 -31.789185966721067 0 0 0 0 8.1576080650961416 3.6941799337556631 0 3.6941799337556631 0.54986518124063855 0 0 0 0 -74.775845633528661 6.1801462260650908 0 6.1801462260650908 81.016312117969051 0 0 0 0 108.50383888568467 48.483218954575548 0 48.483218954575548 -7.3790706350668529 0 0 0 0 18.102779237326075 22.339542605465851 0 22.339542605465851 12.873522614429667 0 0 0 0 118.95954640425043 4.8029256599268422 0 4.8029256599268422 -30.377735929735834 0 0 0 0 -6.8737797296780627 55.474008807626291 0 55.474008807626291 48.735817604698298 0 0 0 0 98.64391797031567 -64.762632431232305 0 -64.762632431232305 -28.280091941280887 0 0 0 0 -59.789108500928705 -23.180574176234689 0 -23.180574176234689 49.964305894394741 0 0 0 0 -1.158925492326631 0.23825942796617028 0 0.23825942796617028 0.1231503577935219 0 0 0 0 164.18396834798477 63.205140950586646 0 63.205140950586646 -44.925884753876602 0 0 0 0 25.06533404631773 4.4699555775050994 0 4.4699555775050994 -3.3534912708861806 0 0 0 0 82.637147850356996 82.886544238405421 0 82.886544238405421 0.11452301087638465 0 0 0 0 242.43622007520753 103.5746713544623 0 103.5746713544623 48.060404531848718 0 0 0 0 196.78674385647901 20.533878390313909 0 20.533878390313909 -7.2009702704081064 0 0 0 0 154.59722211236658 37.274902192422992 0 37.274902192422992 0.019863109205038143 0 0 0 0 96.694129566516494 53.923924123244625 0 53.923924123244625 -0.11075459079388852 0 0 0 0 198.87387499662873 17.231795189978939 0 17.231795189978939 -36.153763518797035 0 0 0 0 140.76347229974635 47.779100961867925 0 47.779100961867925 10.23390049320821 0 0 0 0 200.77619439086993 -1.740722156347843 0 -1.740722156347843 -11.801219533192807 0 0 0 0 312.23675156623358 -2.0148922199492745 0 -2.0148922199492745 -14.270774749045103 0 0 0 0 344.82897390361177 50.665202292230298 0 50.665202292230298 -58.615576617282329 0 0 0 0 0.35097558300427067 0.67214307597879497 0 0.67214307597879497 0.066565826862407418 0 0 0 0 295.549445785844 61.972231573777563 0 61.972231573777563 -23.866631559119554 0 0 0 0 305.47402292998595 29.096864655278139 0 29.096864655278139 -28.623194753220162 0 0 0 0 65.002105318679241 59.144281578400808 0 59.144281578400808 37.180602673853457 0 0 0 0 295.22474842314841 40.17696204123996 0 40.17696204123996 -20.733657055256259 0 0 0 0 141.45160151009622 4.8610025393904834 0 4.8610025393904834 119.36073685168788 0 0 0 0 349.16911405851715 74.151129334773941 0 74.151129334773941 24.813387782252562 0 0 0 0 110.63519239070592 28.938059248666491 0 28.938059248666491 62.420674543527184 0 0 0 0 268.45867958670715 24.203757473913214 0 24.203757473913214 13.996491897243232 0 0 0 0 1.273353756954009 1.0970889994120512 0 1.0970889994120512 0.65053553980312007 0 0 0 0 -34.116544376855018 2.5996346364819942 0 2.5996346364819942 26.767048856336714 0 0 0 0 437.53408858055263 -109.33735499538025 0 -109.33735499538025 -0.68925541790963507 0 0 0 0 207.0389745637367 -29.74040350547989 0 -29.74040350547989 32.031847770346758 0 0 0 0 244.00688848102982 -84.820134487784557 0 -84.820134487784557 68.024100277436446 0 0 0 0 8.0266135756392032 82.381919997048158 0 82.381919997048158 20.57298386106412 0 0 0 0 -24.516410328054917 -17.884965415637055 0 -17.884965415637055 -96.702315141453084 0 0 0 0 -298.91002961402955 -41.871117103908688 0 -41.871117103908688 45.019495539772322 0 0 0 0 0.21925675217087104 1.2071996185502201 0 1.2071996185502201 -0.5220396242329568 0 0 0 0 -45.243758359982166 -33.019489293382151 0 -33.019489293382151 16.830867192905316 0 0 0 0 79.221598069823813 56.080376771909144 0 56.080376771909144 -25.750274795312947 0 0 0 0 0.17804148461235769 1.7889867344370032 0 1.7889867344370032 0.64363331617777875 0 0 0 0 -83.689187070063781 -48.375803349781961 0 -48.375803349781961 42.837712875426803 0 0 0 0 2.7411359356192406 -38.217802672709851 0 -38.217802672709851 -36.38901802978053 0 0 0 0 -40.182636118799564 8.900801574121262 0 8.900801574121262 -0.022787229923554427 0 0 0 0 0.013650651043420226 0.55465919946300346 0 0.55465919946300346 0.19908994638703884 0 0 0 0 -207.92410786766413 -48.950497338848258 0 -48.950497338848258 31.525482980890253 0 0 0 0 126.80725633913244 72.225305929700497 0 72.225305929700497 -30.056294247978286 0 0 0 0 165.60971978223824 2.2507513496403844 0 2.2507513496403844 -0.002610582891242066 0 0 0 0 218.63793069692474 -28.874166100710156 0 -28.874166100710156 -34.288883325187015 0 0 0 0 20.777252636999037 -79.754483081693934 0 -79.754483081693934 11.21097486038262 0 0 0 0 31.815437126235338 13.085768915487904 0 13.085768915487904 10.862027712009439 0 0 0 0 330.30813155636133 60.635801717264201 0 60.635801717264201 -30.389512202667675 0 0 0 0 157.04289866665931 -86.944111525338869 0 -86.944111525338869 14.409849168808265 0 0 0 0 25.825646205259545 -148.97117001418945 0 -148.97117001418945 1.7628888281516311 0 0 0 0 388.69240545954744 -78.120424498408624 0 -78.120424498408624 67.008217801009096 0 0 0 0 599.40384352144611 244.93637045779383 0 244.93637045779383 40.486554661114326 0 0 0 0 744.68999261587305 812.68581821815098 0 812.68581821815098 883.23620671503386 0 0 0 0 1173.2333675596601 318.86205536263651 0 318.86205536263651 -75.443545607997407 0 0 0 0 264.00161422438396 65.374125097763283 0 65.374125097763283 -57.457044007693412 0 0 0 0 -649.5006632002478 -39.067663665191162 0 -39.067663665191162 140.45529505507125 0 0 0 0 -50.200528815235884 -336.50328363854192 0 -336.50328363854192 19.710872240893877 0 0 0 0 -45.52459352290316 35.27637020300881 0 35.27637020300881 27.046902182037229 0 0 0 0 1.8544878299493917 1.6443664394612654 0 1.6443664394612654 -2.4418879081148521 0 0 0 0 69.790082003586576 14.207575678735736 0 14.207575678735736 -30.366307401905487 0 0 0 0 -0.2272999171309138 3.6327566000777551 0 3.6327566000777551 0.31509743826801451 0 0 0 0 2.268743519293281 3.2185115150561501 0 3.2185115150561501 2.4678645869070257 0 0 0 0 27.840682001158712 22.280800974437796 0 22.280800974437796 -18.098697390188022 0 0 0 0 11.975906748142734 -41.352794238736408 0 -41.352794238736408 -27.191458704942306 0 0 0 0 91.215849199565127 -65.146985719699387 0 -65.146985719699387 69.634389835708134 0 0 0 0 2.5032849067553684 1.5164279014893793 0 1.5164279014893793 -0.12570881180823257 0 0 0 0 235.55430082452949 -60.445067316756649 0 -60.445067316756649 22.964169609005921 0 0 0 0 -10.740312316644122 47.314212279139156 0 47.314212279139156 30.206147138169399 0 0 0 0 4.4308892705606411 5.169930757181362 0 5.169930757181362 0.21604454466162615 0 0 0 0 148.80908951585297 -54.491885292844472 0 -54.491885292844472 23.510454507566465 0 0 0 0 125.51947235126863 63.118196134713799 0 63.118196134713799 -68.932310968120419 0 0 0 0 -727.97854481393006 218.29247701078907 0 218.29247701078907 224.28222479804049 0 0 0 0 3.9103418383999582 5.8286693295748648 0 5.8286693295748648 -3.9018820357388364 0 0 0 0 27.798836130154086 3.8965792039801954 0 3.8965792039801954 -20.101342329221552 0 0 0 0 -34.582688655922539 66.992380813634554 0 66.992380813634554 18.28080690201341 0 0 0 0 93.656925747491186 11.425089809719793 0 11.425089809719793 -28.147296673185338 0 0 0 0 3.8591529838491567 6.7205701377103253 0 6.7205701377103253 1.1460863504724301 0 0 0 0 120.09957930631936 -47.260481090248049 0 -47.260481090248049 -29.801142524678653 0 0 0 0 19.640444924400072 -27.916932234000342 0 -27.916932234000342 13.135093926503032 0 0 0 0 72.975909383792896 -8.269009635598195 0 -8.269009635598195 -46.307055796585246 0 0 0 0 0.23902912758468631 1.2759547470359678 0 1.2759547470359678 -3.2491998933629702 0 0 0 0 27.787916507499176 7.4524234111913756 0 7.4524234111913756 4.3087312939724143 0 0 0 0 147.71426924669504 -42.762457057776373 0 -42.762457057776373 3.0181430917036778 0 0 0 0 74.243811831300263 3.9409648984510568 0 3.9409648984510568 36.054162569276286 0 0 0 0 48.954725561488885 1.9239716378706362 0 1.9239716378706362 -6.9923560817405814 0 0 0 0 -582.49281637703825 419.87112798315866 0 419.87112798315866 28.62105917610279 0 0 0 0 110.5266994752601 -11.581867971105112 0 -11.581867971105112 -28.374998721812517 0 0 0 0 10.053301196447507 12.158460034005941 0 12.158460034005941 -8.6227239674260083 0 0 0 0 3.7511833653415607 1.9273112470489195 0 1.9273112470489195 -3.4540249901125684 0 0 0 0 244.40971491520759 684.40520798283319 0 684.40520798283319 89.21695365772166 0 0 0 0 223.17196145708112 -155.30542986893397 0 -155.30542986893397 -321.69521047487888 0 0 0 0 1147.6038852435158 -301.02556113085348 0 -301.02556113085348 -305.06486889361759 0 0 0 0 10.347615377907346 -5.1066957986880936 0 -5.1066957986880936 3.446137432232586 0 0 0 0 129.19461781884456 -388.35936702794947 0 -388.35936702794947 383.88544352434837 0 0 0 0 -44.692772104936012 219.10947514907593 0 219.10947514907593 -242.14894198322509 0 0 0 0 16.367745251246447 8.5346238012899391 0 8.5346238012899391 -13.96841456417998 0 0 0 0 30.442012645164539 2.6791993026259711 0 2.6791993026259711 -11.396356129498129 0 0 0 0 175.40962775156368 -21.122811267327052 0 -21.122811267327052 -143.35740990442218 0 0 0 0 -2.127923749422564 9.1038598665000094 0 9.1038598665000094 -5.4662599207923428 0 0 0 0 118.92129600179032 -18.85606384606217 0 -18.85606384606217 -109.02643051779341 0 0 0 0 175.66127553704428 25.072761069388434 0 25.072761069388434 -185.30963698409141 0 0 0 0 304.07011560398678 -76.849103159779588 0 -76.849103159779588 -261.83538312799919 0 0 0 0 178.03279920925343 -49.720002497641417 0 -49.720002497641417 -260.49357562915793 0 0 0 0 450.70190715917852 225.19424255319655 0 225.19424255319655 -343.10010147463254 0 0 0 0 42.515105728161871 -6.738359271020272 0 -6.738359271020272 -9.311236695465368 0 0 0 0 91.557128609492793 1.4347123264906259 0 1.4347123264906259 -9.1840392418307601 0 0 0 0 12.532331927147141 -0.12855143222466836 0 -0.12855143222466836 -9.3130865720580083 0 0 0 0 73.618362730019726 -9.3997231798366556 0 -9.3997231798366556 10.772334728024362 0 0 0 0 74.183781565370737 -23.567236437057545 0 -23.567236437057545 2.6292469301697565 0 0 0 0 72.958170848956797 6.7320121670654771 0 6.7320121670654771 2.8949361127861266 0 0 0 0 64.976068055446376 7.4164610445441213 0 7.4164610445441213 -1.0508131054812111 0 0 0 0 15.877668282326795 -2.5149721903817976 0 -2.5149721903817976 -4.4661661401382347 0 0 0 0 106.66042361260406 -7.637598622035739 0 -7.637598622035739 0.20989278033084702 0 0 0 0 129.9736447641917 -6.95825037452164 0 -6.95825037452164 -9.5873944902195944 0 0 0 0 74.262143376749009 -23.321805643847256 0 -23.321805643847256 -12.626737089860399 0 0 0 0 73.383148664841428 -6.3238771280302899 0 -6.3238771280302899 -22.308522693047962 0 0 0 0 73.119627704727463 6.6038115483952424 0 6.6038115483952424 -14.130122956434207 0 0 0 0 113.10532099675038 -37.452478446779423 0 -37.452478446779423 2.6652553272192563 0 0 0 0 117.74654069815006 -2.900148392171559 0 -2.900148392171559 -7.6726205244031007 0 0 0 0 56.245578593212997 -1.6752820723096704 0 -1.6752820723096704 -1.9722545389575794 0 0 0 0 58.559589035488898 -4.9205664229948525 0 -4.9205664229948525 1.395987838187466 0 0 0 0 34.292226492907503 7.5991785969386001 0 7.5991785969386001 -13.102023919374915 0 0 0 0 71.970220019782573 -11.402929827699609 0 -11.402929827699609 -8.9375400808639824 0 0 0 0 59.772784940629606 -2.58786598997116 0 -2.58786598997116 -11.535218590815223 0 0 0 0 21.332345235036513 8.3969408926281801 0 8.3969408926281801 -12.531927615949108 0 0 0 0 140.61063146848755 -19.377778872913041 0 -19.377778872913041 -31.673053467013688 0 0 0 0 102.5959328932513 45.32917647440263 0 45.32917647440263 3.1200560671568383 0 0 0 0 40.102511800898355 -3.6042421482316058 0 -3.6042421482316058 -14.09200076065008 0 0 0 0 130.34824414592003 -12.288244545596172 0 -12.288244545596172 96.197470021797926 0 0 0 0 1.3045422090977468 2.2676634061858465 0 2.2676634061858465 0.072138616827936985 0 0 0 0 90.605743945867289 -126.96021417506927 0 -126.96021417506927 257.83412793902426 0 0 0 0 26.886439963593148 -0.61782293151736667 0 -0.61782293151736667 -0.27612883336041705 0 0 0 0 4.7125205098065202 2.1515917033243284 0 2.1515917033243284 -0.28921651956878236 0 0 0 0 169.78327699111105 -137.89761005837227 0 -137.89761005837227 31.69475730980048 0 0 0 0 13.889715893940803 -3.9358003014393717 0 -3.9358003014393717 -2.5580318372064603 0 0 0 0 61.211610675250995 -1.7692297346502528 0 -1.7692297346502528 -16.956000421552744 0 0 0 0 57.623361426791234 0.27398791453538252 0 0.27398791453538252 -9.2869862851830476 0 0 0 0 62.48746889186441 13.047109636468122 0 13.047109636468122 -67.630878539421701 0 0 0 0 44.774049215754758 -0.19067197259589541 0 -0.19067197259589541 -5.2670432800701246 0 0 0 0 55.450143558118725 -1.8304469682852869 0 -1.8304469682852869 -16.164067930189219 0 0 0 0 63.033879468013765 15.818234657674111 0 15.818234657674111 -69.808721949823394 0 0 0 0 67.469645363860764 36.485101372556528 0 36.485101372556528 -33.868915230370476 0 0 0 0 19.917725038843471 11.428182666155507 0 11.428182666155507 -20.497334726852873 0 0 0 0 19.33187514500969 17.197035499362073 0 17.197035499362073 -2.688803543253016 0 0 0 0 70.261283864500001 -5.6310945062205064 0 -5.6310945062205064 -13.762801543489331 0 0 0 0 116.44038927482325 -54.531186708312816 0 -54.531186708312816 17.026452373258508 0 0 0 0 176.53680044354405 -28.562949706181826 0 -28.562949706181826 28.242981530129327 0 0 0 0 64.222279843350407 -40.505807217741676 0 -40.505807217741676 22.950432988411194 0 0 0 0 34.29875236924272 -20.867145612740387 0 -20.867145612740387 19.64657256679493 0 0 0 0 84.063179888529703 -29.039619943789148 0 -29.039619943789148 -2.3895356079374324 0 0 0 0 62.976484338199953 -61.072161094289186 0 -61.072161094289186 53.330078524784767 0 0 0 0 -21.341400449309731 -16.61293079403913 0 -16.61293079403913 33.832089099832956 0 0 0 0 177.13300173159223 -111.29975871853458 0 -111.29975871853458 67.209073676034677 0 0 0 0 215.168030075758 -161.07574138849031 0 -161.07574138849031 -203.39118327418691 0 0 0 0 104.73738754875376 -254.71751895893249 0 -254.71751895893249 19.478547755610634 0 0 0 0 0.16230888092491114 3.9362299375378207 0 3.9362299375378207 -1.6813430800199098 0 0 0 0 196.53009112778818 20.549985812023806 0 20.549985812023806 -39.680254704508116 0 0 0 0 105.64360244522686 14.324545445881085 0 14.324545445881085 -19.6106298794748 0 0 0 0 83.085976468690205 -32.501197064464577 0 -32.501197064464577 -5.4299230585093028 0 0 0 0 54.004673265371821 -22.769626065204648 0 -22.769626065204648 0.84346001131962112 0 0 0 0 48.437575392061262 -24.02445920608443 0 -24.02445920608443 0.56100484145827068 0 0 0 0 47.122071858902927 -21.282289665607095 0 -21.282289665607095 4.5331654341562171 0 0 0 0 72.381596228893613 -19.230178859379521 0 -19.230178859379521 -20.344660790164198 0 0 0 0 52.684556564141531 -24.263405125821009 0 -24.263405125821009 5.9107771526942088 0 0 0 0 46.226946254639188 -17.765929163821056 0 -17.765929163821056 11.152884708992133 0 0 0 0 49.33739897608757 -19.861922972195316 0 -19.861922972195316 8.6269437347036728 0 0 0 0 42.884207910872647 -4.1018117651447028 0 -4.1018117651447028 -15.80126532340546 0 0 0 0 48.964217002358055 -11.264622590522777 0 -11.264622590522777 -12.776160307731516 0 0 0 0 34.60246139255338 -7.3118880177203351 0 -7.3118880177203351 -4.2330535662083069 0 0 0 0 50.552772843526327 -17.381602422286505 0 -17.381602422286505 -3.189453964509994 0 0 0 0 51.102047042160223 1.2051149031758541 0 1.2051149031758541 -25.511337497132466 0 0 0 0 70.757458580832463 76.779756059582724 0 76.779756059582724 -24.740922876876539 0 0 0 0 135.76902248163242 -53.385713187632064 0 -53.385713187632064 -128.99892958321107 0 0 0 0 90.967648925536196 11.93119313934875 0 11.93119313934875 2.4050796579649614 0 0 0 0 96.885068354738394 -28.106421293109854 0 -28.106421293109854 -0.4186345262133937 0 0 0 0 12.187520399806303 -15.407191699812827 0 -15.407191699812827 -7.7816224849654745 0 0 0 0 190.42759525257861 -56.828456776574967 0 -56.828456776574967 -75.717233947875684 0 0 0 0 128.45168832606578 -132.21345247875342 0 -132.21345247875342 36.406246596038727 0 0 0 0 44.267900717582961 -22.385580447865777 0 -22.385580447865777 -5.5366643577544892 0 0 0 0 12.814212533587124 29.420691603276282 0 29.420691603276282 -79.976220020444316 0 0 0 0 33.21162800985212 -6.0538099264408274 0 -6.0538099264408274 0.54229605044338491 0 0 0 0 -1.8958770983700788 -6.5086515638702309 0 -6.5086515638702309 0.83004042746270557 0 0 0 0 181.72116861097311 -74.197471893840884 0 -74.197471893840884 -125.44892380450619 0 0 0 0 51.325496970016104 -4.0429841453802986 0 -4.0429841453802986 -10.128214771641927 0 0 0 0 62.973599610086239 -6.6842511863396794 0 -6.6842511863396794 -35.589254929242088 0 0 0 0 38.88105330777762 -18.679962050016911 0 -18.679962050016911 -2.2686981852057215 0 0 0 0 74.328819562299628 -18.43568996113633 0 -18.43568996113633 -3.6649896048492332 0 0 0 0 84.291900624521077 -23.00355213847979 0 -23.00355213847979 -64.582312669860585 0 0 0 0 405.7874647925637 -0.094702772134269253 0 -0.094702772134269253 -299.51045002539115 0 0 0 0 1.9867739501044355 -0.46485788372348225 0 -0.46485788372348225 -6.7764196359608562 0 0 0 0 97.132398505578749 47.27936206648701 0 47.27936206648701 -0.50017572814613231 0 0 0 0 196.03754901056527 -1.3216770973594976 0 -1.3216770973594976 -65.244206270363065 0 0 0 0 28.697329541580984 -104.43599453001116 0 -104.43599453001116 92.781693208879005 0 0 0 0 3.6686397368903272 34.618070070807107 0 34.618070070807107 -46.292976065022231 0 0 0 0 94.33056931666215 -25.028877673335955 0 -25.028877673335955 -65.395085772562908 0 0 0 0 6.6725025319465203 -7.8694742017196404 0 -7.8694742017196404 -33.376347238924154 0 0 0 0 23.99202784668887 -15.052744242339031 0 -15.052744242339031 -70.838207647936542 0 0 0 0 4.3248925212392351 43.933492254997873 0 43.933492254997873 -103.13091040105428 0 0 0 0 18.573664422146976 31.459415227986028 0 31.459415227986028 -79.567652165642357 0 0 0 0 24.86849244091718 -5.847780833762954 0 -5.847780833762954 -131.57987641195814 0 0 0 0 -69.319645857489377 184.11593451514227 0 184.11593451514227 -359.28721111480388 0 0 0 0 4.0727550972363247 1.3306830300961323 0 1.3306830300961323 0.033099858351456568 0 0 0 0 398.81802531559424 -593.42656251924166 0 -593.42656251924166 171.25896163590846 0 0 0 0 -23.783011978954164 319.534339288127 0 319.534339288127 210.39912780044779 0 0 0 0 -0.0056349241673814277 -20.116176993739487 0 -20.116176993739487 14.62355312560457 0 0 0 0 -5.0829473921967363 -16.014650357879802 0 -16.014650357879802 18.826346753988922 0 0 0 0 79.53599293030129 -28.20137332615127 0 -28.20137332615127 184.89438438826028 0 0 0 0 -129.15384754965635 -34.202826867483672 0 -34.202826867483672 277.04158517041054 0 0 0 0 49.544256120323553 -35.381709054851399 0 -35.381709054851399 7.7749761414161185 0 0 0 0 -35.226626836622017 -126.16092784854975 0 -126.16092784854975 237.6112505236724 0 0 0 0 318.73606336470402 -95.206110338094959 0 -95.206110338094959 169.35655290797854 0 0 0 0 429.34724295615524 -224.64616544637263 0 -224.64616544637263 146.08340667463438 0 0 0 0 22.620500965651445 -60.980563738989019 0 -60.980563738989019 8.1383770650481893 0 0 0 0 16.267163819458801 -60.826493602982055 0 -60.826493602982055 28.929486863665261 0 0 0 0 14.174434885451774 -36.58660987578719 0 -36.58660987578719 10.542755499921441 0 0 0 0 23.764125436879112 -39.350201814531601 0 -39.350201814531601 24.527382845525153 0 0 0 0 23.718518800444144 -39.330579189565242 0 -39.330579189565242 28.860385486369069 0 0 0 0 25.997405804715527 -25.086892079506299 0 -25.086892079506299 20.438686754568607 0 0 0 0 25.790877344268665 -29.481593916795646 0 -29.481593916795646 33.325752850058961 0 0 0 0 29.750828253367217 -12.559903411784717 0 -12.559903411784717 50.408097280485464 0 0 0 0 15.243807018443476 -47.791704477028816 0 -47.791704477028816 43.09082744577654 0 0 0 0 7.8936699058067461 -36.936561453769514 0 -36.936561453769514 93.697984935672139 0 0 0 0 24.534894617463578 -1.2246149746688388 0 -1.2246149746688388 75.667591390698249 0 0 0 0 24.064778533540732 -3.3175762237519848 0 -3.3175762237519848 -3.7823377237160223 0 0 0 0 19.672730026315548 -0.74187793347050501 0 -0.74187793347050501 -19.757475240797703 0 0 0 0 13.622388181393035 -18.436553856443425 0 -18.436553856443425 -38.186925302772579 0 0 0 0 18.423438440517202 -9.309692436378965 0 -9.309692436378965 0.69540031020007498 0 0 0 0 26.551331444439711 -10.8600808876663 0 -10.8600808876663 -24.577092322245704 0 0 0 0 16.306165023997892 -15.243185394804641 0 -15.243185394804641 7.616762013600237 0 0 0 0 39.145135587583404 -14.73281120033576 0 -14.73281120033576 -16.634798548972 0 0 0 0 2.436561815571622 19.337287190455754 0 19.337287190455754 -6.078230596940557 0 0 0 0 4.4261598533607014 -6.3675953998887067 0 -6.3675953998887067 -1.163208673358934 0 0 0 0 56.679334285494406 -8.119482550313478 0 -8.119482550313478 -36.298222564764728 0 0 0 0 14.660804589069443 1.8931247125832797 0 1.8931247125832797 -5.3003573179166406 0 0 0 0 58.878585651305912 18.359706936174462 0 18.359706936174462 -8.5197362702010651 0 0 0 0 -0.65303591611154843 -5.5646948679277557 0 -5.5646948679277557 -51.547120182714934 0 0 0 0 19.671293526153711 -17.144003907793248 0 -17.144003907793248 -19.70763820690037 0 0 0 0 72.904076437538606 -15.631653427449237 0 -15.631653427449237 -19.411668996804565 0 0 0 0 35.920425789459841 -49.315203902630856 0 -49.315203902630856 0.65611442824865662 0 0 0 0 27.544984217473456 -17.502003265565165 0 -17.502003265565165 -13.9219998721777 0 0 0 0 78.362659010570496 -21.669546769897352 0 -21.669546769897352 -21.495644302919118 0 0 0 0 2.7348475437763682 0.11512828556086152 0 0.11512828556086152 -3.8730304600193652 0 0 0 0 -61.092715648876037 -44.590788363774664 0 -44.590788363774664 42.807576168137075 0 0 0 0 36.034032963259961 54.179007991377603 0 54.179007991377603 38.589343328890664 0 0 0 0 -191.92696098267334 -136.70480604794739 0 -136.70480604794739 -5.3016272294039481 0 0 0 0 118.10466978029581 70.81923304362499 0 70.81923304362499 -34.146103979499195 0 0 0 0 20.029549602173404 2.1444376544569543 0 2.1444376544569543 -4.3240126833481654 0 0 0 0 64.916912452783436 -89.621764218637054 0 -89.621764218637054 -28.505036443261815 0 0 0 0 282.62415099184727 157.66743191179967 0 157.66743191179967 -10.507606941473568 0 0 0 0 167.6394065853674 -16.365487204131568 0 -16.365487204131568 -68.283723749177625 0 0 0 0 57.536699511896586 5.2388708136213609 0 5.2388708136213609 -52.475384936890805 0 0 0 0 -11.020056631619809 -84.683253547650111 0 -84.683253547650111 -19.28431480389645 0 0 0 0 73.231308972521219 -60.717103271876113 0 -60.717103271876113 -44.86373781338807 0 0 0 0 -48.139359003791469 -9.2237175392153858 0 -9.2237175392153858 126.06509419763566 0 0 0 0 -365.15577793389457 12.00891409088257 0 12.00891409088257 40.987362955027493 0 0 0 0 1.0874091481596793 0.50337804823995214 0 0.50337804823995214 -0.83748194568644152 0 0 0 0 -9.7123720938398037 29.141153495837216 0 29.141153495837216 156.67420220903773 0 0 0 0 15.61545364475387 -7.3862105407600893 0 -7.3862105407600893 -32.563388361817488 0 0 0 0 18.791849429129797 10.088256315696981 0 10.088256315696981 -13.819124122608855 0 0 0 0 7.4547803216923683 -2.2631691416236221 0 -2.2631691416236221 0.57778118282791247 0 0 0 0 14.510062189750897 3.0960539518001724 0 3.0960539518001724 -4.1892015868306771 0 0 0 0 -6.0187483309637173 -4.2626977601078124 0 -4.2626977601078124 135.65292578085791 0 0 0 0 -61.74607499128615 5.0002224251920779 0 5.0002224251920779 4.0653342316307999 0 0 0 0 14.349449142588526 -5.4404274456658328 0 -5.4404274456658328 2.8773281288007722 0 0 0 0 0.21827900032803882 -69.770242256640813 0 -69.770242256640813 107.80080437364404 0 0 0 0 11.014767998088644 -5.0301222965775167 0 -5.0301222965775167 2.7280133669602975 0 0 0 0 249.49184480730037 -83.946322824946037 0 -83.946322824946037 -5.5370688657346818 0 0 0 0 -35.410503209259332 43.497652877428777 0 43.497652877428777 24.214132876271833 0 0 0 0 -127.36827079107752 43.595832351198169 0 43.595832351198169 312.57712508722307 0 0 0 0 34.566771254532796 -49.483802824319696 0 -49.483802824319696 1.4892409744234101 0 0 0 0 5.8628292275942044 -1.1264415767322475 0 -1.1264415767322475 1.4659790149771448 0 0 0 0 2013.0962642874219 962.83550603796812 0 962.83550603796812 295.93367018039589 0 0 0 0 645.0732490416558 -107.95776910895347 0 -107.95776910895347 672.03489639871896 0 0 0 0 2519.7738005935098 554.28027001492956 0 554.28027001492956 284.64593197216345 0 0 0 0 24.368393595981615 276.6817982325307 0 276.6817982325307 185.98144760256037 0 0 0 0 -150.00227443520998 378.49380423774164 0 378.49380423774164 437.05479076149277 0 0 0 0 -53.29883657656319 -49.347680798783585 0 -49.347680798783585 74.834750706953855 0 0 0 0 363.4865416614557 -173.33654735802554 0 -173.33654735802554 18.472733362561485 0 0 0 0 1137.8021036109494 898.00495138767246 0 898.00495138767246 291.9946512399959 0 0 0 0 1690.3082142519706 158.28551311775402 0 158.28551311775402 -220.28585877365322 0 0 0 0 1938.401014728006 370.28942767987064 0 370.28942767987064 -196.06224113417829 0 0 0 0 1466.9783908933168 56.765007341928367 0 56.765007341928367 -288.44789955368287 0 0 0 0 1864.0795630269859 134.34042452962217 0 134.34042452962217 -281.07953514309247 0 0 0 0 204.61876447968098 -127.3180902668654 0 -127.3180902668654 132.10380747455133 0 0 0 0 866.43116601783549 152.31589087064503 0 152.31589087064503 -5.4262227455694756 0 0 0 0 1310.6300340023154 -80.196416212535837 0 -80.196416212535837 -154.77291565338464 0 0 0 0 2.5651928873581085 -0.58900622272201097 0 -0.58900622272201097 0.079405924315693877 0 0 0 0 -1.6136005956735175 -1.0500659552425304 0 -1.0500659552425304 -1.9261381562911049 0 0 0 0 746.17028710973682 -32.302319172599709 0 -32.302319172599709 -15.847641792235549 0 0 0 0 815.49228205357213 -11.381733303585747 0 -11.381733303585747 -149.01826490211351 0 0 0 0 1959.2044104418674 35.240697555402107 0 35.240697555402107 -373.22877269694959 0 0 0 0 1456.3156985763198 -479.58850337892562 0 -479.58850337892562 -313.94414957553818 0 0 0 0 2407.9485705254483 -319.1051966766193 0 -319.1051966766193 -363.39730184747123 0 0 0 0 2431.5375772333955 175.25203255462378 0 175.25203255462378 -598.79217401245614 0 0 0 0 1801.8297083104553 213.57072062783823 0 213.57072062783823 -512.02541681122113 0 0 0 0 58.711503673803236 29.110212538006493 0 29.110212538006493 -20.53734457933092 0 0 0 0 73.324308103183284 20.714331582042632 0 20.714331582042632 -19.387325771638615 0 0 0 0 361.01996293450793 455.56598318659132 0 455.56598318659132 555.98570873038261 0 0 0 0 990.98395377549605 -639.31907093063819 0 -639.31907093063819 319.85731589955026 0 0 0 0 -139.88231054647622 115.81378501845143 0 115.81378501845143 77.367455931378345 0 0 0 0 15.345148872148229 -1.0133249316840505 0 -1.0133249316840505 0.97418854554664502 0 0 0 0 47.760339898493839 17.598371164065242 0 17.598371164065242 -2.5707841863900684 0 0 0 0 41.733192060545861 1.8219121009350667 0 1.8219121009350667 -4.8869967372784977 0 0 0 0 44.18118951912038 36.660592388204947 0 36.660592388204947 -53.787070065547141 0 0 0 0 47.724733065158944 85.057668205402933 0 85.057668205402933 -113.89271388293707 0 0 0 0 0.445719420747821 18.127063454858813 0 18.127063454858813 -13.240328644777193 0 0 0 0 -43.499005889796535 -67.2907439023802 0 -67.2907439023802 -18.788076308181189 0 0 0 0 16.315308019373333 1.5617026145991986 0 1.5617026145991986 -113.49649078193033 0 0 0 0 47.845276308653411 33.570523362281165 0 33.570523362281165 -76.181477100982192 0 0 0 0 67.317440715996781 -2.8884364070831907 0 -2.8884364070831907 -67.996831750308047 0 0 0 0 85.807004732370842 33.479915092635565 0 33.479915092635565 -81.192251589804073 0 0 0 0 11.182689191104146 -0.96314942836579576 0 -0.96314942836579576 -64.911262609789446 0 0 0 0 -31.602951547480188 -11.928906310924503 0 -11.928906310924503 -61.427901930566804 0 0 0 0 31.862958872618037 8.6215346486233102 0 8.6215346486233102 -7.4589878402804004 0 0 0 0 20.668936031046314 14.076383660710853 0 14.076383660710853 -9.2229005299305893 0 0 0 0 15.512092913908418 48.637760065843395 0 48.637760065843395 -76.409189047586551 0 0 0 0 36.929594001732767 -36.028951562839211 0 -36.028951562839211 -125.5807666373712 0 0 0 0 8.3237198326932571 2.3734842955655182 0 2.3734842955655182 -2.9828194193038549 0 0 0 0 66.550098016436095 1.0796265873332231 0 1.0796265873332231 -9.6024409054653006 0 0 0 0 25.386601767866395 -2.411917282073091 0 -2.411917282073091 -7.0055428610338328 0 0 0 0 21.861300827454414 9.7818181283393528 0 9.7818181283393528 -9.3358033525007151 0 0 0 0 43.07527612123522 5.7373435908266401 0 5.7373435908266401 -12.165593741345219 0 0 0 0 54.781425668385054 6.8385834529108251 0 6.8385834529108251 -12.395041900879733 0 0 0 0 34.109419216612878 6.0970216207656449 0 6.0970216207656449 -9.8257822665844969 0 0 0 0 27.893314072607765 3.9181359763202437 0 3.9181359763202437 -13.1002484753537 0 0 0 0 57.526906511862762 16.499412882083561 0 16.499412882083561 -13.459799827783286 0 0 0 0 48.0884557509562 13.104994558948079 0 13.104994558948079 -14.530860046433332 0 0 0 0 63.503153066165396 22.159647118800066 0 22.159647118800066 -10.483533524928646 0 0 0 0 48.514022693448851 10.057949241439925 0 10.057949241439925 -3.1685763939285878 0 0 0 0 58.570926368585788 14.571302433895085 0 14.571302433895085 -9.8993032729431434 0 0 0 0 45.095248491561506 6.4187564777063244 0 6.4187564777063244 -6.1722284437782946 0 0 0 0 23.13447133797915 11.787228400284789 0 11.787228400284789 -6.914879208048573 0 0 0 0 46.382089256033225 6.4969697779841749 0 6.4969697779841749 -5.1396763410546731 0 0 0 0 83.003494337608572 8.0185690941380017 0 8.0185690941380017 -7.4678078372940035 0 0 0 0 56.65143291385175 -15.572207876540233 0 -15.572207876540233 -2.9825370983853645 0 0 0 0 103.05180738357012 11.266516138012321 0 11.266516138012321 -14.770412517467093 0 0 0 0 13.383081775099356 0.9085912590971077 0 0.9085912590971077 -0.78286856765270585 0 0 0 0 109.6455114880664 -26.493911084852698 0 -26.493911084852698 -0.76761606993113674 0 0 0 0 83.508127854751365 8.233178808513685 0 8.233178808513685 -9.8381313579411653 0 0 0 0 48.035681551053131 13.285587575482964 0 13.285587575482964 -5.8968386267083588 0 0 0 0 26.674842747785348 15.883514981415061 0 15.883514981415061 -9.7882986431628893 0 0 0 0 67.186271666760149 5.5977338163567083 0 5.5977338163567083 -6.931470359342029 0 0 0 0 1667.7799257943316 195.93544500097087 0 195.93544500097087 -106.72747489552728 0 0 0 0 3468.8839761526906 925.65289849045098 0 925.65289849045098 112.63243355138624 0 0 0 0 12.456325235747848 15.220778799858323 0 15.220778799858323 -5.7710738914488848 0 0 0 0 6.3566590261183933 3.7370917622582098 0 3.7370917622582098 -1.3306303409117883 0 0 0 0 2007.9675319084199 -1126.8231314281934 0 -1126.8231314281934 487.09997726649101 0 0 0 0 412.47812431430793 -351.97478753619174 0 -351.97478753619174 401.605981874402 0 0 0 0 2923.0449480600037 494.43060623103997 0 494.43060623103997 1103.2275106750853 0 0 0 0 3133.8800325254524 -513.65443356395474 0 -513.65443356395474 -504.38977103108107 0 0 0 0 8.9613864050813739 -1.5867132011505873 0 -1.5867132011505873 -5.6337382993871978 0 0 0 0 84.361772063282842 14.596045706392488 0 14.596045706392488 -18.349935952682245 0 0 0 0 69.693583420972573 12.162024417324346 0 12.162024417324346 -10.177198596923972 0 0 0 0 1180.9946140918692 -25.8049230828898 0 -25.8049230828898 143.76785052462554 0 0 0 0 1363.2012640495232 145.1657940340188 0 145.1657940340188 -38.07113703642618 0 0 0 0 1543.6413458120078 132.95507731070768 0 132.95507731070768 -39.984746037843621 0 0 0 0 1697.1135989650065 147.8528328802449 0 147.8528328802449 -105.9449586976682 0 0 0 0 1607.7250843734073 77.911377432450607 0 77.911377432450607 -154.43387918633005 0 0 0 0 3.8486074694272681 1.1527459389927657 0 1.1527459389927657 -1.875852498524555 0 0 0 0 1621.7473060446646 140.70098656649756 0 140.70098656649756 58.490400182625308 0 0 0 0 1859.1765918645833 -135.4582599568725 0 -135.4582599568725 135.61124242616739 0 0 0 0 1387.7568781506416 207.64817599267462 0 207.64817599267462 20.131200929543752 0 0 0 0 1827.8673179842881 223.43382596678748 0 223.43382596678748 -205.96296685211041 0 0 0 0 1656.2570936880038 235.68558774392574 0 235.68558774392574 -64.553816255159404 0 0 0 0 1167.1672437817324 373.16716546246516 0 373.16716546246516 20.463766002051443 0 0 0 0 1404.5561548476908 306.39402092330715 0 306.39402092330715 -32.979367366375698 0 0 0 0 801.24641559524753 78.236735577784245 0 78.236735577784245 228.57599326594243 0 0 0 0 543.80763979170297 208.76070855180768 0 208.76070855180768 163.60589257884882 0 0 0 0 430.93861062514407 -139.58003632116237 0 -139.58003632116237 231.86295060053931 0 0 0 0 610.07258703451816 -60.302059583617968 0 -60.302059583617968 342.72930970646672 0 0 0 0 620.78792180940218 42.878811391636972 0 42.878811391636972 273.21131598742568 0 0 0 0 788.3125835167375 106.11098238588588 0 106.11098238588588 187.07144788571705 0 0 0 0 1030.6026842636202 122.69650372487442 0 122.69650372487442 179.9497206394648 0 0 0 0 821.12419980646519 -44.122359394679037 0 -44.122359394679037 229.14831105966584 0 0 0 0 888.29671208525542 4.1711010330864724 0 4.1711010330864724 230.8772187759902 0 0 0 0 1035.4019260676432 -127.51396681399568 0 -127.51396681399568 158.62788704270938 0 0 0 0 705.14053731202694 -31.100525745925818 0 -31.100525745925818 90.480849290305343 0 0 0 0 713.6640811188372 -114.13553282472762 0 -114.13553282472762 182.24073200698973 0 0 0 0 742.11652595846681 -104.58445834047723 0 -104.58445834047723 10.482542520096445 0 0 0 0 917.60248667778797 -24.319674175688249 0 -24.319674175688249 189.8807170495227 0 0 0 0 911.92698014483904 10.097286870959749 0 10.097286870959749 79.679701735331605 0 0 0 0 1266.5222393185395 43.414740583866774 0 43.414740583866774 170.24723879645796 0 0 0 0 1260.6076433046428 -6.8310418148270919 0 -6.8310418148270919 -43.439714500187279 0 0 0 0 1225.0508527543425 34.731791774593773 0 34.731791774593773 129.73000949263326 0 0 0 0 1367.5748059640682 -158.68451745195756 0 -158.68451745195756 308.75502879178987 0 0 0 0 2176.0607541804129 -410.1056210491958 0 -410.1056210491958 255.73282365445527 0 0 0 0 1853.5178486732912 -48.223802457985983 0 -48.223802457985983 -129.30863864825926 0 0 0 0 1579.174423537348 80.789177298643466 0 80.789177298643466 123.71995648352362 0 0 0 0 1582.9865099162707 28.576485215455932 0 28.576485215455932 795.02282566395047 0 0 0 0 2252.6367225409995 456.58005146929213 0 456.58005146929213 83.917915228811694 0 0 0 0 1726.4625425192207 33.493998095955021 0 33.493998095955021 -172.76822058864445 0 0 0 0 1749.4068173841115 101.27135533177419 0 101.27135533177419 -186.40923348841011 0 0 0 0 1523.6010611965612 12.656562048071009 0 12.656562048071009 -213.25860096203951 0 0 0 0 1239.2249934444917 -82.808172970594228 0 -82.808172970594228 -209.01374423013044 0 0 0 0 1393.9982981633584 -140.11371693857365 0 -140.11371693857365 -224.98958266732416 0 0 0 0 1779.4231998721807 -74.078409021553853 0 -74.078409021553853 -397.89244517210437 0 0 0 0 1784.8732885367572 -66.247597852865056 0 -66.247597852865056 -398.3938047026877 0 0 0 0 1853.4969476987171 -67.998010445447562 0 -67.998010445447562 -399.89851088106525 0 0 0 0 1805.8679657561443 -27.975591894132094 0 -27.975591894132094 -426.1066893774223 0 0 0 0 2509.125769973718 23.15087713261164 0 23.15087713261164 -428.69732591261811 0 0 0 0 2028.0529336292093 -465.15642411687622 0 -465.15642411687622 -295.89872504976483 0 0 0 0 1601.3382466102048 -370.45836932973623 0 -370.45836932973623 -301.33903550053856 0 0 0 0 1078.3396800325572 -621.86306725377926 0 -621.86306725377926 -57.218982842168771 0 0 0 0 1773.5790758733201 -287.55756416300301 0 -287.55756416300301 -301.36341577253654 0 0 0 0 111.96811704710126 -657.79489051513156 0 -657.79489051513156 127.84442788749038 0 0 0 0 1821.2734592703491 -732.72968748505355 0 -732.72968748505355 -114.10978913028293 0 0 0 0 4791.9246987379738 123.20602341036829 0 123.20602341036829 -422.13004747376453 0 0 0 0 3382.2385395094752 1907.9243969440299 0 1907.9243969440299 2408.3879475018839 0 0 0 0 3265.0285021268064 724.16479631872062 0 724.16479631872062 -157.8615229537927 0 0 0 0 1959.4966421860681 -319.94093136863523 0 -319.94093136863523 -251.9202510681871 0 0 0 0 2590.3300526677631 -572.60041421189908 0 -572.60041421189908 -313.38730812775532 0 0 0 0 164.24597620425993 276.90318959664887 0 276.90318959664887 -171.939287642208 0 0 0 0 -1.0626456663085264 286.76767587395852 0 286.76767587395852 -214.90432607975663 0 0 0 0 420.72007230922463 -128.96746813110462 0 -128.96746813110462 8.8516779915200914 0 0 0 0 701.20548045526084 -78.638429929811423 0 -78.638429929811423 -121.31252411484138 0 0 0 0 945.91164852344082 -270.20703097190687 0 -270.20703097190687 -83.311081915563364 0 0 0 0 71.041930807376048 157.98121111172895 0 157.98121111172895 -37.723739788884359 0 0 0 0 533.97726983757457 67.877824994020557 0 67.877824994020557 -137.14207872111501 0 0 0 0 566.75150169213885 117.24409793216353 0 117.24409793216353 -71.107294659703712 0 0 0 0 967.3277164271276 7.9195473804546737 0 7.9195473804546737 17.691425573880792 0 0 0 0 926.61858190584462 -86.616844861594188 0 -86.616844861594188 -131.23075461838584 0 0 0 0 586.82792096733465 109.09457834625408 0 109.09457834625408 -39.768234263253817 0 0 0 0 470.67787894001958 -70.595003571588364 0 -70.595003571588364 -79.422892447733204 0 0 0 0 662.31519530264632 136.53863352389757 0 136.53863352389757 -346.74967099564788 0 0 0 0 -421.77662062313175 741.68818370497172 0 741.68818370497172 -218.61026147921143 0 0 0 0 -976.89354944797378 41.570848576719072 0 41.570848576719072 119.72320260281913 0 0 0 0 468.08615392109641 341.76699245147375 0 341.76699245147375 -654.88977219598235 0 0 0 0 107.26537341870426 305.15063590205477 0 305.15063590205477 -92.688075664028702 0 0 0 0 112.84173753568757 306.49473884249466 0 306.49473884249466 -126.99951813638336 0 0 0 0 87.693703123542946 316.04386432426827 0 316.04386432426827 -147.3221929809888 0 0 0 0 -204.62326219651732 305.24125737386953 0 305.24125737386953 -32.228864771981534 0 0 0 0 -165.14110046876885 161.64306844552993 0 161.64306844552993 -108.83407368726489 0 0 0 0 -243.6026540263083 200.52046312550374 0 200.52046312550374 -15.040133779618373 0 0 0 0 -130.58006710534391 325.96109526152304 0 325.96109526152304 -218.93555466847147 0 0 0 0 65.634297897875143 23.487595838512114 0 23.487595838512114 -13.805903883524591 0 0 0 0 678.64412536607688 -235.59733094193922 0 -235.59733094193922 34.735500857091324 0 0 0 0 44.333546135858342 161.76762692619332 0 161.76762692619332 -268.76171497645055 0 0 0 0 -161.0076648418617 260.44290678749803 0 260.44290678749803 -127.48871016480825 0 0 0 0 2297.2354012906289 -771.21293990838308 0 -771.21293990838308 -430.66921636091661 0 0 0 0 3494.0930057475234 -1708.0779367745706 0 -1708.0779367745706 -152.83804959582494 0 0 0 0 1043.2938355003716 -1139.6677764278616 0 -1139.6677764278616 717.85442677650906 0 0 0 0 1014.1198126320451 -503.73289781275253 0 -503.73289781275253 471.64350050104116 0 0 0 0 58.523735549488379 20.940890234929853 0 20.940890234929853 -13.364895565986508 0 0 0 0 -165.76144321124593 141.91263843132424 0 141.91263843132424 -35.200557609446605 0 0 0 0 591.1104518170323 -1898.5759650288715 0 -1898.5759650288715 2602.3548295137507 0 0 0 0 16.315666883993657 0.70447731414907366 0 0.70447731414907366 3.7895160558598624 0 0 0 0 3.9458620086395229 7.9817576309581995 0 7.9817576309581995 5.8223677098121858 0 0 0 0 3489.0075649978025 14.637889946531651 0 14.637889946531651 -0.4434600180256873 0 0 0 0 260.86696515746371 -133.84700120736122 0 -133.84700120736122 1059.266625242858 0 0 0 0 -5.7511943431794919 21.618344471776524 0 21.618344471776524 -13.034327908178451 0 0 0 0 -64.880716712950743 959.68466027499267 0 959.68466027499267 3152.4773955609953 0 0 0 0 -206.27310806598689 122.38245868308979 0 122.38245868308979 63.220202541469007 0 0 0 0 -189.75132958400354 112.36835675025168 0 112.36835675025168 -43.022912612630535 0 0 0 0 767.65329752089019 855.81779460633982 0 855.81779460633982 -43.358021344779083 0 0 0 0 -6.4729830438121496 5.2807132668846606 0 5.2807132668846606 -3.0504621865162571 0 0 0 0 3495.4478683634661 2424.5746838490481 0 2424.5746838490481 -11.046690833601556 0 0 0 0 1517.5216109801549 2737.4938783869757 0 2737.4938783869757 2349.1452692718271 0 0 0 0 1585.862705501655 1624.9403274120657 0 1624.9403274120657 675.88135042629392 0 0 0 0 2188.6003378089954 1407.3200520141672 0 1407.3200520141672 -471.556147226718 0 0 0 0 3499.7960657965305 950.93632859688773 0 950.93632859688773 -670.73260210648073 0 0 0 0 2550.2727331813076 1494.5868488440569 0 1494.5868488440569 -532.12584566628834 0 0 0 0 1480.2505745218623 478.38405365480401 0 478.38405365480401 -167.32812660916454 0 0 0 0 1556.482956285472 1824.079876639755 0 1824.079876639755 -163.11415915591516 0 0 0 0 -251.66287209113216 372.92786988393459 0 372.92786988393459 117.59565810894179 0 0 0 0 507.75497005377838 32.510801678782428 0 32.510801678782428 116.50933698506793 0 0 0 0 627.59776199729095 -133.30133044278222 0 -133.30133044278222 241.0213401438979 0 0 0 0 1282.2887833222339 525.70134501704797 0 525.70134501704797 124.90011037901991 0 0 0 0 529.71798766155553 97.134166547405854 0 97.134166547405854 366.37405190853468 0 0 0 0 1458.8777878396977 -261.85578250195766 0 -261.85578250195766 156.94512224225468 0 0 0 0 1246.7011766207143 137.11628159634316 0 137.11628159634316 269.42909062504862 0 0 0 0 709.59767257801741 -74.224799814684047 0 -74.224799814684047 285.67983244773393 0 0 0 0 718.57627444772515 -19.443709081440318 0 -19.443709081440318 263.77227812584334 0 0 0 0 1225.136210401346 -72.88159915576253 0 -72.88159915576253 -20.526957925520065 0 0 0 0 1225.1620957022826 -70.645776432299911 0 -70.645776432299911 172.5483677012063 0 0 0 0 3499.7276447101467 348.95979794946203 0 348.95979794946203 -422.66437069031468 0 0 0 0 2507.6735322048207 806.33222760730735 0 806.33222760730735 -569.21827333828105 0 0 0 0 2672.7992626066771 384.54918981824346 0 384.54918981824346 -177.81519820662754 0 0 0 0 1877.3802405812385 576.49226287412375 0 576.49226287412375 329.21401859705986 0 0 0 0 2054.7693702784745 -128.21676519082121 0 -128.21676519082121 313.27070175186009 0 0 0 0 3498.1852693515521 416.64625461709028 0 416.64625461709028 -899.711761824257 0 0 0 0 295.45206364955084 2286.6103956892939 0 2286.6103956892939 342.71040019792622 0 0 0 0 4993.6146431014749 1070.2180210739061 0 1070.2180210739061 -167.04170956492862 0 0 0 0 4.6044621147870046 3.8625096653205873 0 3.8625096653205873 -3.5022982287087001 0 0 0 0 462.34427343562857 -671.37911358803103 0 -671.37911358803103 82.237443333461329 0 0 0 0 -3.5257952527829559 -0.6274202584041646 0 -0.6274202584041646 0.81816342676830001 0 0 0 0 1936.2243451573959 898.88974346451755 0 898.88974346451755 437.06780760911022 0 0 0 0 173.78636764915154 -266.00306988173287 0 -266.00306988173287 -191.51356671865187 0 0 0 0 435.70879633711593 -4.6092428203062354 0 -4.6092428203062354 67.940492440286675 0 0 0 0 625.91780134991131 -5.3691136463803559 0 -5.3691136463803559 64.651176971522546 0 0 0 0 334.87742745072319 331.94476987619464 0 331.94476987619464 414.82027167863089 0 0 0 0 383.3329747997077 8.5031216465694826 0 8.5031216465694826 185.22564746674243 0 0 0 0 1002.7757588880049 624.0104854284732 0 624.0104854284732 249.24461900817499 0 0 0 0 -243.30602728295526 581.40176422686466 0 581.40176422686466 249.70213118723041 0 0 0 0 1470.8732804983847 235.55613486360744 0 235.55613486360744 274.44833103964629 0 0 0 0 1422.8503330534586 515.76523743524785 0 515.76523743524785 255.73692983864203 0 0 0 0 902.10205182811842 480.45731274706554 0 480.45731274706554 340.05288559079054 0 0 0 0 1049.1166647734826 294.04439574341609 0 294.04439574341609 291.09178680654986 0 0 0 0 565.53809937844562 265.25798566085587 0 265.25798566085587 310.15087323233911 0 0 0 0 610.69257663100871 223.98779257320496 0 223.98779257320496 274.58445467438605 0 0 0 0 598.63704632590816 275.93783468645915 0 275.93783468645915 204.77838375191891 0 0 0 0 901.01851757033 316.94647549890146 0 316.94647549890146 200.7856196652192 0 0 0 0 1215.9030622973078 247.5517753934987 0 247.5517753934987 39.414436245164438 0 0 0 0 1442.0141789446643 150.97654910804499 0 150.97654910804499 63.90387465529443 0 0 0 0 922.22816631239402 411.12987485061217 0 411.12987485061217 256.02984203803271 0 0 0 0 1386.0189662373305 116.90413991505181 0 116.90413991505181 169.7877821595871 0 0 0 0 1590.3150331636425 144.49356320802303 0 144.49356320802303 60.528007000123125 0 0 0 0 1368.8639194004027 -12.756760331383475 0 -12.756760331383475 -6.8769282843040855 0 0 0 0 2045.6126612738808 -3.4986427063820429 0 -3.4986427063820429 106.39204854051331 0 0 0 0 2811.5526522996261 297.53573437299019 0 297.53573437299019 -97.723630483841134 0 0 0 0 8.1743874185578136 10.788298384578631 0 10.788298384578631 -9.411665758244931 0 0 0 0 3499.3438166277924 -340.51400532906484 0 -340.51400532906484 -123.88729518678761 0 0 0 0 2728.6141848671432 391.92984875834429 0 391.92984875834429 -668.80631877135124 0 0 0 0 3426.4144647767389 -309.18645901537963 0 -309.18645901537963 46.608780962083031 0 0 0 0 7.8270320601039458 9.2378217428453269 0 9.2378217428453269 -10.006653233431033 0 0 0 0 1794.7302461131421 -55.042585003092995 0 -55.042585003092995 -115.36626863049878 0 0 0 0 3501.1111863676342 -433.71612247789062 0 -433.71612247789062 245.05040672338507 0 0 0 0 1304.2274117842026 138.45012542704671 0 138.45012542704671 -106.96090187447385 0 0 0 0 1465.6857142700464 -136.86094641598243 0 -136.86094641598243 -15.558194272514811 0 0 0 0 1198.2511755344967 53.398358718481859 0 53.398358718481859 -55.43010395302548 0 0 0 0 1218.7907760293601 87.579909420462855 0 87.579909420462855 -127.48392620303002 0 0 0 0 1513.6413132172966 86.298280192983498 0 86.298280192983498 -742.67857313729439 0 0 0 0 1191.7928214174462 77.532048138147275 0 77.532048138147275 -514.20542302835952 0 0 0 0 1497.5996559624946 -78.968642545106178 0 -78.968642545106178 -439.03205298147941 0 0 0 0 1220.6260012398316 251.63204420632451 0 251.63204420632451 -323.54065938091253 0 0 0 0 4.8779213594275888 3.8711516190896447 0 3.8711516190896447 -4.4941970415127681 0 0 0 0 844.83760892308783 459.32542635336847 0 459.32542635336847 -465.71079756676829 0 0 0 0 4158.1445079002297 54.309018779652718 0 54.309018779652718 -696.38488050305284 0 0 0 0 904.3051225788804 343.18650602198909 0 343.18650602198909 -338.15303407723059 0 0 0 0 3044.139160636747 -277.3641629734812 0 -277.3641629734812 -862.106538115116 0 0 0 0 3499.756383202086 652.77218513300727 0 652.77218513300727 -1200.5486116282129 0 0 0 0 1344.4397549827554 343.75281445565139 0 343.75281445565139 -1088.9744509999036 0 0 0 0 1616.0955998740774 -217.81775678897716 0 -217.81775678897716 -359.09734711809574 0 0 0 0 1794.3021694357958 -588.24274218320636 0 -588.24274218320636 -442.51959263785699 0 0 0 0 71.092885876967742 19.128352060213814 0 19.128352060213814 -15.368472018599091 0 0 0 0 966.03005564487103 -419.88290599063055 0 -419.88290599063055 50.821474292023623 0 0 0 0 153.88039402285358 70.934930348519288 0 70.934930348519288 102.63834534179591 0 0 0 0 1223.5811951608484 -120.02688343047271 0 -120.02688343047271 -382.97369593951282 0 0 0 0 1244.1861473943427 275.42720100560109 0 275.42720100560109 -22.468996083342972 0 0 0 0 0.59850904345611866 -1.4573319626937611 0 -1.4573319626937611 0.7084251359870879 0 0 0 0 191.77001970804122 15.454720431401483 0 15.454720431401483 -565.21458526891843 0 0 0 0 150.55725252475895 50.751287187258953 0 50.751287187258953 -19.908992503229001 0 0 0 0 9.2045493959765281 9.4808522534872743 0 9.4808522534872743 -5.4922226154336915 0 0 0 0 204.28318418431991 275.75781096085024 0 275.75781096085024 -104.53524465475675 0 0 0 0 473.2423959267544 -427.6853890113191 0 -427.6853890113191 -666.29958349814524 0 0 0 0 1104.2210343597289 124.32574262624109 0 124.32574262624109 -270.68458795927791 0 0 0 0 1039.4533781849241 111.1872945651005 0 111.1872945651005 -273.16573790690336 0 0 0 0 1143.3072576753584 238.98546228145551 0 238.98546228145551 -116.14628853651357 0 0 0 0 973.90295292605333 272.77464493116975 0 272.77464493116975 55.82609895930409 0 0 0 0 889.82752363645704 97.484544358516359 0 97.484544358516359 -17.136201482329852 0 0 0 0 612.64113780267871 275.33920909493975 0 275.33920909493975 115.49236397434834 0 0 0 0 319.5855928738456 157.93454314631072 0 157.93454314631072 -4.1189203795249796 0 0 0 0 653.29653117368434 327.71800367721403 0 327.71800367721403 79.110102170363916 0 0 0 0 469.67864129188092 110.22046910095423 0 110.22046910095423 4.5166885859557624 0 0 0 0 494.87707036190113 476.81757950100723 0 476.81757950100723 104.38594875197919 0 0 0 0 642.80433712028025 493.90993438946475 0 493.90993438946475 101.35893248638854 0 0 0 0 1033.3397344341665 564.17272583679562 0 564.17272583679562 -160.6881995163144 0 0 0 0 881.12900549355436 838.63503116075537 0 838.63503116075537 216.8398596412444 0 0 0 0 193.34711570573927 518.156132100028 0 518.156132100028 125.70450693281418 0 0 0 0 781.90065709543705 1338.5495432553976 0 1338.5495432553976 593.60938635024104 0 0 0 0 380.24005470939301 527.86010874312319 0 527.86010874312319 117.59581425358738 0 0 0 0 359.22497281710457 348.99780736408127 0 348.99780736408127 -135.9224151065564 0 0 0 0 40.684740402793977 355.99924501167857 0 355.99924501167857 -98.252722545677216 0 0 0 0 11.274514555991061 -8.2071891510632327 0 -8.2071891510632327 -3.2417320251767805 0 0 0 0 226.13542010580568 30.273886614078037 0 30.273886614078037 12.663322746177073 0 0 0 0 330.49571889405706 -158.81678128463625 0 -158.81678128463625 353.60268926902836 0 0 0 0 77.643895036002419 -16.529801217835775 0 -16.529801217835775 -1.408246870324799 0 0 0 0 163.56007240347753 62.396080008434751 0 62.396080008434751 -637.57404291389048 0 0 0 0 76.349030881166982 232.06390068610335 0 232.06390068610335 -301.12501606414344 0 0 0 0 5021.8370688677533 572.53501579386921 0 572.53501579386921 137.47453421957835 0 0 0 0 2782.4695807734533 1372.0863668063798 0 1372.0863668063798 -85.70412990672321 0 0 0 0 2553.1037560553268 248.68416336125961 0 248.68416336125961 3287.6887724247026 0 0 0 0 32.076864159275374 -7.0684752320434328 0 -7.0684752320434328 1.923071914409471 0 0 0 0 1683.8066936787291 -1170.4686464070082 0 -1170.4686464070082 -581.46446177851612 0 0 0 0 3616.6652871858532 1897.3006427035807 0 1897.3006427035807 616.15681586874916 0 0 0 0 470.61184444367245 717.77221526572316 0 717.77221526572316 1987.6379237318242 0 0 0 0 2895.7832839132316 1490.0283228786284 0 1490.0283228786284 505.69561212740393 0 0 0 0 3707.1641026189609 1274.8551828460318 0 1274.8551828460318 -733.6684083348523 0 0 0 0 1198.7239386134097 -911.80362107297492 0 -911.80362107297492 315.88520513102094 0 0 0 0 24.700438500541566 -0.93472250460695161 0 -0.93472250460695161 -0.36156500913979667 0 0 0 0 3505.0451644951681 901.7149044202265 0 901.7149044202265 -246.99878912396616 0 0 0 0 3140.9589305682312 -676.67037284199841 0 -676.67037284199841 -340.13633680647104 0 0 0 0 1288.315001660907 -278.32096855672785 0 -278.32096855672785 -281.79894446762978 0 0 0 0 3530.2514525722945 1659.2464470513862 0 1659.2464470513862 19.702219335490781 0 0 0 0 1690.4428895029487 746.01678746462676 0 746.01678746462676 -228.20236458306772 0 0 0 0 1530.090035852736 708.06074698455836 0 708.06074698455836 -210.32053466807008 0 0 0 0 2087.7075345684789 210.20027297021284 0 210.20027297021284 -453.60454977850441 0 0 0 0 1661.658301723146 -240.99676965944036 0 -240.99676965944036 -307.83238214316498 0 0 0 0 1142.512056837928 -227.68138128344935 0 -227.68138128344935 -238.69664584656493 0 0 0 0 1004.0160582944882 -72.5145322846314 0 -72.5145322846314 -241.21161925144497 0 0 0 0 1450.6323426442468 212.87731956037783 0 212.87731956037783 -407.88823651358803 0 0 0 0 978.28063159723388 -47.351980429821197 0 -47.351980429821197 -274.89042970416176 0 0 0 0 1075.6675089696146 135.66274318890669 0 135.66274318890669 -284.99228325279455 0 0 0 0 1009.2991740969446 94.653495651363528 0 94.653495651363528 -309.82937583418493 0 0 0 0 827.62337902488798 127.17333683287279 0 127.17333683287279 -223.66133441882675 0 0 0 0 1078.9601530324726 174.26960544323651 0 174.26960544323651 -285.36375352018013 0 0 0 0 1008.5460406687123 166.68218507796095 0 166.68218507796095 -245.06960908838528 0 0 0 0 1073.6136966350568 149.82342635285545 0 149.82342635285545 -327.55348833587414 0 0 0 0 1225.869590066126 519.60123823614504 0 519.60123823614504 -152.13887763941648 0 0 0 0 1125.6736290520985 320.19660700356991 0 320.19660700356991 -148.14662237713128 0 0 0 0 1311.649585681349 213.05841315165208 0 213.05841315165208 -361.3305618980653 0 0 0 0 1144.5425647150405 197.73048030218456 0 197.73048030218456 -295.20040967927162 0 0 0 0 918.02648253482039 399.78937971699293 0 399.78937971699293 -178.06249821676784 0 0 0 0 925.33555632309253 441.99607238747978 0 441.99607238747978 38.403442853470096 0 0 0 0 521.20793891176436 366.86427937103304 0 366.86427937103304 194.01672511421566 0 0 0 0 712.18910094634339 302.44740415234992 0 302.44740415234992 -50.085670894957275 0 0 0 0 706.4239276957378 309.53081323341439 0 309.53081323341439 211.44257912947955 0 0 0 0 760.40823532108334 125.94963143855591 0 125.94963143855591 26.801201389750531 0 0 0 0 613.73101217440126 203.91912263068502 0 203.91912263068502 125.04968685110498 0 0 0 0 937.52255900239834 208.54343245676625 0 208.54343245676625 -213.56921083077191 0 0 0 0 927.87225001271872 225.64713105273199 0 225.64713105273199 -23.092238145996248 0 0 0 0 1084.2867600473946 138.20375209606698 0 138.20375209606698 -186.6927630046016 0 0 0 0 989.9098924146731 77.501084983016824 0 77.501084983016824 -214.17174150670007 0 0 0 0 994.16899039253144 -89.164668408981797 0 -89.164668408981797 -154.90008023232986 0 0 0 0 631.31242644334998 -1.697382902906611 0 -1.697382902906611 13.74091107564027 0 0 0 0 577.649710490502 -379.60082621226775 0 -379.60082621226775 -140.4968734593208 0 0 0 0 1322.9872294842207 -5.1289810177995605 0 -5.1289810177995605 -313.89411342290668 0 0 0 0 1151.6043428452476 21.905780905818723 0 21.905780905818723 -215.31865536261967 0 0 0 0 1144.1864607649622 -147.17517787897191 0 -147.17517787897191 -150.95186094751898 0 0 0 0 1059.500196371333 177.45617947710218 0 177.45617947710218 -205.12135473386888 0 0 0 0 1301.6954048878397 365.05638626966015 0 365.05638626966015 -124.43784334552902 0 0 0 0 574.26055475426983 131.41515581106648 0 131.41515581106648 -10.642850276694048 0 0 0 0 590.65640812842321 234.63076232729782 0 234.63076232729782 87.25012123788099 0 0 0 0 726.07366130558148 147.09461807698676 0 147.09461807698676 -132.73311477787774 0 0 0 0 846.80175498315657 344.90277485634329 0 344.90277485634329 -20.690133089513438 0 0 0 0 750.05218593304744 186.23112513134629 0 186.23112513134629 -128.35822138395997 0 0 0 0 889.21238908652958 111.67950510405581 0 111.67950510405581 -234.40446192615036 0 0 0 0 956.68978756628348 192.23191877024033 0 192.23191877024033 -205.44254768465134 0 0 0 0 156.24229767984798 -88.366135823457171 0 -88.366135823457171 -72.818501620135976 0 0 0 0 355.3986811754512 -53.67937594765192 0 -53.67937594765192 -129.25548292457006 0 0 0 0 296.79404487498687 31.605614306803091 0 31.605614306803091 -93.908757036775114 0 0 0 0 140.54428887813992 -22.240267983962895 0 -22.240267983962895 -19.958399602470763 0 0 0 0 64.003077532834141 -102.71844882390451 0 -102.71844882390451 -55.050245291073225 0 0 0 0 489.65825846247026 107.49828464183338 0 107.49828464183338 -69.965041060141971 0 0 0 0 601.61917825141063 22.294340682020561 0 22.294340682020561 -180.91855173539443 0 0 0 0 433.40244746401731 34.130037985489935 0 34.130037985489935 -88.847820525065174 0 0 0 0 247.89127288517921 77.365881683534781 0 77.365881683534781 42.435996958735814 0 0 0 0 547.8002371040202 216.00272970118158 0 216.00272970118158 14.364961831427991 0 0 0 0 263.38006802850578 13.125488244281996 0 13.125488244281996 17.81265954702792 0 0 0 0 206.21292021254521 -42.081745554928148 0 -42.081745554928148 -39.298463763326254 0 0 0 0 18.343898920618813 -41.875657820203287 0 -41.875657820203287 35.187561983505475 0 0 0 0 -139.11160628264042 -121.32865016616324 0 -121.32865016616324 13.538601393547196 0 0 0 0 30.771439647934365 -46.494008957623201 0 -46.494008957623201 2.2777911457723281 0 0 0 0 -89.061847754768678 -43.263961210582409 0 -43.263961210582409 -10.300299748618272 0 0 0 0 31.634159301458567 -83.122724893861232 0 -83.122724893861232 -24.948019526045073 0 0 0 0 -83.951429387554526 -116.36809887700747 0 -116.36809887700747 -71.680407879164704 0 0 0 0 -78.987410827081476 -129.03823058966503 0 -129.03823058966503 -40.456736717620515 0 0 0 0 -71.445418691990199 -85.119927442755397 0 -85.119927442755397 3.1066393222381521 0 0 0 0 38.252357196150115 -67.182414137054138 0 -67.182414137054138 -53.264534353020281 0 0 0 0 39.202922832502736 -119.04070468475959 0 -119.04070468475959 -31.650287291429322 0 0 0 0 253.66550963296686 -179.18715364711306 0 -179.18715364711306 -113.8965664837292 0 0 0 0 108.14974849551072 -154.38264976202208 0 -154.38264976202208 -75.711659129344298 0 0 0 0 75.54323400128942 -190.5601651421216 0 -190.5601651421216 47.078958338272969 0 0 0 0 123.68467249934292 -52.12954832446394 0 -52.12954832446394 -211.65666741132486 0 0 0 0 90.554325302099301 4.6142952913641917 0 4.6142952913641917 -16.004157866517566 0 0 0 0 18.62010592994293 3.4104270828460415 0 3.4104270828460415 -16.61614781096408 0 0 0 0 168.72763706062688 18.117355915039752 0 18.117355915039752 -45.014529586542267 0 0 0 0 -228.36945062693849 -151.46329010112765 0 -151.46329010112765 -35.877859135549443 0 0 0 0 113.85568376401352 6.3876912747482493 0 6.3876912747482493 -28.190914557485485 0 0 0 0 127.26016248852102 -24.621354821199247 0 -24.621354821199247 -98.990281720517487 0 0 0 0 -15.964931724171038 -60.525601343424114 0 -60.525601343424114 -39.768667705283406 0 0 0 0 16.654965156980325 -94.748393043578744 0 -94.748393043578744 -41.378721006084561 0 0 0 0 -87.484758227132261 -67.50062793532652 0 -67.50062793532652 -51.805522871146309 0 0 0 0 -37.142766599208699 -101.2894008555304 0 -101.2894008555304 -63.728762576804911 0 0 0 0 -136.67073978166445 -48.647099065191924 0 -48.647099065191924 -49.966083562562744 0 0 0 0 -84.518897788104368 -69.487971458154789 0 -69.487971458154789 -96.355760769447897 0 0 0 0 -127.16781414434627 -95.295610849906495 0 -95.295610849906495 -40.89514839788535 0 0 0 0 53.624560682284937 -112.94473613936998 0 -112.94473613936998 -136.38627639728929 0 0 0 0 -54.512834312190989 -97.985968598050448 0 -97.985968598050448 -82.223197385630556 0 0 0 0 -56.473639660041954 -116.99492253200174 0 -116.99492253200174 -178.76366288734721 0 0 0 0 -415.99580408519614 -360.30050479712281 0 -360.30050479712281 -294.78092638065164 0 0 0 0 -2.5993243712063503 2.0936698901333415 0 2.0936698901333415 -4.3403687156542841 0 0 0 0 102.42796924686991 4.0780700122897997 0 4.0780700122897997 -631.16730401334723 0 0 0 0 174.53162862091995 -150.72837534596169 0 -150.72837534596169 -311.18338220394116 0 0 0 0 149.43133967694303 77.589643980600158 0 77.589643980600158 -279.70999126546292 0 0 0 0 217.23697177314898 -36.339677949388033 0 -36.339677949388033 -101.47468179414864 0 0 0 0 371.62744819682121 4.3404368648984928 0 4.3404368648984928 -237.34591583004749 0 0 0 0 408.39157507849086 43.598067592588905 0 43.598067592588905 -107.7027340762088 0 0 0 0 353.97307433901369 -72.796804199168378 0 -72.796804199168378 -188.24348688125519 0 0 0 0 194.95358826702432 -63.310667705661672 0 -63.310667705661672 -103.74873495479937 0 0 0 0 642.26993722465704 27.563370713855875 0 27.563370713855875 -191.82947752819928 0 0 0 0 583.21623872812052 -87.915742558773218 0 -87.915742558773218 -223.86553665154133 0 0 0 0 810.65853011042691 65.692833139807249 0 65.692833139807249 -216.80167679290389 0 0 0 0 712.00171388412127 -98.843502182623979 0 -98.843502182623979 -226.14109814094945 0 0 0 0 429.64526124639815 -125.28368708831977 0 -125.28368708831977 -104.83465068223904 0 0 0 0 664.91446663483657 10.830444217206605 0 10.830444217206605 -191.39103580051335 0 0 0 0 636.28822966093867 -297.34309693436398 0 -297.34309693436398 -22.96941923612394 0 0 0 0 385.41845427437147 -5.0581439923421385 0 -5.0581439923421385 -136.733374945582 0 0 0 0 278.02542969117349 -146.4467244968946 0 -146.4467244968946 -0.17922191108345942 0 0 0 0 257.89500956447591 -57.737452918437839 0 -57.737452918437839 -19.818807631174423 0 0 0 0 116.13217487926886 85.098172991986075 0 85.098172991986075 -119.98838401668036 0 0 0 0 38.127953027113108 106.25416336633566 0 106.25416336633566 -52.627549292154242 0 0 0 0 102.28863050256768 131.90342759024952 0 131.90342759024952 -109.33074106395952 0 0 0 0 1116.5650003326518 -633.71167008942939 0 -633.71167008942939 131.78209963349309 0 0 0 0 282.37571801835293 -125.39987887560733 0 -125.39987887560733 71.86161727343142 0 0 0 0 -159.82453117160185 286.43530192993558 0 286.43530192993558 -25.906201783018872 0 0 0 0 -163.57111583344522 -303.45085196842956 0 -303.45085196842956 329.52483555763138 0 0 0 0 -2587.6379191482192 -793.686014512778 0 -793.686014512778 2564.2842423523211 0 0 0 0 121.20085529143762 172.52162660956219 0 172.52162660956219 -496.18492106265455 0 0 0 0 1144.8565762382786 -61.369696336765855 0 -61.369696336765855 -373.80856213195784 0 0 0 0 39.715199759330375 -5.7950581252098186 0 -5.7950581252098186 -0.27033098944774375 0 0 0 0 -447.7639568696676 -251.55323811987245 0 -251.55323811987245 109.98291748907195 0 0 0 0 -446.28905981734732 119.1575599765936 0 119.1575599765936 314.152438680263 0 0 0 0 5.2789972763352182 -5.3866208757615279 0 -5.3866208757615279 2.0185129827325552 0 0 0 0 816.99067138117971 -98.076358475573215 0 -98.076358475573215 -955.16672930092705 0 0 0 0 2849.9892176552494 -287.10817285903909 0 -287.10817285903909 124.06076081330684 0 0 0 0 1621.4765992328466 -1007.3434198554314 0 -1007.3434198554314 -64.66221252329342 0 0 0 0 1201.453859225232 -1010.4624644309022 0 -1010.4624644309022 1195.4598415315813 0 0 0 0 -26.718901958163769 -7.0278564179784553 0 -7.0278564179784553 -24.473590310225518 0 0 0 0 5.5694892958708806 -78.133212586740683 0 -78.133212586740683 -28.721616589807581 0 0 0 0 -47.713743967557093 -245.16873608243304 0 -245.16873608243304 -352.80260271656471 0 0 0 0 20.128921070506095 -15.718947073694681 0 -15.718947073694681 3.2922119541544657 0 0 0 0 -370.02010987992981 -361.87318214472407 0 -361.87318214472407 835.63970425022103 0 0 0 0 -408.6423528547748 -417.90083002173014 0 -417.90083002173014 965.71543763673003 0 0 0 0 138.42032386037317 233.62864182889018 0 233.62864182889018 126.39359515096135 0 0 0 0 15.049675889024655 -4.3104791287427195 0 -4.3104791287427195 0.91648742706707531 0 0 0 0 607.04339741591684 166.67466430718048 0 166.67466430718048 -108.2307841621888 0 0 0 0 160.86959833471701 42.566820552961815 0 42.566820552961815 -123.20634862719544 0 0 0 0 37.25985049897281 199.72323315473238 0 199.72323315473238 -157.65197800642045 0 0 0 0 -38.349376768172078 42.079213822912379 0 42.079213822912379 -112.84577215888521 0 0 0 0 -37.872908154677134 105.55563943496531 0 105.55563943496531 37.333275027863692 0 0 0 0 40.706728439028666 255.80205154885084 0 255.80205154885084 -14.586264665688191 0 0 0 0 74.930200540618898 82.831104316649999 0 82.831104316649999 -156.85724399182618 0 0 0 0 118.56013134232489 78.279424751319766 0 78.279424751319766 -182.12944146048937 0 0 0 0 -115.29699562970927 177.24999108482234 0 177.24999108482234 -183.23563527169631 0 0 0 0 105.66961731708034 -196.69633272843862 0 -196.69633272843862 -94.742865971192259 0 0 0 0 25.760609215831209 -355.30807815735989 0 -355.30807815735989 -373.45290604649995 0 0 0 0 154.36308290580382 -259.8221789428386 0 -259.8221789428386 -279.63059375743342 0 0 0 0 49.660642338916659 -191.73974968195353 0 -191.73974968195353 20.6264811131025 0 0 0 0 -59.971009232358483 -156.31634081838797 0 -156.31634081838797 10.687943906414148 0 0 0 0 17.81332831614418 -347.42889818632648 0 -347.42889818632648 454.79495160385909 0 0 0 0 196.43281534456764 -250.55429712236787 0 -250.55429712236787 -98.059151675512751 0 0 0 0 500.26583388685685 -553.5687516534598 0 -553.5687516534598 194.14779695060065 0 0 0 0 -165.72223052131085 -158.70541505653705 0 -158.70541505653705 951.46947426121869 0 0 0 0 -202.79550163871681 86.465063865720197 0 86.465063865720197 189.870498934849 0 0 0 0 -45.971656864498073 89.155601450712851 0 89.155601450712851 -109.33477018175722 0 0 0 0 38.716079327574334 -18.070075778452125 0 -18.070075778452125 3.7487844589660622 0 0 0 0 36.393643611823791 -41.46497676188892 0 -41.46497676188892 5.2652540443650651 0 0 0 0 41.769711107575858 -53.852038718482618 0 -53.852038718482618 -85.449275861774368 0 0 0 0 1193.3934819180577 -222.62070880825598 0 -222.62070880825598 -563.16847326743869 0 0 0 0 23.82688621582929 -25.469963387086864 0 -25.469963387086864 -9.9831607597434413 0 0 0 0 35.05776382501125 -16.834899538068065 0 -16.834899538068065 2.3492816785416943 0 0 0 0 208.45420780118729 -191.45962368956219 0 -191.45962368956219 210.45245013297094 0 0 0 0 0.11822332035004024 -4.3411426235089712 0 -4.3411426235089712 3.8558048869655304 0 0 0 0 124.25199144002545 -14.447026849062894 0 -14.447026849062894 -29.344821912230543 0 0 0 0 5.8120843242022957 -1.9842492449333022 0 -1.9842492449333022 -0.22400263433668921 0 0 0 0 -7.509749700762768 6.96603570709118 0 6.96603570709118 55.319432848058568 0 0 0 0 89.076908759136131 -29.536473340219118 0 -29.536473340219118 -37.246895857112577 0 0 0 0 -73.120534761350427 -33.143090187521253 0 -33.143090187521253 35.942677442579566 0 0 0 0 -16.857481933482632 -50.756401276493989 0 -50.756401276493989 -7.4488656164771783 0 0 0 0 -24.013051744324912 -108.93385379041365 0 -108.93385379041365 37.150675135851372 0 0 0 0 -24.696150085674162 -91.706617047603686 0 -91.706617047603686 1.6298516295191803 0 0 0 0 38.751145853596427 -121.50624557661749 0 -121.50624557661749 -38.941786107669031 0 0 0 0 57.976528809180309 -68.34583573766372 0 -68.34583573766372 -140.26320029963654 0 0 0 0 75.695840861928446 -48.843431565686842 0 -48.843431565686842 -51.860070853514571 0 0 0 0 58.592207359142776 -54.70955611503166 0 -54.70955611503166 -53.853959892945113 0 0 0 0 56.426601211067464 -31.212148256617411 0 -31.212148256617411 -133.49383359670946 0 0 0 0 105.28207355408449 -54.278526383444387 0 -54.278526383444387 -136.17001412629588 0 0 0 0 122.5570721752938 -30.57611313645441 0 -30.57611313645441 -212.52688694617518 0 0 0 0 213.40237158401578 -48.929399682422172 0 -48.929399682422172 -245.79259228427179 0 0 0 0 152.07868853065702 209.13832071928766 0 209.13832071928766 -241.48481295103011 0 0 0 0 213.19313309803692 -70.822639475345113 0 -70.822639475345113 -609.14763639665807 0 0 0 0 91.86328896239138 9.9704661253595077 0 9.9704661253595077 -39.948238182314071 0 0 0 0 98.143224818762974 44.183958912754406 0 44.183958912754406 -145.29792809432729 0 0 0 0 81.311814987875096 3.1990048274439005 0 3.1990048274439005 -43.305401696356967 0 0 0 0 138.41193320849561 -12.600565261024713 0 -12.600565261024713 -59.270764514970779 0 0 0 0 88.219788221762428 -28.70422409256048 0 -28.70422409256048 -33.453133768443877 0 0 0 0 112.97119120723801 -13.383452407570985 0 -13.383452407570985 -24.649863598109732 0 0 0 0 92.620255250083574 -37.221869389463791 0 -37.221869389463791 1.5465110267141426 0 0 0 0 89.158770538914183 3.3147579802325575 0 3.3147579802325575 -10.320075170979937 0 0 0 0 -124.29985341496649 287.41458160308139 0 287.41458160308139 -337.21474450619007 0 0 0 0 -112.84508286230994 195.86542591034276 0 195.86542591034276 -1744.0684656881676 0 0 0 0 18.28329849019881 14.214364299513811 0 14.214364299513811 -14.948254242786092 0 0 0 0 187.03377254458246 288.82967250947263 0 288.82967250947263 -589.6204695944989 0 0 0 0 60.090293129376178 -22.888408934551251 0 -22.888408934551251 9.6485208171069701 0 0 0 0 97.017371746615936 -18.413579308209705 0 -18.413579308209705 -43.77680187527767 0 0 0 0 19.5624429079744 -69.716944148211269 0 -69.716944148211269 108.31632800463126 0 0 0 0 18.679312874010066 -56.794408156474105 0 -56.794408156474105 20.174507278161173 0 0 0 0 218.32784134397298 -7.5770593880695287 0 -7.5770593880695287 -50.108376876661453 0 0 0 0 207.46505824612495 87.611920570592616 0 87.611920570592616 60.217532358737571 0 0 0 0 41.754358327291115 -19.684751094448867 0 -19.684751094448867 8.3861764762242306 0 0 0 0 164.05030622307095 -53.174830817236398 0 -53.174830817236398 -66.570130810826072 0 0 0 0 62.637849359860411 -43.12049062777686 0 -43.12049062777686 -143.24069080907429 0 0 0 0 64.83158106178962 -29.468560779843756 0 -29.468560779843756 -76.195170427581616 0 0 0 0 -184.72578801558666 259.07534573543279 0 259.07534573543279 302.79772979213158 0 0 0 0 -80.897108454189947 -53.544162896626062 0 -53.544162896626062 542.4690747015926 0 0 0 0 57.316811932769269 346.07773186397861 0 346.07773186397861 239.03222670427056 0 0 0 0 -101.8694609152335 334.34482142908098 0 334.34482142908098 277.97601511181131 0 0 0 0 391.49845503767574 -149.8246875815623 0 -149.8246875815623 123.15364003664624 0 0 0 0 3.3469821420235917 5.0533198284551073 0 5.0533198284551073 2.9809877011272397 0 0 0 0 18.78454973364299 0.76419894374650266 0 0.76419894374650266 5.1391950828539432 0 0 0 0 592.21036185937191 408.68173777309607 0 408.68173777309607 -380.67739643128778 0 0 0 0 143.97804679391993 537.78923753392223 0 537.78923753392223 -401.31152448507828 0 0 0 0 -144.89434436637566 -85.16106963341781 0 -85.16106963341781 -369.64301910163522 0 0 0 0 798.47352667833547 -362.78879502164966 0 -362.78879502164966 18.512987985925918 0 0 0 0 352.08999075783277 -410.8904291578416 0 -410.8904291578416 -287.89201687167906 0 0 0 0 923.69349883225368 -284.34743407270435 0 -284.34743407270435 -670.97118444140358 0 0 0 0 204.29585313958887 -483.48064277684284 0 -483.48064277684284 329.01866577278361 0 0 0 0 186.13570855007492 -577.86493737364412 0 -577.86493737364412 169.03802538059233 0 0 0 0 -302.5180269412449 -159.53838728975052 0 -159.53838728975052 95.339960954287562 0 0 0 0 -41.687748753000051 72.52104387447821 0 72.52104387447821 -198.41795903461298 0 0 0 0 359.98344302653641 -474.31265065150285 0 -474.31265065150285 176.58763701726366 0 0 0 0 43.324075443058973 -112.46967251448086 0 -112.46967251448086 640.59906725351425 0 0 0 0 416.13191079472563 258.91066919770003 0 258.91066919770003 210.63006361980592 0 0 0 0 10.96617261913088 -1.1117710267614331 0 -1.1117710267614331 0.3486836912807379 0 0 0 0 346.74368158117795 -597.01622908701574 0 -597.01622908701574 325.7306580159327 0 0 0 0 521.108649975552 -83.570406855625379 0 -83.570406855625379 186.43535748296244 0 0 0 0 622.85374227081775 145.80717130599004 0 145.80717130599004 63.887885739507965 0 0 0 0 121.52674999768806 188.19594842378871 0 188.19594842378871 211.93311072737527 0 0 0 0 431.87643828635919 88.595850713870277 0 88.595850713870277 50.11342086371269 0 0 0 0 434.84146320424861 105.97410903180662 0 105.97410903180662 149.25286411077832 0 0 0 0 296.90840290970209 95.885508931195091 0 95.885508931195091 152.48954298399713 0 0 0 0 380.73914961489936 15.891322289753589 0 15.891322289753589 173.3483817876986 0 0 0 0 434.31916888278738 173.82848924378993 0 173.82848924378993 30.688217897903996 0 0 0 0 572.77937630113775 45.011450960625552 0 45.011450960625552 54.558246294867331 0 0 0 0 508.87354109537046 36.099370647802971 0 36.099370647802971 82.962974384478912 0 0 0 0 22.846892792195334 -20.731334238417606 0 -20.731334238417606 19.153401658002242 0 0 0 0 -54.834347116960998 250.15615460347431 0 250.15615460347431 241.95506943811574 0 0 0 0 79.454858520219204 93.271971714429355 0 93.271971714429355 159.46188101106554 0 0 0 0 65.379624043387366 -31.357242477037772 0 -31.357242477037772 164.39276133672365 0 0 0 0 -102.34774069879617 5.8242066089315188 0 5.8242066089315188 178.21638523487491 0 0 0 0 -28.313311761203295 -85.268683168651478 0 -85.268683168651478 237.15340626427746 0 0 0 0 -100.07489132440787 -83.771740629417764 0 -83.771740629417764 237.15180870737822 0 0 0 0 -65.820790248878438 -23.471207973961555 0 -23.471207973961555 296.52824953955133 0 0 0 0 15.640760608862365 13.843522008040509 0 13.843522008040509 315.60369548853123 0 0 0 0 -4.4449779648712138 -81.974834118126637 0 -81.974834118126637 309.52218940741477 0 0 0 0 26.239568306722504 -34.483885462838771 0 -34.483885462838771 284.38815740585596 0 0 0 0 82.856412701463341 -143.37386680029704 0 -143.37386680029704 145.82312798314615 0 0 0 0 96.848193018742677 -21.973280220097877 0 -21.973280220097877 -83.664776509909643 0 0 0 0 -11.384240351292647 -46.148339891637988 0 -46.148339891637988 182.55061735885829 0 0 0 0 88.201979962017504 12.75583279654893 0 12.75583279654893 201.24631214148894 0 0 0 0 185.83771837230654 182.23721705632414 0 182.23721705632414 86.945447993395646 0 0 0 0 175.93023518346581 86.171167938089638 0 86.171167938089638 -44.219289970844329 0 0 0 0 93.042749521976475 85.390785064225383 0 85.390785064225383 29.300650157138989 0 0 0 0 -77.503672517355881 34.078968404188572 0 34.078968404188572 38.774577878741184 0 0 0 0 2.7812979543705296 135.04484605791822 0 135.04484605791822 9.8146152708754926 0 0 0 0 -0.43909882972951664 5.5653699183797798 0 5.5653699183797798 8.4714152093195345 0 0 0 0 56.729662288100371 27.899639147129164 0 27.899639147129164 -11.180598285550332 0 0 0 0 30.290207021080278 120.08794558790805 0 120.08794558790805 250.23093579692409 0 0 0 0 105.8183660602499 75.367766124072659 0 75.367766124072659 25.612521333635186 0 0 0 0 77.938134075453775 37.062768209707201 0 37.062768209707201 4.3921263131687374 0 0 0 0 52.225909510685597 -10.070688407934085 0 -10.070688407934085 -8.6577595251692401 0 0 0 0 10.750258266264538 8.8992053888549272 0 8.8992053888549272 2.0051115660137455 0 0 0 0 113.77953540957606 57.355769102524391 0 57.355769102524391 -19.942996020896089 0 0 0 0 6.7426256315358195 14.915523749052877 0 14.915523749052877 -9.1026373187697764 0 0 0 0 61.7544406045198 -86.024030843331857 0 -86.024030843331857 -309.05028989550192 0 0 0 0 213.09152228840139 283.22830315614829 0 283.22830315614829 -310.52532286506931 0 0 0 0 174.87774404388946 625.17323950045625 0 625.17323950045625 451.59576976884637 0 0 0 0 -1.965340314850593 0.89494505365286692 0 0.89494505365286692 -3.4536640703638888 0 0 0 0 129.26994817058358 214.74554131858696 0 214.74554131858696 44.796231200607508 0 0 0 0 194.12601007582816 -1019.4101910739801 0 -1019.4101910739801 394.36259667733066 0 0 0 0 -160.30702922308228 515.55308213491821 0 515.55308213491821 573.83057796140565 0 0 0 0 9.0742381770118641 -6.6374349778423394 0 -6.6374349778423394 5.9201334237873553 0 0 0 0 627.04705152097449 -196.6088609635699 0 -196.6088609635699 284.53946447305452 0 0 0 0 61.564570629017709 144.28557587036966 0 144.28557587036966 365.71385120672494 0 0 0 0 67.438130885679129 -75.627975664478072 0 -75.627975664478072 930.27702026891166 0 0 0 0 72.86371014398992 135.46150500797694 0 135.46150500797694 317.32591463896028 0 0 0 0 20.343811580356487 231.82866194046073 0 231.82866194046073 305.64511153971944 0 0 0 0 31.904513061697799 184.70096085135719 0 184.70096085135719 449.31555280328757 0 0 0 0 83.11502442460278 254.33043872717963 0 254.33043872717963 288.379639756904 0 0 0 0 71.992712412261426 126.62351351265806 0 126.62351351265806 202.44897513334308 0 0 0 0 137.04660885499732 211.51528686461506 0 211.51528686461506 211.83370558173374 0 0 0 0 14.887270425217139 117.52147570000125 0 117.52147570000125 105.45279808306623 0 0 0 0 51.606322249692312 274.31507010326641 0 274.31507010326641 280.83234900986463 0 0 0 0 127.62397154824657 400.50451244849796 0 400.50451244849796 330.34933697260931 0 0 0 0 100.57101286341094 218.11651978034206 0 218.11651978034206 -60.173262025800796 0 0 0 0 14.098301642631178 2.5853111266694597 0 2.5853111266694597 -10.177670544101836 0 0 0 0 57.997266638044081 89.257266308522532 0 89.257266308522532 -19.122964959104138 0 0 0 0 91.775114676491285 100.85164749299565 0 100.85164749299565 -44.486712331425224 0 0 0 0 125.47633622946736 323.80549636515752 0 323.80549636515752 432.81277132534888 0 0 0 0 3.0568212702158863 4.575678559247514 0 4.575678559247514 2.5747880205753901 0 0 0 0 85.299959312122837 -6.2689336938401539 0 -6.2689336938401539 -79.002332838917027 0 0 0 0 104.65834733840529 71.707544351571869 0 71.707544351571869 14.086637069622157 0 0 0 0 85.433627423320559 -8.8273561312707898 0 -8.8273561312707898 -52.879562481817175 0 0 0 0 39.893747570772085 12.084205259051663 0 12.084205259051663 -51.108307456458768 0 0 0 0 18.466358700515684 32.241730655910544 0 32.241730655910544 55.152525747608927 0 0 0 0 -146.01255405345319 76.966273288186869 0 76.966273288186869 145.57401894260602 0 0 0 0 -251.38422368422107 354.09395469109768 0 354.09395469109768 2.122055206323239 0 0 0 0 141.64595522543289 29.0237270825819 0 29.0237270825819 -57.490548232686706 0 0 0 0 173.55930118278451 119.7939390586248 0 119.7939390586248 -144.69142543188718 0 0 0 0 179.30289639100266 438.36537655160669 0 438.36537655160669 449.27620531257344 0 0 0 0 374.62464879418462 -158.26786957289914 0 -158.26786957289914 0.3973614580645517 0 0 0 0 -17.699389850707576 82.118009764423732 0 82.118009764423732 -140.71924678420692 0 0 0 0 -138.63424253187691 51.419280410894316 0 51.419280410894316 276.4230231734582 0 0 0 0 22.163181895947218 -198.16401594737727 0 -198.16401594737727 194.59288198274908 0 0 0 0 391.67734471478423 247.13119058701159 0 247.13119058701159 158.68937696120702 0 0 0 0 371.10905945577804 1.5761847227822727 0 1.5761847227822727 135.06135986631125 0 0 0 0 -37.445906109719999 16.174783422164182 0 16.174783422164182 155.92227521715859 0 0 0 0 108.39028012873359 163.21505766570226 0 163.21505766570226 134.07566843375844 0 0 0 0 155.64635413933331 97.536740024192341 0 97.536740024192341 153.29354743616022 0 0 0 0 12.528739652061063 70.540186405625718 0 70.540186405625718 163.80214790608056 0 0 0 0 -215.71769023525212 73.582653152676357 0 73.582653152676357 230.1028076106204 0 0 0 0 -38.049880793529837 19.767360788957376 0 19.767360788957376 233.64536084195697 0 0 0 0 -21.164216502782594 111.14540258761235 0 111.14540258761235 122.34602437768081 0 0 0 0 -47.964524892580812 99.89394872619232 0 99.89394872619232 225.41356952132355 0 0 0 0 23.463226086910026 72.69714313330087 0 72.69714313330087 -63.453780020463455 0 0 0 0 -73.887552970021716 213.49045491581819 0 213.49045491581819 50.421077324475846 0 0 0 0 19.967810936840436 59.665153187972464 0 59.665153187972464 105.69071107694981 0 0 0 0 -2.9450486213430622 15.309008528958657 0 15.309008528958657 76.093060679624614 0 0 0 0 24.865693145353674 85.630113159060102 0 85.630113159060102 43.899362272393773 0 0 0 0 -3.7426848120626346 6.1278333921766261 0 6.1278333921766261 -16.338408337722285 0 0 0 0 -38.031473014227231 -383.92581498396157 0 -383.92581498396157 -354.36502299278476 0 0 0 0 -81.323202024766942 -6.5820936596537649 0 -6.5820936596537649 -82.784554840829969 0 0 0 0 83.776441930245909 -21.039768052413386 0 -21.039768052413386 -2.7559266513142218 0 0 0 0 -388.4199559619301 -210.20831346582554 0 -210.20831346582554 -71.683329027660193 0 0 0 0 -172.23405592923518 -256.2480474032705 0 -256.2480474032705 -71.102323541842793 0 0 0 0 56.692357544499828 -38.313100676851718 0 -38.313100676851718 -65.268310258178985 0 0 0 0 32.820063968430532 18.787231633901229 0 18.787231633901229 68.642342476934573 0 0 0 0 98.418391799765232 -86.42589244033968 0 -86.42589244033968 -106.74463123676696 0 0 0 0 49.54444334880273 -12.297533413221011 0 -12.297533413221011 3.3832747690414351 0 0 0 0 27.581220974416283 3.1660162662979019 0 3.1660162662979019 100.67166673930353 0 0 0 0 42.60535612996182 38.250055287885516 0 38.250055287885516 114.02984048387952 0 0 0 0 24.170868216016743 66.718661303942099 0 66.718661303942099 110.32398878778349 0 0 0 0 44.115197161679816 50.588032882017615 0 50.588032882017615 87.058963193256204 0 0 0 0 24.029721223365641 58.257275345269591 0 58.257275345269591 147.72316256401064 0 0 0 0 80.875512939687724 85.34175664329905 0 85.34175664329905 132.96074713730377 0 0 0 0 44.281300006227866 65.998177354648305 0 65.998177354648305 168.76892327769133 0 0 0 0 71.876417001055529 130.2123419892838 0 130.2123419892838 196.27136131818952 0 0 0 0 50.513800288023276 96.769761724343425 0 96.769761724343425 259.90857127363233 0 0 0 0 85.67252104762747 144.4162287964125 0 144.4162287964125 215.1130149937544 0 0 0 0 62.705473966061618 22.133692142252585 0 22.133692142252585 173.41053947763248 0 0 0 0 53.5057847153289 68.792328748132036 0 68.792328748132036 149.24651289357826 0 0 0 0 53.842945738978415 133.25330913503694 0 133.25330913503694 385.53532380904653 0 0 0 0 207.03816731887309 5.4700074197671711 0 5.4700074197671711 289.97465471738565 0 0 0 0 89.956436428777124 93.474133210503851 0 93.474133210503851 229.55596281038561 0 0 0 0 12.446994744324911 -19.709146348998274 0 -19.709146348998274 193.7854676187942 0 0 0 0 29.772082808949961 -7.941961246280842 0 -7.941961246280842 2.2338943768026454 0 0 0 0 80.996045455547574 -24.196512994359807 0 -24.196512994359807 59.873419469908697 0 0 0 0 13.681725984423338 22.390212036970979 0 22.390212036970979 141.83977254383018 0 0 0 0 53.026668519314626 58.045551953548738 0 58.045551953548738 129.03752616739507 0 0 0 0 -101.10899552896444 -35.476743068325845 0 -35.476743068325845 108.46268881692708 0 0 0 0 0.81941801897060174 -14.104502009375157 0 -14.104502009375157 6.8137533724419859 0 0 0 0 -90.982347473294794 -212.96473560750383 0 -212.96473560750383 -117.85022248245861 0 0 0 0 44.572156995089244 -33.86868327081811 0 -33.86868327081811 -19.465093782934218 0 0 0 0 -105.32580495606089 -71.767517454577046 0 -71.767517454577046 -23.253120407813014 0 0 0 0 16.489100423720018 -4.6115912631284921 0 -4.6115912631284921 -4.4256139803096577 0 0 0 0 -51.765940822315315 -76.465155026486627 0 -76.465155026486627 -97.561947883656103 0 0 0 0 12.892277601504247 160.48099638058989 0 160.48099638058989 44.717514289400015 0 0 0 0 -141.95085278407714 -200.76983708581429 0 -200.76983708581429 3.1924661037000988 0 0 0 0 -158.03124099349225 -157.703498629151 0 -157.703498629151 75.553357123163437 0 0 0 0 -12.117979532191384 -66.040035900980911 0 -66.040035900980911 480.36979172265683 0 0 0 0 4.5507381463015051 -2.0778920594409414 0 -2.0778920594409414 0.8265053911905369 0 0 0 0 -7.6794837951547379 8.0574468764448284 0 8.0574468764448284 73.560208125813006 0 0 0 0 -54.738217377416731 -41.15589460791125 0 -41.15589460791125 23.044687587845374 0 0 0 0 -44.737621942556871 -120.99398254013522 0 -120.99398254013522 -8.1960444642609218 0 0 0 0 39.327165668810267 -40.041991164764291 0 -40.041991164764291 -6.0068123231224977 0 0 0 0 -17.216383493097965 -119.93501440120326 0 -119.93501440120326 -25.628324680178594 0 0 0 0 3.1725861956219887 -76.033051476320225 0 -76.033051476320225 -9.3095221013177252 0 0 0 0 -1.8072005260255537 -90.300337581986014 0 -90.300337581986014 53.134022950968301 0 0 0 0 6.0951594049402047 -152.72969502838237 0 -152.72969502838237 3.8843165420561547 0 0 0 0 118.14597102296102 -43.220830673431692 0 -43.220830673431692 22.365627589091446 0 0 0 0 -19.693731473613298 -70.4589426121413 0 -70.4589426121413 48.47942797300243 0 0 0 0 137.04886576232093 -54.560610207532818 0 -54.560610207532818 2.8689729252453162 0 0 0 0 127.46021729253698 35.779370034574896 0 35.779370034574896 95.604024608668624 0 0 0 0 389.36418030212008 217.76132966208542 0 217.76132966208542 105.85210796602041 0 0 0 0 159.06493959683212 114.45425482225738 0 114.45425482225738 198.71552657535403 0 0 0 0 186.99672621729405 -8.3535744923698303 0 -8.3535744923698303 110.58549404339783 0 0 0 0 114.61757468228461 -58.982794831287265 0 -58.982794831287265 70.592628910088308 0 0 0 0 40.696000379335601 51.876963542320368 0 51.876963542320368 101.2743239364263 0 0 0 0 -39.655835119985568 -179.19878987198291 0 -179.19878987198291 2.8755972868432309 0 0 0 0 114.18002014861122 11.51568774438627 0 11.51568774438627 30.021308593970332 0 0 0 0 56.211431265735882 -117.58382732986956 0 -117.58382732986956 -353.83769103929103 0 0 0 0 -12.911373263777932 -198.16883545248254 0 -198.16883545248254 -127.64301685825762 0 0 0 0 -88.493845209581195 -101.83295180753936 0 -101.83295180753936 -48.323790945812561 0 0 0 0 74.330323746893555 -52.730481064626019 0 -52.730481064626019 -58.094782301222267 0 0 0 0 84.669807020960633 -28.231771834370598 0 -28.231771834370598 -5.2354651965345838 0 0 0 0 -13.249179212591116 -95.724460786192196 0 -95.724460786192196 -86.159197579581132 0 0 0 0 21.57504939407545 -148.74284342967749 0 -148.74284342967749 -28.362770643350814 0 0 0 0 1258.9527878628796 564.01522861653052 0 564.01522861653052 82.777367713720935 0 0 0 0 2219.1292902397909 -246.22462314595384 0 -246.22462314595384 407.56732529778083 0 0 0 0 1076.0966721576842 113.20961040919849 0 113.20961040919849 87.884113986860939 0 0 0 0 590.1248102288082 397.93300414660234 0 397.93300414660234 155.25532078624741 0 0 0 0 84.423335399900679 -35.865651824567976 0 -35.865651824567976 182.35785001298723 0 0 0 0 425.29984627188969 270.34095578048414 0 270.34095578048414 210.09818803353423 0 0 0 0 489.81350470658072 160.357070551226 0 160.357070551226 390.44590571247363 0 0 0 0 966.91778191285266 453.95799563664605 0 453.95799563664605 154.15143547387356 0 0 0 0 1057.9186214115471 230.74128607663187 0 230.74128607663187 36.036464350988808 0 0 0 0 1425.8072814293519 607.76465455734785 0 607.76465455734785 363.19625672749271 0 0 0 0 1903.1977203362767 263.48218046946715 0 263.48218046946715 -219.73078048554748 0 0 0 0 1558.3752612858116 -362.29047739719533 0 -362.29047739719533 -189.19046247438831 0 0 0 0 14.042089256066248 5.6336892252563171 0 5.6336892252563171 -1.4720860767293042 0 0 0 0 484.50364405979053 -510.96874393860571 0 -510.96874393860571 271.64224223002361 0 0 0 0 -651.26469563914543 1798.3915194317985 0 1798.3915194317985 -1709.7928318332836 0 0 0 0 43.887161677132184 21.462204698363742 0 21.462204698363742 4.2092565492910055 0 0 0 0 621.09966438878655 473.54406028157769 0 473.54406028157769 335.39935135128871 0 0 0 0 2219.272135818821 -353.31691717610528 0 -353.31691717610528 -379.78070486956631 0 0 0 0 4175.842476638878 -804.62691893556303 0 -804.62691893556303 -325.56676306649382 0 0 0 0 10.490742627602664 12.117277102452078 0 12.117277102452078 9.7029999340385835 0 0 0 0 -1890.5103439894874 2791.9224561608507 0 2791.9224561608507 130.74023338450752 0 0 0 0 1010.2196170161951 756.36794238738867 0 756.36794238738867 -1815.1746724611842 0 0 0 0 -2212.3243668905998 1262.2169220544286 0 1262.2169220544286 979.24858351447415 0 0 0 0 1663.0010329121869 2538.080162439333 0 2538.080162439333 3049.3199619910074 0 0 0 0 -568.63427086702359 480.38713895795263 0 480.38713895795263 847.22081506582663 0 0 0 0 393.11914311276996 2102.5740264077895 0 2102.5740264077895 2938.4982112348853 0 0 0 0 127.86771853614756 -23.536310586162745 0 -23.536310586162745 -3.4449950327243783 0 0 0 0 3167.088062882438 373.12738112779789 0 373.12738112779789 420.60842064324061 0 0 0 0 778.18621415918642 -313.8582430092556 0 -313.8582430092556 -1997.0213363262415 0 0 0 0 -44.398974970223207 2120.3735657337056 0 2120.3735657337056 -287.43674402186389 0 0 0 0 103.41099240645417 -484.90814786404735 0 -484.90814786404735 -1887.5274038526713 0 0 0 0 982.38709573927372 1139.3491129792792 0 1139.3491129792792 -1077.5031262412749 0 0 0 0 242.26474742183314 378.24634927790373 0 378.24634927790373 -498.95114482508507 0 0 0 0 373.91547341347177 -465.31065991431751 0 -465.31065991431751 -2898.6536686257377 0 0 0 0 32.174526327701201 27.99439839724506 0 27.99439839724506 -24.868801685898109 0 0 0 0 698.77136132635496 2180.5263963073248 0 2180.5263963073248 977.04585515132283 0 0 0 0 3918.1562477836087 1423.4599029429171 0 1423.4599029429171 -591.56460595019507 0 0 0 0 -1030.1178823657574 -234.30651241110689 0 -234.30651241110689 475.68836396346228 0 0 0 0 762.31443381925783 829.14615461206711 0 829.14615461206711 477.64596282147613 0 0 0 0 1550.7758643996131 245.52963733865909 0 245.52963733865909 81.634346813091682 0 0 0 0 -166.96482726080649 -775.08045654062926 0 -775.08045654062926 -617.49916057348969 0 0 0 0 137.46745901329996 -106.24038870668346 0 -106.24038870668346 -186.94060292997187 0 0 0 0 -304.6385672869219 66.395716408828548 0 66.395716408828548 -246.33911677833339 0 0 0 0 150.7151486129078 -58.297627153465044 0 -58.297627153465044 -218.16406952575153 0 0 0 0 63.55240092650638 167.00050054265432 0 167.00050054265432 184.89369718512563 0 0 0 0 105.73980175626639 -110.29381377337791 0 -110.29381377337791 -171.00473383413305 0 0 0 0 123.45357266583596 131.47366318841273 0 131.47366318841273 -436.68125742147504 0 0 0 0 93.991394192396584 -2.3271694975847428 0 -2.3271694975847428 -13.202938162379432 0 0 0 0 265.52895687581167 453.38832887525132 0 453.38832887525132 -325.52666752220284 0 0 0 0 169.43212469779064 59.592948630763203 0 59.592948630763203 -463.71889622564731 0 0 0 0 62.963503426893766 -24.810147218613281 0 -24.810147218613281 3.3961001974749805 0 0 0 0 -65.008258338809355 246.22954583770843 0 246.22954583770843 109.30994563121976 0 0 0 0 -263.74821254629023 397.46564487859541 0 397.46564487859541 225.6815698981427 0 0 0 0 -221.45160887652128 -151.66943777894176 0 -151.66943777894176 909.39962091011057 0 0 0 0 -250.21691549422121 570.27408804409652 0 570.27408804409652 1384.6696612852684 0 0 0 0 -214.37351218237541 101.72117163818305 0 101.72117163818305 626.23365392985943 0 0 0 0 5.6403552488061379 8.9815801711161249 0 8.9815801711161249 15.394753392559767 0 0 0 0 257.96792628508183 -957.8695987023932 0 -957.8695987023932 1047.3497753232514 0 0 0 0 236.8645291103694 1528.7887388491854 0 1528.7887388491854 261.82684846408301 0 0 0 0 777.66661777502031 734.02529025493322 0 734.02529025493322 677.57502027249575 0 0 0 0 1041.8040792076345 466.92311634649786 0 466.92311634649786 223.43804962704326 0 0 0 0 979.74859975407253 -75.163265717632783 0 -75.163265717632783 -181.35761821420874 0 0 0 0 1073.8819272956539 161.49973292549544 0 161.49973292549544 366.35176902606418 0 0 0 0 -92.383044623486057 18.36695981552657 0 18.36695981552657 -58.399451649444018 0 0 0 0 -207.7885174081548 -155.52232297701721 0 -155.52232297701721 307.00485899976411 0 0 0 0 -111.20655143142267 176.10587068062861 0 176.10587068062861 201.63525215607109 0 0 0 0 -494.10541361595779 302.47021016533427 0 302.47021016533427 215.94700958621979 0 0 0 0 13.696884156116088 23.988288665015016 0 23.988288665015016 39.578270774961773 0 0 0 0 419.20572008892486 -417.0930222034832 0 -417.0930222034832 166.44766752455433 0 0 0 0 1292.093632272713 -377.13989868068347 0 -377.13989868068347 238.68256019716114 0 0 0 0 916.74186602620466 -20.039043461459187 0 -20.039043461459187 173.02348112261438 0 0 0 0 932.05171447888551 -412.96082356184183 0 -412.96082356184183 251.23508066657098 0 0 0 0 563.14583848604889 -34.978076044435397 0 -34.978076044435397 165.41453985573094 0 0 0 0 1425.3802474355289 -375.04172469380478 0 -375.04172469380478 66.420751805906548 0 0 0 0 1312.0663508790494 -157.53852018428097 0 -157.53852018428097 148.62411327612074 0 0 0 0 1080.4291549873269 -299.06417678725188 0 -299.06417678725188 171.42050163965541 0 0 0 0 812.10017758316826 -323.47066400276094 0 -323.47066400276094 152.86305501297238 0 0 0 0 1068.8450221313542 -224.05821385487047 0 -224.05821385487047 32.762265807406948 0 0 0 0 514.40097667955706 -108.03150572930303 0 -108.03150572930303 28.824630609707583 0 0 0 0 503.00006924933768 -169.75656104642781 0 -169.75656104642781 156.28469102770168 0 0 0 0 502.469400051501 -141.81752361587155 0 -141.81752361587155 -8.2774302657251155 0 0 0 0 -78.417035331885472 -125.62049803328998 0 -125.62049803328998 140.87034226593369 0 0 0 0 42.031086981179101 -29.808928570627621 0 -29.808928570627621 7.1752868564586025 0 0 0 0 2743.4802119215346 -48.615003733022832 0 -48.615003733022832 160.75833607718687 0 0 0 0 2351.718660782899 -201.50681910005869 0 -201.50681910005869 411.94483828247667 0 0 0 0 2241.0186540788854 -347.47374749470737 0 -347.47374749470737 294.69892242443075 0 0 0 0 2275.1109612225919 -350.19800656637562 0 -350.19800656637562 248.55431160760781 0 0 0 0 2377.91079541816 -314.80811507307544 0 -314.80811507307544 176.52490349340042 0 0 0 0 2513.9470526321966 -45.131996943166087 0 -45.131996943166087 343.59047375590058 0 0 0 0 2550.065423748918 -235.14079267974336 0 -235.14079267974336 202.93266127583047 0 0 0 0 2267.6032691639448 -450.58153795274075 0 -450.58153795274075 53.928659963959944 0 0 0 0 2296.6337563295383 -379.41138659482931 0 -379.41138659482931 214.42635685680807 0 0 0 0 2088.446251345631 -310.22409523848592 0 -310.22409523848592 -68.795910073157984 0 0 0 0 2268.1796792679233 -442.24951318455669 0 -442.24951318455669 -3.5764969640576965 0 0 0 0 2066.8615585512998 -439.60302630984188 0 -439.60302630984188 49.755428997430499 0 0 0 0 1888.5462430638945 -424.47603512019964 0 -424.47603512019964 102.27228226276839 0 0 0 0 2098.4500571937897 -349.90292344004365 0 -349.90292344004365 93.493089201881048 0 0 0 0 1429.2992376518632 -335.24229113056481 0 -335.24229113056481 199.21486729456456 0 0 0 0 1854.9329223546993 -332.20232212747578 0 -332.20232212747578 14.654755003287391 0 0 0 0 1869.4354990971879 -412.8400703401245 0 -412.8400703401245 122.74576550634242 0 0 0 0 1948.9277585705458 -284.74986128327134 0 -284.74986128327134 184.39006730108167 0 0 0 0 2231.3204643935969 -292.29312382579792 0 -292.29312382579792 196.70420930521277 0 0 0 0 2218.629042873823 -429.98932326471788 0 -429.98932326471788 134.08236434840455 0 0 0 0 2254.97994636162 -425.31091816603418 0 -425.31091816603418 176.28361475390648 0 0 0 0 2002.0007391660019 -393.32907509006748 0 -393.32907509006748 298.35329146503545 0 0 0 0 2626.3774013884831 -347.50555272479482 0 -347.50555272479482 147.12985115558803 0 0 0 0 1982.5624974867251 -405.25322549372612 0 -405.25322549372612 270.3885858150411 0 0 0 0 2034.3321778525005 -648.29622071000949 0 -648.29622071000949 665.28142664238885 0 0 0 0 1990.19236647055 -385.97694204916468 0 -385.97694204916468 201.66326679366045 0 0 0 0 1384.6280142675969 -401.62902780218428 0 -401.62902780218428 298.44731320497272 0 0 0 0 1439.2080874543499 -155.12800987561457 0 -155.12800987561457 460.84806786018851 0 0 0 0 3065.1424841891539 -449.57025885663228 0 -449.57025885663228 11.010440778467228 0 0 0 0 -574.98162949985374 -175.69397739048509 0 -175.69397739048509 211.01726195510514 0 0 0 0 2794.3384533349108 -674.1969775054057 0 -674.1969775054057 294.34959017033907 0 0 0 0 9.0291225656716385 -16.855655920497327 0 -16.855655920497327 0.14837980168757081 0 0 0 0 2082.5096318421738 -302.21721488792946 0 -302.21721488792946 459.78783388422289 0 0 0 0 -1794.7681156793246 -217.02353002318051 0 -217.02353002318051 974.03761056301732 0 0 0 0 0.50733807640207451 -3.2261745876632526 0 -3.2261745876632526 0.70612502234718821 0 0 0 0 3791.6197075243854 -2440.1739005985619 0 -2440.1739005985619 852.04689859816153 0 0 0 0 1535.2225105685284 -187.60716149458312 0 -187.60716149458312 645.02713457561754 0 0 0 0 1510.8387672545741 -228.28224687592569 0 -228.28224687592569 661.92869870547111 0 0 0 0 251.07635853940701 189.4598560609129 0 189.4598560609129 811.9191128298678 0 0 0 0 1078.2122381880608 -703.73007543529593 0 -703.73007543529593 1243.5619272579052 0 0 0 0 -924.69223483292694 427.49215589928167 0 427.49215589928167 867.60484701771929 0 0 0 0 47.829745685717462 -6.9022380284998022 0 -6.9022380284998022 3.503023281159674 0 0 0 0 1015.4035979786076 -1649.6850670579865 0 -1649.6850670579865 710.37522787927355 0 0 0 0 -289.82598783615128 -1254.3503386437174 0 -1254.3503386437174 977.84253020369761 0 0 0 0 2119.8033740382079 -2336.4838574124906 0 -2336.4838574124906 272.31812947185432 0 0 0 0 3010.7596402453173 1519.5795847233101 0 1519.5795847233101 807.91325702742574 0 0 0 0 1835.6064878205975 93.062975375911947 0 93.062975375911947 1838.7684947826806 0 0 0 0 1800.5590850449862 12.622530146761903 0 12.622530146761903 3452.4798606951758 0 0 0 0 2042.7989300537843 -222.36276117272183 0 -222.36276117272183 114.02625493934204 0 0 0 0 1008.2961980684804 -586.66972527161306 0 -586.66972527161306 -708.10877276870906 0 0 0 0 877.08225133999713 -302.2115810342442 0 -302.2115810342442 -115.63654774338472 0 0 0 0 1308.7524730899399 378.77033350902133 0 378.77033350902133 -123.77429856449635 0 0 0 0 2508.2807877324849 606.64057496224871 0 606.64057496224871 -134.55624632402493 0 0 0 0 2108.6616349207575 533.08686666857898 0 533.08686666857898 -184.02650376020256 0 0 0 0 667.90324394386153 -307.91363349955782 0 -307.91363349955782 -5.8633987066720508 0 0 0 0 499.45227590133845 124.69502609380129 0 124.69502609380129 -149.093262263989 0 0 0 0 2918.2168875008642 425.34837504001939 0 425.34837504001939 -354.00398385435244 0 0 0 0 2688.0103056835887 52.960936908631169 0 52.960936908631169 -268.95084697599594 0 0 0 0 3499.6615923185373 143.50725811569993 0 143.50725811569993 -289.01359351281758 0 0 0 0 2767.8751791882069 144.53740027340325 0 144.53740027340325 -8.0598055846324712 0 0 0 0 2745.385511022595 128.05540544736351 0 128.05540544736351 679.24218818567374 0 0 0 0 2159.1853952553793 -37.852685390153454 0 -37.852685390153454 649.0112649501848 0 0 0 0 3499.0156147900279 -301.9681300616981 0 -301.9681300616981 264.50587172438111 0 0 0 0 2762.6249471092669 -575.74072556733927 0 -575.74072556733927 627.77679927949407 0 0 0 0 2387.019869053659 -1116.5902866425492 0 -1116.5902866425492 471.44531481532709 0 0 0 0 3498.9092315423622 -1179.9318346970642 0 -1179.9318346970642 -68.237036570253792 0 0 0 0 2697.7718314966987 -1754.6359668006814 0 -1754.6359668006814 -285.91845264662055 0 0 0 0 1936.7660069047106 -1163.3179851145801 0 -1163.3179851145801 498.80303773463305 0 0 0 0 1775.8423048711375 -1457.880637329305 0 -1457.880637329305 3.9439900133734795 0 0 0 0 2224.3824521606566 -1227.6220368714019 0 -1227.6220368714019 495.3133185636388 0 0 0 0 1770.1959920498248 -1066.839755510646 0 -1066.839755510646 1551.7770672475835 0 0 0 0 2213.0229449821563 -645.48864179273937 0 -645.48864179273937 1122.0317805136178 0 0 0 0 1476.9069894945728 -458.89343162896444 0 -458.89343162896444 847.29911714381115 0 0 0 0 4930.1712720375872 668.80983822232736 0 668.80983822232736 1180.3872076216576 0 0 0 0 2704.6815688546194 -1525.8211554987522 0 -1525.8211554987522 2539.4340065707065 0 0 0 0 315.31078363233246 -67.41796569734538 0 -67.41796569734538 -297.38214268199033 0 0 0 0 2232.5273014272479 392.16776048861288 0 392.16776048861288 -225.85340666639067 0 0 0 0 1561.5353039179627 -496.01668295854415 0 -496.01668295854415 -296.01070363135227 0 0 0 0 1611.5219758179646 -1269.3722046769506 0 -1269.3722046769506 694.78335360055917 0 0 0 0 891.35234868348198 544.1121995058603 0 544.1121995058603 -2290.2798905984137 0 0 0 0 1325.3443491436556 -594.03555745120286 0 -594.03555745120286 -772.67705538270786 0 0 0 0 -781.99377945237211 577.49379165722689 0 577.49379165722689 -686.61024993227829 0 0 0 0 946.99953098656988 -716.23751212740058 0 -716.23751212740058 -304.56844877429552 0 0 0 0 -242.49088706923794 116.94005489739106 0 116.94005489739106 -1382.8534666062308 0 0 0 0 1233.2711342504788 530.47512132854013 0 530.47512132854013 -1330.0180814237074 0 0 0 0 8.357416731526456 -10.409873626419888 0 -10.409873626419888 -12.575116140118666 0 0 0 0 -19.681780365026498 334.71743876930077 0 334.71743876930077 -120.20832875018212 0 0 0 0 -22.259014676848892 -229.5232489896398 0 -229.5232489896398 -309.48184005465919 0 0 0 0 90.510880344181402 16.430116031186607 0 16.430116031186607 -3.5654559156890073 0 0 0 0 1207.9772686665201 1851.0451153994807 0 1851.0451153994807 1906.4751849463864 0 0 0 0 1969.2363801743559 -1991.595531355179 0 -1991.595531355179 320.98451464383425 0 0 0 0 40.19623072396697 4.5589854980712694 0 4.5589854980712694 2.2939673080130376 0 0 0 0 625.54251166728295 1294.992465876463 0 1294.992465876463 1429.2830800144307 0 0 0 0 3503.8317896700828 -22.437567910117117 0 -22.437567910117117 5125.6184111543052 0 0 0 0 4635.3783657430176 2736.9791472030297 0 2736.9791472030297 346.8843575798893 0 0 0 0 3920.8887502090565 -1741.3221136871662 0 -1741.3221136871662 -425.11811216522261 0 0 0 0 2437.516663514205 -1615.7719003265577 0 -1615.7719003265577 -226.22647580761955 0 0 0 0 2080.3503574798979 -1975.0895975174235 0 -1975.0895975174235 -130.13678784211828 0 0 0 0 515.23838609950326 -841.76696306783401 0 -841.76696306783401 -102.12540113705016 0 0 0 0 224.10292619585925 -1325.7571641916618 0 -1325.7571641916618 160.87570773902735 0 0 0 0 516.44855375834595 -6.1865377404660649 0 -6.1865377404660649 0.20831436962839689 0 0 0 0 292.20255888011889 71.398903196202809 0 71.398903196202809 96.251013808467974 0 0 0 0 349.23688051907811 149.74923081275938 0 149.74923081275938 13.480796271693634 0 0 0 0 34.039588021894815 -49.980108485942822 0 -49.980108485942822 -32.46815302831601 0 0 0 0 8.4771799131355579 1.1064824396256974 0 1.1064824396256974 -1.0970508215216839 0 0 0 0 -11.267719461029628 -23.957567631167421 0 -23.957567631167421 148.92252411250593 0 0 0 0 -13.771622933039907 44.61944248691232 0 44.61944248691232 91.589425426911077 0 0 0 0 292.12287249483052 55.928249752590887 0 55.928249752590887 22.639785689057021 0 0 0 0 118.84448314834117 67.670553142052768 0 67.670553142052768 68.971286307637229 0 0 0 0 82.67130440699475 -29.450855268559735 0 -29.450855268559735 -7.4518451474027643 0 0 0 0 111.55462644054205 75.277335627350567 0 75.277335627350567 17.076264615751484 0 0 0 0 129.36036917096499 10.508545747479729 0 10.508545747479729 49.670802959190041 0 0 0 0 334.98664885778271 65.002230304538216 0 65.002230304538216 -3.4852393065871183 0 0 0 0 332.87497660937834 82.002555193581202 0 82.002555193581202 72.969620303426382 0 0 0 0 478.83584116429847 122.05854754753705 0 122.05854754753705 30.846488991121987 0 0 0 0 598.00512946223898 231.18507146452657 0 231.18507146452657 81.186517344220874 0 0 0 0 581.12904748159053 136.60143935160386 0 136.60143935160386 183.82115022551761 0 0 0 0 567.76039213206241 159.35892981186993 0 159.35892981186993 147.79578578383041 0 0 0 0 483.67882291987553 98.787773263583631 0 98.787773263583631 138.879659387826 0 0 0 0 697.23538783601907 135.67725556325286 0 135.67725556325286 411.71363343776329 0 0 0 0 652.33097233181979 232.11604182386662 0 232.11604182386662 216.30480743747057 0 0 0 0 554.85729817514948 137.70828075586178 0 137.70828075586178 204.71284810946312 0 0 0 0 638.14030912359158 307.59518827219284 0 307.59518827219284 132.98359919826862 0 0 0 0 486.85271156285671 -14.36903350353532 0 -14.36903350353532 203.3274094730973 0 0 0 0 488.20809733685746 44.033131964429685 0 44.033131964429685 107.13351339365101 0 0 0 0 563.68306028160441 138.97890396570551 0 138.97890396570551 177.46168443881743 0 0 0 0 418.33426193606374 25.098751253880835 0 25.098751253880835 272.91196057211209 0 0 0 0 287.58402557872614 144.33005667136536 0 144.33005667136536 233.1351836102217 0 0 0 0 365.34131009913835 162.49564143511088 0 162.49564143511088 181.81102940952974 0 0 0 0 368.92709770579677 89.946692977413477 0 89.946692977413477 72.292780900192156 0 0 0 0 445.66732272278023 165.41977028787005 0 165.41977028787005 150.48473100958836 0 0 0 0 427.85863471033417 337.37664339874402 0 337.37664339874402 121.76780404108467 0 0 0 0 322.87278139701084 232.83724081299988 0 232.83724081299988 114.74271040718122 0 0 0 0 220.4779473189119 158.95522257006724 0 158.95522257006724 80.083962317230998 0 0 0 0 287.21099350871009 338.92860582592766 0 338.92860582592766 77.743136179178691 0 0 0 0 201.24772858381766 113.63119538818046 0 113.63119538818046 70.080676972569563 0 0 0 0 290.16016069191755 138.68462851649292 0 138.68462851649292 -20.701183651310203 0 0 0 0 313.90639629616271 7.8598227285988287 0 7.8598227285988287 -109.42859358688293 0 0 0 0 184.06847973311233 -18.133199341173167 0 -18.133199341173167 -87.87206129003971 0 0 0 0 164.83970981916355 -102.85186874590181 0 -102.85186874590181 -138.42653217949464 0 0 0 0 233.09841313728248 2.629704464500719 0 2.629704464500719 -115.83226660622859 0 0 0 0 198.98675771803755 -11.29130654248911 0 -11.29130654248911 36.835478410779615 0 0 0 0 542.83512943548703 21.028283669453685 0 21.028283669453685 10.467715269222026 0 0 0 0 155.28759273586184 -187.04476685064628 0 -187.04476685064628 402.38774622668643 0 0 0 0 4.2080880745133413 1.5428038015256043 0 1.5428038015256043 -1.5091281446775202 0 0 0 0 -45.076425142149674 -75.639200928687387 0 -75.639200928687387 117.2013777785096 0 0 0 0 36.336070161865791 14.570093817880661 0 14.570093817880661 60.75379810269078 0 0 0 0 91.110690720073762 -189.97767286825456 0 -189.97767286825456 148.16515059798894 0 0 0 0 -19.551540817819841 -0.10173473814802492 0 -0.10173473814802492 -177.41767508366866 0 0 0 0 -102.5446795717944 -206.43184588170425 0 -206.43184588170425 -66.12009404772607 0 0 0 0 149.43996402358061 29.073782572922937 0 29.073782572922937 -0.80463081273728676 0 0 0 0 124.18415308644762 42.831028295687247 0 42.831028295687247 28.762882727212173 0 0 0 0 124.14073806696615 42.069488650344738 0 42.069488650344738 48.062413173991672 0 0 0 0 121.41739649471128 27.228066460661921 0 27.228066460661921 43.047901369332976 0 0 0 0 129.65776578076475 24.957097635985519 0 24.957097635985519 21.32697175230328 0 0 0 0 129.31732327010832 16.795226362224639 0 16.795226362224639 31.637153662601122 0 0 0 0 127.3422423970369 22.681628155202588 0 22.681628155202588 43.659382950318104 0 0 0 0 131.14793225830363 7.8839238802529508 0 7.8839238802529508 41.622000101773097 0 0 0 0 129.51541811441712 5.2055860760438009 0 5.2055860760438009 37.229978664572627 0 0 0 0 137.65022373312968 2.7895282780091293 0 2.7895282780091293 37.9454702741441 0 0 0 0 131.10770125231647 10.548883004451454 0 10.548883004451454 36.954205293464838 0 0 0 0 137.38308483516448 7.6109919928130694 0 7.6109919928130694 32.88372077796339 0 0 0 0 136.37247894303619 8.0902506145530424 0 8.0902506145530424 32.768535155211794 0 0 0 0 135.59593635738929 5.8821749950168396 0 5.8821749950168396 33.305418808715331 0 0 0 0 132.33452906119055 16.760503382073239 0 16.760503382073239 27.806503188119677 0 0 0 0 134.31327860926103 12.384584606726548 0 12.384584606726548 33.259391240606419 0 0 0 0 130.45221847026551 16.028571033888511 0 16.028571033888511 30.01386527889008 0 0 0 0 135.48797230685886 11.276721842855295 0 11.276721842855295 30.628951174974645 0 0 0 0 47.755085898680242 -34.656441200487748 0 -34.656441200487748 -7.3700833926955802 0 0 0 0 127.68667289452787 18.842687384134933 0 18.842687384134933 13.968151462561764 0 0 0 0 -149.05351505304498 -144.1092191048823 0 -144.1092191048823 130.95223010458903 0 0 0 0 107.86847328313161 -394.01644902895259 0 -394.01644902895259 -191.9464278298783 0 0 0 0 -169.49620736535871 393.06694022611009 0 393.06694022611009 134.47250451605828 0 0 0 0 -1.0414812856688513 -108.57284755922296 0 -108.57284755922296 40.64392236020467 0 0 0 0 127.70055270857483 18.304587558302501 0 18.304587558302501 31.041047189421079 0 0 0 0 74.650795393099543 23.697948792714669 0 23.697948792714669 117.11386553984354 0 0 0 0 -16.938560568101821 -58.004785437320606 0 -58.004785437320606 113.54766050347618 0 0 0 0 184.54435245005516 2.3000389764151805 0 2.3000389764151805 -86.523954667562066 0 0 0 0 108.69751511852519 8.3892739711291142 0 8.3892739711291142 158.41159575279471 0 0 0 0 147.07147746218834 101.78178124905571 0 101.78178124905571 94.930483076413566 0 0 0 0 106.70905425944147 21.585908350560658 0 21.585908350560658 71.469315338554225 0 0 0 0 141.53201797381917 -15.697858152267145 0 -15.697858152267145 40.519448513387033 0 0 0 0 132.93862261909817 -13.905236473281548 0 -13.905236473281548 62.80233274550028 0 0 0 0 133.72874692827463 -2.950515339035519 0 -2.950515339035519 46.706479757571287 0 0 0 0 140.52973353330162 2.5572145609603467 0 2.5572145609603467 31.490157526335679 0 0 0 0 140.60080603052938 1.923456469751045 0 1.923456469751045 29.043164731883735 0 0 0 0 141.62660205393331 3.4563085283498367 0 3.4563085283498367 30.363297240683096 0 0 0 0 141.057535702319 4.311862492480941 0 4.311862492480941 30.581916007658037 0 0 0 0 142.18636902612343 3.499864717696255 0 3.499864717696255 27.638298291438332 0 0 0 0 142.40939701820025 3.2487927134097845 0 3.2487927134097845 27.847525966033572 0 0 0 0 143.54063778722775 1.4459714407457795 0 1.4459714407457795 26.859176724819008 0 0 0 0 142.49232233984367 3.2232156641621259 0 3.2232156641621259 26.583619246703165 0 0 0 0 143.46199929050636 2.1287507602291953 0 2.1287507602291953 24.004879523497948 0 0 0 0 143.5265079435776 -0.4090162686406984 0 -0.4090162686406984 25.884045743994648 0 0 0 0 142.03115375881316 0.53782186561693379 0 0.53782186561693379 30.385106455614732 0 0 0 0 142.72566953655041 -2.7945574433306319 0 -2.7945574433306319 30.248289522718551 0 0 0 0 142.69195634874632 -3.4793875740415388 0 -3.4793875740415388 33.64077910895503 0 0 0 0 144.64795903705817 -4.2579908231200534 0 -4.2579908231200534 22.856615776610852 0 0 0 0 144.69796272250824 -3.1920793268473062 0 -3.1920793268473062 18.62781705888483 0 0 0 0 143.4896480908501 0.16898534067877335 0 0.16898534067877335 18.659718783845165 0 0 0 0 142.6908962771995 2.8547670313528215 0 2.8547670313528215 22.379350485796749 0 0 0 0 146.01588969613658 -32.06821170605599 0 -32.06821170605599 82.11345487449853 0 0 0 0 24.98747475636651 -0.22073562151842907 0 -0.22073562151842907 -3.3579542233033148 0 0 0 0 141.76551266353545 -13.603072015578221 0 -13.603072015578221 28.537911290106422 0 0 0 0 164.03261681054028 43.724623478493868 0 43.724623478493868 19.680755799965482 0 0 0 0 115.93492800486274 -11.3246359665809 0 -11.3246359665809 -1.4901680585730901 0 0 0 0 98.998087300389514 -7.1155109292978516 0 -7.1155109292978516 -7.4473328043549403 0 0 0 0 62.657986590667861 50.203419555155051 0 50.203419555155051 23.14987480126365 0 0 0 0 203.53972672433883 11.243816329359106 0 11.243816329359106 -91.04291229012415 0 0 0 0 72.074054236582015 60.352128200468542 0 60.352128200468542 16.548346266236422 0 0 0 0 44.462253894427455 41.470032241379798 0 41.470032241379798 18.722655960333572 0 0 0 0 142.95760468381923 5.835382241496518 0 5.835382241496518 29.479955975019038 0 0 0 0 142.38102193769737 4.7401097599397417 0 4.7401097599397417 27.878619110064392 0 0 0 0 60.382693603147345 57.533227471161922 0 57.533227471161922 29.619898379593906 0 0 0 0 141.70258150850714 4.9395812265383938 0 4.9395812265383938 29.240499964545052 0 0 0 0 141.80922115125577 5.2183787408030184 0 5.2183787408030184 29.964271578843636 0 0 0 0 141.18880241060106 4.2071722374785168 0 4.2071722374785168 29.276966600911692 0 0 0 0 13.671773621989672 11.414358825670359 0 11.414358825670359 1.2434532615979235 0 0 0 0 57.182720378332306 24.473621785716205 0 24.473621785716205 -9.9084756712265971 0 0 0 0 66.442662901201402 68.288546721262264 0 68.288546721262264 40.477573338644561 0 0 0 0 10.783620842761579 2.098302930204369 0 2.098302930204369 -1.8377259322761788 0 0 0 0 50.040981280690175 32.951313792332144 0 32.951313792332144 13.56122639371506 0 0 0 0 22.583696903662712 39.923751834576478 0 39.923751834576478 28.972825995993389 0 0 0 0 2.7769223541088195 1.004940507779061 0 1.004940507779061 -0.8732891644891545 0 0 0 0 155.44925459519436 187.36192165509885 0 187.36192165509885 182.31114881316626 0 0 0 0 64.679706836017431 -58.684511813648896 0 -58.684511813648896 41.651426766928353 0 0 0 0 -1.4972259875538612 -6.2347979948635164 0 -6.2347979948635164 4.0690344100378049 0 0 0 0 -103.34071215430595 -56.173447663560182 0 -56.173447663560182 -11.485990253236196 0 0 0 0 -1.372501711295314 -2.7938226211495731 0 -2.7938226211495731 8.4337101770991563 0 0 0 0 -49.239292663005472 9.9605569901239051 0 9.9605569901239051 48.070123289425055 0 0 0 0 53.706256565550575 -46.048916576525698 0 -46.048916576525698 68.586469402095645 0 0 0 0 2.2437367629703857 -2.7444462834228744 0 -2.7444462834228744 3.0789873211408274 0 0 0 0 263.74779338345252 52.395556831220119 0 52.395556831220119 -36.291041181406399 0 0 0 0 136.43259137702989 12.641218656653109 0 12.641218656653109 30.740544320937261 0 0 0 0 -270.43568590382711 -51.332314509608068 0 -51.332314509608068 104.77708278248247 0 0 0 0 140.79883820009854 10.734442494372161 0 10.734442494372161 30.654298487324013 0 0 0 0 56.913129266645541 -31.81559648385711 0 -31.81559648385711 -2.5771190844837477 0 0 0 0 140.14547514202422 9.3574604721370633 0 9.3574604721370633 31.414391682536007 0 0 0 0 140.02678655322234 5.047967815847187 0 5.047967815847187 32.75582933428268 0 0 0 0 140.55061020644644 5.1144744328667002 0 5.1144744328667002 30.210015787013617 0 0 0 0 138.65606456356181 7.0544722971271767 0 7.0544722971271767 31.629160040676652 0 0 0 0 139.63863789434254 6.9606656539026517 0 6.9606656539026517 31.297341994886665 0 0 0 0 140.86215033212648 6.8288164303235135 0 6.8288164303235135 30.865025561797665 0 0 0 0 141.97626695495273 6.0408401730062451 0 6.0408401730062451 30.75597039821514 0 0 0 0 141.57672908639506 7.6042858847831667 0 7.6042858847831667 30.074852441703115 0 0 0 0 142.84524318057629 7.1711120091993052 0 7.1711120091993052 29.351077478231673 0 0 0 0 141.83559473855712 7.2378032985543541 0 7.2378032985543541 30.591620869985036 0 0 0 0 142.6032262301087 7.5377986136390973 0 7.5377986136390973 28.795553474085864 0 0 0 0 28.482386230618431 -8.399289525455174 0 -8.399289525455174 8.7966457195529983 0 0 0 0 67.25831681268258 -8.7507553316621802 0 -8.7507553316621802 -6.234901200465111 0 0 0 0 25.138224554488019 -3.6156145542680775 0 -3.6156145542680775 2.6263264830295547 0 0 0 0 20.742923935729777 0.98389464481169853 0 0.98389464481169853 -5.0583601766943502 0 0 0 0 36.570544052184431 5.4571279747826367 0 5.4571279747826367 5.0157111730167205 0 0 0 0 18.497106842674839 -12.995160540428401 0 -12.995160540428401 11.069381599382154 0 0 0 0 9.3640861381136347 -4.9658291357613962 0 -4.9658291357613962 13.037194740830273 0 0 0 0 12.39835569736897 -5.4793455032613565 0 -5.4793455032613565 13.10044024600063 0 0 0 0 1.2079867850104833 1.2935432394431388 0 1.2935432394431388 16.448581676835982 0 0 0 0 20.137734089574309 0.97057247224748622 0 0.97057247224748622 -0.54668385971577438 0 0 0 0 32.906645740215026 -0.56314562337252028 0 -0.56314562337252028 -3.3413125808319819 0 0 0 0 24.594422818096064 -3.6158990889022107 0 -3.6158990889022107 9.9072694807513244 0 0 0 0 8.7435012120497646 0.40163428717374927 0 0.40163428717374927 3.7515562337770563 0 0 0 0 19.247193378403608 4.436822201275163 0 4.436822201275163 9.4902550758765756 0 0 0 0 31.318577334495785 3.3053754957315817 0 3.3053754957315817 -1.9716166921487286 0 0 0 0 27.014409040712053 -10.371905721958854 0 -10.371905721958854 7.8798165598061871 0 0 0 0 140.06367553908785 74.820643938287503 0 74.820643938287503 -139.27163573997859 0 0 0 0 4.885780622298725 -4.519984971168995 0 -4.519984971168995 0.75469180399847868 0 0 0 0 8.9117089928877249 207.21553093623697 0 207.21553093623697 183.54477112702716 0 0 0 0 26.070629087255185 -3.0562309237441383 0 -3.0562309237441383 -3.3632033224962448 0 0 0 0 17.117347646264534 60.942768036689813 0 60.942768036689813 76.494439036068798 0 0 0 0 98.392481088347267 32.016021304482535 0 32.016021304482535 10.881586020948589 0 0 0 0 104.97962783495313 4.6129621088280146 0 4.6129621088280146 12.303736261248332 0 0 0 0 107.04483127975254 -0.49877247579911455 0 -0.49877247579911455 17.865050123817127 0 0 0 0 287.2962575114334 -20.366160086322282 0 -20.366160086322282 -2.4026314201046262 0 0 0 0 25.366243787546409 15.763830938409257 0 15.763830938409257 48.405990246538408 0 0 0 0 30.886822565589682 -34.271378264690156 0 -34.271378264690156 -10.993614937704706 0 0 0 0 -0.49447127522762457 29.353618899038906 0 29.353618899038906 15.824349592792714 0 0 0 0 175.45606739084587 6.2246825935692556 0 6.2246825935692556 -20.350386136843099 0 0 0 0 24.011268225585923 -3.4542464766370387 0 -3.4542464766370387 -2.0064442274428789 0 0 0 0 141.26336767083558 26.430087956460966 0 26.430087956460966 -1.0863271069933944 0 0 0 0 369.86235301366833 -291.69120496597543 0 -291.69120496597543 -74.650146181652417 0 0 0 0 136.55064091967324 506.4656058428933 0 506.4656058428933 780.05529092248435 0 0 0 0 2.1443704836796655 5.0932132341554137 0 5.0932132341554137 7.4767457875053722 0 0 0 0 -191.14658199199039 -10.245416348664548 0 -10.245416348664548 1341.9170391452917 0 0 0 0 299.18179776438774 414.68453176231878 0 414.68453176231878 -197.30666272094413 0 0 0 0 -127.83226743122805 279.82613390054098 0 279.82613390054098 838.20232299413419 0 0 0 0 210.34759219870466 641.59065367792391 0 641.59065367792391 450.61307705627587 0 0 0 0 -302.17725780821638 -131.81984345608953 0 -131.81984345608953 1006.1379443133201 0 0 0 0 154.59764385022572 138.09996779403463 0 138.09996779403463 70.503175537452535 0 0 0 0 -126.4480899969476 -284.83835668757308 0 -284.83835668757308 1038.2865269497852 0 0 0 0 -119.95391855105117 349.58363080583513 0 349.58363080583513 1245.7020774292 0 0 0 0 -191.49509932919673 111.30909335512379 0 111.30909335512379 756.20240698916678 0 0 0 0 263.96785959042609 132.48419185558487 0 132.48419185558487 9.3220053770037339 0 0 0 0 -1231.61412694315 -529.33880913000587 0 -529.33880913000587 1167.0185427553406 0 0 0 0 -0.21092838127166402 -3.4071574448031328 0 -3.4071574448031328 4.8004763478441177 0 0 0 0 427.48881143204926 488.81773884376435 0 488.81773884376435 561.08856068115165 0 0 0 0 -87.823432906152448 -218.62288556659587 0 -218.62288556659587 -181.80118912048692 0 0 0 0 332.9320663139697 526.95631676279299 0 526.95631676279299 883.95775075580423 0 0 0 0 1346.9147631441156 -300.79698355006349 0 -300.79698355006349 176.7200813977779 0 0 0 0 1422.899537645153 8.4290996783092851 0 8.4290996783092851 1119.3665692002796 0 0 0 0 1231.5839226918943 168.33859313651465 0 168.33859313651465 294.63553840118766 0 0 0 0 907.47824564019538 174.05345782219865 0 174.05345782219865 1155.7874832468447 0 0 0 0 989.24283106584676 488.44266273316816 0 488.44266273316816 171.57376069459315 0 0 0 0 -69.670013594914053 -558.65824086644443 0 -558.65824086644443 1240.959674432364 0 0 0 0 1110.0872791395086 317.70026947075121 0 317.70026947075121 271.33617165682153 0 0 0 0 -0.28419371346812738 -0.91258482920737549 0 -0.91258482920737549 11.063304399572587 0 0 0 0 -22.427456210025412 33.725129496409409 0 33.725129496409409 57.764557799062914 0 0 0 0 1.0823251313371429 3.2486759766811844 0 3.2486759766811844 25.321907226213156 0 0 0 0 445.7438433165371 -79.333062502194025 0 -79.333062502194025 -12.332761040103378 0 0 0 0 1011.5809061769542 21.893339074130381 0 21.893339074130381 -62.429762677476901 0 0 0 0 765.92936954081597 300.20500011426475 0 300.20500011426475 20.606809185022939 0 0 0 0 764.78538696283795 284.98491947418506 0 284.98491947418506 54.861424029681984 0 0 0 0 580.44500796330976 159.35959860213984 0 159.35959860213984 -12.085161611103103 0 0 0 0 680.43684174029841 325.78420610491048 0 325.78420610491048 96.177266479666287 0 0 0 0 527.52183936568144 191.05525258018338 0 191.05525258018338 78.479386445915225 0 0 0 0 541.98023290849233 169.23662435202186 0 169.23662435202186 3.6033921734574506 0 0 0 0 397.9101588776175 142.12448250561783 0 142.12448250561783 62.975261800954286 0 0 0 0 271.88560429060817 69.498451488560477 0 69.498451488560477 83.727020843738501 0 0 0 0 423.16606738015253 76.312950467316114 0 76.312950467316114 -61.643849976390811 0 0 0 0 188.25291736060899 -28.253182770976309 0 -28.253182770976309 11.514788597046845 0 0 0 0 1.368860041940934 6.6596194341382215 0 6.6596194341382215 30.083799888683643 0 0 0 0 1.5072516341242022 3.1643335795407523 0 3.1643335795407523 5.6141172887653576 0 0 0 0 682.92845276506432 470.93221402416782 0 470.93221402416782 528.01746017926507 0 0 0 0 665.39476780638142 377.55369998851938 0 377.55369998851938 171.88674718417542 0 0 0 0 591.65321780110389 288.00045572367117 0 288.00045572367117 310.65453260216418 0 0 0 0 675.64061184570892 340.39703110321852 0 340.39703110321852 69.075255895044393 0 0 0 0 705.6901615734987 441.78409233688842 0 441.78409233688842 245.69262513361718 0 0 0 0 856.26653555993107 470.10363048860654 0 470.10363048860654 141.09168928461713 0 0 0 0 736.07533692321158 566.27290994602299 0 566.27290994602299 249.19031315901702 0 0 0 0 624.68839283858688 494.27056913763136 0 494.27056913763136 227.12395169276306 0 0 0 0 681.19116850443334 290.13278887065371 0 290.13278887065371 49.902205566737393 0 0 0 0 424.70689461656366 215.52012602615923 0 215.52012602615923 146.60672047936077 0 0 0 0 494.62157265163933 216.19119809620111 0 216.19119809620111 78.554784790190752 0 0 0 0 410.96426227917982 395.47466327693201 0 395.47466327693201 260.61305700498718 0 0 0 0 983.86784999819429 737.90132004907059 0 737.90132004907059 276.30670733453007 0 0 0 0 -15.547748092059919 514.86837640545491 0 514.86837640545491 329.911677932354 0 0 0 0 265.69308252578776 111.47681946700686 0 111.47681946700686 151.49796432623771 0 0 0 0 157.66014339571848 -66.310759252519347 0 -66.310759252519347 -109.43814249262027 0 0 0 0 319.52981287526927 -8.853033363790928 0 -8.853033363790928 -63.985211437683574 0 0 0 0 221.70021324533081 23.584486401487993 0 23.584486401487993 69.271457578270201 0 0 0 0 514.33351063968803 56.747713317095076 0 56.747713317095076 -6.3229765719406714 0 0 0 0 38.989498783401359 -36.322928495262204 0 -36.322928495262204 79.822352838080405 0 0 0 0 46.882215838159027 3.5625703528276063 0 3.5625703528276063 -0.63023624879951967 0 0 0 0 249.94911780320763 -40.442160487526053 0 -40.442160487526053 -4.0637395939575072 0 0 0 0 93.734213983196241 -21.92481871668042 0 -21.92481871668042 -25.54421366796123 0 0 0 0 56.190538244992695 -80.71900942479931 0 -80.71900942479931 -12.078784729299514 0 0 0 0 64.903592324882652 -16.896362498757846 0 -16.896362498757846 -6.8537507769181403 0 0 0 0 36.941182603351713 -4.1625760342610221 0 -4.1625760342610221 -33.20012385821078 0 0 0 0 74.431129506632715 -8.1383298218129312 0 -8.1383298218129312 -28.694194447390146 0 0 0 0 73.357617319821657 -2.9759542529935743 0 -2.9759542529935743 -41.775337961819559 0 0 0 0 58.46177078193837 -1.3779451507310299 0 -1.3779451507310299 -24.809179877280719 0 0 0 0 56.912007602703227 -15.763817967930692 0 -15.763817967930692 -36.574039344505323 0 0 0 0 69.883823391566693 37.827910938749483 0 37.827910938749483 1.7480952572987007 0 0 0 0 110.34351509342014 -18.654948532621347 0 -18.654948532621347 -46.788730877652597 0 0 0 0 31.028342954752588 -4.4713750690425513 0 -4.4713750690425513 5.0526878130342538 0 0 0 0 73.684524568016514 51.416596831621746 0 51.416596831621746 -71.262654718517297 0 0 0 0 22.875835342753803 6.0256299441307402 0 6.0256299441307402 8.9409857599435441 0 0 0 0 105.33704147639219 1.2578223357504612 0 1.2578223357504612 -106.33059900197259 0 0 0 0 35.375839957509925 11.300451108982998 0 11.300451108982998 -96.20449228959842 0 0 0 0 142.02853148241047 19.550204919043608 0 19.550204919043608 -139.74344608957654 0 0 0 0 -12.45380981695962 27.720874446832227 0 27.720874446832227 -89.489685360103977 0 0 0 0 139.69273426403925 -11.977699584726906 0 -11.977699584726906 -101.94372901600673 0 0 0 0 21.304201852951991 -19.733934382919443 0 -19.733934382919443 -33.08168477132493 0 0 0 0 146.31430736405309 -33.772528373731802 0 -33.772528373731802 -68.196413136851334 0 0 0 0 138.52006000407346 -10.732982167653518 0 -10.732982167653518 -64.877541642265498 0 0 0 0 118.12091820434398 102.38701556304704 0 102.38701556304704 80.167867449032201 0 0 0 0 191.08323916794325 -46.813469377634647 0 -46.813469377634647 -81.812135202928403 0 0 0 0 132.09092747887007 -24.755515419707763 0 -24.755515419707763 32.007343271194259 0 0 0 0 -276.30564532467906 288.84809248507099 0 288.84809248507099 345.61826697926335 0 0 0 0 219.96659064520645 574.19793484540901 0 574.19793484540901 434.85424488394892 0 0 0 0 186.72373054786658 91.639879856393236 0 91.639879856393236 81.773528925613732 0 0 0 0 119.80311408324633 -4.2330911323260807 0 -4.2330911323260807 -206.17854953469032 0 0 0 0 0.93527193936796493 2.7901349563076643 0 2.7901349563076643 6.130954488976041 0 0 0 0 1023.5082613995182 484.09409814882429 0 484.09409814882429 159.61310451864756 0 0 0 0 1082.5337770827596 -158.56602986346257 0 -158.56602986346257 -48.067626504031068 0 0 0 0 235.95489423244726 -47.605145029481719 0 -47.605145029481719 137.45842841296508 0 0 0 0 217.09768179652383 20.629969814041488 0 20.629969814041488 21.613772841209993 0 0 0 0 -25.240052929386366 210.06726012898775 0 210.06726012898775 -194.00681118328066 0 0 0 0 3.2044217083812541 7.6793154806571593 0 7.6793154806571593 12.276818225383721 0 0 0 0 82.499850856818284 -92.761551796013379 0 -92.761551796013379 15.282349548123875 0 0 0 0 174.03855276873219 -79.349029031892883 0 -79.349029031892883 -17.036267965288516 0 0 0 0 278.63835448127065 -189.03465177891206 0 -189.03465177891206 26.835163153664951 0 0 0 0 184.60965785802546 -181.51327360805072 0 -181.51327360805072 269.02064493041553 0 0 0 0 19.700510215635305 9.38102965841464 0 9.38102965841464 2.595441599952288 0 0 0 0 187.60184353606815 -203.0619940944072 0 -203.0619940944072 111.41759944695093 0 0 0 0 29.871646224957658 82.954015867733688 0 82.954015867733688 -134.24387098633059 0 0 0 0 154.6764398237865 -151.68248724060908 0 -151.68248724060908 116.29315123534877 0 0 0 0 212.30301204281022 -155.90297913045293 0 -155.90297913045293 9.2370913192658008 0 0 0 0 192.53850705398236 4.1464332831865534 0 4.1464332831865534 7.3574321369069366 0 0 0 0 28.28491662790691 12.89795794633018 0 12.89795794633018 3.8982766945369716 0 0 0 0 50.069138416241913 19.26845546266577 0 19.26845546266577 -49.961391368133519 0 0 0 0 141.4894282235764 -104.99712632477559 0 -104.99712632477559 16.087064314080195 0 0 0 0 44.437638592444273 6.6630890143812849 0 6.6630890143812849 -46.466973552443278 0 0 0 0 3.729836473146861 44.571953504450079 0 44.571953504450079 -67.818452419616278 0 0 0 0 72.704901899815013 -3.8249296113369837 0 -3.8249296113369837 -42.777358849983841 0 0 0 0 57.813163786664518 16.244361601434036 0 16.244361601434036 -57.398656856640855 0 0 0 0 29.021889065528697 -13.894191993336424 0 -13.894191993336424 -11.451408866222895 0 0 0 0 15.737406918557099 -20.821776174100819 0 -20.821776174100819 -6.2938716948024194 0 0 0 0 48.359759737075365 12.773921274042209 0 12.773921274042209 -30.726427732455249 0 0 0 0 40.554195458946538 -138.24051609761304 0 -138.24051609761304 -149.52949311973407 0 0 0 0 45.936016282656055 89.340941107331219 0 89.340941107331219 -240.36340796688182 0 0 0 0 10.252051002029717 -3.8352003693694954 0 -3.8352003693694954 -6.6718566561288526 0 0 0 0 19.308330891475634 62.093152895295134 0 62.093152895295134 -155.94082522714052 0 0 0 0 249.47519693536742 98.929000204602289 0 98.929000204602289 -178.36732904172277 0 0 0 0 271.35270011048374 -207.52107145239603 0 -207.52107145239603 -143.74623603275813 0 0 0 0 -94.78121822841058 -130.08886428006235 0 -130.08886428006235 244.80205215654905 0 0 0 0 249.33257771102944 -243.26091162884791 0 -243.26091162884791 -183.98846052607587 0 0 0 0 401.68692375094543 -360.09677410031418 0 -360.09677410031418 -120.82994863818612 0 0 0 0 4.2636697546115272 2.5648247296874942 0 2.5648247296874942 2.4604857503033326 0 0 0 0 279.37277406814246 7.2080288608067349 0 7.2080288608067349 7.2087298869853953 0 0 0 0 279.12147365371493 -99.781471297582812 0 -99.781471297582812 15.710791491268594 0 0 0 0 200.21982594571818 -158.53157689201817 0 -158.53157689201817 -13.078384088576513 0 0 0 0 153.9507948921455 -96.278282596440249 0 -96.278282596440249 13.863787699607371 0 0 0 0 167.84831394252615 -106.53703332427312 0 -106.53703332427312 -55.823634607033455 0 0 0 0 156.33492403025957 -99.703390652424332 0 -99.703390652424332 -3.8941342410545872 0 0 0 0 158.7718391697781 -105.69295219578703 0 -105.69295219578703 -27.455586453998421 0 0 0 0 39.176667879779416 -79.041649137882814 0 -79.041649137882814 -14.57760793687055 0 0 0 0 17.43050652196689 -81.505104911388571 0 -81.505104911388571 -141.89685520547209 0 0 0 0 46.113163800171606 -95.027619473872619 0 -95.027619473872619 -252.16516730005105 0 0 0 0 27.899607975672978 -11.089652888710539 0 -11.089652888710539 3.7630166458568404 0 0 0 0 84.744226307997451 -32.063306348409697 0 -32.063306348409697 -133.51173551929969 0 0 0 0 4.9267081613597838 -117.04094160644911 0 -117.04094160644911 -44.285475041914651 0 0 0 0 -78.054487638350111 -38.04890611376095 0 -38.04890611376095 -93.965253022443449 0 0 0 0 238.00848099750647 104.34829973690955 0 104.34829973690955 48.338159882160653 0 0 0 0 410.39149965258548 339.38530281970088 0 339.38530281970088 376.05135507226805 0 0 0 0 215.06402694064309 46.08086676652124 0 46.08086676652124 126.43718229011824 0 0 0 0 657.72120629057463 783.95053554727383 0 783.95053554727383 281.21273301407314 0 0 0 0 9.5197197652669701 -3.638627836270345 0 -3.638627836270345 1.7850608885366182 0 0 0 0 60.507541223285443 -285.83017431224187 0 -285.83017431224187 -51.31285303095683 0 0 0 0 8.1500780188628639 -29.726141531477918 0 -29.726141531477918 0.2875863186024894 0 0 0 0 101.338200146085 385.68354773255078 0 385.68354773255078 1141.9699182815148 0 0 0 0 1204.0934267711127 440.35182129758459 0 440.35182129758459 -582.01936723268955 0 0 0 0 -1.8154010091566306 -188.47172553896644 0 -188.47172553896644 -6.0117904430835551 0 0 0 0 -98.718757605216524 -15.162233850671612 0 -15.162233850671612 34.5166739409201 0 0 0 0 18.991354619290323 -36.604310377515276 0 -36.604310377515276 20.663790148083844 0 0 0 0 457.83072329249239 -167.72987564860597 0 -167.72987564860597 -431.04114184954597 0 0 0 0 329.17650873589992 -64.730412547301057 0 -64.730412547301057 -142.88155818544237 0 0 0 0 2.0149294633770971 -6.246030661106623 0 -6.246030661106623 1.0455906582449401 0 0 0 0 -252.08921011370512 -298.76060464979082 0 -298.76060464979082 23.945975383096084 0 0 0 0 427.03238966085155 76.148801485571767 0 76.148801485571767 -113.63570547081599 0 0 0 0 12.120808238815986 -6.192569910235374 0 -6.192569910235374 -20.434235545429434 0 0 0 0 189.97348013319788 32.928579515993647 0 32.928579515993647 35.856007675328783 0 0 0 0 125.86156286714322 -148.24918213404544 0 -148.24918213404544 -88.814179039609371 0 0 0 0 46.436018076252694 -46.374008815052235 0 -46.374008815052235 36.87102571032149 0 0 0 0 247.84942279748611 76.140980882906547 0 76.140980882906547 51.213729011990381 0 0 0 0 165.31261430631275 118.31088079583162 0 118.31088079583162 62.152776694404565 0 0 0 0 201.71446528585875 84.429316328440336 0 84.429316328440336 84.274362163331034 0 0 0 0 150.38462799477202 101.12546813531389 0 101.12546813531389 147.32450196061245 0 0 0 0 132.63209154086871 110.32826583586552 0 110.32826583586552 85.336155719719272 0 0 0 0 127.39867832362506 145.74203274214233 0 145.74203274214233 70.321710070180302 0 0 0 0 98.45521090008333 2.1055971397267967 0 2.1055971397267967 -3.952458178033794 0 0 0 0 490.0843678682977 506.61950344375737 0 506.61950344375737 237.57255572403938 0 0 0 0 400.91526686008001 354.78888819503493 0 354.78888819503493 230.67648683164384 0 0 0 0 588.00368102304128 355.66019569642776 0 355.66019569642776 224.96840638468871 0 0 0 0 673.50233225971169 434.64633309810449 0 434.64633309810449 150.9936883686089 0 0 0 0 618.26832979429673 310.86869232547298 0 310.86869232547298 159.79880845243656 0 0 0 0 816.83108780571001 585.66931378241952 0 585.66931378241952 233.94463968154105 0 0 0 0 979.52096146891927 263.32530619579654 0 263.32530619579654 165.17717075672419 0 0 0 0 249.72144735155234 208.72598657091544 0 208.72598657091544 234.10299225568701 0 0 0 0 469.23140260333457 295.7293265259915 0 295.7293265259915 199.66499823459608 0 0 0 0 363.38598139329497 -25.075721888919475 0 -25.075721888919475 3.3676623396568175 0 0 0 0 -18.929037158884057 -113.28898982064607 0 -113.28898982064607 92.042495159445934 0 0 0 0 724.03361038529692 -15.080697838868673 0 -15.080697838868673 10.17983993004998 0 0 0 0 148.93716666570981 -56.715635157679571 0 -56.715635157679571 83.873761981845746 0 0 0 0 184.91267696975774 -185.40078775246093 0 -185.40078775246093 25.746462723351669 0 0 0 0 71.541083608457484 -82.404107713549706 0 -82.404107713549706 147.5016583015165 0 0 0 0 7.5863278504439222 82.798329355877286 0 82.798329355877286 -21.842563104847613 0 0 0 0 772.52545788840416 297.07645478031321 0 297.07645478031321 17.097226771086753 0 0 0 0 7.2126900699448413 -0.78390983202593212 0 -0.78390983202593212 -3.9283146390231263 0 0 0 0 671.45032733733387 171.04503700996884 0 171.04503700996884 223.16776479220948 0 0 0 0 419.9792043914058 298.01459829135922 0 298.01459829135922 306.91453557679722 0 0 0 0 787.03811389265502 378.26916311804212 0 378.26916311804212 14.535013851813346 0 0 0 0 597.95029498941039 304.39623131888038 0 304.39623131888038 23.196162712626574 0 0 0 0 421.16597934726815 197.27360445491558 0 197.27360445491558 -8.5323705258097107 0 0 0 0 842.12518711482699 285.57315251586715 0 285.57315251586715 -146.05483414079299 0 0 0 0 526.58152907629665 20.50638917444212 0 20.50638917444212 -209.88396012119301 0 0 0 0 1188.9301700612523 411.08811932118351 0 411.08811932118351 -159.41608490485169 0 0 0 0 776.28678959559693 341.35150669295172 0 341.35150669295172 -99.947426804332281 0 0 0 0 641.6574815640015 495.11270676180902 0 495.11270676180902 43.514398607165958 0 0 0 0 613.82700529516296 495.9654104460833 0 495.9654104460833 43.799172779185028 0 0 0 0 597.07411494633197 518.91580369357598 0 518.91580369357598 116.9342005899216 0 0 0 0 582.22364166352054 380.3061490911432 0 380.3061490911432 124.39455500630106 0 0 0 0 614.33124572258475 404.75577168339345 0 404.75577168339345 70.619568320661529 0 0 0 0 532.29870326296805 424.80335276072401 0 424.80335276072401 90.269640010048533 0 0 0 0 533.71181386001263 286.87613254984353 0 286.87613254984353 131.8445306616108 0 0 0 0 357.69682283096336 286.72920646495822 0 286.72920646495822 102.43797859184315 0 0 0 0 447.74126681635607 439.9841074720207 0 439.9841074720207 99.99817404733767 0 0 0 0 472.88864880089022 402.91226570210347 0 402.91226570210347 55.202422961689081 0 0 0 0 237.20314297051664 311.18257551813895 0 311.18257551813895 146.34999213030096 0 0 0 0 350.17293198527477 399.32891773583742 0 399.32891773583742 145.4838598325623 0 0 0 0 179.03733202756121 169.36101584196331 0 169.36101584196331 145.74691749939302 0 0 0 0 73.023794932225314 187.59334275849443 0 187.59334275849443 204.90774560084174 0 0 0 0 74.477641473711373 7.1230785445187053 0 7.1230785445187053 -91.077131148798799 0 0 0 0 210.79264504973253 167.4027719733931 0 167.4027719733931 79.515019840095192 0 0 0 0 -0.067653914830231088 0.99934713335343872 0 0.99934713335343872 -4.9377202718143485 0 0 0 0 204.44627768221835 366.84499768382193 0 366.84499768382193 470.78883824340664 0 0 0 0 83.713855760466686 108.65280126384278 0 108.65280126384278 278.55516763521155 0 0 0 0 505.0938746546417 528.69096338132658 0 528.69096338132658 269.63085480824611 0 0 0 0 329.13223442768503 421.41021498669306 0 421.41021498669306 227.47042373767181 0 0 0 0 900.63620449378504 741.15312975286361 0 741.15312975286361 169.74509552611016 0 0 0 0 442.51969909203217 638.35420020166521 0 638.35420020166521 302.84167489202446 0 0 0 0 898.89320332807529 264.8839901175852 0 264.8839901175852 -54.03164171249955 0 0 0 0 2343.1732596955026 321.76357451245713 0 321.76357451245713 -68.198507880807483 0 0 0 0 979.48394346647729 260.10703825428936 0 260.10703825428936 -163.9736546829572 0 0 0 0 621.56914188067094 -139.13087691000419 0 -139.13087691000419 1304.6266550809742 0 0 0 0 1009.7728739849135 987.16778940835866 0 987.16778940835866 1182.974218088963 0 0 0 0 1117.7897128752902 1090.4277705850382 0 1090.4277705850382 595.05903288290938 0 0 0 0 211.80932710492448 652.06071555197934 0 652.06071555197934 1003.8775635562761 0 0 0 0 160.30573420114524 228.21933624584562 0 228.21933624584562 10.067845909863536 0 0 0 0 2.6735990316780427 4.0418889775431666 0 4.0418889775431666 15.220013070045155 0 0 0 0 -173.28298316005203 -61.16866770618617 0 -61.16866770618617 544.91524940430463 0 0 0 0 3228.3139796435148 395.2009789360759 0 395.2009789360759 -5.9482570908185153 0 0 0 0 1329.6124899837432 287.69941094762999 0 287.69941094762999 -8.4223009146426193 0 0 0 0 1269.8634665046702 320.84526549519614 0 320.84526549519614 -22.859213517565877 0 0 0 0 1407.8474642472866 303.64733996737959 0 303.64733996737959 -61.738215291150482 0 0 0 0 11.746395500517442 22.17257734182316 0 22.17257734182316 34.519857276521677 0 0 0 0 1347.9068785320133 170.50845442743866 0 170.50845442743866 25.039571378099936 0 0 0 0 -16.551110707769112 166.37634724980308 0 166.37634724980308 -10.234198573479262 0 0 0 0 1106.2717258446501 235.69119846344984 0 235.69119846344984 51.967824403929171 0 0 0 0 32.9522592632011 10.421395403682695 0 10.421395403682695 -34.948412522609281 0 0 0 0 183.94663840391149 -185.51183527316152 0 -185.51183527316152 -5.5496590466357247 0 0 0 0 59.702492007232649 44.293048022620496 0 44.293048022620496 -88.94773189535772 0 0 0 0 2.9235713421393186 -1.0023203592310859 0 -1.0023203592310859 -2.0214364533471461 0 0 0 0 52.008480075099214 -70.70197194825505 0 -70.70197194825505 -115.81336945409384 0 0 0 0 123.16167295859123 289.55535602489817 0 289.55535602489817 80.698570251992351 0 0 0 0 50.476925455871879 -5.632454764227532 0 -5.632454764227532 89.056891244315921 0 0 0 0 43.080356148171063 4.542612845604542 0 4.542612845604542 -30.820303661942383 0 0 0 0 65.787062363328005 -84.001295531932556 0 -84.001295531932556 9.290982873749158 0 0 0 0 258.21643255958952 94.552561981942745 0 94.552561981942745 -82.307086157605227 0 0 0 0 -124.67113532279109 -255.33118977285267 0 -255.33118977285267 -28.088881943309389 0 0 0 0 499.46354872451411 -244.01536649390442 0 -244.01536649390442 160.14235661596706 0 0 0 0 35.718910575374764 -32.679336373820554 0 -32.679336373820554 29.332869777115249 0 0 0 0 274.43027735416399 492.30831531490503 0 492.30831531490503 260.89972474816636 0 0 0 0 685.82804336346453 160.02105404840063 0 160.02105404840063 4.0212227244578571 0 0 0 0 -47.028940864725882 217.28877221210519 0 217.28877221210519 220.84151189483737 0 0 0 0 271.62937830539158 98.416697588009697 0 98.416697588009697 17.26893683047615 0 0 0 0 262.40074093308226 244.36063443731734 0 244.36063443731734 139.51482132669298 0 0 0 0 45.499333773455639 -39.64056061192511 0 -39.64056061192511 35.178760393104085 0 0 0 0 12.442224808339233 76.806021690123714 0 76.806021690123714 155.65941051928098 0 0 0 0 -30.320265484202537 -285.03997683616763 0 -285.03997683616763 -98.325888454986853 0 0 0 0 110.07168881157759 -113.24029222658828 0 -113.24029222658828 -164.05338654911429 0 0 0 0 -110.11063198895681 -52.884307544723015 0 -52.884307544723015 37.644956384307079 0 0 0 0 70.525632496941398 -89.413388992654291 0 -89.413388992654291 22.667909207286357 0 0 0 0 -0.62637343760172648 0.15989947465768317 0 0.15989947465768317 -5.0125480182190643 0 0 0 0 418.34898279028857 -52.374435780669046 0 -52.374435780669046 -115.99847301252794 0 0 0 0 5.8684295072711166 57.349636924305003 0 57.349636924305003 -24.202651407398662 0 0 0 0 -583.24315220972676 -123.16351230247164 0 -123.16351230247164 297.4116829684508 0 0 0 0 733.96700400551799 -412.19938362206358 0 -412.19938362206358 -202.07848693459346 0 0 0 0 806.27926938366909 -370.41385915610954 0 -370.41385915610954 9.3127117624808307 0 0 0 0 1016.0556713396745 622.47298409575887 0 622.47298409575887 133.96172563837672 0 0 0 0 948.46960558706223 522.26552656233571 0 522.26552656233571 327.178947312932 0 0 0 0 -21.030342314402333 276.7158741038329 0 276.7158741038329 430.42681853378963 0 0 0 0 1277.365326343951 236.72742343287064 0 236.72742343287064 -4.7341467009428015 0 0 0 0 1427.5401331757112 167.40036151507775 0 167.40036151507775 26.024211419041421 0 0 0 0 291.65931399647434 108.48817368262416 0 108.48817368262416 264.40805901487875 0 0 0 0 310.69713532966489 68.453027037709035 0 68.453027037709035 348.30822997258946 0 0 0 0 162.25860539948917 -114.71797722521933 0 -114.71797722521933 28.617687459867739 0 0 0 0 40.941920550477334 -42.425635643247915 0 -42.425635643247915 317.09855951877034 0 0 0 0 92.06073046506026 -96.903780141425614 0 -96.903780141425614 42.039844583858212 0 0 0 0 69.049558143877221 -25.667466635698474 0 -25.667466635698474 355.30464346932422 0 0 0 0 74.240889825096019 0.55785700746309885 0 0.55785700746309885 212.71154802369711 0 0 0 0 -73.622567552341934 -28.40409865012407 0 -28.40409865012407 325.30838638480282 0 0 0 0 -42.632523475445851 -64.172542027095005 0 -64.172542027095005 226.87863351252236 0 0 0 0 8.1373325682252471 -81.690629538498797 0 -81.690629538498797 -56.611373233012273 0 0 0 0 -79.969164871348767 -74.986557969059504 0 -74.986557969059504 245.84422506745796 0 0 0 0 42.599948504983331 39.441389351582075 0 39.441389351582075 228.49185569695146 0 0 0 0 100.550481093087 134.14697659176545 0 134.14697659176545 246.8365957102169 0 0 0 0 -34.391198470520976 -31.627847291972103 0 -31.627847291972103 294.71571495946773 0 0 0 0 15.879192710557618 37.306708161566348 0 37.306708161566348 314.38848190237877 0 0 0 0 170.70766753767566 94.808183677921079 0 94.808183677921079 340.08013488372887 0 0 0 0 52.649100243622343 -12.011124276436931 0 -12.011124276436931 377.86176410649023 0 0 0 0 134.87538819190286 61.952320573753241 0 61.952320573753241 402.78762721072417 0 0 0 0 90.086259255736877 117.19651818068905 0 117.19651818068905 355.11393654922131 0 0 0 0 227.80093887595649 177.69922520925138 0 177.69922520925138 296.09469916268608 0 0 0 0 236.29348920665871 78.437957446903965 0 78.437957446903965 460.95106373519411 0 0 0 0 575.76752964502884 152.0124465654194 0 152.0124465654194 438.88420273684824 0 0 0 0 497.68277657734325 38.983373085346102 0 38.983373085346102 391.16670387898102 0 0 0 0 241.0698190925068 146.86859652967087 0 146.86859652967087 443.12165535283202 0 0 0 0 496.27185446815201 196.85905131536947 0 196.85905131536947 353.23805976158332 0 0 0 0 285.06447340769228 -24.86485991671907 0 -24.86485991671907 432.25193045766173 0 0 0 0 936.71251163927445 -89.628053740409996 0 -89.628053740409996 415.29694991701581 0 0 0 0 1034.4741003381969 109.7946724640808 0 109.7946724640808 61.579071627595113 0 0 0 0 1075.8016036829413 130.93688117960119 0 130.93688117960119 937.73958459059577 0 0 0 0 952.60001223301333 -123.62604279667084 0 -123.62604279667084 504.34835446298166 0 0 0 0 773.64182332349446 249.19123067687542 0 249.19123067687542 511.66217688870086 0 0 0 0 1280.0679440105787 32.138962376538984 0 32.138962376538984 141.9581411012241 0 0 0 0 470.45912382150618 0.12760650033760612 0 0.12760650033760612 339.01633750770634 0 0 0 0 303.11835571147185 96.380462199048452 0 96.380462199048452 99.981024600692763 0 0 0 0 822.29914258116014 144.49547145904171 0 144.49547145904171 52.435538068450114 0 0 0 0 782.97866947779858 -22.166727351632971 0 -22.166727351632971 177.74365490349373 0 0 0 0 1211.3183263643705 67.854196339422742 0 67.854196339422742 -217.69634384275105 0 0 0 0 964.81140638091392 70.055584702441564 0 70.055584702441564 -97.673632538653692 0 0 0 0 1044.2189608320341 93.664122506420426 0 93.664122506420426 -198.12874334780099 0 0 0 0 961.06596399347529 -42.15270386957701 0 -42.15270386957701 -642.53502909699819 0 0 0 0 225.71445594130273 -148.17011491841913 0 -148.17011491841913 -414.45992920926346 0 0 0 0 418.90579363801771 98.850735837243519 0 98.850735837243519 -530.94375714041348 0 0 0 0 278.42633604100502 -79.395710082823825 0 -79.395710082823825 -364.64657033894764 0 0 0 0 168.60584974828816 -223.99376773127551 0 -223.99376773127551 -470.74831596250283 0 0 0 0 219.33858879161562 -27.899145643674274 0 -27.899145643674274 -397.30806969437526 0 0 0 0 345.23901294050938 240.8599370668544 0 240.8599370668544 -101.94213074103118 0 0 0 0 193.65915601863799 132.52651743113509 0 132.52651743113509 173.81812815717058 0 0 0 0 400.5063831012676 240.83062529479321 0 240.83062529479321 305.08692342093309 0 0 0 0 241.40026019455081 93.623941738263966 0 93.623941738263966 171.56035095365587 0 0 0 0 116.76371766164084 166.16730235941395 0 166.16730235941395 301.36125421789529 0 0 0 0 277.71812574710702 178.09311429675518 0 178.09311429675518 110.32960614696822 0 0 0 0 189.02027288733257 231.24684505259904 0 231.24684505259904 96.619404603787189 0 0 0 0 149.29834883052172 102.64524729413188 0 102.64524729413188 -30.839210809163887 0 0 0 0 116.22641594425113 86.530988174083177 0 86.530988174083177 -11.627288043852786 0 0 0 0 250.66000174171108 146.69526476715612 0 146.69526476715612 -112.93490502381974 0 0 0 0 168.20789842280556 146.41031730819611 0 146.41031730819611 -52.252271541323353 0 0 0 0 13.001714472409731 -62.833914884143269 0 -62.833914884143269 -188.35650546723309 0 0 0 0 121.85429943909003 212.41113872055848 0 212.41113872055848 108.69735693125011 0 0 0 0 82.474373455497698 152.01663765700323 0 152.01663765700323 122.7575450305194 0 0 0 0 128.37678360649807 172.4717715758236 0 172.4717715758236 125.96151898903554 0 0 0 0 -1.4416100970711501 -1.0591729972012516 0 -1.0591729972012516 1.9123655765789351 0 0 0 0 285.20659125088605 78.416134248134767 0 78.416134248134767 38.603400969916038 0 0 0 0 285.13272234435135 -36.675432035573976 0 -36.675432035573976 -101.97931354146749 0 0 0 0 538.06180122221303 35.217159197861292 0 35.217159197861292 -19.515101385073649 0 0 0 0 2.8937180411189303 -1.2617292501979023 0 -1.2617292501979023 1.6955600421889017 0 0 0 0 423.54964892828866 154.27283311912652 0 154.27283311912652 41.720970792539447 0 0 0 0 -100.47908889988321 59.528546569456921 0 59.528546569456921 55.434614258123474 0 0 0 0 29.194485519728914 54.894612510042862 0 54.894612510042862 -55.133634059737233 0 0 0 0 -81.558257290991605 54.940267820882582 0 54.940267820882582 -28.268637205765117 0 0 0 0 68.712543876103155 143.87018761671425 0 143.87018761671425 81.043242455725704 0 0 0 0 285.56116437162291 84.531949438486663 0 84.531949438486663 -25.285174038926925 0 0 0 0 222.04290301155743 42.118039664654134 0 42.118039664654134 94.892975683653276 0 0 0 0 177.6104582543685 6.5784597242241034 0 6.5784597242241034 -82.794948800757993 0 0 0 0 86.133091897470877 44.28542325910712 0 44.28542325910712 -32.386869928024907 0 0 0 0 123.71569934266245 -54.239776870283094 0 -54.239776870283094 -47.537026804464404 0 0 0 0 32.736242712241619 111.38690100241547 0 111.38690100241547 -13.853457483625874 0 0 0 0 138.14467849819175 -41.894492556220939 0 -41.894492556220939 -330.74644045207242 0 0 0 0 -48.198015700571887 302.73740349173613 0 302.73740349173613 87.663287810224574 0 0 0 0 4.7207356770128364 2.1818437868966214 0 2.1818437868966214 -2.5953495535105517 0 0 0 0 5.6656739966392067 5.767293443724741 0 5.767293443724741 2.3820933385063299 0 0 0 0 827.08621066217438 778.31465384186868 0 778.31465384186868 237.91196790629328 0 0 0 0 1657.1279719696759 -398.1029201497804 0 -398.1029201497804 461.31989848786725 0 0 0 0 1157.057075087605 515.9046880457995 0 515.9046880457995 -240.92794245014738 0 0 0 0 2029.853876967979 77.308238367580998 0 77.308238367580998 -417.52430810679698 0 0 0 0 2320.2159430870802 -880.62694155994905 0 -880.62694155994905 296.56655333834533 0 0 0 0 2165.9597308266125 228.11648010655244 0 228.11648010655244 355.56854225111238 0 0 0 0 -45.909524364898971 -73.151099442720806 0 -73.151099442720806 -63.509807367270696 0 0 0 0 1.2673561405345026 269.78473917524479 0 269.78473917524479 363.62266311532517 0 0 0 0 10.42370943663917 6.7222597560235506 0 6.7222597560235506 4.8028371959003238 0 0 0 0 23.97589588780917 20.586959915957991 0 20.586959915957991 16.824612335560559 0 0 0 0 837.31329341494506 -266.32496858358581 0 -266.32496858358581 141.70357160704953 0 0 0 0 881.24221184679755 -343.80858826659914 0 -343.80858826659914 197.59986166621093 0 0 0 0 1630.3748801764391 -7.2085774342831428 0 -7.2085774342831428 -41.604936060912223 0 0 0 0 1201.7104520847181 -90.926925650658177 0 -90.926925650658177 373.73222794816684 0 0 0 0 1327.6591484303572 -642.19178238474524 0 -642.19178238474524 396.2296917205349 0 0 0 0 1193.2499725117063 -118.33563625297575 0 -118.33563625297575 -19.619158499962396 0 0 0 0 1200.6302856414366 -51.610983522376955 0 -51.610983522376955 -132.51222006927856 0 0 0 0 1191.9014866106593 -311.73385303369798 0 -311.73385303369798 31.817777509120788 0 0 0 0 971.91068427683035 -8.6640174851700067 0 -8.6640174851700067 -38.681116800227755 0 0 0 0 938.50703778485035 -145.26394543902188 0 -145.26394543902188 19.919579019916455 0 0 0 0 1021.5838741850239 -15.14297354350856 0 -15.14297354350856 -61.767240250187569 0 0 0 0 786.5223396810793 -365.62839023600236 0 -365.62839023600236 194.50213423569039 0 0 0 0 877.52466196259286 -324.8294218290323 0 -324.8294218290323 84.458271787218109 0 0 0 0 910.64994929257898 -183.70750021792446 0 -183.70750021792446 -14.369807766041959 0 0 0 0 637.3242468979015 -251.54162671237282 0 -251.54162671237282 92.572427478166901 0 0 0 0 413.60524991901366 64.59242021152113 0 64.59242021152113 86.552845813699605 0 0 0 0 136.98820597716622 -46.813065562020711 0 -46.813065562020711 -75.572320760613366 0 0 0 0 39.992356399907656 32.994699633158277 0 32.994699633158277 24.383542931581331 0 0 0 0 636.67217188791801 -209.36396077672453 0 -209.36396077672453 101.03747597911206 0 0 0 0 197.68986134296483 -288.89966977603126 0 -288.89966977603126 199.2318709387423 0 0 0 0 -255.11797506524454 64.695958023249659 0 64.695958023249659 -40.558251225244021 0 0 0 0 286.87773262168776 61.973203189530977 0 61.973203189530977 73.594784641354636 0 0 0 0 -121.09644199201466 197.03942880292198 0 197.03942880292198 28.922455919277127 0 0 0 0 3.9473901190895884 -8.3138006033782581 0 -8.3138006033782581 0.30376104690099481 0 0 0 0 273.49304687265794 51.317032599692538 0 51.317032599692538 -24.660012005298086 0 0 0 0 -89.826391252802296 43.672504402461072 0 43.672504402461072 -5.0952141324560216 0 0 0 0 3.2557844316851581 -0.99109311127213928 0 -0.99109311127213928 -0.38379583234297598 0 0 0 0 382.16867696926784 -10.25204496268816 0 -10.25204496268816 4.7146116272451764 0 0 0 0 5.2835817940003835 43.94188583993855 0 43.94188583993855 -5.2311271778380615 0 0 0 0 7.289104812536535 8.8889356476876547 0 8.8889356476876547 1.6317169680368124 0 0 0 0 20.605540076248371 2.2347648840323675 0 2.2347648840323675 -14.094382633628349 0 0 0 0 113.38137196346361 131.14869777068452 0 131.14869777068452 -55.264276375800932 0 0 0 0 61.670301832024052 -12.196868197566801 0 -12.196868197566801 8.8360222696283017 0 0 0 0 54.442149194177091 17.313403603336155 0 17.313403603336155 -5.4159027545701974 0 0 0 0 13.684321819291643 18.730339505832632 0 18.730339505832632 12.958048082500987 0 0 0 0 41.369455272230525 11.165606302866738 0 11.165606302866738 -12.54443059695836 0 0 0 0 38.55389071161153 36.531805125326173 0 36.531805125326173 7.6329147019641823 0 0 0 0 50.114471068160128 28.630413500366558 0 28.630413500366558 -1.2865550333153806 0 0 0 0 50.832208543495653 35.150622678362197 0 35.150622678362197 -21.989151370557011 0 0 0 0 61.083988947189539 23.015250562901898 0 23.015250562901898 -11.720606860959379 0 0 0 0 66.62488305210718 37.128231723692807 0 37.128231723692807 -22.535446121200948 0 0 0 0 50.286397448291609 41.920238055816299 0 41.920238055816299 -27.222038162317403 0 0 0 0 10.154697458217925 35.913568446295812 0 35.913568446295812 -1.8919368591668899 0 0 0 0 60.726302825132279 9.1377967658881971 0 9.1377967658881971 -36.1016121305247 0 0 0 0 48.016611980009685 6.908541706761401 0 6.908541706761401 -13.739596556780231 0 0 0 0 60.891387119027698 13.184587043485301 0 13.184587043485301 -43.813006915173901 0 0 0 0 73.771708004929678 28.141164430779099 0 28.141164430779099 -37.472420774275633 0 0 0 0 60.30995695976037 -16.358366151090252 0 -16.358366151090252 -69.869749294368376 0 0 0 0 93.459714955177333 35.632515238727137 0 35.632515238727137 -40.935384226812403 0 0 0 0 58.136720611105034 18.932262950669241 0 18.932262950669241 -36.576523403864485 0 0 0 0 80.627994860715035 35.127617129275109 0 35.127617129275109 -21.025979322752391 0 0 0 0 82.237043873591915 51.159244959773162 0 51.159244959773162 -9.4545176038500358 0 0 0 0 97.441542093872727 45.919969632830544 0 45.919969632830544 -26.921285971460748 0 0 0 0 82.868388863658765 43.30922787014606 0 43.30922787014606 -7.5530056853376664 0 0 0 0 24.009374330355058 48.804001566406441 0 48.804001566406441 9.2077110684367653 0 0 0 0 22.607156866150035 33.227696789614129 0 33.227696789614129 -13.152728955739803 0 0 0 0 52.178638270393094 50.823200997790536 0 50.823200997790536 -2.686934304805618 0 0 0 0 46.223651538968625 37.417585159767441 0 37.417585159767441 -13.574316075428214 0 0 0 0 62.155938231928303 31.906286873495446 0 31.906286873495446 -23.035674337916134 0 0 0 0 71.070303595617588 36.4153272294825 0 36.4153272294825 -24.624413109382203 0 0 0 0 68.607948969249264 52.996308184538066 0 52.996308184538066 -4.5568093499896349 0 0 0 0 90.791804247117398 65.363674955209717 0 65.363674955209717 2.7337330031186866 0 0 0 0 70.039914102490002 45.605189073615293 0 45.605189073615293 2.4348207836792426 0 0 0 0 53.761620071862126 53.27255506752681 0 53.27255506752681 -1.1945268721965476 0 0 0 0 58.183175541111268 73.773804327363905 0 73.773804327363905 23.990172641635581 0 0 0 0 100.12680009859469 77.471032967972405 0 77.471032967972405 -4.6433748978633957 0 0 0 0 51.027788421324658 37.695203063913141 0 37.695203063913141 -29.554102791811601 0 0 0 0 -8.1331957175798379 23.33947373742285 0 23.33947373742285 2.1953954474302009 0 0 0 0 59.931637079981556 69.979418775543991 0 69.979418775543991 22.188274999873101 0 0 0 0 80.294018164933732 26.810782155253946 0 26.810782155253946 -11.12889346880911 0 0 0 0 38.577019715114147 58.49376285837161 0 58.49376285837161 -24.616153990848034 0 0 0 0 66.552223519478503 1.6348039667082048 0 1.6348039667082048 -50.633233913238428 0 0 0 0 15.944371933135791 5.5335236257634381 0 5.5335236257634381 4.422146373366477 0 0 0 0 125.94637679380685 83.336884622669231 0 83.336884622669231 20.718150472945126 0 0 0 0 70.623011867324749 31.081331403470358 0 31.081331403470358 -6.1208525465044659 0 0 0 0 47.888502674797564 9.8606765669956076 0 9.8606765669956076 21.078238794077151 0 0 0 0 77.255119505243783 57.398550673427053 0 57.398550673427053 7.7578209215312199 0 0 0 0 59.89245457758625 42.797615016452255 0 42.797615016452255 23.022546928603333 0 0 0 0 104.18305354343829 75.507833357801246 0 75.507833357801246 -2.2224659477765272 0 0 0 0 1.3635009006304202 -0.69633748453627042 0 -0.69633748453627042 -1.1280590743157255 0 0 0 0 82.943299629572721 74.125349515737071 0 74.125349515737071 35.590120429380477 0 0 0 0 58.78907000808249 56.029471537867721 0 56.029471537867721 58.983849217500392 0 0 0 0 63.076138029286085 43.956881379250262 0 43.956881379250262 22.583546959256637 0 0 0 0 114.11772319928787 50.569943971394423 0 50.569943971394423 -7.8917988196667181 0 0 0 0 114.8220149238241 56.945306187702045 0 56.945306187702045 12.045478148851544 0 0 0 0 100.3560237272186 101.33413946405744 0 101.33413946405744 122.59005492569486 0 0 0 0 222.26399639758165 78.02980878923654 0 78.02980878923654 15.768948006943901 0 0 0 0 48.916174520432833 33.113843253979212 0 33.113843253979212 44.196794846547618 0 0 0 0 49.499769470916362 21.276175124311521 0 21.276175124311521 29.440819904534919 0 0 0 0 10.936694302425494 2.7024027033733198 0 2.7024027033733198 0.18114251288580618 0 0 0 0 51.129425026791985 -18.489644575985654 0 -18.489644575985654 -22.951534403214261 0 0 0 0 539.99211018203641 -195.03408326621138 0 -195.03408326621138 121.20675999327796 0 0 0 0 120.98938030844874 162.19806578270209 0 162.19806578270209 196.1214605250043 0 0 0 0 8.1466407249317854 -93.949687339290904 0 -93.949687339290904 58.004253608110957 0 0 0 0 81.138416374109511 -189.616250531275 0 -189.616250531275 -95.595262231356173 0 0 0 0 5.8586836791609755 0.21338577426460148 0 0.21338577426460148 -1.7877876989225818 0 0 0 0 -45.17263380777149 -32.716637779121811 0 -32.716637779121811 -106.80788807707722 0 0 0 0 67.31342886191851 -97.671602600968981 0 -97.671602600968981 44.327230393305456 0 0 0 0 2.5047056022986496 -2.9675943553365869 0 -2.9675943553365869 -2.2312246466741943 0 0 0 0 16.644758413553063 3.6297307212043961 0 3.6297307212043961 -7.1758989554255095 0 0 0 0 202.37917910343094 -85.180133458050477 0 -85.180133458050477 13.609881577714077 0 0 0 0 46.58412100628189 -31.302612103811605 0 -31.302612103811605 -15.25995405642454 0 0 0 0 132.21623799867666 -33.699588959406356 0 -33.699588959406356 -59.844647541907761 0 0 0 0 171.00752798657777 -5.6392718416973366 0 -5.6392718416973366 -82.721346763745714 0 0 0 0 760.09911096848373 412.65901356060203 0 412.65901356060203 -702.07699224309908 0 0 0 0 -32.969739920459688 156.32651584064251 0 156.32651584064251 -181.11906046955846 0 0 0 0 167.44654680921667 -79.248862068625385 0 -79.248862068625385 -96.83044134053489 0 0 0 0 131.30657297631842 -126.63733776816116 0 -126.63733776816116 -148.32978909422309 0 0 0 0 286.61265039423597 -242.72960773535669 0 -242.72960773535669 -95.682356291429159 0 0 0 0 538.01107443684305 -219.0265745636716 0 -219.0265745636716 -234.68419023090246 0 0 0 0 74.234589965584746 -44.100079328281936 0 -44.100079328281936 -167.43195951874077 0 0 0 0 230.32416284190549 -42.014865098250084 0 -42.014865098250084 -335.50725344926104 0 0 0 0 244.93516704018566 -125.86316124958898 0 -125.86316124958898 -157.04453498194562 0 0 0 0 228.71306433199061 -69.170253026444698 0 -69.170253026444698 -210.4416524705448 0 0 0 0 229.41385578328845 -39.722469083637407 0 -39.722469083637407 -181.04940735138371 0 0 0 0 105.72842721446432 27.880485393203799 0 27.880485393203799 -198.17588260466437 0 0 0 0 84.932196807712899 79.465926682942154 0 79.465926682942154 -139.2581170405283 0 0 0 0 -3.6777346400303941 91.292975169819329 0 91.292975169819329 9.109663660874503 0 0 0 0 288.21006536128698 205.8678434634121 0 205.8678434634121 -51.879133242247917 0 0 0 0 65.366465235914802 160.83040303864254 0 160.83040303864254 125.73053539532521 0 0 0 0 138.0854140738229 -26.381812792033998 0 -26.381812792033998 -305.01754063311455 0 0 0 0 3.1059966882991432 0.96080052968640217 0 0.96080052968640217 -4.1090704110284477 0 0 0 0 56.449487171058941 17.887433325205478 0 17.887433325205478 -5.4209492444171978 0 0 0 0 78.762087851726392 21.472288157579897 0 21.472288157579897 -14.230709488640059 0 0 0 0 9.4145952844256016 6.9859539617476454 0 6.9859539617476454 -4.1874549047170575 0 0 0 0 108.3604840243388 108.65651630453794 0 108.65651630453794 9.7686719171870209 0 0 0 0 63.868006410522504 15.854012001595255 0 15.854012001595255 -6.389549852969072 0 0 0 0 57.01143259654782 7.5248062283462787 0 7.5248062283462787 -108.99421399520361 0 0 0 0 23.467662925722237 9.5264033557503662 0 9.5264033557503662 6.7463331814392831 0 0 0 0 18.784231473735417 45.303488383544391 0 45.303488383544391 -88.97408896516572 0 0 0 0 112.0312496611441 142.25862609309115 0 142.25862609309115 -7.2624762108353025 0 0 0 0 52.220751726767048 22.450925239289063 0 22.450925239289063 2.6149015816026804 0 0 0 0 57.045668458551518 -18.228547044764127 0 -18.228547044764127 10.214998204373074 0 0 0 0 87.608325634879293 40.93800448030197 0 40.93800448030197 11.060268615001405 0 0 0 0 12.957200475262653 -26.674901714555745 0 -26.674901714555745 -19.216944927238956 0 0 0 0 5.8752716553863138 19.87220706547032 0 19.87220706547032 -17.844925242200986 0 0 0 0 0.09141946169370696 -1.2206793641309233 0 -1.2206793641309233 -1.6366558864711571 0 0 0 0 110.98610829943573 -6.6348988941244897 0 -6.6348988941244897 -10.266908676877847 0 0 0 0 -103.25124023150784 -43.457581423819192 0 -43.457581423819192 7.8964159632996598 0 0 0 0 47.594604056423123 -91.578082907605221 0 -91.578082907605221 -86.350090672965962 0 0 0 0 126.46419717108074 27.52706477877382 0 27.52706477877382 -40.089110959688696 0 0 0 0 124.33823807436409 64.703427984127046 0 64.703427984127046 7.9032230382308626 0 0 0 0 91.000488682508148 35.594520058226408 0 35.594520058226408 -20.073807740798657 0 0 0 0 45.893442169513946 -19.530647432472506 0 -19.530647432472506 -37.114073519785961 0 0 0 0 131.33795805428963 47.8770253527764 0 47.8770253527764 -0.058479120778883953 0 0 0 0 127.46647500633117 30.032752608795818 0 30.032752608795818 -28.662605265825277 0 0 0 0 143.79559259784401 46.110954127216473 0 46.110954127216473 -1.4453816433979227 0 0 0 0 124.59688895716135 -8.5252279967616005 0 -8.5252279967616005 -38.463467358147682 0 0 0 0 153.98712725056612 25.224746273099072 0 25.224746273099072 -19.476569842514436 0 0 0 0 181.21223140010989 109.99777284792435 0 109.99777284792435 144.96753953216103 0 0 0 0 281.78663636781585 38.808820280980399 0 38.808820280980399 -58.254539229779766 0 0 0 0 164.08372338968366 59.284097857171673 0 59.284097857171673 0.26384401105315192 0 0 0 0 89.906303565532198 -3.1806609941108945 0 -3.1806609941108945 -3.0254861931389314 0 0 0 0 89.402241072486504 -6.0603839410459841 0 -6.0603839410459841 100.2858207717627 0 0 0 0 154.51398943042295 -47.16948338417842 0 -47.16948338417842 122.48421508518084 0 0 0 0 237.85847841286659 -16.947421532707949 0 -16.947421532707949 7.2677323166517454 0 0 0 0 141.65306656318353 -8.1741006557167566 0 -8.1741006557167566 13.405839362822007 0 0 0 0 113.17716442428355 -43.901909993726804 0 -43.901909993726804 22.066153770108258 0 0 0 0 142.31135200841072 -0.64753120138402664 0 -0.64753120138402664 -17.701148391022798 0 0 0 0 144.40156772802584 13.97589721636723 0 13.97589721636723 -1.6035746591269344 0 0 0 0 99.502337596659345 -22.539558435484651 0 -22.539558435484651 -11.150378702845046 0 0 0 0 81.91582205305167 -46.914151085566118 0 -46.914151085566118 4.0070060308389657 0 0 0 0 49.328026322604273 -26.553656200705518 0 -26.553656200705518 -6.8979742913579685 0 0 0 0 49.469541521456676 -19.496253840381115 0 -19.496253840381115 -14.590145034173474 0 0 0 0 35.963563528079248 -23.953246394707094 0 -23.953246394707094 -11.487932424247447 0 0 0 0 49.73763352556125 -8.1628620095261795 0 -8.1628620095261795 28.085282074244788 0 0 0 0 39.345661322444357 -27.649511805916518 0 -27.649511805916518 0.046973528535090736 0 0 0 0 32.074790290285819 4.9034625551989848 0 4.9034625551989848 3.3902612676993158 0 0 0 0 13.370747878783732 2.1979031222367666 0 2.1979031222367666 -12.771928756332272 0 0 0 0 -34.569703640692751 -13.929956451987437 0 -13.929956451987437 13.408032267456292 0 0 0 0 -0.30783816428456823 -1.8833089597261292 0 -1.8833089597261292 -5.2306940306656031 0 0 0 0 69.128037592465262 -31.944104010087358 0 -31.944104010087358 -7.9015354399734861 0 0 0 0 25.65111013668502 -30.345672154682688 0 -30.345672154682688 -7.778529337920645 0 0 0 0 2.8545145677344408 -16.567711628073994 0 -16.567711628073994 -1.2397959219179029 0 0 0 0 51.371429324077326 -15.342149054683432 0 -15.342149054683432 -21.428413361653838 0 0 0 0 4.616538277415148 -1.1999129691908124 0 -1.1999129691908124 -9.1494779764102034 0 0 0 0 5.5349651801922164 -1.2370848703458819 0 -1.2370848703458819 -1.0392665011630662 0 0 0 0 86.880889997672057 3.5889859183625958 0 3.5889859183625958 -20.344444468671099 0 0 0 0 127.7330967217631 32.865099996595973 0 32.865099996595973 -13.684535354954278 0 0 0 0 29.794465480156251 11.414585952809219 0 11.414585952809219 -1.5498394061152965 0 0 0 0 24.070093927080702 -6.331038375853673 0 -6.331038375853673 -9.114039734846429 0 0 0 0 45.892502429895103 -9.0652671423322317 0 -9.0652671423322317 -27.896102671662447 0 0 0 0 19.059542328293901 -20.49704940709853 0 -20.49704940709853 -15.133679374081112 0 0 0 0 24.801097371881042 -3.7494987699428748 0 -3.7494987699428748 -19.841933260995575 0 0 0 0 62.117307461499877 -17.417174409249128 0 -17.417174409249128 -26.890720040959422 0 0 0 0 83.240919624277012 -41.839713871455388 0 -41.839713871455388 -33.001016462370899 0 0 0 0 44.287915193259323 -14.945601578359856 0 -14.945601578359856 -26.052973666781327 0 0 0 0 69.185757347222534 -39.699051101435543 0 -39.699051101435543 -11.700027797534858 0 0 0 0 89.464084747792185 -36.356254703356285 0 -36.356254703356285 -41.679242809208517 0 0 0 0 96.584959785199317 -2.740507273507319 0 -2.740507273507319 -28.163915432653084 0 0 0 0 34.27652991413197 -0.3390775876778207 0 -0.3390775876778207 -12.801854527855539 0 0 0 0 94.944905831354845 17.571249416188039 0 17.571249416188039 -8.5526917228489765 0 0 0 0 156.70121624287276 -60.608479833834281 0 -60.608479833834281 -131.85930664900479 0 0 0 0 58.873164514131084 0.28842593779207171 0 0.28842593779207171 -12.499325061436263 0 0 0 0 -47.892113677342422 -44.065534458772163 0 -44.065534458772163 -128.55102824797359 0 0 0 0 -5.2638160103893483 -9.7520081734727277 0 -9.7520081734727277 -5.4639389364738555 0 0 0 0 153.94057111238544 -31.895409886344169 0 -31.895409886344169 -41.721942508720531 0 0 0 0 80.603554995618197 -0.52385332353014746 0 -0.52385332353014746 -6.7928460454295418 0 0 0 0 92.685293063128483 4.0873524993958199 0 4.0873524993958199 13.602883148252658 0 0 0 0 17.844782235681738 -0.27060710290069956 0 -0.27060710290069956 2.6014437737507023 0 0 0 0 106.79267789731784 33.068703608013493 0 33.068703608013493 5.5319525803565739 0 0 0 0 36.091966897869696 -9.0401268324185615 0 -9.0401268324185615 -11.976399206016367 0 0 0 0 35.49494560135895 0.41100706371241813 0 0.41100706371241813 -1.9793460593646159 0 0 0 0 87.322010658396636 3.157523446217894 0 3.157523446217894 -9.3998711697291846 0 0 0 0 -6.8671627311317778 -8.1359995892966683 0 -8.1359995892966683 2.7713288817845037 0 0 0 0 163.66824751205422 5.7487364652988617 0 5.7487364652988617 -19.067920617464551 0 0 0 0 -99.575256917363731 -28.128470665928035 0 -28.128470665928035 10.067573877342511 0 0 0 0 94.895501230035393 3.6111338873616887 0 3.6111338873616887 -35.385577346840364 0 0 0 0 86.402007548906113 12.25235020070977 0 12.25235020070977 -20.370898530195518 0 0 0 0 82.614098049820313 -38.530100294630756 0 -38.530100294630756 -8.5902138794165239 0 0 0 0 97.115004542712086 -37.210713299880581 0 -37.210713299880581 -25.403352364164675 0 0 0 0 15.907902949678828 -29.945839240388523 0 -29.945839240388523 -25.388144628533894 0 0 0 0 103.85311867365454 -70.959277539735922 0 -70.959277539735922 -42.473741511625121 0 0 0 0 -26.75239104899083 -81.57782581003994 0 -81.57782581003994 -40.79324047557111 0 0 0 0 14.921187713749532 18.669193091729539 0 18.669193091729539 -67.281152666791968 0 0 0 0 60.305686496369162 15.575189721817878 0 15.575189721817878 -39.440675554007612 0 0 0 0 73.864443583745015 -14.730533808313339 0 -14.730533808313339 -49.966619109152816 0 0 0 0 54.994855157211688 4.6690113179355777 0 4.6690113179355777 -12.165821959500633 0 0 0 0 70.886547055813935 -8.5391379785487516 0 -8.5391379785487516 -105.07407915925251 0 0 0 0 52.067849327822387 0.62782757983586635 0 0.62782757983586635 -1.8502698215957025 0 0 0 0 50.181217541241836 6.835651264396347 0 6.835651264396347 35.188020670015248 0 0 0 0 51.970470172392652 29.500631571056147 0 29.500631571056147 35.733657046361486 0 0 0 0 54.483759315445695 23.702570414218826 0 23.702570414218826 5.7042174762862032 0 0 0 0 51.651554650263961 31.295500962199185 0 31.295500962199185 20.855249110793011 0 0 0 0 16.080429457324268 -3.7386790957844318 0 -3.7386790957844318 3.793133807221011 0 0 0 0 63.420695536933181 9.9814597240288094 0 9.9814597240288094 31.130864419106729 0 0 0 0 94.632320533917209 18.153991297852144 0 18.153991297852144 3.875775755511313 0 0 0 0 70.78707502174575 -9.3852470146148335 0 -9.3852470146148335 0.029517379227399942 0 0 0 0 104.89255308442807 15.681591434692109 0 15.681591434692109 -2.3626225524035362 0 0 0 0 11.193674625345455 3.5179427116104645 0 3.5179427116104645 1.6422020977094611 0 0 0 0 88.372979647970965 26.2367448991331 0 26.2367448991331 17.773267275356375 0 0 0 0 65.546059988001616 -23.987761263530501 0 -23.987761263530501 13.614322551764644 0 0 0 0 29.678071660035439 -22.268974701847199 0 -22.268974701847199 2.5656792779230173 0 0 0 0 11.111001802154096 -2.6401122112405382 0 -2.6401122112405382 -3.5195974195989841 0 0 0 0 101.30858185999841 -22.024369005226617 0 -22.024369005226617 -23.307891517572898 0 0 0 0 -462.84637494061997 -143.91229490492617 0 -143.91229490492617 123.2368433171996 0 0 0 0 21.118169642447128 -15.622112671052037 0 -15.622112671052037 28.488941433319269 0 0 0 0 31.623682178719669 -17.748570948301573 0 -17.748570948301573 -0.10145445622588412 0 0 0 0 13.105866257275011 -72.591377449212928 0 -72.591377449212928 15.832762291047402 0 0 0 0 -2.1653243812652363 -50.12634806778442 0 -50.12634806778442 -15.845451607681753 0 0 0 0 48.41513682340883 -31.447456382808014 0 -31.447456382808014 -35.340002787905178 0 0 0 0 11.522112286418633 -11.404714393178438 0 -11.404714393178438 0.92938024039722222 0 0 0 0 -19.49876223217143 -46.547161382830382 0 -46.547161382830382 -13.446418159750465 0 0 0 0 -6.5848679215052144 -8.5400855643113349 0 -8.5400855643113349 4.2375301929718781 0 0 0 0 11.761999956563159 -14.109400596368687 0 -14.109400596368687 29.847157158363189 0 0 0 0 71.824387911005033 -61.243886453794403 0 -61.243886453794403 1.0377853200880054 0 0 0 0 -1.7558073158534628 -0.35498969277402637 0 -0.35498969277402637 -0.39414889355271399 0 0 0 0 202.68617407553575 -24.588625259894343 0 -24.588625259894343 -23.200291404282325 0 0 0 0 -632.09804580261414 14.3576149608257 0 14.3576149608257 254.63071186731213 0 0 0 0 116.20876895872334 18.674043430898109 0 18.674043430898109 18.326681738657498 0 0 0 0 40.099483618167255 30.107032642232753 0 30.107032642232753 21.12356722585082 0 0 0 0 53.928452470943739 11.016331348787844 0 11.016331348787844 12.651914167163341 0 0 0 0 54.639043478509848 16.783775179394297 0 16.783775179394297 31.992855579817842 0 0 0 0 24.660094929646874 -6.3772887196736168 0 -6.3772887196736168 -1.5684953835282442 0 0 0 0 30.038562542968521 5.8724669953244302 0 5.8724669953244302 27.305796344790906 0 0 0 0 35.048820115522631 12.527445787511624 0 12.527445787511624 26.757292612974197 0 0 0 0 23.688416414628737 2.5155853477394694 0 2.5155853477394694 -0.54592342172124297 0 0 0 0 23.755952200041747 -9.6877185570107258 0 -9.6877185570107258 -9.3501295245232541 0 0 0 0 21.535346809498147 1.5863131061455746 0 1.5863131061455746 -1.5860728813735845 0 0 0 0 23.489804939354144 1.1282016786703934 0 1.1282016786703934 10.276845428087199 0 0 0 0 1.2760516744110646 -12.797647941722062 0 -12.797647941722062 31.794134918306554 0 0 0 0 28.283793716302171 2.7948132385031386 0 2.7948132385031386 -6.5984055041126339 0 0 0 0 15.093699655829571 -1.8495619589580041 0 -1.8495619589580041 4.8234463577026503 0 0 0 0 -5.0926507338954252 25.092715010354368 0 25.092715010354368 9.4823702789517483 0 0 0 0 22.329036934061151 11.537970263201714 0 11.537970263201714 69.295753837382392 0 0 0 0 17.890739925618512 7.7766926242764089 0 7.7766926242764089 4.8878350530346601 0 0 0 0 35.123866813903078 13.85388792735705 0 13.85388792735705 69.535958612613285 0 0 0 0 41.254150205715632 19.685119978321154 0 19.685119978321154 55.399328626878287 0 0 0 0 30.390265267634959 12.232137810189613 0 12.232137810189613 24.104901026928474 0 0 0 0 1.1378739388901735 -6.0657778614290869 0 -6.0657778614290869 22.719810115529647 0 0 0 0 0.55952067390755644 -2.4389147225484566 0 -2.4389147225484566 4.3699341410530099 0 0 0 0 8.8064678353439376 -23.758831369605787 0 -23.758831369605787 28.895874378496956 0 0 0 0 22.901438624471648 4.0973849123049462 0 4.0973849123049462 11.540629218412413 0 0 0 0 32.733583267763606 26.479216234587511 0 26.479216234587511 61.221382791267388 0 0 0 0 -6.9147508667756483 -31.899630588679429 0 -31.899630588679429 90.080732559520129 0 0 0 0 114.14767675361963 -76.411585969544376 0 -76.411585969544376 56.071053441892218 0 0 0 0 15.319732481852952 14.570609602022728 0 14.570609602022728 70.878535142864621 0 0 0 0 -8.5737787586731429 3.1289511607394616 0 3.1289511607394616 187.78922613744021 0 0 0 0 -120.93732867242943 103.51666308723497 0 103.51666308723497 -26.33526351951059 0 0 0 0 9.904211399552544 6.2751421909573022 0 6.2751421909573022 3.2241711923924798 0 0 0 0 111.55968238391324 74.025218037310196 0 74.025218037310196 43.913502189612245 0 0 0 0 166.88887294076812 180.16407185240041 0 180.16407185240041 164.59993120000809 0 0 0 0 5.3725999735020196 -23.17443443909518 0 -23.17443443909518 14.174068765735228 0 0 0 0 107.9989670415307 202.31306641832589 0 202.31306641832589 160.89922195311357 0 0 0 0 -1.5265099293863145 2.230053214152079 0 2.230053214152079 -1.832476249656958 0 0 0 0 10.5022449237822 -1.1486404487918662 0 -1.1486404487918662 -11.453375905542771 0 0 0 0 15.658172909875702 54.278536950539063 0 54.278536950539063 31.944212333341966 0 0 0 0 8.880467395469168 25.737770761860929 0 25.737770761860929 81.673609191963578 0 0 0 0 10.830256071343683 42.308522643656033 0 42.308522643656033 56.271811847161644 0 0 0 0 24.089645876429131 37.340838234545117 0 37.340838234545117 54.012633558392736 0 0 0 0 66.480787764878187 42.030642025670659 0 42.030642025670659 -9.6767901131597682 0 0 0 0 37.768645404799827 50.257157471056416 0 50.257157471056416 53.177901207642208 0 0 0 0 21.279453579551046 41.920080998520916 0 41.920080998520916 56.072234247789083 0 0 0 0 20.499313605278076 60.041491143453186 0 60.041491143453186 138.11941388969808 0 0 0 0 50.987784978417039 22.97109684733914 0 22.97109684733914 13.850699038846869 0 0 0 0 94.121896450102213 -33.807748068318233 0 -33.807748068318233 80.602417278569192 0 0 0 0 49.944581508123974 26.309279759323147 0 26.309279759323147 17.798385940446678 0 0 0 0 24.135159458517592 42.180696244738783 0 42.180696244738783 46.32507501134296 0 0 0 0 10.803513803315582 15.322363257865618 0 15.322363257865618 50.219194859311415 0 0 0 0 -1.6542964540476532 27.607350700232928 0 27.607350700232928 38.105072476072564 0 0 0 0 28.487274263196014 43.139463837636868 0 43.139463837636868 -14.279449874656166 0 0 0 0 46.718695184694525 23.159440024102253 0 23.159440024102253 17.158672021216262 0 0 0 0 47.1453556312008 19.982469557028708 0 19.982469557028708 14.457986157161258 0 0 0 0 48.982782498332199 18.529532704354779 0 18.529532704354779 0.16979528800675325 0 0 0 0 -0.12547850069316269 16.777738614363248 0 16.777738614363248 -9.13251705652808 0 0 0 0 52.015750800990645 16.122963184622677 0 16.122963184622677 -13.799932461111496 0 0 0 0 -564.57995661329187 -1108.9531265927947 0 -1108.9531265927947 434.74010806620208 0 0 0 0 63.030459164257991 80.78622361269538 0 80.78622361269538 -4.4848943636183094 0 0 0 0 55.520917002042779 56.903626391977355 0 56.903626391977355 31.402695526892785 0 0 0 0 209.12996529255906 120.58528252039662 0 120.58528252039662 -9.453712341769517 0 0 0 0 120.36523089920593 93.957765171397895 0 93.957765171397895 62.723245399002508 0 0 0 0 113.03629560119225 120.26362034875172 0 120.26362034875172 87.490267298511753 0 0 0 0 -8.2078950424164674 4.8300465761792672 0 4.8300465761792672 -4.1579197783967521 0 0 0 0 214.59880469170457 -85.633892154793102 0 -85.633892154793102 23.600294915177074 0 0 0 0 75.7050741337207 91.241755614654721 0 91.241755614654721 -90.391022654792323 0 0 0 0 -184.09762744153704 -46.731928352925934 0 -46.731928352925934 -24.150222675743862 0 0 0 0 6.5466868246838104 -12.128914969494408 0 -12.128914969494408 17.022890498525957 0 0 0 0 4.9492190727080434 -3.5340199496058418 0 -3.5340199496058418 4.2309991419542214 0 0 0 0 -142.26896590004617 94.70238128883102 0 94.70238128883102 85.313707591706589 0 0 0 0 34.504935604876664 -60.500190778634533 0 -60.500190778634533 22.906239343945344 0 0 0 0 241.47096016765863 121.17652762781017 0 121.17652762781017 55.317843459480855 0 0 0 0 587.87409354217925 -38.566755751174696 0 -38.566755751174696 -29.331252791549559 0 0 0 0 595.21027308880912 108.35667941224347 0 108.35667941224347 50.400194058203851 0 0 0 0 901.79771520567374 332.81260446530996 0 332.81260446530996 382.74672276129786 0 0 0 0 352.81745639809196 135.2890673414754 0 135.2890673414754 275.92227497041858 0 0 0 0 518.82421891100967 -130.52155527804416 0 -130.52155527804416 54.449960793159335 0 0 0 0 578.69583858375881 -234.50507201973824 0 -234.50507201973824 209.88464372386443 0 0 0 0 169.70129964508669 -31.862626597099734 0 -31.862626597099734 61.101867305258565 0 0 0 0 486.26280480464629 -148.78571138139705 0 -148.78571138139705 -23.053208396726859 0 0 0 0 24.581817448912261 -16.451347829454107 0 -16.451347829454107 21.127559141722031 0 0 0 0 4.0271532035401378 -12.624832307942444 0 -12.624832307942444 14.003045164916905 0 0 0 0 -2.9557647629344856 0.49975993580385136 0 0.49975993580385136 1.9856522016231111 0 0 0 0 191.33879653961048 -205.90579584177794 0 -205.90579584177794 92.273681542368649 0 0 0 0 -20.857417232777152 -25.073080870704416 0 -25.073080870704416 98.352461647668861 0 0 0 0 36.139079594460782 -6.9685591574316277 0 -6.9685591574316277 13.824983226637812 0 0 0 0 26.53158165707282 -9.2289647637929022 0 -9.2289647637929022 24.05021691405102 0 0 0 0 9.8742797904132829 -1.2240701355813215 0 -1.2240701355813215 9.5254449254817164 0 0 0 0 36.951464765392302 -15.56306764257215 0 -15.56306764257215 9.7881354049131915 0 0 0 0 6.566305940392688 -1.6537247864551503 0 -1.6537247864551503 11.264350494218093 0 0 0 0 18.560415680046564 -19.109178804986655 0 -19.109178804986655 12.986279851734139 0 0 0 0 53.573524084078599 7.817073538337354 0 7.817073538337354 11.150685072708711 0 0 0 0 141.12764037174929 61.312279109642986 0 61.312279109642986 -29.781468404862608 0 0 0 0 76.270115626242841 -81.345439477079822 0 -81.345439477079822 52.583624600351868 0 0 0 0 9.6582275915650442 -5.7945227929315379 0 -5.7945227929315379 11.015019313052603 0 0 0 0 29.607358617639306 14.298148172256674 0 14.298148172256674 -15.939556725615541 0 0 0 0 55.176343358446765 27.922299268315854 0 27.922299268315854 -9.7552604644431415 0 0 0 0 111.47358963227634 22.863023671782457 0 22.863023671782457 16.916410757587528 0 0 0 0 17.009018180745045 0.86875077476541662 0 0.86875077476541662 -1.5124009050764435 0 0 0 0 64.290636992733198 25.55112399813197 0 25.55112399813197 -4.4958352812470821 0 0 0 0 47.377368779121753 25.386666845082345 0 25.386666845082345 15.126583671337812 0 0 0 0 6.6842398664332023 0.37806902761465722 0 0.37806902761465722 1.5392871054704731 0 0 0 0 47.50048512678373 -7.0461097541503399 0 -7.0461097541503399 13.660136152443361 0 0 0 0 22.50738561410617 -11.028143230931711 0 -11.028143230931711 23.548967371780844 0 0 0 0 13.87039978556902 3.1477433059784197 0 3.1477433059784197 17.547777342780147 0 0 0 0 12.951585545147104 -11.301315962551604 0 -11.301315962551604 20.914365208599676 0 0 0 0 35.544202277302247 -12.094875463038989 0 -12.094875463038989 28.689784397596668 0 0 0 0 1.0867548063426966 -32.010017104405449 0 -32.010017104405449 47.28772864149596 0 0 0 0 -24.862215994944563 -14.82319565787293 0 -14.82319565787293 29.067540244812335 0 0 0 0 1.5084457917356815 -5.4513495684096611 0 -5.4513495684096611 7.4028637225808875 0 0 0 0 -24.038545982111827 -74.832867012333736 0 -74.832867012333736 67.652691956735907 0 0 0 0 0.065508556090435377 -21.484323841251694 0 -21.484323841251694 -12.400221397636415 0 0 0 0 2.4046798702910124 -11.009275950347913 0 -11.009275950347913 27.224557788718258 0 0 0 0 113.58055440030148 28.44252048913313 0 28.44252048913313 -7.4509677404812464 0 0 0 0 0.69273426411746186 -40.11164433882368 0 -40.11164433882368 127.50539271931757 0 0 0 0 95.46247696761202 126.98158294042105 0 126.98158294042105 30.056592760100102 0 0 0 0 -7.6271038361628598 -18.509230678013409 0 -18.509230678013409 37.294771466489692 0 0 0 0 -12.514590938437323 -7.4115490118138041 0 -7.4115490118138041 153.95192284529367 0 0 0 0 5.0970874544291291 28.04345604608352 0 28.04345604608352 53.831992046705864 0 0 0 0 28.568963171455835 44.183629358798044 0 44.183629358798044 81.074108528056968 0 0 0 0 6.0748690378095489 24.464554728506755 0 24.464554728506755 64.188832395324425 0 0 0 0 114.51821131604811 60.413533002712938 0 60.413533002712938 69.419012189216119 0 0 0 0 33.215455109005688 85.19922392453509 0 85.19922392453509 190.62742352658825 0 0 0 0 221.80571504563704 189.7534993628301 0 189.7534993628301 212.31016476094737 0 0 0 0 -268.9746634838375 97.873803381643029 0 97.873803381643029 323.13177902544885 0 0 0 0 331.25385431149334 67.958115170468318 0 67.958115170468318 23.669959813796595 0 0 0 0 0.31562169961443587 0.27990580790367048 0 0.27990580790367048 0.19709253312266739 0 0 0 0 172.72888429644809 379.80305106573724 0 379.80305106573724 329.96643344256063 0 0 0 0 186.5753806271241 -34.431617274636665 0 -34.431617274636665 118.20657519767428 0 0 0 0 72.401059806121339 -64.876517344198874 0 -64.876517344198874 313.32590123175396 0 0 0 0 69.571050406018912 60.628636898149125 0 60.628636898149125 146.38796014594845 0 0 0 0 48.455831407947699 103.04994691607499 0 103.04994691607499 388.50894157113362 0 0 0 0 29.780520086747856 29.442722314480307 0 29.442722314480307 130.86095136348013 0 0 0 0 142.82064912503847 -55.408409377338103 0 -55.408409377338103 -65.657509883913008 0 0 0 0 -47.762933598249219 -32.247651013100949 0 -32.247651013100949 205.72174185872973 0 0 0 0 0.83392099924834895 0.73037780462505353 0 0.73037780462505353 0.23710039842662667 0 0 0 0 142.71223029784596 -52.268671311636353 0 -52.268671311636353 119.85126646208846 0 0 0 0 103.77476364466202 175.1196715572114 0 175.1196715572114 78.975540520641516 0 0 0 0 307.22826303400507 18.307189293663214 0 18.307189293663214 -125.67064106385078 0 0 0 0 -74.749159444287216 -97.77563922223726 0 -97.77563922223726 17.373373347398228 0 0 0 0 -35.535895097000321 -79.224778950096152 0 -79.224778950096152 24.294776015862226 0 0 0 0 1151.5995161925766 -76.661168338674997 0 -76.661168338674997 -166.97418117612688 0 0 0 0 688.81741806391074 -356.28233448999322 0 -356.28233448999322 135.23794628113865 0 0 0 0 314.5516442261578 56.691824137605181 0 56.691824137605181 74.764767713426409 0 0 0 0 483.7899579996174 -57.248587910394235 0 -57.248587910394235 -80.860233730185428 0 0 0 0 574.33553784062315 69.27453045648781 0 69.27453045648781 -3.2874906012284555 0 0 0 0 229.89981529370016 -296.82272540620096 0 -296.82272540620096 284.65633803657511 0 0 0 0 216.43549977532712 -69.307023744029038 0 -69.307023744029038 227.9445814290284 0 0 0 0 282.51279842535223 -21.658687241126245 0 -21.658687241126245 185.53188472024021 0 0 0 0 -213.55497202945116 -117.79566367541793 0 -117.79566367541793 257.58485995450155 0 0 0 0 -85.136086942608017 -118.52893507676117 0 -118.52893507676117 253.73233495178647 0 0 0 0 413.02663794700857 -160.61892655951533 0 -160.61892655951533 124.64250575125789 0 0 0 0 73.270578531820831 -160.62042679430584 0 -160.62042679430584 342.18775727154207 0 0 0 0 174.785723638528 15.654268529880937 0 15.654268529880937 19.798217198450402 0 0 0 0 -153.16970127875902 126.60248329150272 0 126.60248329150272 198.54833610425248 0 0 0 0 50.071720902032666 52.565261207539095 0 52.565261207539095 62.271410623887277 0 0 0 0 12.091106429382508 5.735494269072646 0 5.735494269072646 -5.0034880098118109 0 0 0 0 -191.23907180139213 172.48765978829374 0 172.48765978829374 132.29814213970531 0 0 0 0 74.977129885587317 18.842243746223222 0 18.842243746223222 -192.06928682724902 0 0 0 0 168.29114224148361 -40.719173100528678 0 -40.719173100528678 -43.496591973674185 0 0 0 0 42.487494357475953 4.4054867038453267 0 4.4054867038453267 -19.984255426131313 0 0 0 0 58.961711229912908 -23.385175438647821 0 -23.385175438647821 -43.862167226900056 0 0 0 0 159.56002194211032 91.218056825742678 0 91.218056825742678 44.389594389722788 0 0 0 0 5.6911655206828016 9.1167667219767718 0 9.1167667219767718 8.1979864167584164 0 0 0 0 110.73902329106022 -26.60492489792864 0 -26.60492489792864 -83.851290988786332 0 0 0 0 52.095691458064671 24.725643039020994 0 24.725643039020994 4.5504838116236792 0 0 0 0 73.839152061204231 75.819652083482652 0 75.819652083482652 -58.149054395723397 0 0 0 0 117.12497234264447 84.673314220114207 0 84.673314220114207 1.7174644104293293 0 0 0 0 69.323234425922692 120.29207819860176 0 120.29207819860176 51.578369855687924 0 0 0 0 -7.2294004981254716 84.914233844898035 0 84.914233844898035 81.016769779351307 0 0 0 0 -38.626209061611007 42.19663798124769 0 42.19663798124769 45.223049117176345 0 0 0 0 21.784057895784692 32.271411915353205 0 32.271411915353205 30.44947569173576 0 0 0 0 -2.5199779038733823 44.95867701278803 0 44.95867701278803 55.711425460266128 0 0 0 0 -91.360054511275848 140.39471739722592 0 140.39471739722592 -11.880157490981674 0 0 0 0 40.456745031040555 -57.027915207670958 0 -57.027915207670958 31.36815502526224 0 0 0 0 -85.176906605249314 147.71417265128821 0 147.71417265128821 -229.39269621881158 0 0 0 0 -3.0712021258630813 9.5830861264479577 0 9.5830861264479577 7.8187760574336735 0 0 0 0 11.113729428466741 25.168868584555753 0 25.168868584555753 41.645932496053319 0 0 0 0 9.1989991716163786 18.511994635029396 0 18.511994635029396 34.254134519468153 0 0 0 0 24.997760491010887 10.461535663051031 0 10.461535663051031 4.8389038579997603 0 0 0 0 47.993960588275513 66.833612670433467 0 66.833612670433467 30.607043410344886 0 0 0 0 39.495190704426932 35.908418146501162 0 35.908418146501162 -29.075655529632968 0 0 0 0 28.050697142946433 8.4861280736783549 0 8.4861280736783549 -0.84164013713186858 0 0 0 0 115.71155336000436 -43.113494367287785 0 -43.113494367287785 -33.18097521812615 0 0 0 0 23.727209152468276 18.503774522588628 0 18.503774522588628 12.232491147403096 0 0 0 0 31.619590157363277 9.4054662410926682 0 9.4054662410926682 0.99946639024883677 0 0 0 0 3.7822620777290181 -1.8059829657452866 0 -1.8059829657452866 -2.4848487089824332 0 0 0 0 41.869970006300719 1.4121523174994763 0 1.4121523174994763 -2.9656201724931179 0 0 0 0 19.663860614433929 15.81389533293941 0 15.81389533293941 60.201666151694553 0 0 0 0 127.32912454737505 78.849101956157028 0 78.849101956157028 48.95179530304722 0 0 0 0 33.603722217794257 45.577755543003605 0 45.577755543003605 122.91683418696539 0 0 0 0 64.169399529080238 31.255640048339501 0 31.255640048339501 16.8521085008515 0 0 0 0 77.503545277165699 52.335008990222263 0 52.335008990222263 1.04831301505601 0 0 0 0 51.13999664310154 52.472857673345061 0 52.472857673345061 47.966187284736179 0 0 0 0 58.937495051192997 18.075642951480859 0 18.075642951480859 -1.5665533286392019 0 0 0 0 39.767651204569482 -29.811607788578158 0 -29.811607788578158 -21.36967892215398 0 0 0 0 15.546832792463695 7.9217490283922878 0 7.9217490283922878 -0.24828611062468653 0 0 0 0 -2.3400741669333343 12.505767822961388 0 12.505767822961388 48.572847208499297 0 0 0 0 54.514397678641444 67.65054148536683 0 67.65054148536683 -13.589163989501685 0 0 0 0 -16.186881993521606 -0.82784506969863969 0 -0.82784506969863969 13.030663219405108 0 0 0 0 123.56655511370715 -46.259963812132611 0 -46.259963812132611 62.019050195996897 0 0 0 0 29.77292333457433 61.24112179995609 0 61.24112179995609 58.596070882624417 0 0 0 0 22.651132694953276 43.223559548183403 0 43.223559548183403 152.85552972055302 0 0 0 0 26.994166312934112 13.190959508040578 0 13.190959508040578 1.7654215768998256 0 0 0 0 23.800158562880235 12.105023394942892 0 12.105023394942892 8.1564401923628083 0 0 0 0 54.187294999944243 20.594815813190507 0 20.594815813190507 4.0643370461621089 0 0 0 0 570.85290117126351 -4.7565730683672882 0 -4.7565730683672882 -38.847348621905212 0 0 0 0 28.980773862462346 21.723508063496457 0 21.723508063496457 9.3369394911008889 0 0 0 0 89.402327387758305 59.596568583031271 0 59.596568583031271 -8.3749946658782051 0 0 0 0 532.97870035351684 -261.09140836290487 0 -261.09140836290487 172.23696202165684 0 0 0 0 12.623528531623679 4.2773680185374303 0 4.2773680185374303 -0.24715808070979683 0 0 0 0 654.60332573083087 -182.77499129192893 0 -182.77499129192893 72.607705306271782 0 0 0 0 616.69627835089204 -183.81784775912615 0 -183.81784775912615 209.90705118044116 0 0 0 0 637.31701703697559 -281.30091984522039 0 -281.30091984522039 182.97744749288358 0 0 0 0 570.8529011712526 -4.7565730683709262 0 -4.7565730683709262 -38.847348621908168 0 0 0 0 5.1398727144910978 6.1765988200946076 0 6.1765988200946076 7.5806420311895693 0 0 0 0 570.85290117125987 -4.7565730683727452 0 -4.7565730683727452 -38.84734862190453 0 0 0 0 637.67278055360021 -240.99145239864401 0 -240.99145239864401 106.03933036132048 0 0 0 0 725.55516988722218 -104.44024457126397 0 -104.44024457126397 41.881217653603017 0 0 0 0 748.06468176523072 -215.54061157235174 0 -215.54061157235174 101.15856597815673 0 0 0 0 553.06538218377318 -170.92715314451971 0 -170.92715314451971 175.29425066414535 0 0 0 0 646.32600331111007 -212.48042807869388 0 -212.48042807869388 155.95554438262388 0 0 0 0 851.91695435731947 175.12624494441013 0 175.12624494441013 21.322476107216062 0 0 0 0 815.76816199797076 41.277825013595248 0 41.277825013595248 -1.8284881187259998 0 0 0 0 580.88693761678064 3.2414706851029678 0 3.2414706851029678 120.08558986832384 0 0 0 0 821.80425070145975 -14.511897575873945 0 -14.511897575873945 120.95881095988079 0 0 0 0 701.359887738216 116.06497164432858 0 116.06497164432858 186.47634483165166 0 0 0 0 460.87913926162901 -28.858907771481427 0 -28.858907771481427 244.79596752478403 0 0 0 0 418.76796499055393 93.994533448934931 0 93.994533448934931 199.14789903872725 0 0 0 0 607.63564928137794 -205.98005429592615 0 -205.98005429592615 177.05364972621692 0 0 0 0 641.13263153076332 -69.479157844290398 0 -69.479157844290398 194.13881209102237 0 0 0 0 408.54189516043061 -78.604982646992312 0 -78.604982646992312 199.47977999097276 0 0 0 0 437.01615932504319 -263.88988447971457 0 -263.88988447971457 161.13109060581633 0 0 0 0 657.71156765859087 -339.05303818989307 0 -339.05303818989307 138.07767207758025 0 0 0 0 279.47696621284149 -187.50459538087648 0 -187.50459538087648 -0.045554420979897259 0 0 0 0 33.197628751944649 -415.77788809976772 0 -415.77788809976772 155.78104752333047 0 0 0 0 284.9760340964815 129.32439345391367 0 129.32439345391367 299.61013284163937 0 0 0 0 547.44333561163035 170.07503827506605 0 170.07503827506605 219.87728265543706 0 0 0 0 96.193121277875207 -137.4123837124273 0 -137.4123837124273 230.05584935622187 0 0 0 0 213.01471491295933 -201.88280127707696 0 -201.88280127707696 6.3482282199162228 0 0 0 0 -15.464387230558714 86.277720025059125 0 86.277720025059125 -277.35197147781628 0 0 0 0 -556.59333707551104 -361.25253428228962 0 -361.25253428228962 -34.340786525978842 0 0 0 0 2505.7432377722716 181.66842810398998 0 181.66842810398998 -207.37674742723357 0 0 0 0 11.978883556272752 -5.4777212679394491 0 -5.4777212679394491 1.9618374644877967 0 0 0 0 -192.23291366328613 -1268.5761942216463 0 -1268.5761942216463 -637.29935045178172 0 0 0 0 1013.277353461368 -802.9755323413541 0 -802.9755323413541 -492.15097918056273 0 0 0 0 1452.5306879876953 -789.11115049369801 0 -789.11115049369801 433.76382425444581 0 0 0 0 1288.121806051262 -1160.3153691141824 0 -1160.3153691141824 74.263872602330594 0 0 0 0 727.0838673491362 -116.5779527526347 0 -116.5779527526347 255.32624205070806 0 0 0 0 397.28756735744264 -8.4375638119653331 0 -8.4375638119653331 -14.40676993024681 0 0 0 0 249.61515083124323 -238.45837695046168 0 -238.45837695046168 472.65658629732025 0 0 0 0 260.98004826836404 96.829365192991645 0 96.829365192991645 138.46934071297892 0 0 0 0 308.74664631636551 -229.65803720425856 0 -229.65803720425856 474.27334422376248 0 0 0 0 198.13758563141164 -13.277530016531045 0 -13.277530016531045 85.218950442380446 0 0 0 0 1662.7829321176723 -124.14087618280337 0 -124.14087618280337 817.39632425607851 0 0 0 0 -0.18598317528058272 0.92005526748894795 0 0.92005526748894795 -0.54362877917464303 0 0 0 0 86.054246833711659 60.991704441519005 0 60.991704441519005 -8.6765925547872484 0 0 0 0 200.97441156146306 24.272068310205441 0 24.272068310205441 58.489007543170146 0 0 0 0 193.25890178498958 97.150404846954189 0 97.150404846954189 -178.60492979786682 0 0 0 0 261.57612320438784 62.397507106398052 0 62.397507106398052 -107.30141250002134 0 0 0 0 1756.039714747501 -221.82082555325439 0 -221.82082555325439 -368.14186818747976 0 0 0 0 707.48016519659996 -227.20588092794162 0 -227.20588092794162 38.172739196149223 0 0 0 0 7.9580863421487997 6.4618120290922754 0 6.4618120290922754 5.139941712671054 0 0 0 0 71.467405331648479 -68.792959326278151 0 -68.792959326278151 -157.00251138155647 0 0 0 0 54.349447389144643 90.441145351042792 0 90.441145351042792 62.778053006126356 0 0 0 0 65.04139136410322 82.264366594603189 0 82.264366594603189 -89.58398735881201 0 0 0 0 -131.44614353106044 -110.35831897405569 0 -110.35831897405569 -119.05266868745503 0 0 0 0 83.464592625623482 -255.30286192561016 0 -255.30286192561016 -351.19551616599483 0 0 0 0 42.672863019169199 27.634328572304639 0 27.634328572304639 104.62669876078758 0 0 0 0 100.342305741985 42.891694692386409 0 42.891694692386409 -34.621147450481658 0 0 0 0 612.85331022263563 69.458373730354253 0 69.458373730354253 67.583353646230762 0 0 0 0 4.926301135104783 8.2202640105652485 0 8.2202640105652485 -10.594999512383321 0 0 0 0 -1.414834059052378 -1.5065692086851876 0 -1.5065692086851876 -0.44361033802658589 0 0 0 0 309.83652868567879 -407.38199764708406 0 -407.38199764708406 -257.74965315889858 0 0 0 0 -44.710093144271013 152.88270949531761 0 152.88270949531761 57.419700769217343 0 0 0 0 -0.84864171661366505 1.669647805828534 0 1.669647805828534 -3.6229694636953447 0 0 0 0 963.24492268662016 295.61920617308442 0 295.61920617308442 12.999828658214028 0 0 0 0 877.03928100043231 276.9849509018286 0 276.9849509018286 43.125169038482454 0 0 0 0 1072.1055254067223 288.30961696134182 0 288.30961696134182 -94.877138803253729 0 0 0 0 942.27806703620536 228.64009988122962 0 228.64009988122962 -103.75752812633436 0 0 0 0 890.5236816083243 242.01104999546669 0 242.01104999546669 82.672966613604785 0 0 0 0 635.20653199563685 212.11319981653253 0 212.11319981653253 134.70144734394614 0 0 0 0 976.45936659638028 311.47761470621845 0 311.47761470621845 52.157772285847045 0 0 0 0 815.50932680872711 347.84742776022404 0 347.84742776022404 218.42163250410476 0 0 0 0 514.50755912171189 271.73145455695123 0 271.73145455695123 225.06798755801731 0 0 0 0 645.82092862551212 -69.487163145828049 0 -69.487163145828049 406.99163121925653 0 0 0 0 784.03033626106298 602.03154465499233 0 602.03154465499233 629.79831897360509 0 0 0 0 19.05433914740388 -157.69369186920358 0 -157.69369186920358 9.16877274263652 0 0 0 0 405.4214866117768 222.34225278408451 0 222.34225278408451 97.714288556572683 0 0 0 0 1121.7032990951211 496.03224778957792 0 496.03224778957792 94.176042143367738 0 0 0 0 641.52890687853915 530.8123680929034 0 530.8123680929034 287.87836238207183 0 0 0 0 481.76218824782018 157.21270642953732 0 157.21270642953732 26.30765295950664 0 0 0 0 778.75551863277587 766.10495569623879 0 766.10495569623879 749.36250013550534 0 0 0 0 1289.0188116095633 -16.793015353169778 0 -16.793015353169778 -121.26454928391649 0 0 0 0 4.6651087239890323 2.6533888814227851 0 2.6533888814227851 1.1140239446522666 0 0 0 0 38.44465172696377 22.931262092973512 0 22.931262092973512 -1.0495370106648592 0 0 0 0 54.071297540624073 29.939889632756376 0 29.939889632756376 24.821753047758648 0 0 0 0 689.21891903098071 555.26662392522451 0 555.26662392522451 254.61493274763961 0 0 0 0 -4.6607966829059437 12.391236304190063 0 12.391236304190063 11.868487213133537 0 0 0 0 47.719424151891872 14.095472112557218 0 14.095472112557218 -0.73573397979998845 0 0 0 0 50.907847667096576 22.910555066378038 0 22.910555066378038 11.853631143365419 0 0 0 0 37.475474982042215 22.145883585877982 0 22.145883585877982 32.817351677101215 0 0 0 0 47.120636675685866 21.311578378573078 0 21.311578378573078 -0.99351778848496775 0 0 0 0 37.84417571614631 17.892489196258794 0 17.892489196258794 21.750565556173569 0 0 0 0 58.891762203391181 47.029836355782436 0 47.029836355782436 4.3981791545620581 0 0 0 0 36.56492997812029 22.001998250380097 0 22.001998250380097 -7.4861496452526808 0 0 0 0 1174.2418683705662 740.23105664092691 0 740.23105664092691 92.225812564067382 0 0 0 0 -7.1602067238017222 11.164776836904522 0 11.164776836904522 -2.9298881039279721 0 0 0 0 819.02973312225186 200.43376812896327 0 200.43376812896327 -79.749728371798483 0 0 0 0 894.56673778253867 24.003464205276032 0 24.003464205276032 -159.8834393120469 0 0 0 0 479.93889106425877 263.58776667790517 0 263.58776667790517 394.87591139908659 0 0 0 0 518.74862857510561 52.197022255959382 0 52.197022255959382 -410.58154465353618 0 0 0 0 213.5340261044314 245.7307028609348 0 245.7307028609348 179.86555601162127 0 0 0 0 -415.77618960596601 -186.44147152791265 0 -186.44147152791265 -190.20115907006812 0 0 0 0 299.24337871099681 -97.793646850534287 0 -97.793646850534287 -500.61666151568897 0 0 0 0 433.25494901022546 256.80067661754947 0 256.80067661754947 -170.15108071175018 0 0 0 0 -3.6296054215167715 -200.46529164387266 0 -200.46529164387266 -232.67283643788051 0 0 0 0 47.613241300765281 -19.691935550514565 0 -19.691935550514565 0.37626416656819295 0 0 0 0 216.79047178093373 -215.12178425683896 0 -215.12178425683896 -720.88405931654779 0 0 0 0 -200.98183327180885 -716.77463946888281 0 -716.77463946888281 -796.54934149581732 0 0 0 0 753.69829966804173 281.79083354728164 0 281.79083354728164 -38.405990942660537 0 0 0 0 398.71403084407939 84.272052038098536 0 84.272052038098536 -49.613987131541762 0 0 0 0 485.08250160199168 118.68398856207887 0 118.68398856207887 122.56104321897465 0 0 0 0 564.96006865011304 73.408955903739582 0 73.408955903739582 -20.560626193469034 0 0 0 0 563.5687447203145 83.285603556275163 0 83.285603556275163 -68.592164455145394 0 0 0 0 656.48520812236166 115.35156582124819 0 115.35156582124819 -75.792511827181897 0 0 0 0 590.34520374846761 66.75354536240593 0 66.75354536240593 -103.53105155883259 0 0 0 0 -81.838142949423855 -133.51873219978461 0 -133.51873219978461 -82.847905641690886 0 0 0 0 2.8515119365167436 -1.6464883486536905 0 -1.6464883486536905 0.59153746405198326 0 0 0 0 489.71523908439121 131.33783480868988 0 131.33783480868988 -84.866368247071478 0 0 0 0 52.728921790597781 -20.343705055455644 0 -20.343705055455644 -1.9264254632855309 0 0 0 0 -231.56518669342449 -768.28533117893721 0 -768.28533117893721 -640.4726400320676 0 0 0 0 -218.56718996361451 -16.850551282839433 0 -16.850551282839433 202.11252756415706 0 0 0 0 64.354840664265339 -212.68831722107643 0 -212.68831722107643 -928.37061116903624 0 0 0 0 -7.4463458955945043 -157.24454980890823 0 -157.24454980890823 -136.61821577965202 0 0 0 0 231.69165126380631 -221.89477383893882 0 -221.89477383893882 -450.74754732824385 0 0 0 0 202.32504636120893 247.10871776094518 0 247.10871776094518 -16.635265630854519 0 0 0 0 538.89208340378832 102.30898574535831 0 102.30898574535831 -399.29988898534248 0 0 0 0 151.93790618599496 -111.44234991457552 0 -111.44234991457552 -181.19267433582172 0 0 0 0 -101.7645441912 86.354672301240498 0 86.354672301240498 -263.87512216907953 0 0 0 0 -325.54448486647652 -518.78133023721512 0 -518.78133023721512 -355.31719947878992 0 0 0 0 -828.37204038194068 -485.91558637064463 0 -485.91558637064463 -101.1343686775017 0 0 0 0 785.91748238809487 44.453939165914406 0 44.453939165914406 -411.55329101078058 0 0 0 0 47.617027558684192 -12.887831813713387 0 -12.887831813713387 -8.7708185245415358 0 0 0 0 8.1707404917651729 -50.905925069181649 0 -50.905925069181649 -17.67527322292699 0 0 0 0 -15.161365898064105 -32.815961029880782 0 -32.815961029880782 -24.943031475138923 0 0 0 0 -807.92651240379371 677.24292931434593 0 677.24292931434593 -165.28501183032859 0 0 0 0 -85.129162947312579 -57.191272582602323 0 -57.191272582602323 -282.72997094079676 0 0 0 0 584.03033460857614 10.338075582890724 0 10.338075582890724 -648.62568147116235 0 0 0 0 50.233495926274827 140.50730172905128 0 140.50730172905128 -361.23666480778411 0 0 0 0 685.20275612257683 -383.3457992463205 0 -383.3457992463205 -538.7823780827531 0 0 0 0 564.28776747908569 -293.8436874012973 0 -293.8436874012973 29.712223276646 0 0 0 0 918.1576455124266 537.54923544977339 0 537.54923544977339 -89.334749144255795 0 0 0 0 9.1145991694083932 73.264862773282346 0 73.264862773282346 191.24998989500926 0 0 0 0 5.1942441640377837 0.32658006192118094 0 0.32658006192118094 -3.6979348858020655 0 0 0 0 631.17940818027228 -407.85460444412229 0 -407.85460444412229 -257.66608390891736 0 0 0 0 -4.1251478626078804 9.4589093448228034 0 9.4589093448228034 -9.4669531411697996 0 0 0 0 484.91506178800398 294.77810801624554 0 294.77810801624554 298.58523689518006 0 0 0 0 1361.8185532931989 701.22368253968648 0 701.22368253968648 -92.843299148949882 0 0 0 0 -30.541073062493979 79.698198779820586 0 79.698198779820586 -15.84002321983462 0 0 0 0 1035.5790970972312 223.10419542103659 0 223.10419542103659 -168.21192365785737 0 0 0 0 149.99089575935795 285.20643649773456 0 285.20643649773456 0.94458433330919434 0 0 0 0 1.0898529102148888 -1.1913456694003663 0 -1.1913456694003663 -1.5499843900012493 0 0 0 0 1186.9467068201625 136.81270928631591 0 136.81270928631591 -154.01879427331733 0 0 0 0 -172.62040304467882 -591.97487810754819 0 -591.97487810754819 154.12127587088162 0 0 0 0 953.92616601662849 -542.08098775182862 0 -542.08098775182862 -360.6475070012666 0 0 0 0 448.45325362484709 -294.05017179382492 0 -294.05017179382492 392.46324228446611 0 0 0 0 678.09440165141223 86.524455636878201 0 86.524455636878201 449.8465778252139 0 0 0 0 519.15275754276809 415.43718745935712 0 415.43718745935712 672.81056373695901 0 0 0 0 1726.1081322326836 1308.4701089897317 0 1308.4701089897317 710.67800413089572 0 0 0 0 197.09182874183966 -287.4235184936291 0 -287.4235184936291 -727.79165481370592 0 0 0 0 34.212179145365447 -14.089812969966058 0 -14.089812969966058 0.85926149626443582 0 0 0 0 -508.0340004811564 -687.63137720628856 0 -687.63137720628856 -656.1447999155381 0 0 0 0 395.02674177090921 248.60935167759908 0 248.60935167759908 133.64387832432226 0 0 0 0 559.92375634495147 512.29547958414173 0 512.29547958414173 244.05107784900338 0 0 0 0 440.96183373155418 290.58119823778088 0 290.58119823778088 85.376399729537297 0 0 0 0 502.72995029787126 267.19895963358863 0 267.19895963358863 -55.983212131456639 0 0 0 0 432.53283439111692 230.11260238728391 0 230.11260238728391 12.164209048112752 0 0 0 0 476.03873447936348 201.89944455177283 0 201.89944455177283 25.235410719790252 0 0 0 0 581.62165507340251 230.34301636551231 0 230.34301636551231 -14.375592870218952 0 0 0 0 337.42923170663562 129.52483449473334 0 129.52483449473334 -29.669944314755412 0 0 0 0 425.63664034225803 249.02380752083059 0 249.02380752083059 63.047612519686481 0 0 0 0 238.54427026892517 170.73310527248259 0 170.73310527248259 64.354563719884595 0 0 0 0 6.21099331273129 -1.1918776557490212 0 -1.1918776557490212 -8.9559415911814586 0 0 0 0 406.23794230587146 42.186129398425805 0 42.186129398425805 -211.01056105125008 0 0 0 0 59.125999510238216 -29.390421712226953 0 -29.390421712226953 -2.0650892166622725 0 0 0 0 166.21836677462306 -147.2793374625096 0 -147.2793374625096 106.12904855696888 0 0 0 0 937.89376441422792 52.92038184226476 0 52.92038184226476 -135.94076980274599 0 0 0 0 921.05697270193559 321.54650300481535 0 321.54650300481535 55.301392734338151 0 0 0 0 5.9070115881377419 -3.1634177850815215 0 -3.1634177850815215 -1.3659175134236925 0 0 0 0 331.24932169774547 96.017509533777229 0 96.017509533777229 23.247723356830193 0 0 0 0 464.99972669878116 184.89861427852748 0 184.89861427852748 82.286658705315176 0 0 0 0 399.31538492586805 105.45984159256379 0 105.45984159256379 -8.6052294095334219 0 0 0 0 332.84208893004688 57.97611944452774 0 57.97611944452774 -41.504648777253351 0 0 0 0 308.14651368152408 104.19558383297817 0 104.19558383297817 13.01332200777469 0 0 0 0 263.53182736615872 61.930155959254989 0 61.930155959254989 -17.467434836658867 0 0 0 0 334.85307935212768 99.558010468921566 0 99.558010468921566 13.310844715290841 0 0 0 0 2.6956109854690666 5.2269097170004457 0 5.2269097170004457 -12.960337125021409 0 0 0 0 276.7489711582275 128.58909403626251 0 128.58909403626251 53.598882400886254 0 0 0 0 18.066305957129366 -8.052392392156813 0 -8.052392392156813 -0.74825901918537019 0 0 0 0 63.611391504135099 -39.227090899704308 0 -39.227090899704308 -79.144761621492535 0 0 0 0 239.25803010655727 163.30641944357012 0 163.30641944357012 120.71108239627461 0 0 0 0 351.09008825228739 401.23993049227715 0 401.23993049227715 285.90409749198443 0 0 0 0 629.36821390414661 233.10025762792816 0 233.10025762792816 -17.363209249911051 0 0 0 0 143.61911182099993 -216.95902933599001 0 -216.95902933599001 -47.19584640044377 0 0 0 0 725.27765997273491 689.85333770287411 0 689.85333770287411 493.78231125578054 0 0 0 0 1094.6815335986976 524.75244167970595 0 524.75244167970595 567.56855755043034 0 0 0 0 7.6102222191159328 -2.2380552813877834 0 -2.2380552813877834 0.89470655779790587 0 0 0 0 -59.726459523171798 19.902240355499885 0 19.902240355499885 34.135701220572628 0 0 0 0 15.257132980314054 103.43840030105082 0 103.43840030105082 -40.119613972202984 0 0 0 0 -1.1870243451169706 3.1438922225552943 0 3.1438922225552943 -7.6802114878005341 0 0 0 0 258.40717269599918 8.6133439789293789 0 8.6133439789293789 5.1900601349577755 0 0 0 0 520.66510222165562 -273.9592094553692 0 -273.9592094553692 -48.078437074222165 0 0 0 0 584.48649702357216 84.725517902825459 0 84.725517902825459 -251.73307207262746 0 0 0 0 43.535615498254629 60.313532396884966 0 60.313532396884966 1.3822975514967766 0 0 0 0 211.09643835209317 -9.6130002406243307 0 -9.6130002406243307 -170.57767398138958 0 0 0 0 0.14628312672597943 0.67670245139380469 0 0.67670245139380469 -2.8950245279283582 0 0 0 0 290.05697026380221 88.574201056190645 0 88.574201056190645 -94.55252310522792 0 0 0 0 245.0228212252714 66.551608160943033 0 66.551608160943033 -21.954994521987373 0 0 0 0 287.33923675687402 90.541491747894611 0 90.541491747894611 4.8968422426179359 0 0 0 0 302.42600448812664 56.557257079888586 0 56.557257079888586 -40.001368566887322 0 0 0 0 335.47979328702729 51.707029990396904 0 51.707029990396904 -37.585094174031838 0 0 0 0 287.29477804573253 42.844620752222227 0 42.844620752222227 -25.490277224679403 0 0 0 0 293.60231678733544 77.682741265787172 0 77.682741265787172 -27.814097619343102 0 0 0 0 9.9681672901515412 -33.878910822411171 0 -33.878910822411171 -28.52321304608904 0 0 0 0 16.765600947426719 -9.0413128171408061 0 -9.0413128171408061 -19.983051777608125 0 0 0 0 9.5127982126141433 -12.942310277218894 0 -12.942310277218894 -19.531980102892703 0 0 0 0 4.1077780473024177 -24.649071647237179 0 -24.649071647237179 -21.425078174735972 0 0 0 0 29.511546714908036 -26.044372869498147 0 -26.044372869498147 -29.886614226026722 0 0 0 0 24.194991017240682 -11.248899133770465 0 -11.248899133770465 -25.195201814621214 0 0 0 0 21.58703939019324 -13.432519366824636 0 -13.432519366824636 -26.455864561645285 0 0 0 0 50.217134418671776 -12.313632557847995 0 -12.313632557847995 -33.732249159215826 0 0 0 0 8.5791310293643619 -36.078261233327794 0 -36.078261233327794 -26.314375326277514 0 0 0 0 30.912107342752279 -41.464261271488795 0 -41.464261271488795 -27.91413111496513 0 0 0 0 19.257592424120958 -36.203276573065523 0 -36.203276573065523 -27.395070173850399 0 0 0 0 13.389536295711878 -26.781104002013308 0 -26.781104002013308 -31.103005984507035 0 0 0 0 48.919084011037285 -34.017718653623035 0 -34.017718653623035 -36.680904643097165 0 0 0 0 24.590092826460022 -25.055158206039778 0 -25.055158206039778 -27.536624998042498 0 0 0 0 4.3608090406405893 -4.1325124015290786 0 -4.1325124015290786 3.1998205433805218 0 0 0 0 10.213988663514101 -24.555370624454554 0 -24.555370624454554 -33.83839057928526 0 0 0 0 -31.955202151519188 -43.655265016146132 0 -43.655265016146132 -18.966673586544175 0 0 0 0 -14.803628928484613 -19.461816577784248 0 -19.461816577784248 -23.089643932635227 0 0 0 0 -2.6345685691521794 -32.932027005889722 0 -32.932027005889722 -22.374835875267308 0 0 0 0 9.6899172783581662 0.13581230368781982 0 0.13581230368781982 0.80155558236832192 0 0 0 0 -83.669526977106216 39.917185568313926 0 39.917185568313926 8.3027222453806644 0 0 0 0 8.0108983053280269 -4.084284911997397 0 -4.084284911997397 3.8718364080458194 0 0 0 0 29.304846586921485 7.6876171226176666 0 7.6876171226176666 30.733825388618925 0 0 0 0 -62.131407376904463 46.915418919505669 0 46.915418919505669 -22.359860809096517 0 0 0 0 417.87041671697443 -209.15622977762587 0 -209.15622977762587 76.482429687382137 0 0 0 0 4.684538081276159 1.0138343864215482 0 1.0138343864215482 4.4362734263669878e-05 0 0 0 0 -10.938147915770969 -127.91114828735294 0 -127.91114828735294 209.90352714613573 0 0 0 0 2.4984023176402843 -199.7080149553808 0 -199.7080149553808 75.661483004440015 0 0 0 0 -69.173208911167421 80.45813910695972 0 80.45813910695972 66.696566789450117 0 0 0 0 402.94811687805486 -111.30566702288843 0 -111.30566702288843 20.118431967406764 0 0 0 0 320.88414878542972 -6.9056514901849368 0 -6.9056514901849368 33.684847871939382 0 0 0 0 407.08775820653318 -151.33840434038279 0 -151.33840434038279 76.094335327547014 0 0 0 0 738.53139093666687 133.2914331486827 0 133.2914331486827 23.759782342773178 0 0 0 0 818.5577757472347 -49.850783902103558 0 -49.850783902103558 -30.715983026044341 0 0 0 0 715.15109310843036 147.44399093625043 0 147.44399093625043 -104.94766928754598 0 0 0 0 362.8771906332986 44.736212910271661 0 44.736212910271661 7.4281887531246866 0 0 0 0 758.89716453173605 359.01234884046858 0 359.01234884046858 105.01640430830412 0 0 0 0 840.47373647955828 103.31645838190661 0 103.31645838190661 -123.49292436388077 0 0 0 0 1247.4950072905522 510.49760213237687 0 510.49760213237687 -7.8694870185862555 0 0 0 0 1229.3237954732176 343.1453355766057 0 343.1453355766057 353.27494834281555 0 0 0 0 1331.6311086737842 90.349060197115932 0 90.349060197115932 -119.51640466507342 0 0 0 0 971.68699975595882 -152.81234504758413 0 -152.81234504758413 10.463769822660424 0 0 0 0 1074.3994699018749 451.30567711282401 0 451.30567711282401 8.5042795175763786 0 0 0 0 1106.3655509940254 51.617379192471617 0 51.617379192471617 -212.66105852705368 0 0 0 0 746.50424989005478 -107.08239549147515 0 -107.08239549147515 -268.40681540711739 0 0 0 0 884.9004438795655 116.21193170911226 0 116.21193170911226 -189.47177854584061 0 0 0 0 272.40505518977807 -50.375784650851301 0 -50.375784650851301 -255.33941999712579 0 0 0 0 190.38435606044368 325.81294786642616 0 325.81294786642616 431.27835784047147 0 0 0 0 -32.616099965855028 -0.57034834104160836 0 -0.57034834104160836 117.50717477790067 0 0 0 0 568.89997819790005 246.94017139145217 0 246.94017139145217 -51.558371459754653 0 0 0 0 11.935799216735177 86.855273781651022 0 86.855273781651022 156.96244863652578 0 0 0 0 19.247778849136466 49.636376874579554 0 49.636376874579554 45.585302514926752 0 0 0 0 121.22881574233088 150.56787359102418 0 150.56787359102418 65.65633474625065 0 0 0 0 76.543254409240035 64.567942181332512 0 64.567942181332512 -64.473934127454754 0 0 0 0 34.522911376552656 48.673835614410791 0 48.673835614410791 30.331963247299086 0 0 0 0 68.152978705140413 62.332664545329521 0 62.332664545329521 24.301471145870863 0 0 0 0 52.061583505004819 27.617839384459899 0 27.617839384459899 26.465279218264186 0 0 0 0 17.414741141561535 25.999190204955312 0 25.999190204955312 58.211927305969766 0 0 0 0 5.1938496752445431 1.1663425942330932 0 1.1663425942330932 -2.1673534566895931 0 0 0 0 10.278770790427188 4.4035003653769991 0 4.4035003653769991 20.753037473610675 0 0 0 0 51.593141841727174 90.219028955381134 0 90.219028955381134 47.095611319424648 0 0 0 0 77.25397343017903 64.134796941575104 0 64.134796941575104 -11.826749516714472 0 0 0 0 227.66682210028739 28.969665547768599 0 28.969665547768599 -14.309712314410499 0 0 0 0 -13.586524981914408 32.135972967802502 0 32.135972967802502 -7.8799679624860914 0 0 0 0 -82.791271613568824 -13.38312307656247 0 -13.38312307656247 22.969529245575671 0 0 0 0 29.368177917006278 -2.1310873019568106 0 -2.1310873019568106 -27.997404891826477 0 0 0 0 636.65985910497329 7.9194490366728658 0 7.9194490366728658 -63.258851599182663 0 0 0 0 3.5504153175557143 -3.8800553317790545 0 -3.8800553317790545 -2.7032590270584356 0 0 0 0 1.9017993408712002 -1.5226103605922034 0 -1.5226103605922034 -1.3542073225578894 0 0 0 0 -99.930955980769795 -95.689257556918335 0 -95.689257556918335 -26.903570222458598 0 0 0 0 677.45063693889097 161.88561890958306 0 161.88561890958306 4.002298869993183 0 0 0 0 1090.9937715173055 140.50588511362696 0 140.50588511362696 -234.88533811936986 0 0 0 0 555.09481743205106 93.427938527832623 0 93.427938527832623 -10.966383731782969 0 0 0 0 631.85854555488913 25.034950039596197 0 25.034950039596197 2.7825945075703657 0 0 0 0 699.05339421614917 121.69218536545631 0 121.69218536545631 -9.4766905974079236 0 0 0 0 1205.1332790304077 388.57915091475667 0 388.57915091475667 76.635381949411666 0 0 0 0 672.77798659891232 95.042899429180835 0 95.042899429180835 -13.502812656785693 0 0 0 0 250.65915219106319 15.478613907609343 0 15.478613907609343 90.520040557293868 0 0 0 0 951.06007197294457 -200.20041596308741 0 -200.20041596308741 -70.19922734025198 0 0 0 0 705.91263299838465 64.865974460589598 0 64.865974460589598 -92.961781960890676 0 0 0 0 14.356240413162595 8.6364957073033679 0 8.6364957073033679 -17.815517317662795 0 0 0 0 -92.840815357434622 -23.865566817567014 0 -23.865566817567014 20.653498322047653 0 0 0 0 176.96168071841203 -131.34457305746659 0 -131.34457305746659 122.7971412666559 0 0 0 0 2.6581231293516545 -4.3741496091936654 0 -4.3741496091936654 -4.1032646975450993 0 0 0 0 -37.83025165181607 -43.581584952070102 0 -43.581584952070102 10.492958872633835 0 0 0 0 9.5098262784067629 -2.3844308980109759 0 -2.3844308980109759 -8.5753988677495272 0 0 0 0 -0.27981460196315311 -2.3425264293102543 0 -2.3425264293102543 54.91486906292559 0 0 0 0 236.92601349822326 126.176669896134 0 126.176669896134 58.390971633843719 0 0 0 0 259.43605445758658 121.66704750123942 0 121.66704750123942 51.917848876961671 0 0 0 0 243.06331075838534 124.42831092354601 0 124.42831092354601 23.68884266941086 0 0 0 0 247.14838152507946 110.48271103163916 0 110.48271103163916 69.328845922517075 0 0 0 0 250.23885407492162 95.675300815567311 0 95.675300815567311 5.2117362758003765 0 0 0 0 295.85214769996492 85.544922511145501 0 85.544922511145501 4.195380184900614 0 0 0 0 249.66917064099471 155.15086472516111 0 155.15086472516111 -0.22835086918644265 0 0 0 0 246.50420197856147 152.37092555197725 0 152.37092555197725 37.493040598469634 0 0 0 0 255.3713632453946 178.7837888095861 0 178.7837888095861 -83.123808505928821 0 0 0 0 205.23439074597809 46.040385382602039 0 46.040385382602039 19.666803271486856 0 0 0 0 578.43671687425012 -102.45256031125473 0 -102.45256031125473 -189.50503292862336 0 0 0 0 516.43868038646178 45.70503759911648 0 45.70503759911648 11.817217222126473 0 0 0 0 282.6144915868008 160.07372569222071 0 160.07372569222071 113.9625807877468 0 0 0 0 368.84838317855065 128.16799233938082 0 128.16799233938082 99.705513093415021 0 0 0 0 487.98743750502035 260.29800528458492 0 260.29800528458492 222.32190648187941 0 0 0 0 357.43954303548526 103.44682827999418 0 103.44682827999418 241.30467578939053 0 0 0 0 309.40002232246661 136.54190960405788 0 136.54190960405788 275.05898243581169 0 0 0 0 211.44549084229948 163.64224097661452 0 163.64224097661452 178.33333910389399 0 0 0 0 212.91029570600949 21.375788077292327 0 21.375788077292327 138.81751438720153 0 0 0 0 39.087279350733297 57.721212931127866 0 57.721212931127866 108.02792514187854 0 0 0 0 168.29423504530678 78.900756821241032 0 78.900756821241032 67.938668067506512 0 0 0 0 194.79948286499712 142.14064759316244 0 142.14064759316244 122.39963345401634 0 0 0 0 190.34063084231911 26.626868721913809 0 26.626868721913809 34.509335557749012 0 0 0 0 151.77402252606589 79.291773059417551 0 79.291773059417551 66.527794867675055 0 0 0 0 79.982697981175079 -43.310015843283395 0 -43.310015843283395 -12.552845326914849 0 0 0 0 50.856265092246758 -54.355606457227225 0 -54.355606457227225 23.546303027192891 0 0 0 0 65.54904992201773 -24.331368505678938 0 -24.331368505678938 1.3404701848185141 0 0 0 0 46.489604963631372 -11.718984617547818 0 -11.718984617547818 0.14341160740953729 0 0 0 0 19.08980944221917 -0.059366890446526099 0 -0.059366890446526099 -10.688818422312192 0 0 0 0 77.010540770090302 -20.439054716137321 0 -20.439054716137321 -1.0868423068804987 0 0 0 0 88.101413901546039 -41.586902222541539 0 -41.586902222541539 -28.993889712501186 0 0 0 0 15.050473376896882 -23.891531150267859 0 -23.891531150267859 -0.96518899369329025 0 0 0 0 56.446047544126486 -17.250294624895872 0 -17.250294624895872 -1.3317909489927615 0 0 0 0 51.442612497259688 -13.375243203637751 0 -13.375243203637751 -2.3420133442787119 0 0 0 0 10.014937702871563 -3.7268521730209407 0 -3.7268521730209407 1.5525671133592263 0 0 0 0 58.6782386905561 -42.162620329327339 0 -42.162620329327339 16.691945753956361 0 0 0 0 74.308006888270029 29.858474395127814 0 29.858474395127814 39.707717141317971 0 0 0 0 15.607087357316672 -26.563185210703626 0 -26.563185210703626 -1.3104143436123898 0 0 0 0 206.71872251527748 37.986350375712846 0 37.986350375712846 6.8852734344295641 0 0 0 0 252.06934975746481 91.814062227087106 0 91.814062227087106 9.4905057854599022 0 0 0 0 34.780763412098167 22.964901253877315 0 22.964901253877315 15.509631750455782 0 0 0 0 237.66879211623746 -30.260267241927068 0 -30.260267241927068 -6.5872590025585396 0 0 0 0 6.4412760376992537 -11.899170152131418 0 -11.899170152131418 1.1248948789531821 0 0 0 0 118.07390680340177 11.906921109887236 0 11.906921109887236 -14.759764347493729 0 0 0 0 30.372345164096259 -13.931096362268931 0 -13.931096362268931 0.040929731134838221 0 0 0 0 33.369252397298069 -5.6207025604676062 0 -5.6207025604676062 -1.5529330904512548 0 0 0 0 4.2633146287809041 -12.07957219707081 0 -12.07957219707081 0.67450320776293582 0 0 0 0 16.221469435507256 -3.7506478579136484 0 -3.7506478579136484 0.2360449612907991 0 0 0 0 23.557017532548343 -4.6569351954688045 0 -4.6569351954688045 -0.29773224867767567 0 0 0 0 31.80669228106126 -14.465724074037496 0 -14.465724074037496 -1.2163744683423374 0 0 0 0 25.5349357325249 -2.7258983130457182 0 -2.7258983130457182 1.2947830298262488 0 0 0 0 23.489490022641544 -14.878321368252777 0 -14.878321368252777 0.20372558417261777 0 0 0 0 -14.473961211650931 -12.149615986034085 0 -12.149615986034085 0.67256549874082339 0 0 0 0 10.852559586061894 -11.375145853624808 0 -11.375145853624808 2.4724666822154129 0 0 0 0 46.662150277420551 -9.6462686533243414 0 -9.6462686533243414 5.9985427753485965 0 0 0 0 19.561352662844001 -10.29801652440517 0 -10.29801652440517 4.5877307209650553 0 0 0 0 6.798095001843663 -10.933399087290262 0 -10.933399087290262 3.272281939497184 0 0 0 0 12.705299093628128 -14.306154788651334 0 -14.306154788651334 4.7094159183716329 0 0 0 0 5.9596257401581418 -10.597293898158142 0 -10.597293898158142 1.3761092185786219 0 0 0 0 13.724007900898869 -5.7415460437235808 0 -5.7415460437235808 3.3634805247625934 0 0 0 0 4.1511253509534285 -14.714881118955397 0 -14.714881118955397 -1.9963575472992536 0 0 0 0 -6.2981766268958737 -9.1773026628892111 0 -9.1773026628892111 2.3645830559220427 0 0 0 0 5.0124201539376099 -1.1678606515785006 0 -1.1678606515785006 1.7278356668589119 0 0 0 0 329.72887343967523 3.1162911095582331 0 3.1162911095582331 -12.849069011058646 0 0 0 0 334.37555764582612 60.723083683007189 0 60.723083683007189 5.3303592926537249 0 0 0 0 87.657128877006471 18.756481860800022 0 18.756481860800022 -13.193249701084369 0 0 0 0 46.271298135252437 3.8656997978917502 0 3.8656997978917502 -0.89702197376084314 0 0 0 0 86.691717425957904 9.7281045023834167 0 9.7281045023834167 4.1737298258756255 0 0 0 0 74.494378742172557 -3.0336111135297301 0 -3.0336111135297301 -3.7025590565962148 0 0 0 0 90.94392690735549 10.229340104739947 0 10.229340104739947 7.0752337785700092 0 0 0 0 108.19870414203979 30.526033509749823 0 30.526033509749823 7.9552895513828332 0 0 0 0 87.645641059170885 -7.0975546297871688 0 -7.0975546297871688 -5.3397795106216677 0 0 0 0 84.59707942638488 5.6316940270995701 0 5.6316940270995701 -36.60310152860643 0 0 0 0 52.73432566934207 -16.579492975485891 0 -16.579492975485891 -32.060652283573518 0 0 0 0 66.869898680000915 19.394441821571377 0 19.394441821571377 -10.386172586484349 0 0 0 0 57.550249387168151 -16.972499851986299 0 -16.972499851986299 -69.845076595365754 0 0 0 0 31.023426766805642 -42.831573555006344 0 -42.831573555006344 -40.396435227225965 0 0 0 0 21.613391709124699 -79.29726885293681 0 -79.29726885293681 -91.07319008518607 0 0 0 0 74.37882815901321 -21.008296604394729 0 -21.008296604394729 -39.056971345514739 0 0 0 0 76.454701875460159 -29.968903992202286 0 -29.968903992202286 -5.681511178573885 0 0 0 0 54.827672251424104 -29.377779725310987 0 -29.377779725310987 13.264353956762831 0 0 0 0 164.21915861697926 -19.660820838701738 0 -19.660820838701738 61.418804030032334 0 0 0 0 86.01006191351189 -36.329687787893363 0 -36.329687787893363 -42.134644383042598 0 0 0 0 109.98391351789488 -22.074285160726731 0 -22.074285160726731 -21.087411897816828 0 0 0 0 23.336031421211374 121.35430585509857 0 121.35430585509857 157.84630200972651 0 0 0 0 229.58066746938857 2.2363721428730514 0 2.2363721428730514 -85.559593966342277 0 0 0 0 -100.94589171034022 -438.01463428056218 0 -438.01463428056218 -265.99579580228715 0 0 0 0 235.70058840390993 81.993509904618804 0 81.993509904618804 166.19366660090259 0 0 0 0 117.48738258291368 -24.920840830344424 0 -24.920840830344424 -21.003789034207642 0 0 0 0 241.73977704429853 86.140865168770915 0 86.140865168770915 139.67694758765697 0 0 0 0 38.509008150693262 -71.456544591490911 0 -71.456544591490911 -140.07334370610306 0 0 0 0 16.251507815875812 0.20717801796808999 0 0.20717801796808999 -165.29224910297455 0 0 0 0 35.342598243126957 -16.77311541120541 0 -16.77311541120541 7.8324736379329982 0 0 0 0 686.21855480315571 365.36075630589789 0 365.36075630589789 -226.5570170687015 0 0 0 0 508.17968388974259 239.61053355329841 0 239.61053355329841 -169.59066275647751 0 0 0 0 -51.927510743946186 -424.15709474103051 0 -424.15709474103051 -469.45068999725345 0 0 0 0 418.4965296673181 232.88474213433483 0 232.88474213433483 -58.197234516694152 0 0 0 0 1180.5149738849577 483.27870127393362 0 483.27870127393362 -200.34939294717401 0 0 0 0 -25.350870436044261 282.93539059095406 0 282.93539059095406 844.01762525334561 0 0 0 0 1377.9774866271473 -32.075645920581337 0 -32.075645920581337 -817.19548085378347 0 0 0 0 117.95399251306111 -26.602370647851316 0 -26.602370647851316 -22.331719934095553 0 0 0 0 112.99430268572178 -197.09419176249844 0 -197.09419176249844 -41.596242272753898 0 0 0 0 12.42604407677959 -5.27779383991804 0 -5.27779383991804 2.3428225988442977 0 0 0 0 1301.6057195083413 257.25344369107711 0 257.25344369107711 -752.53697604866238 0 0 0 0 144.63407634116447 424.36374134117978 0 424.36374134117978 443.52250124980759 0 0 0 0 336.28750033664983 -236.24504228681946 0 -236.24504228681946 -35.207988590630038 0 0 0 0 162.67827873279748 -177.32691635375062 0 -177.32691635375062 2.1623400790626874 0 0 0 0 149.72915461677985 -141.20688937848928 0 -141.20688937848928 -5.9193064811678369 0 0 0 0 220.40151179729219 -141.8220008678648 0 -141.8220008678648 -17.582066042504664 0 0 0 0 394.22735024490976 -164.04821436374914 0 -164.04821436374914 -35.233458693859916 0 0 0 0 135.72636340066674 -178.92421752125688 0 -178.92421752125688 14.516853137185819 0 0 0 0 220.65840469544855 -141.68034680502001 0 -141.68034680502001 -36.278340326093939 0 0 0 0 462.06004413557093 -18.568254697617505 0 -18.568254697617505 -121.07169333745742 0 0 0 0 715.25850390332198 -49.138223919139335 0 -49.138223919139335 -174.45204427076908 0 0 0 0 511.79464504831412 -255.33181232669534 0 -255.33181232669534 -71.185508700151786 0 0 0 0 58.326599555718531 173.74060065944315 0 173.74060065944315 28.7293288338129 0 0 0 0 -106.49191884756124 -173.52892698907115 0 -173.52892698907115 -59.960269991125386 0 0 0 0 121.49048449384472 -3.6017265472411708 0 -3.6017265472411708 -27.654370225840093 0 0 0 0 -166.30965163341898 606.31636094226621 0 606.31636094226621 1485.6214161772386 0 0 0 0 24.410272597393487 -37.431147148767224 0 -37.431147148767224 -30.697925226188076 0 0 0 0 0.56692643070346094 -29.852169786323749 0 -29.852169786323749 -5.5001220324692781 0 0 0 0 13.724602108995896 9.3799617631433989 0 9.3799617631433989 -39.528695863432418 0 0 0 0 37.542005040217191 -34.630658861058237 0 -34.630658861058237 -68.630162494666365 0 0 0 0 40.50264455856086 -26.019650321370023 0 -26.019650321370023 -138.65767156851871 0 0 0 0 -45.610184623117675 -0.91631621709757383 0 -0.91631621709757383 -47.802849933711059 0 0 0 0 -106.3027741011756 -66.192685228192772 0 -66.192685228192772 -4.2325834756745735 0 0 0 0 -74.663005912923836 37.205422761388263 0 37.205422761388263 -97.777061138468866 0 0 0 0 -36.134056005001185 -146.40719661335686 0 -146.40719661335686 -10.218101823565348 0 0 0 0 16.126355668573524 -128.18261707067248 0 -128.18261707067248 18.661791788514179 0 0 0 0 101.49122397243627 -169.85255255028733 0 -169.85255255028733 -7.1707703077745606 0 0 0 0 24.814169902558206 -103.70822918747592 0 -103.70822918747592 3.9281849582152955 0 0 0 0 -16.453364443204919 -74.525683806242981 0 -74.525683806242981 16.401317951066645 0 0 0 0 35.509296793446993 -92.379596462853897 0 -92.379596462853897 20.801691550745346 0 0 0 0 124.07429847658204 -136.97137855106632 0 -136.97137855106632 -0.20963960557821792 0 0 0 0 158.11555879955995 -117.08295482524608 0 -117.08295482524608 -35.48639148462982 0 0 0 0 102.34776188706746 -132.45236678948936 0 -132.45236678948936 4.824798750584705 0 0 0 0 84.500679892804328 -83.606913764063862 0 -83.606913764063862 1.2763660648805626 0 0 0 0 94.149288470536703 -84.734504139991941 0 -84.734504139991941 0.10095939419397837 0 0 0 0 71.412841097451746 -48.122038319375406 0 -48.122038319375406 7.5115048704520007 0 0 0 0 44.632738543123196 -45.163076899502052 0 -45.163076899502052 -2.5634041426781664 0 0 0 0 35.143359393317951 -43.399728122441047 0 -43.399728122441047 7.041315464911893 0 0 0 0 57.896890701835218 -18.471878012751105 0 -18.471878012751105 -22.237873527025044 0 0 0 0 41.623127329425188 -10.217073191352227 0 -10.217073191352227 1.1931143615874866 0 0 0 0 75.413227787139476 -17.87415238450069 0 -17.87415238450069 4.1899059887064141 0 0 0 0 70.589186567507568 -14.179376844904709 0 -14.179376844904709 1.5343098129471571 0 0 0 0 104.35611660654104 -12.704392247392434 0 -12.704392247392434 4.8567598201257169 0 0 0 0 97.954505433583108 -16.323077676873481 0 -16.323077676873481 9.8485532357519787 0 0 0 0 103.88437193978461 -18.558960142689557 0 -18.558960142689557 9.2749006534845648 0 0 0 0 79.481513499798893 -46.449018076619495 0 -46.449018076619495 3.2944962283672794 0 0 0 0 108.93255972436782 -47.327673111905881 0 -47.327673111905881 0.064359114672697615 0 0 0 0 159.65700399114576 -104.27904499936881 0 -104.27904499936881 -32.401354141503987 0 0 0 0 142.64802346421493 -73.901190367509798 0 -73.901190367509798 -13.486078253235974 0 0 0 0 129.34310160853784 -48.691957329993329 0 -48.691957329993329 -32.269026539510605 0 0 0 0 119.30430651006463 -36.413468847710874 0 -36.413468847710874 10.548525725305353 0 0 0 0 127.04615273911622 -35.016795091648419 0 -35.016795091648419 8.178044154087047 0 0 0 0 140.85480876401562 -26.218412510064354 0 -26.218412510064354 10.297740000662088 0 0 0 0 124.56551932876391 -31.270897761339029 0 -31.270897761339029 24.584979356221083 0 0 0 0 181.79957828849729 -34.057902003138224 0 -34.057902003138224 17.903189533935574 0 0 0 0 150.90194393011188 -18.04741612481871 0 -18.04741612481871 9.2648635703430955 0 0 0 0 122.82683939393974 -31.008607467646243 0 -31.008607467646243 20.481568495559713 0 0 0 0 137.14359546196829 -11.556533509932109 0 -11.556533509932109 -75.917676242853304 0 0 0 0 96.47061816928769 30.325819800900071 0 30.325819800900071 -14.727177648455589 0 0 0 0 137.28028611451737 -8.4260363039741151 0 -8.4260363039741151 -56.033677210064496 0 0 0 0 179.82530033655348 8.3464350856213514 0 8.3464350856213514 -104.825995460775 0 0 0 0 231.84366206556297 -62.532337014984478 0 -62.532337014984478 -63.598903487219104 0 0 0 0 73.266435644588285 36.617518222172961 0 36.617518222172961 -8.913966163654786 0 0 0 0 152.25231081452512 21.607801285937285 0 21.607801285937285 -89.641763784082798 0 0 0 0 137.82329856566139 26.772275294093447 0 26.772275294093447 -42.793058804901534 0 0 0 0 149.03987827696528 2.2845658939106954 0 2.2845658939106954 -2.0587331717019879 0 0 0 0 164.84688885475225 37.296945466419842 0 37.296945466419842 -79.556524869447443 0 0 0 0 79.136422998646594 87.236159834010238 0 87.236159834010238 -57.780863114393838 0 0 0 0 124.80409460529336 23.117505338339853 0 23.117505338339853 -42.813155559826292 0 0 0 0 141.15219801508101 87.691785044826332 0 87.691785044826332 -20.613613130124875 0 0 0 0 205.99525639344211 59.015843322446244 0 59.015843322446244 -71.352563865744287 0 0 0 0 133.3687056265926 59.056106419043829 0 59.056106419043829 -36.091402494932481 0 0 0 0 244.53017851279992 -47.477973455094855 0 -47.477973455094855 -19.909300556049857 0 0 0 0 118.3665311442237 -41.202253353731066 0 -41.202253353731066 31.550210726657042 0 0 0 0 75.818269639699523 34.846196973741797 0 34.846196973741797 -12.213858943159 0 0 0 0 110.72526845894026 -21.791670637793686 0 -21.791670637793686 24.447779966552663 0 0 0 0 15.925296853241889 101.85897592029229 0 101.85897592029229 1.1156362073924946 0 0 0 0 75.706281112239594 43.866107585026612 0 43.866107585026612 -49.700433495441132 0 0 0 0 326.80304398301814 -7.1608956238051178 0 -7.1608956238051178 -24.429489806542279 0 0 0 0 74.120577325399196 32.546175143082444 0 32.546175143082444 -13.247663390311923 0 0 0 0 170.91855192999355 194.60170714730339 0 194.60170714730339 471.27354435934103 0 0 0 0 -15.76352167458208 -7.3392647862442573 0 -7.3392647862442573 -4.1800432708187145 0 0 0 0 334.41622650688214 84.09547811968946 0 84.09547811968946 6.9954335575002915 0 0 0 0 53.057890185358701 8.4996739491489279 0 8.4996739491489279 10.92742475221894 0 0 0 0 -1.5073384735101882 -2.8393863623691757 0 -2.8393863623691757 7.684518588028622 0 0 0 0 -3.1776429746896611 -37.254228655672648 0 -37.254228655672648 28.565562346211571 0 0 0 0 11.738515598039129 -14.579063974642764 0 -14.579063974642764 5.6134918030332059 0 0 0 0 227.14935502132039 64.622814303028321 0 64.622814303028321 52.212030427822356 0 0 0 0 56.517779580815841 38.547889131926695 0 38.547889131926695 75.354841980683887 0 0 0 0 11.83623525954242 -12.126361892136089 0 -12.126361892136089 1.1770319383298631 0 0 0 0 4.7083351960558346 -2.0300139453414943 0 -2.0300139453414943 1.069630106571001 0 0 0 0 233.13288165396079 44.683570516202963 0 44.683570516202963 40.961098434754604 0 0 0 0 170.82637387939667 26.066715930912835 0 26.066715930912835 55.561298671766053 0 0 0 0 1.6384019297051395 -8.4150508679530347 0 -8.4150508679530347 5.0508541555454336 0 0 0 0 24.311172119705589 -8.2151432135061668 0 -8.2151432135061668 4.4567855664538456 0 0 0 0 27.627912368292527 -9.5446745194085452 0 -9.5446745194085452 12.348307758575629 0 0 0 0 23.49966105234671 -12.59789944605302 0 -12.59789944605302 11.699820822669608 0 0 0 0 6.9194326611230537 -9.390738330081696 0 -9.390738330081696 9.0259575976333579 0 0 0 0 14.74699899450934 -22.431133310559972 0 -22.431133310559972 11.61268570449505 0 0 0 0 36.005006658169805 -19.183500204267091 0 -19.183500204267091 13.24759210839261 0 0 0 0 2.5473998009838397 -2.7690140715444613 0 -2.7690140715444613 4.7173834121931577 0 0 0 0 23.075768702226924 -8.9567358360892513 0 -8.9567358360892513 14.894884089782636 0 0 0 0 56.789143076938686 -19.386821178407494 0 -19.386821178407494 12.78730041248809 0 0 0 0 257.38322288399468 -41.533083326560245 0 -41.533083326560245 -51.787381570305115 0 0 0 0 285.80316443497941 -111.27603345650596 0 -111.27603345650596 17.324529723315209 0 0 0 0 632.40239801038842 -0.26290603248389743 0 -0.26290603248389743 -88.236457387842165 0 0 0 0 424.90759554279794 18.035239825955159 0 18.035239825955159 -55.987215530142294 0 0 0 0 402.07172710810539 -3.0052998806894209 0 -3.0052998806894209 -69.140439376644281 0 0 0 0 299.55249258505501 12.002542005016039 0 12.002542005016039 -36.43792265718821 0 0 0 0 300.68941656692732 3.3320704290067624 0 3.3320704290067624 -27.084425578105765 0 0 0 0 1.730172304788093 -12.211257682135567 0 -12.211257682135567 11.330938392282548 0 0 0 0 155.05710153436485 -51.731976485177483 0 -51.731976485177483 11.361180275535844 0 0 0 0 19.706340013437512 -11.390910025620542 0 -11.390910025620542 14.824285573861971 0 0 0 0 1.4495243895017307 -11.758698369713592 0 -11.758698369713592 7.6157803690318868 0 0 0 0 185.96088347162731 17.038447352520507 0 17.038447352520507 -0.4149384794686739 0 0 0 0 23.2913348687498 -8.1640920828931343 0 -8.1640920828931343 2.4383048785239225 0 0 0 0 334.84398447248145 21.855128170405248 0 21.855128170405248 -41.64384453657749 0 0 0 0 312.23229579708641 5.4435901859490059 0 5.4435901859490059 -21.200270484310749 0 0 0 0 308.28915924326088 82.793762171358082 0 82.793762171358082 -8.0793575905709076 0 0 0 0 298.31183391525428 92.245899560708722 0 92.245899560708722 22.176495996871381 0 0 0 0 303.22703116716025 46.746693872670008 0 46.746693872670008 47.763287477166159 0 0 0 0 18.77401461039517 -11.071004035941314 0 -11.071004035941314 7.7311910259413708 0 0 0 0 52.604323686526186 3.1086278627868751 0 3.1086278627868751 32.703537350239458 0 0 0 0 11.349277476125607 -11.156221610672652 0 -11.156221610672652 3.8837689874118357 0 0 0 0 -8.4640120573948181 -9.9645302733706345 0 -9.9645302733706345 2.4484571633876628 0 0 0 0 90.612887519244396 25.370957226535438 0 25.370957226535438 24.358297924791941 0 0 0 0 8.2392357035113264 -13.136541616998571 0 -13.136541616998571 3.6226870450228219 0 0 0 0 -2.5553627339249942 -19.605453545860996 0 -19.605453545860996 5.8046469504970446 0 0 0 0 86.638039387049503 28.064176161834894 0 28.064176161834894 23.202536087201452 0 0 0 0 10.765043503068377 -8.1065147309930836 0 -8.1065147309930836 3.6283103211082612 0 0 0 0 -4.5426933457929408 -6.5634556990455053 0 -6.5634556990455053 0.7348588705116299 0 0 0 0 89.305533391852805 6.3284480231325233 0 6.3284480231325233 7.9170088073406077 0 0 0 0 112.487130869471 -15.636873517651111 0 -15.636873517651111 4.9275503518615551 0 0 0 0 105.93057699832389 16.111727703317172 0 16.111727703317172 12.929083425961835 0 0 0 0 103.22698536543612 39.943762105156225 0 39.943762105156225 19.900439057531457 0 0 0 0 129.10511831332406 12.721135819881511 0 12.721135819881511 13.038507003298946 0 0 0 0 127.62371939228979 13.654910601900724 0 13.654910601900724 17.297091654319956 0 0 0 0 153.09203754764894 0.37315864400738974 0 0.37315864400738974 23.614131624427955 0 0 0 0 148.59933442294505 38.094573322688589 0 38.094573322688589 18.434534157961934 0 0 0 0 18.782759126948804 -9.9507655063138145 0 -9.9507655063138145 10.766044656860174 0 0 0 0 2.8459066371916286 -11.491992580564251 0 -11.491992580564251 4.6817475186034452 0 0 0 0 11.253124230497633 -14.797989443120514 0 -14.797989443120514 4.8264346480618769 0 0 0 0 1.9399924855388235 -13.105686294068221 0 -13.105686294068221 4.374089193519012 0 0 0 0 21.747265193733256 -2.7856788782831927 0 -2.7856788782831927 -1.3515858203877542 0 0 0 0 11.165912381429941 -9.0261057887008533 0 -9.0261057887008533 4.9871474166723688 0 0 0 0 2918.9126108000783 333.23730964740241 0 333.23730964740241 -489.56660520065418 0 0 0 0 3228.7588485448869 37.180179546091637 0 37.180179546091637 -457.48925486042111 0 0 0 0 3500.040547116063 143.21243356327651 0 143.21243356327651 -720.32939339594952 0 0 0 0 1368.0487692438764 346.19550063275102 0 346.19550063275102 -59.637150649178963 0 0 0 0 2751.0270670167574 1239.2529970525832 0 1239.2529970525832 -526.22420347097659 0 0 0 0 966.57313970814539 -70.224925343836674 0 -70.224925343836674 32.522461463528543 0 0 0 0 1497.2255080188515 435.64975832649424 0 435.64975832649424 -37.49940356392645 0 0 0 0 2169.5227326373142 -53.505801997321981 0 -53.505801997321981 -372.34845392134389 0 0 0 0 824.4797546900154 -32.612005557974044 0 -32.612005557974044 79.790613476855981 0 0 0 0 1123.0004549286743 176.39886782181389 0 176.39886782181389 -100.97273280610182 0 0 0 0 1218.4276601577349 -422.76587882317028 0 -422.76587882317028 -111.98130885641837 0 0 0 0 2828.2486485188292 -84.282087110818168 0 -84.282087110818168 -390.17524636739921 0 0 0 0 2828.9286401609825 -43.678127150387184 0 -43.678127150387184 -693.27579652206362 0 0 0 0 3554.8724923484951 -59.746265872642809 0 -59.746265872642809 -798.62066632900724 0 0 0 0 3499.7638082940084 -165.80273590851988 0 -165.80273590851988 -306.78670677458842 0 0 0 0 3220.9825649631803 100.5122227977574 0 100.5122227977574 285.19515187350731 0 0 0 0 3281.4878337354694 150.69638818734336 0 150.69638818734336 -173.44628507817032 0 0 0 0 2974.5088677205858 -723.42056590402444 0 -723.42056590402444 -475.26566024177981 0 0 0 0 16.992620409475947 -7.3494433209590024 0 -7.3494433209590024 1.1888269911945624 0 0 0 0 5305.3140048451696 1697.8516153634039 0 1697.8516153634039 452.46325097735769 0 0 0 0 4743.7081069097312 -446.3203784161625 0 -446.3203784161625 455.60323369449685 0 0 0 0 3500.3024461502728 329.13605787414781 0 329.13605787414781 465.85139564192986 0 0 0 0 3794.1304009993937 30.683198854841947 0 30.683198854841947 95.481202972643871 0 0 0 0 2501.6272724021487 1399.2278016394005 0 1399.2278016394005 577.86731067067365 0 0 0 0 3500.2190118247777 496.78373476236658 0 496.78373476236658 -384.67188589572635 0 0 0 0 745.72852453349788 461.18220160502187 0 461.18220160502187 163.33667357378647 0 0 0 0 1888.4752102134812 371.21378806721901 0 371.21378806721901 82.672286467826098 0 0 0 0 37.321520624294926 -20.682544972129776 0 -20.682544972129776 3.9907426485457753 0 0 0 0 90.181615742149006 -116.09376641925726 0 -116.09376641925726 -642.48405861231936 0 0 0 0 379.00666721945072 481.64492172228148 0 481.64492172228148 -558.29852462114582 0 0 0 0 831.89915002710586 42.674071225126596 0 42.674071225126596 -612.66677072961102 0 0 0 0 -17.318230854662943 -993.24869482695283 0 -993.24869482695283 -364.18061275503169 0 0 0 0 769.06694829260596 -84.793767870706461 0 -84.793767870706461 -291.98660263875036 0 0 0 0 990.4490624338323 126.35450714730177 0 126.35450714730177 -454.55013656941628 0 0 0 0 654.16634336460083 269.21379512515898 0 269.21379512515898 -221.19427382740395 0 0 0 0 1603.7864438451825 -131.00289104349207 0 -131.00289104349207 -346.56254882888538 0 0 0 0 -279.94405027198627 397.73567465621522 0 397.73567465621522 -337.9160571708187 0 0 0 0 1.220637854280282 3.3472874763523137 0 3.3472874763523137 -6.7694558671391114 0 0 0 0 132.19235738374391 57.827524481849252 0 57.827524481849252 -64.721131356321621 0 0 0 0 1948.0411985885912 30.516996211874812 0 30.516996211874812 6.0253770652755918 0 0 0 0 1880.0546507281185 -477.77671741618201 0 -477.77671741618201 -39.714871689750453 0 0 0 0 2390.7192322755418 -110.28831816153695 0 -110.28831816153695 -245.16903985773206 0 0 0 0 1457.6294814496978 -226.37466895289253 0 -226.37466895289253 14.756125177034846 0 0 0 0 1537.3044753041177 -362.46222806236506 0 -362.46222806236506 83.046973100364085 0 0 0 0 1980.8185623870077 -120.58702524967003 0 -120.58702524967003 -31.299606001950451 0 0 0 0 2068.2076109874179 -381.34965763294076 0 -381.34965763294076 -73.879143160007203 0 0 0 0 10.42364947685361 8.3699209873379594 0 8.3699209873379594 -15.026696105430887 0 0 0 0 91.342291879778713 -5.7786824294782377 0 -5.7786824294782377 -117.35543549067245 0 0 0 0 2475.9932591191937 -351.33580753590559 0 -351.33580753590559 -176.21247509810109 0 0 0 0 649.92376368098485 -236.47243502530318 0 -236.47243502530318 -86.161156422498607 0 0 0 0 768.90588665193354 -364.17520279358359 0 -364.17520279358359 45.724616003624874 0 0 0 0 412.67079068537123 -145.14538693376639 0 -145.14538693376639 -235.76986638554627 0 0 0 0 422.83612258917856 -249.23225047438382 0 -249.23225047438382 42.759531081380828 0 0 0 0 195.21228106591798 -19.064656450810219 0 -19.064656450810219 -0.035954850771304336 0 0 0 0 477.9187051418121 -216.65362820203291 0 -216.65362820203291 87.336774852817371 0 0 0 0 664.24868047920063 -315.36499905343112 0 -315.36499905343112 25.535791150951809 0 0 0 0 558.12003581289173 -101.70982169944341 0 -101.70982169944341 64.90417325625549 0 0 0 0 823.64609618069517 -256.23735708765071 0 -256.23735708765071 83.535573403613171 0 0 0 0 1189.6265828775686 -267.32107699883818 0 -267.32107699883818 15.217701949909497 0 0 0 0 833.80177052388353 -222.10637338263348 0 -222.10637338263348 136.21031033652162 0 0 0 0 1527.6494618668489 -320.44749435080985 0 -320.44749435080985 -12.376849154314186 0 0 0 0 1176.8934271423568 -228.16815990333635 0 -228.16815990333635 67.449873041529827 0 0 0 0 1412.7529720825096 -363.45984147493493 0 -363.45984147493493 40.638786325395813 0 0 0 0 1284.5837987509185 -231.45515649924118 0 -231.45515649924118 15.798228253189336 0 0 0 0 845.52998839053907 -203.05468677158683 0 -203.05468677158683 50.747161310212505 0 0 0 0 885.47919781743985 -278.25589774563969 0 -278.25589774563969 87.018865316463234 0 0 0 0 978.43097894648599 -210.95183712954395 0 -210.95183712954395 98.929287074159674 0 0 0 0 966.61543355551657 -427.15128307633245 0 -427.15128307633245 88.06999380558986 0 0 0 0 877.06703809989267 -272.53041047589852 0 -272.53041047589852 -47.905253305158112 0 0 0 0 685.76029332955295 -254.35932931928392 0 -254.35932931928392 3.0633586861295043 0 0 0 0 482.42914216452118 -293.1338707113573 0 -293.1338707113573 71.94499841638094 0 0 0 0 875.53672749707039 -234.56337104844465 0 -234.56337104844465 -53.509349227892869 0 0 0 0 699.6043359848361 -214.18097471514619 0 -214.18097471514619 -45.280492337208671 0 0 0 0 1137.9030679702782 -124.67542002466081 0 -124.67542002466081 -205.50594559615365 0 0 0 0 832.56716083333754 -77.484497469590366 0 -77.484497469590366 -47.070313012475026 0 0 0 0 718.12851528837291 -121.21963961527052 0 -121.21963961527052 -62.805379384670005 0 0 0 0 858.86816133949469 26.440753239439118 0 26.440753239439118 -287.34204888153624 0 0 0 0 769.91766927573883 64.732112700106541 0 64.732112700106541 -89.982334557520062 0 0 0 0 771.37852674702094 80.267958503134878 0 80.267958503134878 -150.58993850893557 0 0 0 0 767.74579860647464 44.370619926420943 0 44.370619926420943 -197.63797363131249 0 0 0 0 764.59389511747759 107.00053644858974 0 107.00053644858974 -177.64824740853453 0 0 0 0 768.61190684600683 136.66524023767772 0 136.66524023767772 -84.662267459655936 0 0 0 0 732.02377309266194 85.071993547537943 0 85.071993547537943 58.560792439088118 0 0 0 0 740.03661906018715 47.308628015529621 0 47.308628015529621 -91.797751041435617 0 0 0 0 876.22252488591403 42.414735791651196 0 42.414735791651196 17.812416976837312 0 0 0 0 556.15326885079412 -13.914541868727838 0 -13.914541868727838 116.43030132376248 0 0 0 0 679.290425202591 -194.81142374823861 0 -194.81142374823861 -137.43057284745495 0 0 0 0 853.02287109639292 232.21525764536344 0 232.21525764536344 -341.29243449374758 0 0 0 0 975.10825521616607 -104.25309910434873 0 -104.25309910434873 -118.67339789625618 0 0 0 0 288.52295440907437 302.31944101388967 0 302.31944101388967 -130.79262840805882 0 0 0 0 293.24847255638088 180.42412557250145 0 180.42412557250145 -160.89304745315889 0 0 0 0 638.65320673000861 42.562624813364266 0 42.562624813364266 -159.59446173423981 0 0 0 0 1344.8460005602574 320.37932012704812 0 320.37932012704812 -50.437384277290917 0 0 0 0 521.64899253756744 581.04146429437174 0 581.04146429437174 201.80995961527572 0 0 0 0 46.997621019001599 158.4912006884868 0 158.4912006884868 184.2164454358248 0 0 0 0 266.69596230010575 301.62298851172272 0 301.62298851172272 38.355629378517506 0 0 0 0 19.583561315119368 64.347915650264952 0 64.347915650264952 25.419346207719855 0 0 0 0 72.399838674171406 124.18609305418707 0 124.18609305418707 66.444455306528255 0 0 0 0 130.92985575685452 143.20931474384662 0 143.20931474384662 -4.8238709698607636 0 0 0 0 151.40284469674134 112.85565442270797 0 112.85565442270797 7.5522850694806039 0 0 0 0 282.50391419430343 201.59086429512968 0 201.59086429512968 -27.391300008541521 0 0 0 0 223.11371551033335 166.79902904949631 0 166.79902904949631 -5.0632577919639061 0 0 0 0 378.801027715278 306.23401083934073 0 306.23401083934073 9.3633221607151427 0 0 0 0 117.26643701836838 68.500325978751107 0 68.500325978751107 18.610446462505024 0 0 0 0 236.75455188820615 194.80020848242987 0 194.80020848242987 -134.65743415614679 0 0 0 0 634.36232554147682 -49.425517750644985 0 -49.425517750644985 -180.26216577253763 0 0 0 0 133.0850640986846 90.570921563891829 0 90.570921563891829 94.468699247957829 0 0 0 0 652.57697006365925 6.4679019873838115 0 6.4679019873838115 -83.854389128425055 0 0 0 0 312.49986698553766 246.34938144671708 0 246.34938144671708 -143.19547005840127 0 0 0 0 0.66988974041903049 -0.6137737121647362 0 -0.6137737121647362 -3.4914428272563978 0 0 0 0 1.2770726658905165 -0.58119739173427121 0 -0.58119739173427121 -8.8465157471714573 0 0 0 0 690.88857468634524 20.627013260368471 0 20.627013260368471 -114.53273533653817 0 0 0 0 132.81608931166011 184.39637404270024 0 184.39637404270024 184.58648784105071 0 0 0 0 73.808808888213207 14.367759757121576 0 14.367759757121576 -279.38639962060461 0 0 0 0 11.403799142682839 7.0186558073511129 0 7.0186558073511129 -6.2376736499826517 0 0 0 0 -323.94453161860838 307.84808434773595 0 307.84808434773595 -216.18988097435704 0 0 0 0 -265.9732147145096 401.23641814918517 0 401.23641814918517 -74.451688032470884 0 0 0 0 18.919503923629236 -114.76703569259735 0 -114.76703569259735 -236.02431980212168 0 0 0 0 673.34083140891926 -134.73515941435346 0 -134.73515941435346 -28.264464796905031 0 0 0 0 1.2328518661845269 -0.32434001619227715 0 -0.32434001619227715 -9.6045552333877762 0 0 0 0 577.08581826229783 -73.133281187611146 0 -73.133281187611146 -304.97169545389988 0 0 0 0 -29.126574238391186 -155.30789839279259 0 -155.30789839279259 327.7144352616906 0 0 0 0 708.65762479271461 -134.51408633778533 0 -134.51408633778533 -50.912186683293839 0 0 0 0 142.53404119725565 278.62951283996563 0 278.62951283996563 -175.89938364100226 0 0 0 0 278.21060976269109 -205.87014872118141 0 -205.87014872118141 55.442124265988241 0 0 0 0 454.46997364225194 -84.595870565321249 0 -84.595870565321249 33.449960672667203 0 0 0 0 0.57824105932552605 0.56997994288656528 0 0.56997994288656528 -4.4319520567218449 0 0 0 0 78.329862294151098 296.02527186981479 0 296.02527186981479 -123.50349945815651 0 0 0 0 45.27504456490351 304.03246017663378 0 304.03246017663378 -125.40597334928316 0 0 0 0 80.510192280260526 349.23674153586126 0 349.23674153586126 -177.6132410310347 0 0 0 0 -27.058092074992601 180.17444135968049 0 180.17444135968049 -48.166622971198194 0 0 0 0 -955.96623327786801 240.69407681536813 0 240.69407681536813 41.831999364496369 0 0 0 0 5.6407994514526152 5.8197128211170792 0 5.8197128211170792 4.2575349674284642 0 0 0 0 -31.197270844022569 438.2657036989267 0 438.2657036989267 -231.8413334550587 0 0 0 0 -284.27649072608619 517.22863922834949 0 517.22863922834949 -242.81746924865345 0 0 0 0 -377.04423204701015 157.82748528942011 0 157.82748528942011 51.142347860656628 0 0 0 0 60.657355775985877 101.84904724812907 0 101.84904724812907 -74.043083020264021 0 0 0 0 42.134280986849404 188.15055871993445 0 188.15055871993445 -122.62863758355525 0 0 0 0 25.745107845325862 44.243793341152582 0 44.243793341152582 59.190785897406968 0 0 0 0 16.5101230366854 249.99945213595765 0 249.99945213595765 -128.44113573314826 0 0 0 0 -322.70431151657976 -62.280660256786632 0 -62.280660256786632 43.058136168859619 0 0 0 0 164.09514763991092 207.42254911205978 0 207.42254911205978 -252.54792459345936 0 0 0 0 18.708202375477413 180.72751333378164 0 180.72751333378164 -159.06860688389315 0 0 0 0 81.522245018226386 216.10193211732621 0 216.10193211732621 -155.22846993058374 0 0 0 0 103.585689430809 89.747267900167571 0 89.747267900167571 9.2102764668088639 0 0 0 0 112.4690571013216 106.7069344195188 0 106.7069344195188 26.465661313165583 0 0 0 0 31.996557826197265 16.630709228493807 0 16.630709228493807 -54.181603361530449 0 0 0 0 111.26659224897776 58.828376353342264 0 58.828376353342264 -37.669208641083969 0 0 0 0 95.405763045440835 133.20280318527739 0 133.20280318527739 119.90157492296748 0 0 0 0 96.650995074696766 144.69349904953651 0 144.69349904953651 -7.1972322911751689 0 0 0 0 209.631875975517 360.10349332153476 0 360.10349332153476 -340.15695829487231 0 0 0 0 263.34302783357816 7.3131492808179246 0 7.3131492808179246 14.060558750718883 0 0 0 0 206.33560219191077 130.93731603613446 0 130.93731603613446 -103.46696773406529 0 0 0 0 269.5583132232332 21.584806885437956 0 21.584806885437956 -35.763301457176397 0 0 0 0 0.20692510106137973 0.889924811298755 0 0.889924811298755 1.6675423479612004 0 0 0 0 -517.29566631530361 448.87977942607677 0 448.87977942607677 20.447870649317338 0 0 0 0 853.3045224408861 -207.00990700276429 0 -207.00990700276429 -176.43086420107466 0 0 0 0 12.313468905440459 3.3631607679026274 0 3.3631607679026274 -79.334324585445302 0 0 0 0 -100.24430152363311 291.29415792624309 0 291.29415792624309 -81.076673436914916 0 0 0 0 -4.8730643855706148 229.32851752961983 0 229.32851752961983 117.55226668198043 0 0 0 0 -15.244066270392068 296.21071320663691 0 296.21071320663691 -208.55617239053527 0 0 0 0 -0.2128930573797696 0.31888786655046664 0 0.31888786655046664 -2.7034931548787853 0 0 0 0 71.955945900832333 26.928882773716513 0 26.928882773716513 1.4355601083950109 0 0 0 0 36.906453702612453 31.245767120244182 0 31.245767120244182 -41.903137662267909 0 0 0 0 86.153495133587057 87.932205358187275 0 87.932205358187275 -1.1443721180394277 0 0 0 0 -178.48284680858706 242.00158289057708 0 242.00158289057708 -208.4005875775174 0 0 0 0 55.490520596940769 125.53746470387341 0 125.53746470387341 174.21914080627909 0 0 0 0 -0.70962517240244694 9.7215391092105072 0 9.7215391092105072 8.6509100499171296 0 0 0 0 83.568855641600749 -10.798144366285669 0 -10.798144366285669 -175.17147246458671 0 0 0 0 12.278616898601889 8.6941223535622925 0 8.6941223535622925 2.0837955630753946 0 0 0 0 41.842521436006791 87.349023698460087 0 87.349023698460087 110.3326861693281 0 0 0 0 89.690886999852864 110.02254624649652 0 110.02254624649652 35.621551403626199 0 0 0 0 -19.499341427210446 33.433236963885129 0 33.433236963885129 38.660724228118966 0 0 0 0 92.740789513996788 84.918979560909975 0 84.918979560909975 -0.18082747529297194 0 0 0 0 71.717389501875004 86.217242537200946 0 86.217242537200946 5.3684599626758427 0 0 0 0 87.306741896855783 78.160574996781861 0 78.160574996781861 9.3513563734177296 0 0 0 0 -18.095931244972959 32.966469424793523 0 32.966469424793523 41.574436138801623 0 0 0 0 90.840749135984879 122.16596911739543 0 122.16596911739543 61.510305574122867 0 0 0 0 105.40714913162219 74.735137046279533 0 74.735137046279533 26.35998677193038 0 0 0 0 4.5550859035583926 60.242199778583881 0 60.242199778583881 113.14610154161892 0 0 0 0 102.9354580029667 82.586203411806764 0 82.586203411806764 42.220611153943196 0 0 0 0 90.124919401989246 8.6583862672696341 0 8.6583862672696341 96.231997277132706 0 0 0 0 212.72538950254329 51.952752115937074 0 51.952752115937074 -73.591554507662295 0 0 0 0 161.86448360675422 176.02432250620768 0 176.02432250620768 88.126082120837054 0 0 0 0 105.09739168574879 90.364614059272299 0 90.364614059272299 -30.601423832124055 0 0 0 0 60.696719280300385 44.191315946203758 0 44.191315946203758 -16.180257715077687 0 0 0 0 104.39975709468217 45.230397507041744 0 45.230397507041744 -110.70627345373396 0 0 0 0 41.043904032769206 30.806645208308964 0 30.806645208308964 -26.732565233644436 0 0 0 0 61.568860243437925 21.721646930627365 0 21.721646930627365 -0.39172738684895503 0 0 0 0 8.7060547103279458 10.217154925933865 0 10.217154925933865 4.2704671304631283 0 0 0 0 132.10672870416056 87.247918840308557 0 87.247918840308557 14.686487406370304 0 0 0 0 69.910544012158425 -11.843054358794689 0 -11.843054358794689 9.9450815446689376 0 0 0 0 41.046708619325955 52.385696082470304 0 52.385696082470304 -182.15459144320039 0 0 0 0 43.219559312733509 43.979151170831983 0 43.979151170831983 21.20023777718643 0 0 0 0 17.89931966414315 18.475167319541924 0 18.475167319541924 6.45552422613423 0 0 0 0 5.5943116042958536 87.67464153783385 0 87.67464153783385 -73.709883994454685 0 0 0 0 -64.618907594425764 64.304980939800316 0 64.304980939800316 15.540517742547991 0 0 0 0 -80.882547421738309 144.87922431355878 0 144.87922431355878 -17.323709083559606 0 0 0 0 -9.882754865514471 115.74591196835581 0 115.74591196835581 -6.3241389066806732 0 0 0 0 -33.097151139568041 183.63829211186686 0 183.63829211186686 -144.86554820276615 0 0 0 0 -52.089225106366939 77.820639471653067 0 77.820639471653067 -14.067155446246034 0 0 0 0 61.107063964589543 87.796548427780181 0 87.796548427780181 -5.5400682004651145 0 0 0 0 51.622871016088993 154.17017058451734 0 154.17017058451734 -4.0879722024560579 0 0 0 0 -69.352154992946453 152.86589662946449 0 152.86589662946449 -11.726311755081845 0 0 0 0 -95.556054273542031 201.38328925803285 0 201.38328925803285 -12.191084050694371 0 0 0 0 -2.3572159344427632 158.33005452938468 0 158.33005452938468 -53.050694741542202 0 0 0 0 14.897807638082668 118.07180091046303 0 118.07180091046303 -34.748256161069094 0 0 0 0 -6.9365039087116429 120.59515906085085 0 120.59515906085085 12.43590868032652 0 0 0 0 45.319879796888927 77.334244328828618 0 77.334244328828618 -25.756433228764251 0 0 0 0 50.720528359646778 106.57623546535274 0 106.57623546535274 50.813808285874245 0 0 0 0 39.624981585044225 40.705323585785891 0 40.705323585785891 -21.960252076067093 0 0 0 0 59.383830370203214 98.927963317939685 0 98.927963317939685 -79.159171406589067 0 0 0 0 41.594334926352531 66.268310694404462 0 66.268310694404462 -2.2041166510722263 0 0 0 0 51.898196233776616 94.518984541269418 0 94.518984541269418 -52.0450929098335 0 0 0 0 105.86186102775173 122.71099574263678 0 122.71099574263678 -118.57575385169207 0 0 0 0 -28.701597305675023 202.86078381697575 0 202.86078381697575 -118.82239384931574 0 0 0 0 -41.940821828406115 184.91937410484229 0 184.91937410484229 -88.022392778508788 0 0 0 0 -119.68082116628375 181.74977043174204 0 181.74977043174204 -102.65432185627765 0 0 0 0 3.7308795615390409 233.29043836374376 0 233.29043836374376 -169.64735143688981 0 0 0 0 -0.42564814708819299 2.5655377812744877 0 2.5655377812744877 -6.2816756193969647 0 0 0 0 -811.40774274279647 93.553305839341903 0 93.553305839341903 52.527320770823721 0 0 0 0 -513.57460622447479 639.11707943922329 0 639.11707943922329 -174.34892435477758 0 0 0 0 -168.99692672827405 18.346841432874044 0 18.346841432874044 1.7569913207018999 0 0 0 0 -72.961302717899343 157.81396681564638 0 157.81396681564638 -4.6818458994418961 0 0 0 0 -233.55621940262631 213.30529003348502 0 213.30529003348502 -23.564478622962042 0 0 0 0 16.728559108101763 3.4263133037328259 0 3.4263133037328259 -4.2065146042285733 0 0 0 0 20.033957895473577 10.818581912501031 0 10.818581912501031 12.386027857755835 0 0 0 0 104.00577069625251 60.790003390022548 0 60.790003390022548 233.4986925335744 0 0 0 0 17.445340774628555 1.9597526177782001 0 1.9597526177782001 -4.5616408787810538 0 0 0 0 24.490029441419438 12.684118328775511 0 12.684118328775511 6.7265207645141345 0 0 0 0 24.547038089066014 0.60029667612337079 0 0.60029667612337079 -3.9399847665590126 0 0 0 0 25.108953475653834 11.576124126038849 0 11.576124126038849 8.4266896781255127 0 0 0 0 25.79114166625277 1.992087412402201 0 1.992087412402201 -9.7774608287560056 0 0 0 0 24.008959364553448 -7.0554976729472401 0 -7.0554976729472401 -19.447442130514901 0 0 0 0 19.784335426651111 -3.5949000119462635 0 -3.5949000119462635 -1.128164021889132 0 0 0 0 28.448127483447024 -7.770670712363426 0 -7.770670712363426 -21.424574235628825 0 0 0 0 24.601811223970955 -0.5444602295802099 0 -0.5444602295802099 -12.231943919298123 0 0 0 0 26.920590105859446 -6.342006037792089 0 -6.342006037792089 -19.574908511035574 0 0 0 0 27.799867622174133 -5.5709649535926928 0 -5.5709649535926928 -23.288953794701229 0 0 0 0 27.83438138032691 13.2296645227947 0 13.2296645227947 14.274793309683433 0 0 0 0 -339.15489975238961 490.02053011143886 0 490.02053011143886 8.5680557405994477 0 0 0 0 3.6048190414605239 1.4273764294478255 0 1.4273764294478255 1.1489747828580024 0 0 0 0 110.3942327515615 97.493438559623314 0 97.493438559623314 13.91315962438216 0 0 0 0 10.032428653289273 1.9936582100604614 0 1.9936582100604614 -1.6972691836128133 0 0 0 0 551.10708844079591 -392.219309661186 0 -392.219309661186 579.01357323772254 0 0 0 0 34.888881029146432 -0.94233175849080908 0 -0.94233175849080908 -22.580193642401355 0 0 0 0 65.185735127302905 56.622518054958164 0 56.622518054958164 68.165258162593091 0 0 0 0 34.142962158186073 -1.778379984978212 0 -1.778379984978212 -15.804390941101662 0 0 0 0 398.25490154109502 604.49088029733298 0 604.49088029733298 -600.36891484162663 0 0 0 0 741.40251505101332 300.56080786141803 0 300.56080786141803 -599.37113428452699 0 0 0 0 224.66665131238551 50.61426460067878 0 50.61426460067878 -193.19077511674374 0 0 0 0 68.359080092745899 154.38985800584334 0 154.38985800584334 -121.53632601397999 0 0 0 0 604.07224498136839 -226.08638983413772 0 -226.08638983413772 -27.552198976205318 0 0 0 0 74.750812178663182 18.075564970348978 0 18.075564970348978 504.0625442104166 0 0 0 0 189.17400548222213 347.22586693597395 0 347.22586693597395 215.6729225723297 0 0 0 0 84.632483920431696 128.75239531007503 0 128.75239531007503 174.74266729060582 0 0 0 0 93.060214428975087 120.28092403473607 0 120.28092403473607 99.194083371716943 0 0 0 0 69.978295446713673 79.673544024105922 0 79.673544024105922 110.05317127549165 0 0 0 0 110.41898514070999 52.20491995464613 0 52.20491995464613 -52.064658534182747 0 0 0 0 102.97283158485516 92.027809566421979 0 92.027809566421979 33.062981839162831 0 0 0 0 84.974162969694135 23.88304777538707 0 23.88304777538707 -29.145817661019464 0 0 0 0 147.60058207161092 131.70577493980886 0 131.70577493980886 13.917238592329113 0 0 0 0 128.3733094984218 105.40940795687334 0 105.40940795687334 18.303209753375086 0 0 0 0 -26.574340280356409 -11.617044989548219 0 -11.617044989548219 -2.4596117309458236 0 0 0 0 41.663823157066872 50.709965785784433 0 50.709965785784433 21.202395517792525 0 0 0 0 -15.405832798473057 92.605909007272544 0 92.605909007272544 616.8656339770248 0 0 0 0 93.815943475818131 38.7347890010426 0 38.7347890010426 -131.02144644405462 0 0 0 0 2.5716651653475324 3.3304994810798547 0 3.3304994810798547 1.1701609067281584 0 0 0 0 106.29849909595578 -46.08249210655913 0 -46.08249210655913 549.70428109573822 0 0 0 0 107.16179506440113 326.19860159776164 0 326.19860159776164 399.50563464646189 0 0 0 0 101.87868613473256 221.2386501859105 0 221.2386501859105 223.64109372747475 0 0 0 0 151.73580028350625 194.71033877046716 0 194.71033877046716 140.18339222470968 0 0 0 0 26.485996270214429 3.6213384645524145 0 3.6213384645524145 -2.3588936783332364 0 0 0 0 41.187947346781584 3.6100356830536384 0 3.6100356830536384 -69.507028517755543 0 0 0 0 42.421330339668202 2.7343305243530267 0 2.7343305243530267 -81.02227947520214 0 0 0 0 44.926641025340359 6.8683289296117209 0 6.8683289296117209 -76.309944621578779 0 0 0 0 39.608432846325741 9.7770623984922622 0 9.7770623984922622 -64.771889350083256 0 0 0 0 39.181776440193062 -1.6765252928253176 0 -1.6765252928253176 -80.909060366499034 0 0 0 0 21.615819006277754 -8.8354981321772907 0 -8.8354981321772907 -1.2002511115322536 0 0 0 0 52.099430131238478 -16.201892658786733 0 -16.201892658786733 -136.72858484063522 0 0 0 0 12.096643430071552 7.993602886080156 0 7.993602886080156 -2.1017861173012906 0 0 0 0 62.026522561624006 22.859666611806688 0 22.859666611806688 -74.124288881196435 0 0 0 0 53.264722464527154 28.365395009680569 0 28.365395009680569 -53.176965799259051 0 0 0 0 54.029454128627549 6.5405404944635848 0 6.5405404944635848 -79.866753235946135 0 0 0 0 53.291854138115013 23.906209644531032 0 23.906209644531032 -73.77496874877852 0 0 0 0 67.052601369414333 25.663887901286557 0 25.663887901286557 -73.952801880922379 0 0 0 0 43.873777007692247 6.9333088246358354 0 6.9333088246358354 -0.8041040351654819 0 0 0 0 63.678127324033994 -10.008036595030603 0 -10.008036595030603 -18.312653068441705 0 0 0 0 45.899557398903198 -38.374144607009526 0 -38.374144607009526 89.847937652190353 0 0 0 0 89.480534895581513 -25.851616287558159 0 -25.851616287558159 -17.303933702044588 0 0 0 0 42.419412599643692 21.448648796309726 0 21.448648796309726 -40.584533783694724 0 0 0 0 95.145798682729946 -11.1063551941794 0 -11.1063551941794 -33.093003082095009 0 0 0 0 71.465443674005655 -8.9505114351151178 0 -8.9505114351151178 22.317797565893784 0 0 0 0 65.033441475097788 38.568419804109453 0 38.568419804109453 -40.328616161887794 0 0 0 0 -2.6477176995031186 15.08636548875927 0 15.08636548875927 -12.48982941857787 0 0 0 0 35.972600841985695 29.374258021689855 0 29.374258021689855 -39.38903507328564 0 0 0 0 29.581256149371256 36.020302901543744 0 36.020302901543744 -33.718547127676857 0 0 0 0 35.060934693035961 26.930821384794285 0 26.930821384794285 -41.396942875878949 0 0 0 0 34.379509621037869 11.451724108894723 0 11.451724108894723 -65.243690237182363 0 0 0 0 24.199264471782953 22.628113996257525 0 22.628113996257525 -43.172930005937815 0 0 0 0 23.624424605147397 33.055229701214557 0 33.055229701214557 -35.112370055239353 0 0 0 0 22.405413575482932 0.057254175589046774 0 0.057254175589046774 -5.6141547596606749 0 0 0 0 20.500974582144408 11.599143685947411 0 11.599143685947411 -21.472866288718933 0 0 0 0 34.186798721857485 6.4301894853379054 0 6.4301894853379054 -64.288924047557089 0 0 0 0 16.207884238382974 -6.6428573469349299 0 -6.6428573469349299 -2.7135942423047004 0 0 0 0 31.661865290210699 1.0583852727158956 0 1.0583852727158956 -72.798337531576635 0 0 0 0 34.609927242679987 12.195724287020084 0 12.195724287020084 -63.612410414321857 0 0 0 0 28.530342001926329 3.461775446631691 0 3.461775446631691 -57.304014479795114 0 0 0 0 35.856922146165743 18.945187210633549 0 18.945187210633549 -43.415109097689992 0 0 0 0 34.635899123488343 3.0282703081190903 0 3.0282703081190903 -51.837743007728022 0 0 0 0 6.3112265039431126 -0.17701060918770395 0 -0.17701060918770395 -4.8021769956912959 0 0 0 0 39.702426434116205 -0.64342388322666011 0 -0.64342388322666011 -10.99824289196124 0 0 0 0 36.684563589813479 12.855029538084068 0 12.855029538084068 11.314558482543362 0 0 0 0 3.2775357676437125 23.038149372765076 0 23.038149372765076 -27.345207681718875 0 0 0 0 44.887685913279711 12.768615906415789 0 12.768615906415789 -4.2134594248232133 0 0 0 0 -0.146780281291786 0.65345408813107753 0 0.65345408813107753 -2.2630044457982148 0 0 0 0 121.21304325675737 29.614203496452831 0 29.614203496452831 -0.80365608310600578 0 0 0 0 -91.775821658889981 100.23858516394675 0 100.23858516394675 -24.868623297511931 0 0 0 0 37.773470580039429 31.834293776750599 0 31.834293776750599 -75.053989434122002 0 0 0 0 136.01400465832921 -14.971350838003161 0 -14.971350838003161 -13.87473203170515 0 0 0 0 60.180745762429069 82.433752646705386 0 82.433752646705386 -45.511354798170146 0 0 0 0 34.158546416056197 17.502596550108819 0 17.502596550108819 30.130775118775887 0 0 0 0 341.34161824667899 -17.111614602192873 0 -17.111614602192873 -64.100662079746769 0 0 0 0 78.663566663934034 213.58590877781961 0 213.58590877781961 65.374537554138698 0 0 0 0 -299.78068899138452 77.429402065050141 0 77.429402065050141 111.49915500804445 0 0 0 0 -0.050391145188420694 -0.07800036086464246 0 -0.07800036086464246 -0.43127340314695206 0 0 0 0 25.286077691271203 16.20531151338659 0 16.20531151338659 42.282571947767565 0 0 0 0 75.000269659165497 -80.871534994687408 0 -80.871534994687408 231.75072450924111 0 0 0 0 276.25579356961498 22.993436830499832 0 22.993436830499832 4.549266163622633 0 0 0 0 104.73297104694211 10.66719676704929 0 10.66719676704929 3.8868757708107182 0 0 0 0 119.415656844365 -66.863717851629644 0 -66.863717851629644 6.6236202926686474 0 0 0 0 29.911998367308115 -43.076502584194714 0 -43.076502584194714 72.2730247465513 0 0 0 0 90.659080056306266 28.291743043698034 0 28.291743043698034 37.203277251412771 0 0 0 0 68.591287180668587 122.97769712334203 0 122.97769712334203 19.534279355572565 0 0 0 0 143.04042115568518 1.1469286946367561 0 1.1469286946367561 46.062163202930719 0 0 0 0 28.711881138139688 -3.9885458984078248 0 -3.9885458984078248 146.09069842787181 0 0 0 0 185.41887934339866 -102.16658710584935 0 -102.16658710584935 -86.287068144023124 0 0 0 0 -151.71052067622804 98.198443519527586 0 98.198443519527586 156.3091290772341 0 0 0 0 234.08040162495763 -232.68907595092418 0 -232.68907595092418 221.29526994692753 0 0 0 0 -32.562733279617532 210.64967327455838 0 210.64967327455838 13.461131013892469 0 0 0 0 3.0418600315480262 1.4185119334325265 0 1.4185119334325265 0.87115527838008811 0 0 0 0 99.779017013730481 -39.26649198499581 0 -39.26649198499581 53.203658979359716 0 0 0 0 97.385810283085448 -52.844830997988367 0 -52.844830997988367 42.290159122887644 0 0 0 0 87.041659050544695 -42.77971433116744 0 -42.77971433116744 52.243711695810589 0 0 0 0 8.3837295901913365 3.2207644954924 0 3.2207644954924 1.0566983205546014 0 0 0 0 109.59487283881026 -46.398368613600724 0 -46.398368613600724 44.894345046659055 0 0 0 0 97.178842795559831 -117.48113000115163 0 -117.48113000115163 133.77847158815882 0 0 0 0 13.621130849271495 3.4887778023304854 0 3.4887778023304854 0.094169976022167701 0 0 0 0 28.179403295060183 -4.9505155167237263 0 -4.9505155167237263 -46.636479801751761 0 0 0 0 35.504304270609282 -29.697245304208593 0 -29.697245304208593 -24.846663121471011 0 0 0 0 15.691142207109806 -25.426077064563742 0 -25.426077064563742 -8.5534460703632931 0 0 0 0 22.048011161918112 49.291180381319748 0 49.291180381319748 -137.40304663807336 0 0 0 0 -11.896690099642001 -18.359667252421254 0 -18.359667252421254 49.184860180729807 0 0 0 0 106.23681078672234 68.621723545986242 0 68.621723545986242 61.746452244751481 0 0 0 0 2.8042247972922496 -0.028183629866834536 0 -0.028183629866834536 -0.29114199653277428 0 0 0 0 -1.0082338642405375 -19.172811891956556 0 -19.172811891956556 -10.793086964036092 0 0 0 0 31.235368063262285 19.200939865105397 0 19.200939865105397 21.200068838382094 0 0 0 0 36.913864115118486 41.487259630604854 0 41.487259630604854 53.156022311486822 0 0 0 0 8.40401499986001 -5.4130138787720057 0 -5.4130138787720057 -3.141873681614006 0 0 0 0 14.006129014942132 -7.0235999948487162 0 -7.0235999948487162 -19.967614107279335 0 0 0 0 -118.73757448073593 -134.66906263451938 0 -134.66906263451938 -34.286725680940435 0 0 0 0 19.452087584570108 9.4272025521509022 0 9.4272025521509022 12.605525284096075 0 0 0 0 9.7110545328505395 -8.7688712555839743 0 -8.7688712555839743 -26.065081689641232 0 0 0 0 23.799732364415831 21.210158438071176 0 21.210158438071176 31.774419901007604 0 0 0 0 7.0848341282115257 -1.2847890302572509 0 -1.2847890302572509 -0.074238050993708338 0 0 0 0 10.568932146703446 -19.194400975135011 0 -19.194400975135011 -18.779543446906587 0 0 0 0 3.2816921773919603 -12.86796948397695 0 -12.86796948397695 -13.617002811524344 0 0 0 0 -6.036567458513673 46.598083528203233 0 46.598083528203233 -45.722354786401411 0 0 0 0 4.9084948717936641 -124.0695188266659 0 -124.0695188266659 -119.83473282453906 0 0 0 0 -191.0205980605715 -158.60872425817996 0 -158.60872425817996 27.338729838323843 0 0 0 0 10.23851396912454 -11.181447292202101 0 -11.181447292202101 -13.014209822821377 0 0 0 0 19.019032888932998 -13.007165129902319 0 -13.007165129902319 -15.092603081888456 0 0 0 0 11.225894353350668 -19.366828218629763 0 -19.366828218629763 -12.356492068135822 0 0 0 0 25.480293693206477 -3.127441417576506 0 -3.127441417576506 -13.766979638915096 0 0 0 0 -188.99665195049147 -38.196840098757683 0 -38.196840098757683 -0.32227827506898166 0 0 0 0 10.758326528454894 -12.100982686214095 0 -12.100982686214095 -7.0183685825494226 0 0 0 0 -166.46647219446095 21.064226488313864 0 21.064226488313864 121.58390193769887 0 0 0 0 68.599082204989827 -51.739294163299576 0 -51.739294163299576 82.343801588229326 0 0 0 0 64.126303284025198 -18.520480709043738 0 -18.520480709043738 -90.911837157130037 0 0 0 0 28.960866964909656 -134.46394346948722 0 -134.46394346948722 104.66773426501476 0 0 0 0 324.15538133814334 53.626209919952487 0 53.626209919952487 20.951890377130667 0 0 0 0 -232.25884713031701 56.170224430159124 0 56.170224430159124 95.649976599972945 0 0 0 0 200.16160663000483 -306.82167017626546 0 -306.82167017626546 14.371996645480067 0 0 0 0 237.88809184342244 -23.591737563235711 0 -23.591737563235711 118.50186687855438 0 0 0 0 178.86766579152027 -23.999223144038979 0 -23.999223144038979 266.59676174388619 0 0 0 0 7.3063268053695651 1.748229423517323 0 1.748229423517323 0.91265103687655236 0 0 0 0 -20.214437605412968 -157.79491815181552 0 -157.79491815181552 213.35258891590433 0 0 0 0 82.76654106640126 -46.173372002653821 0 -46.173372002653821 -54.178625706790967 0 0 0 0 19.696133519641677 3.8743487948838418 0 3.8743487948838418 0.60802874949842489 0 0 0 0 9.8817001770839852 -10.392775377857674 0 -10.392775377857674 3.8414023314858241 0 0 0 0 -100.35215924067961 -42.516845481527952 0 -42.516845481527952 141.64865521315028 0 0 0 0 90.079427169337578 -107.29107757234863 0 -107.29107757234863 90.408598103408394 0 0 0 0 -7.2459087485985947 -80.017231613070635 0 -80.017231613070635 144.18717896253622 0 0 0 0 -136.83305823366936 134.16775551800146 0 134.16775551800146 -52.951111534801271 0 0 0 0 30.206949907566013 -20.482592859826582 0 -20.482592859826582 231.89046256383335 0 0 0 0 -3.8900050050322221 -4.0697389150884931 0 -4.0697389150884931 -0.37651703980721885 0 0 0 0 1.9296176128035967 -0.73932128406563891 0 -0.73932128406563891 -0.4716860009623467 0 0 0 0 50.257818206126103 -79.018164863070183 0 -79.018164863070183 111.64810744168415 0 0 0 0 132.99569380890171 -140.76990926305439 0 -140.76990926305439 157.70140193411589 0 0 0 0 120.26590474249679 24.273773953359751 0 24.273773953359751 105.9794171430533 0 0 0 0 59.694391164870467 -24.258142332845296 0 -24.258142332845296 22.432269034702927 0 0 0 0 60.289957470286026 -79.73441398313372 0 -79.73441398313372 85.290875043135657 0 0 0 0 25.916672514440506 -26.109732693124855 0 -26.109732693124855 24.166319411025825 0 0 0 0 60.76894658294259 -2.4935614154929624 0 -2.4935614154929624 -90.890426920543462 0 0 0 0 31.15231607338287 6.0468355085259242 0 6.0468355085259242 0.45673532043791398 0 0 0 0 11.595910535779694 -59.967696078303334 0 -59.967696078303334 44.399926411014349 0 0 0 0 14.620831742315204 35.466237782325095 0 35.466237782325095 22.230086962369739 0 0 0 0 6.6482181710575858 5.2206848637128687 0 5.2206848637128687 1.5375343523017184 0 0 0 0 116.21217138286011 151.57927986249985 0 151.57927986249985 208.06255700537361 0 0 0 0 -88.69763629778754 -28.423687933734755 0 -28.423687933734755 571.33725188995891 0 0 0 0 -45.761508355311435 51.241282360285759 0 51.241282360285759 56.80728081861804 0 0 0 0 56.076331663280143 78.130137971956856 0 78.130137971956856 86.71861332120443 0 0 0 0 53.059760564345197 105.03283167551092 0 105.03283167551092 48.537155004465717 0 0 0 0 3.7055321765260274 3.2409205249661461 0 3.2409205249661461 1.2091127092530485 0 0 0 0 68.780233313842473 192.83982918919003 0 192.83982918919003 387.27703455224571 0 0 0 0 355.39468472145381 573.36098422626833 0 573.36098422626833 867.47181884199301 0 0 0 0 925.93222099439663 457.62346258023047 0 457.62346258023047 -53.109603428669018 0 0 0 0 880.82180107705426 704.53035013447004 0 704.53035013447004 1217.1745574883646 0 0 0 0 -225.36950833161973 -83.744338472736018 0 -83.744338472736018 631.57701562339275 0 0 0 0 -84.567195986284787 -132.32652375540806 0 -132.32652375540806 548.03540810563959 0 0 0 0 1330.2890014161176 -252.47071865010921 0 -252.47071865010921 -199.92346901822643 0 0 0 0 2480.3326599034408 430.70343829549938 0 430.70343829549938 -385.72175615176076 0 0 0 0 1488.6414768635955 -360.16081871327691 0 -360.16081871327691 -354.3268885397199 0 0 0 0 2018.3645847667358 750.56349467162943 0 750.56349467162943 305.23761458625529 0 0 0 0 1654.8114556118853 566.59416506508546 0 566.59416506508546 668.93100326690922 0 0 0 0 1639.3656158788981 852.48116125078809 0 852.48116125078809 705.15997354249453 0 0 0 0 948.52570474409276 614.56780662093252 0 614.56780662093252 623.30066333387492 0 0 0 0 1731.1104345204531 504.38877714702767 0 504.38877714702767 99.12195362740681 0 0 0 0 1008.3105597153881 68.86189832729201 0 68.86189832729201 140.53439296967781 0 0 0 0 376.50316244056739 -308.64974416912025 0 -308.64974416912025 -41.436560755240492 0 0 0 0 320.83126183157037 -298.46432099543279 0 -298.46432099543279 -150.11895956802758 0 0 0 0 643.19603582918717 911.93290347827269 0 911.93290347827269 -1664.2284221101299 0 0 0 0 37.897235123836069 12.684081301128803 0 12.684081301128803 1.4765052797596443 0 0 0 0 254.85944080134846 254.53192917503603 0 254.53192917503603 -781.11817927435618 0 0 0 0 17.215363868583552 7.5007051012626942 0 7.5007051012626942 2.0834483397924464 0 0 0 0 368.6141272157256 1572.0145172713831 0 1572.0145172713831 441.17231469516423 0 0 0 0 -589.18296682216169 1056.9047883341686 0 1056.9047883341686 757.49711969032842 0 0 0 0 -115.80404499691122 -71.148065144978887 0 -71.148065144978887 -336.39373418924106 0 0 0 0 744.70532640868623 558.50274182928524 0 558.50274182928524 294.59199553844735 0 0 0 0 504.0349612095597 993.52351090231593 0 993.52351090231593 478.13525576600483 0 0 0 0 693.15720631487056 1122.0569330182773 0 1122.0569330182773 398.98874373334968 0 0 0 0 444.52193876147066 1011.609070628524 0 1011.609070628524 359.88047986816127 0 0 0 0 721.64785526503329 1488.710751017825 0 1488.710751017825 428.82112389748954 0 0 0 0 971.26305271653109 974.08100494841665 0 974.08100494841665 90.744893455161701 0 0 0 0 1324.2996788279052 541.38926093433474 0 541.38926093433474 -63.224537999902395 0 0 0 0 1750.152474791139 571.61034548567523 0 571.61034548567523 -72.134919066034627 0 0 0 0 1437.7407670377652 754.75432144884655 0 754.75432144884655 90.830209944169837 0 0 0 0 1863.5571766713183 1100.3490437200621 0 1100.3490437200621 101.82560338211914 0 0 0 0 1979.7116848789665 1684.9967610367773 0 1684.9967610367773 299.36164209148205 0 0 0 0 2937.1529531152719 500.11795851927502 0 500.11795851927502 93.620913673940549 0 0 0 0 1684.1619831403077 27.924363368176273 0 27.924363368176273 1260.4855863117405 0 0 0 0 1388.0258538537164 748.81309866221045 0 748.81309866221045 1780.0667929228352 0 0 0 0 1482.0551580292304 1058.5062931069997 0 1058.5062931069997 1600.5345001883852 0 0 0 0 -1.0307426638889865 -0.12570341796951823 0 -0.12570341796951823 0.14957995673070879 0 0 0 0 1124.8800518619682 311.11449565038743 0 311.11449565038743 -24.549313911922127 0 0 0 0 2092.487784458528 892.31605442224054 0 892.31605442224054 522.10585855854742 0 0 0 0 1802.6184748120722 1356.312705094625 0 1356.312705094625 1360.4612290282992 0 0 0 0 1474.7335613396863 1026.4320785989996 0 1026.4320785989996 1495.7603291465468 0 0 0 0 1327.0889147250564 545.68764124047766 0 545.68764124047766 1111.6286037985446 0 0 0 0 1272.365690087805 671.22449543537891 0 671.22449543537891 838.40801288542798 0 0 0 0 1654.7139209464403 304.26544805088554 0 304.26544805088554 207.10722179995355 0 0 0 0 1009.7311712807277 -114.40874797763286 0 -114.40874797763286 -156.73833384670962 0 0 0 0 1468.5585634567688 109.59218257671193 0 109.59218257671193 -16.820138492798151 0 0 0 0 1138.9617534731806 332.05533315828461 0 332.05533315828461 238.39615332177425 0 0 0 0 1001.9107556087838 88.448980359585391 0 88.448980359585391 48.754023770407272 0 0 0 0 1210.9235803107003 526.1345826575315 0 526.1345826575315 -31.897139670606137 0 0 0 0 989.19911600835985 127.96638001019215 0 127.96638001019215 -51.299403853030697 0 0 0 0 416.50008780126518 -49.023872164787804 0 -49.023872164787804 -13.531414147402728 0 0 0 0 860.89173465906788 258.90509938101638 0 258.90509938101638 -27.314059285470876 0 0 0 0 292.74494868070178 139.76667203683951 0 139.76667203683951 46.793793959918389 0 0 0 0 702.26572138632037 485.69027181782337 0 485.69027181782337 42.901384677705551 0 0 0 0 855.30743229692962 607.72836836562487 0 607.72836836562487 123.36031314755814 0 0 0 0 562.37717662492651 529.45067119353826 0 529.45067119353826 234.06953588602028 0 0 0 0 425.25726463130559 441.44305424284266 0 441.44305424284266 188.37890425185287 0 0 0 0 344.3175222152131 251.9025755489979 0 251.9025755489979 143.26396571624537 0 0 0 0 274.3782632654893 373.75988968930216 0 373.75988968930216 388.64294638214324 0 0 0 0 326.76667453561458 99.328475440921693 0 99.328475440921693 -8.2279810587397151 0 0 0 0 569.34283175117343 333.42982311880814 0 333.42982311880814 105.50299027827805 0 0 0 0 194.83470320848573 137.03490936986691 0 137.03490936986691 101.23578217395787 0 0 0 0 46.565034974420996 -36.36378420551091 0 -36.36378420551091 34.522738190138398 0 0 0 0 228.04652860547139 110.32725113197466 0 110.32725113197466 9.1919929883561053 0 0 0 0 24.872299904352985 -16.13166066896656 0 -16.13166066896656 -16.990255177486688 0 0 0 0 44.666848306311294 -42.402674719050083 0 -42.402674719050083 17.263809997805765 0 0 0 0 143.56496705363315 71.011726255079338 0 71.011726255079338 39.861552648409997 0 0 0 0 108.2022828295303 65.041787642840063 0 65.041787642840063 114.68436105834417 0 0 0 0 248.00212508357799 232.49995291330697 0 232.49995291330697 255.97982709768439 0 0 0 0 93.602250002197252 -10.013181237032086 0 -10.013181237032086 211.04927816381223 0 0 0 0 168.64788939276696 12.931698600331401 0 12.931698600331401 -62.995788898426326 0 0 0 0 155.58471680750517 -51.404189290823524 0 -51.404189290823524 -142.2722663736422 0 0 0 0 66.851156744538457 75.616115743861883 0 75.616115743861883 -80.812899294114686 0 0 0 0 85.887296560591494 -70.95297156173001 0 -70.95297156173001 -57.036312646716397 0 0 0 0 82.143333121694013 -10.242110896170743 0 -10.242110896170743 -182.74830113704957 0 0 0 0 29.338046979094671 0.94826915302490988 0 0.94826915302490988 -15.013659672766311 0 0 0 0 -46.56557074891316 -94.485172957423856 0 -94.485172957423856 -171.47750037822152 0 0 0 0 -59.690529775398318 -46.878700737715917 0 -46.878700737715917 -75.845891022078604 0 0 0 0 -45.948835384260747 -97.62292300349327 0 -97.62292300349327 -25.8428326256319 0 0 0 0 -84.927114838676061 -54.364983435933482 0 -54.364983435933482 -68.074716298691783 0 0 0 0 56.73853788847191 -53.33015114414593 0 -53.33015114414593 9.8312312365408161 0 0 0 0 47.598853074738145 -14.665748226103005 0 -14.665748226103005 -80.664817199449317 0 0 0 0 -261.50548575334687 -96.112075724692886 0 -96.112075724692886 808.50050200020269 0 0 0 0 251.64227153899992 -29.998327296321804 0 -29.998327296321804 -24.054132026426032 0 0 0 0 244.11971601669211 146.37331976886162 0 146.37331976886162 -143.5664994293416 0 0 0 0 217.78319984974223 250.24044617773961 0 250.24044617773961 246.36479933455757 0 0 0 0 173.88579428202138 570.17168617566665 0 570.17168617566665 651.28709351002226 0 0 0 0 776.30248793572537 672.92683028176589 0 672.92683028176589 599.6309823394563 0 0 0 0 549.73238176698214 741.57462318170883 0 741.57462318170883 706.40620831993851 0 0 0 0 923.41426007927294 1042.2435236726374 0 1042.2435236726374 589.857949673137 0 0 0 0 622.37289359407805 778.46815475881453 0 778.46815475881453 757.1240498384725 0 0 0 0 650.64203926250048 748.02758150636203 0 748.02758150636203 438.68018362334112 0 0 0 0 443.15142937382006 675.26547663746601 0 675.26547663746601 468.51676107975004 0 0 0 0 695.53817606662778 879.70261686085746 0 879.70261686085746 377.63396802973392 0 0 0 0 642.02991525891412 802.56952383924909 0 802.56952383924909 277.67081699520725 0 0 0 0 873.9758158888726 955.26726382704555 0 955.26726382704555 209.77421697696292 0 0 0 0 690.13701807361576 860.83503214622613 0 860.83503214622613 479.62032232130332 0 0 0 0 1403.0791053816611 760.6588558862959 0 760.6588558862959 300.44403665423459 0 0 0 0 1392.5112090544972 732.41751556434861 0 732.41751556434861 275.62626460418721 0 0 0 0 1853.2465838053449 836.85580160516656 0 836.85580160516656 -313.23823426736601 0 0 0 0 2016.0422085137611 1029.7334688410961 0 1029.7334688410961 411.16352995346858 0 0 0 0 1957.6520321867774 433.49085448687981 0 433.49085448687981 445.28285925949996 0 0 0 0 1299.2569967966301 1503.1791712463532 0 1503.1791712463532 1219.4161345692696 0 0 0 0 2174.3404421868327 585.92162039587424 0 585.92162039587424 675.50206077915698 0 0 0 0 1893.0375822270071 630.05543935131925 0 630.05543935131925 1590.7277264483077 0 0 0 0 1092.0575128862183 1606.8836357612297 0 1606.8836357612297 1459.7659289564306 0 0 0 0 1657.4661992524416 1239.4772769408423 0 1239.4772769408423 1698.3841061937505 0 0 0 0 2147.9167071657066 190.138194575689 0 190.138194575689 77.953876232121729 0 0 0 0 1572.7389819605451 -518.93832699256291 0 -518.93832699256291 300.85518664441543 0 0 0 0 261.81619665797916 712.95756496095703 0 712.95756496095703 1534.6553410920715 0 0 0 0 14.974635567237684 8.7851342950582421 0 8.7851342950582421 7.0695068245369415 0 0 0 0 2842.2112996335127 1189.8693135765386 0 1189.8693135765386 837.31822103566788 0 0 0 0 2320.0645308046587 1657.5524757607845 0 1657.5524757607845 1185.3833641768297 0 0 0 0 2396.9462492369894 857.65373573591228 0 857.65373573591228 760.97938737803111 0 0 0 0 2354.9310306947482 547.61385608522653 0 547.61385608522653 311.52459957555601 0 0 0 0 3498.1584687102804 1200.9022507489597 0 1200.9022507489597 677.14252487292254 0 0 0 0 3501.5692551389766 535.12295640766979 0 535.12295640766979 26.171296620333397 0 0 0 0 2120.2102423601573 677.40827097475346 0 677.40827097475346 144.0032317192647 0 0 0 0 1783.2925232344132 495.82746747344169 0 495.82746747344169 52.948693967001077 0 0 0 0 2124.1711322300471 -250.84113529382182 0 -250.84113529382182 -391.61692985083772 0 0 0 0 3491.2997037938912 -188.27841488321818 0 -188.27841488321818 -585.83619188331716 0 0 0 0 1162.6265122507284 -1367.2174275131526 0 -1367.2174275131526 -834.26278567164422 0 0 0 0 3493.9057057107348 1769.5896396681676 0 1769.5896396681676 -811.0666701713269 0 0 0 0 13.907961618981787 -0.15662614007859688 0 -0.15662614007859688 -1.813367970186436 0 0 0 0 688.38933353673474 963.62445114820798 0 963.62445114820798 -137.91307012411005 0 0 0 0 2451.5305715697323 498.45065576619709 0 498.45065576619709 -485.74807658808777 0 0 0 0 630.52683131180311 604.92736017733205 0 604.92736017733205 275.89093850365623 0 0 0 0 253.26609934861335 719.19893336095186 0 719.19893336095186 -93.638499561735586 0 0 0 0 1409.5305210281276 -488.53788105719485 0 -488.53788105719485 174.74609998122605 0 0 0 0 2571.832277963229 -1013.086899703751 0 -1013.086899703751 -1397.4719070380966 0 0 0 0 13.764494778776694 -0.53424315091899555 0 -0.53424315091899555 -1.7154897304918015 0 0 0 0 1943.3155492187725 1113.3012527885917 0 1113.3012527885917 -1025.6149077572659 0 0 0 0 2474.344555866046 -1316.46049826121 0 -1316.46049826121 -828.30481044862336 0 0 0 0 1965.1098861818227 -1074.2196904496016 0 -1074.2196904496016 -932.94134731088354 0 0 0 0 -73.379201458155876 606.94703057155471 0 606.94703057155471 367.42764000343413 0 0 0 0 20.348899591525992 5.4565458688702151 0 5.4565458688702151 0.43014323887104644 0 0 0 0 1015.9878789985505 1490.6187550322184 0 1490.6187550322184 -190.18836337603616 0 0 0 0 3500.0042102036405 552.43035740040307 0 552.43035740040307 224.88884597162337 0 0 0 0 3199.0225884871215 1181.431566142046 0 1181.431566142046 -54.142713943174243 0 0 0 0 936.07992455560452 394.88918967311514 0 394.88918967311514 -327.48109242826672 0 0 0 0 1901.8349814831599 -670.11845011742412 0 -670.11845011742412 145.190491031379 0 0 0 0 2027.5974703020547 -1094.6430938837443 0 -1094.6430938837443 222.42992632885984 0 0 0 0 2022.1627255227131 -1141.8888648135157 0 -1141.8888648135157 -184.88850420181311 0 0 0 0 3500.154507115607 -1011.6666882482808 0 -1011.6666882482808 -498.46766818174723 0 0 0 0 2528.7779889297381 -650.31993666037033 0 -650.31993666037033 -578.25225987091414 0 0 0 0 2417.3574305680158 -517.55159715005868 0 -517.55159715005868 -228.15345484265526 0 0 0 0 2073.9773527798825 -375.00295821409634 0 -375.00295821409634 -270.99945626541569 0 0 0 0 2055.8138226803421 -398.08301273951361 0 -398.08301273951361 -32.238314204659559 0 0 0 0 1676.076890709177 -183.71537999217287 0 -183.71537999217287 -63.65330118804809 0 0 0 0 1481.4939166200056 -132.92718823003315 0 -132.92718823003315 51.232902122316773 0 0 0 0 1698.8089136669296 -111.73169699025448 0 -111.73169699025448 -33.793225977084376 0 0 0 0 1471.247315373781 -65.067792088345414 0 -65.067792088345414 -35.044451733401218 0 0 0 0 1354.1390677089221 -340.073851373205 0 -340.073851373205 43.930429120159886 0 0 0 0 1508.4798825218459 -32.421015163952092 0 -32.421015163952092 -153.89117192555568 0 0 0 0 1154.6833522742963 224.83058615306516 0 224.83058615306516 -117.52038642758697 0 0 0 0 1061.9316093155212 -5.0553204504329869 0 -5.0553204504329869 134.4299158605034 0 0 0 0 -39.488345555446358 3.7068666516522626 0 3.7068666516522626 17.757071162214743 0 0 0 0 983.6320114677219 121.75488374542336 0 121.75488374542336 211.02634958074475 0 0 0 0 0.48613167859689099 1.3493886129070347 0 1.3493886129070347 3.1946806293289334 0 0 0 0 1037.7463206549728 1.0568900416636424 0 1.0568900416636424 136.7647458969405 0 0 0 0 2.3362936538206327 0.10025981854852262 0 0.10025981854852262 -0.35583775874140766 0 0 0 0 974.16070409292297 -546.71758695801793 0 -546.71758695801793 173.17989264224906 0 0 0 0 1371.8973694522574 -12.834134326543307 0 -12.834134326543307 133.43701512836913 0 0 0 0 176.47569923684932 -60.968630488506619 0 -60.968630488506619 143.24482381049694 0 0 0 0 197.62980213179253 -143.39919665444575 0 -143.39919665444575 -21.210716780429948 0 0 0 0 61.918666902522091 -36.413822598759907 0 -36.413822598759907 83.847765876985818 0 0 0 0 232.77993533262634 31.226761252241658 0 31.226761252241658 -328.24788494295944 0 0 0 0 248.90100186276686 -211.97655527504386 0 -211.97655527504386 33.921294930624981 0 0 0 0 1344.0416412805644 -1536.4792864878953 0 -1536.4792864878953 1315.688356102967 0 0 0 0 1019.8545030178211 -683.06900566355989 0 -683.06900566355989 292.14587535701878 0 0 0 0 -0.12365849396732642 -1.121666719824205 0 -1.121666719824205 -0.44041292408650445 0 0 0 0 2662.8784421776072 -1510.6163585214028 0 -1510.6163585214028 -46.09814291998336 0 0 0 0 3494.0550133294237 -2103.2246305557851 0 -2103.2246305557851 -95.509213804832996 0 0 0 0 761.8813176975309 -2104.7711237396916 0 -2104.7711237396916 3052.6424591950836 0 0 0 0 868.74155554226309 -641.38650994728914 0 -641.38650994728914 566.64442062291937 0 0 0 0 10.624232032706573 4.3691258598199028 0 4.3691258598199028 2.1992303318393716 0 0 0 0 100.49558946408797 -98.837718977183613 0 -98.837718977183613 49.136737410861315 0 0 0 0 3456.3956343131103 -511.06375446752577 0 -511.06375446752577 -477.39072491683868 0 0 0 0 7.8740881773938156 -3.174491883880151 0 -3.174491883880151 8.7518141954041813 0 0 0 0 68.701713645694056 4.6943625204738169 0 4.6943625204738169 5.8600813913726295 0 0 0 0 24.585657732552079 -0.86436356275054038 0 -0.86436356275054038 7.8355889027856422 0 0 0 0 17.600879565477953 6.2934914936276982 0 6.2934914936276982 -6.2983683349175408 0 0 0 0 32.501302068548455 19.274764277249925 0 19.274764277249925 9.6707677356166819 0 0 0 0 3490.6945854744699 6.3937465525873085 0 6.3937465525873085 15.797516303820972 0 0 0 0 393.38496224858682 406.84163263388803 0 406.84163263388803 418.47159627995552 0 0 0 0 -1.8682111285342273 1.6156483212107347 0 1.6156483212107347 13.915754909546088 0 0 0 0 99.45400537934313 12.288165154025716 0 12.288165154025716 -1.7448167246443758 0 0 0 0 112.5941959071788 105.40384844991786 0 105.40384844991786 -63.664258777647319 0 0 0 0 5.7094589398414541 -9.6108149915826999 0 -9.6108149915826999 -2.9288387397879845 0 0 0 0 186.77046841053379 -74.512147818780136 0 -74.512147818780136 -101.03897001415407 0 0 0 0 6.3936277400735264 18.042671882476341 0 18.042671882476341 -15.47207139906741 0 0 0 0 103.96487678873382 110.13643455049237 0 110.13643455049237 -30.128510329391702 0 0 0 0 70.679884569877686 123.40927675562921 0 123.40927675562921 68.497212486119679 0 0 0 0 93.616279711532115 72.973820608448023 0 72.973820608448023 -27.972050921754999 0 0 0 0 94.893021740027507 62.262541684120293 0 62.262541684120293 43.716961008149156 0 0 0 0 1503.4340988789481 1762.4951458026267 0 1762.4951458026267 2090.9461870815958 0 0 0 0 95.329605362610891 43.750271114474799 0 43.750271114474799 44.619922595173421 0 0 0 0 4.5734386219877905 7.9105153077256176 0 7.9105153077256176 23.051767760598501 0 0 0 0 3478.7014608637837 20.20538623628244 0 20.20538623628244 26.092163779276337 0 0 0 0 2.7245635205912606 -0.7791865878386659 0 -0.7791865878386659 7.8858953798900853 0 0 0 0 3495.542136255794 1763.8833482900882 0 1763.8833482900882 646.66327704116713 0 0 0 0 3621.5443108899635 2181.3699311786022 0 2181.3699311786022 1249.9829379364649 0 0 0 0 0.89216185719654106 1.1536009756566585 0 1.1536009756566585 7.714232512404533 0 0 0 0 8.5465200713006197 -48.400101374386963 0 -48.400101374386963 75.647570810257974 0 0 0 0 3731.7472029842756 2542.4989073271536 0 2542.4989073271536 1578.4211481712841 0 0 0 0 3072.8359456517937 2149.5592585124705 0 2149.5592585124705 2077.2968721799925 0 0 0 0 1993.8179723483881 1293.8796084263029 0 1293.8796084263029 1422.953865345959 0 0 0 0 110.78930092367591 340.43005916249342 0 340.43005916249342 937.27085313951693 0 0 0 0 2021.6172342544451 1502.3771804239082 0 1502.3771804239082 583.49915345058344 0 0 0 0 3500.9605064672255 1616.3307759399663 0 1616.3307759399663 1101.2297990689533 0 0 0 0 3074.4227018300153 1724.490938850603 0 1724.490938850603 1474.4970253189824 0 0 0 0 854.64029704367567 -610.21849705629688 0 -610.21849705629688 340.07422413547556 0 0 0 0 1096.8048746918848 356.78310572212149 0 356.78310572212149 190.53095640914171 0 0 0 0 389.67541524323315 40.326776003575105 0 40.326776003575105 48.909985440253877 0 0 0 0 196.1175798051845 124.84907527923747 0 124.84907527923747 50.318262189137386 0 0 0 0 -3.2311836068178081 3.1095537706974596 0 3.1095537706974596 -6.3783757065300399 0 0 0 0 395.63681955783977 77.23017355146294 0 77.23017355146294 61.567695310484396 0 0 0 0 742.26215470825264 -69.028672166508841 0 -69.028672166508841 -16.679390043505236 0 0 0 0 321.54208518899395 -105.02227152550086 0 -105.02227152550086 -13.416968415823249 0 0 0 0 406.50297946907887 -149.0359395058781 0 -149.0359395058781 5.3003602256694649 0 0 0 0 153.79652995571087 -91.810193647916094 0 -91.810193647916094 63.989456320176032 0 0 0 0 106.76247397440602 19.400247207738403 0 19.400247207738403 -11.614810482582982 0 0 0 0 368.40106842685782 21.4834784202842 0 21.4834784202842 -21.223018297625913 0 0 0 0 186.22968883650901 49.123000880856353 0 49.123000880856353 -152.61797054083979 0 0 0 0 104.51666511631097 12.859392379664648 0 12.859392379664648 -0.71064122913255989 0 0 0 0 210.27543332290952 -16.733765976094901 0 -16.733765976094901 -109.16300623159714 0 0 0 0 82.021810214420839 5.0080550953914553 0 5.0080550953914553 -15.141930437926476 0 0 0 0 128.09345378276339 26.054553555514417 0 26.054553555514417 -19.963765900298768 0 0 0 0 212.52963831702073 -227.82303372794627 0 -227.82303372794627 182.25325224967037 0 0 0 0 378.0493865449389 -255.48597929976359 0 -255.48597929976359 532.33210558708697 0 0 0 0 20.098265840921172 0.878893412523027 0 0.878893412523027 -2.0864037685786796 0 0 0 0 383.09238874157018 -292.08623135172002 0 -292.08623135172002 264.04569169987349 0 0 0 0 370.26436456051306 -238.86948113022413 0 -238.86948113022413 44.935825511640815 0 0 0 0 559.26837112683279 -362.10861830377371 0 -362.10861830377371 291.05731204834638 0 0 0 0 602.75389323182753 -485.81590247878876 0 -485.81590247878876 608.58714929474831 0 0 0 0 1020.267473072905 -218.62574295290972 0 -218.62574295290972 92.148479694441903 0 0 0 0 437.37438559295697 -21.041214413599505 0 -21.041214413599505 25.205782538813764 0 0 0 0 623.45094413512197 -290.17230338460081 0 -290.17230338460081 19.605448186513968 0 0 0 0 276.06882527988637 -199.18805770720087 0 -199.18805770720087 -1.6880892638416753 0 0 0 0 382.17002957726072 -192.84583367152641 0 -192.84583367152641 -19.50318859233812 0 0 0 0 403.87840713422497 -309.16095014775038 0 -309.16095014775038 30.35817116562248 0 0 0 0 394.69248501295806 -320.01313546038227 0 -320.01313546038227 67.934892584034401 0 0 0 0 449.95997708562572 -304.17194917180825 0 -304.17194917180825 6.6353941616944212 0 0 0 0 479.00542678942656 -393.15478961750705 0 -393.15478961750705 133.47284504950403 0 0 0 0 387.84899675069028 -308.3535018816965 0 -308.3535018816965 38.148147814762069 0 0 0 0 318.34871017591649 -231.45046223850431 0 -231.45046223850431 7.5250400820245886 0 0 0 0 340.46284807992197 -200.43357071808509 0 -200.43357071808509 -53.228246160502749 0 0 0 0 329.64493722488987 -238.42860827509321 0 -238.42860827509321 -10.430532219953875 0 0 0 0 357.61597913556034 -227.78569219593169 0 -227.78569219593169 -52.917686966288784 0 0 0 0 340.31168103293021 -82.936488717357861 0 -82.936488717357861 -79.907262686067497 0 0 0 0 62.050511672525317 -15.096727487759381 0 -15.096727487759381 -74.922860237530585 0 0 0 0 190.01291239017155 -35.800823774402943 0 -35.800823774402943 -189.46272530683927 0 0 0 0 282.45016726196627 -162.31795120271727 0 -162.31795120271727 -59.211809355951061 0 0 0 0 201.59379107051063 -171.72365382502176 0 -171.72365382502176 -15.870846415182768 0 0 0 0 108.06615835322009 188.62067867457972 0 188.62067867457972 -148.63292490467268 0 0 0 0 41.34089722258679 22.024425005778763 0 22.024425005778763 8.2698621576470153 0 0 0 0 145.2467464049405 -41.660404772833544 0 -41.660404772833544 60.39878579129163 0 0 0 0 271.27165337281622 -199.89857311426613 0 -199.89857311426613 -13.829157673110331 0 0 0 0 9.1454602888950376 11.961327217993983 0 11.961327217993983 -1.2381914856007503 0 0 0 0 93.179897660796996 -124.55585733047792 0 -124.55585733047792 -270.81132062332472 0 0 0 0 -43.508627568131487 35.746708016838966 0 35.746708016838966 -94.042983972933143 0 0 0 0 180.75494180223177 -47.47475877398324 0 -47.47475877398324 5.4199386278060047 0 0 0 0 187.14699531545193 -175.04071925524704 0 -175.04071925524704 121.50718189834197 0 0 0 0 26.271686477477488 18.992126045809982 0 18.992126045809982 -15.4651935633226 0 0 0 0 88.887819434392441 -91.581686945702131 0 -91.581686945702131 -202.93327136891435 0 0 0 0 31.411500009232569 12.883893534451932 0 12.883893534451932 -8.5654265658286377 0 0 0 0 -11.306367065910308 -58.185997774377029 0 -58.185997774377029 -135.29485795704841 0 0 0 0 32.958687464882374 8.882167561815649 0 8.882167561815649 -0.46108487837944878 0 0 0 0 93.693493788041451 151.18569240144495 0 151.18569240144495 -204.73519042922703 0 0 0 0 218.78854763979325 39.052962538564998 0 39.052962538564998 -200.51872041436599 0 0 0 0 7.7917664242049796 -68.984556285064059 0 -68.984556285064059 -128.4417663013237 0 0 0 0 -8.6829455878360022 109.69810538555453 0 109.69810538555453 85.354936334597824 0 0 0 0 -18.180014417725033 -8.0162403275771794 0 -8.0162403275771794 -19.025792915325383 0 0 0 0 -87.896083270781673 67.369943747609113 0 67.369943747609113 66.678650188963275 0 0 0 0 163.67393978255132 32.873320965654557 0 32.873320965654557 -13.496481750894588 0 0 0 0 151.77621128795727 28.884393007893323 0 28.884393007893323 -17.367600761220274 0 0 0 0 172.95298022960924 74.924928319276205 0 74.924928319276205 159.63197885278396 0 0 0 0 440.92267667029228 -33.182571626777644 0 -33.182571626777644 -11.244678283052053 0 0 0 0 241.01741305321048 -4.8082824531156803 0 -4.8082824531156803 130.25541331320539 0 0 0 0 539.5132164482784 270.40045052996049 0 270.40045052996049 242.18239606170255 0 0 0 0 20.744795967435493 -25.422591905845024 0 -25.422591905845024 109.33197896796787 0 0 0 0 87.657039263507613 84.635260486511811 0 84.635260486511811 275.93876494023243 0 0 0 0 20.189273339325155 -76.974246192208739 0 -76.974246192208739 110.08111191060289 0 0 0 0 14.06049480512732 6.6240925685998597 0 6.6240925685998597 4.8089433522982148 0 0 0 0 23.35351048866869 19.470613807534392 0 19.470613807534392 80.025096674645738 0 0 0 0 -22.11948133403348 -94.344424459278798 0 -94.344424459278798 223.04729526111078 0 0 0 0 261.35050731771116 236.68204974326167 0 236.68204974326167 -255.51289526243045 0 0 0 0 -495.05681185357389 -33.639629728902094 0 -33.639629728902094 349.06303194970769 0 0 0 0 1247.7321484951972 191.01767793652419 0 191.01767793652419 7.5225503884647082 0 0 0 0 744.88071105150811 -506.30263368482213 0 -506.30263368482213 91.329452217216954 0 0 0 0 -20.711157031175389 -105.94526554299728 0 -105.94526554299728 62.901257461606747 0 0 0 0 6.4337936315275215 2.2686046594616158 0 2.2686046594616158 0.97459359875307205 0 0 0 0 916.96195582101791 -381.64411725045142 0 -381.64411725045142 -28.92396894674539 0 0 0 0 121.15984618622315 111.00737947833068 0 111.00737947833068 365.84102774293547 0 0 0 0 1121.0831183471528 -149.82278703854138 0 -149.82278703854138 -33.215328844943542 0 0 0 0 552.5383705641143 72.558246901660226 0 72.558246901660226 21.043568383918284 0 0 0 0 716.09460979200958 -20.490184045833757 0 -20.490184045833757 624.37268626563628 0 0 0 0 615.93566765820287 -286.20267096941063 0 -286.20267096941063 0.012992864149055094 0 0 0 0 -9.2962565510812283 16.02823446509646 0 16.02823446509646 8.7316454221515105 0 0 0 0 279.04632372759079 212.8437566693344 0 212.8437566693344 -232.65766701736027 0 0 0 0 101.17513050644621 19.904025409571439 0 19.904025409571439 -2.0702163146846324 0 0 0 0 -78.218497173125797 227.95261634478987 0 227.95261634478987 109.59801267921762 0 0 0 0 -93.726713299547555 9.0474658425258667 0 9.0474658425258667 90.024770613781698 0 0 0 0 43.852937962212849 46.807242234121418 0 46.807242234121418 1.4080988382689741 0 0 0 0 555.04798284893332 -344.40854197768044 0 -344.40854197768044 -45.379157960888563 0 0 0 0 23.79331336665328 47.112521639693469 0 47.112521639693469 -5.3934068198284324 0 0 0 0 -142.24315592764469 62.427374092656635 0 62.427374092656635 31.959771192536209 0 0 0 0 104.5187367313556 -85.24583562126827 0 -85.24583562126827 320.85503307484493 0 0 0 0 -44.499201169077423 -1.7314732841956584 0 -1.7314732841956584 26.115317741903027 0 0 0 0 -54.064337760719354 6.2014477460731996 0 6.2014477460731996 22.149290217555517 0 0 0 0 -45.389195677125826 11.383123786605211 0 11.383123786605211 8.0284238224223827 0 0 0 0 -47.377183014839829 18.477736845923687 0 18.477736845923687 -8.727164652043939 0 0 0 0 -32.412746979025542 -0.36439198709047105 0 -0.36439198709047105 4.7369659370259853 0 0 0 0 -54.461717034209869 15.751010333686168 0 15.751010333686168 -0.22572587070095551 0 0 0 0 -65.466276557912352 31.53506827973824 0 31.53506827973824 -8.2936686580621881 0 0 0 0 -19.237981915683235 30.1248199630909 0 30.1248199630909 -6.2141987591477221 0 0 0 0 -22.656451819078939 47.242242864665826 0 47.242242864665826 -19.41360362975297 0 0 0 0 619.31015263938752 -138.12123893074977 0 -138.12123893074977 -30.154010605725034 0 0 0 0 913.81234142519679 -111.74306311006899 0 -111.74306311006899 -111.42466528911564 0 0 0 0 -0.89932777780622786 6.9213855376075202 0 6.9213855376075202 11.467390003977044 0 0 0 0 616.65552873926936 -170.25541122661275 0 -170.25541122661275 -249.33826729096563 0 0 0 0 -284.52777547462756 -155.42036560576616 0 -155.42036560576616 140.13270932615706 0 0 0 0 -2.2144457924968037 1.3726043822259797 0 1.3726043822259797 8.5818378542246947 0 0 0 0 322.29676816404026 -505.96393409431334 0 -505.96393409431334 201.6756013030539 0 0 0 0 1.3225469009273922 -4.7265094034883219 0 -4.7265094034883219 17.842530594421746 0 0 0 0 110.45273429271765 104.57393206442796 0 104.57393206442796 -98.362520183496827 0 0 0 0 16.862637306162242 -0.77177094840587301 0 -0.77177094840587301 3.8786498737585622 0 0 0 0 766.52032376297575 106.5014881352198 0 106.5014881352198 16.70188095528016 0 0 0 0 419.13665388109803 -482.45092241632005 0 -482.45092241632005 729.55386335029004 0 0 0 0 1664.6550830919514 118.24453281185907 0 118.24453281185907 -113.88069130187318 0 0 0 0 12.51624379629348 -10.225807454997614 0 -10.225807454997614 8.330559629840117 0 0 0 0 123.06031841471849 -143.91592839652731 0 -143.91592839652731 -316.00852894815898 0 0 0 0 14.121399766692775 -5.1910448740818538 0 -5.1910448740818538 18.06507870452424 0 0 0 0 6.3803297334552553 -3.6722502161461534 0 -3.6722502161461534 18.606288809813122 0 0 0 0 13.971709434823424 -4.5088700836072348 0 -4.5088700836072348 15.703967108234338 0 0 0 0 -171.1750502693576 -432.48349778753845 0 -432.48349778753845 506.62664236764249 0 0 0 0 6.4488347065709775 -9.1726031673918129 0 -9.1726031673918129 15.89834257493105 0 0 0 0 -44.712393296940718 -481.50937391196385 0 -481.50937391196385 -79.881330415752018 0 0 0 0 -44.48627833968203 124.52846889060675 0 124.52846889060675 7.953493238701185 0 0 0 0 -114.53305723576341 215.94055941091028 0 215.94055941091028 743.97900345565085 0 0 0 0 14.971566249761963 231.95979543192607 0 231.95979543192607 599.55576293563536 0 0 0 0 519.0914812825722 305.74666517328615 0 305.74666517328615 -148.29926901868566 0 0 0 0 69.390880872695561 144.76717581377625 0 144.76717581377625 107.49774829835223 0 0 0 0 57.221750175835041 129.73773186463313 0 129.73773186463313 247.45483527469651 0 0 0 0 47.569216509135003 72.842146601099557 0 72.842146601099557 150.1120022211926 0 0 0 0 122.46635866597717 122.57147481159473 0 122.57147481159473 110.79202307327614 0 0 0 0 31.639556699636159 202.58843331079424 0 202.58843331079424 65.166287673227089 0 0 0 0 2.0504045827872801 -3.5801616137354735 0 -3.5801616137354735 6.3002089363399989 0 0 0 0 25.901724223316705 -2.3115537123303511 0 -2.3115537123303511 50.17325119515408 0 0 0 0 110.35080157284028 7.7461780465823722 0 7.7461780465823722 27.063864115840261 0 0 0 0 19.801457752954491 -14.453199599859623 0 -14.453199599859623 10.018976005337397 0 0 0 0 26.383700468264578 26.654755199582809 0 26.654755199582809 20.592642657941724 0 0 0 0 -1.3498881956038531 11.784428652787028 0 11.784428652787028 51.105563499018444 0 0 0 0 21.034497813412599 9.5533313596798735 0 9.5533313596798735 35.376756988432817 0 0 0 0 -9.1281559145936626 23.155833610175705 0 23.155833610175705 45.120982471472189 0 0 0 0 1.9569881790957879 -14.121105144380635 0 -14.121105144380635 86.547219017581483 0 0 0 0 26.900846968856058 -31.841933511292609 0 -31.841933511292609 59.054993197106342 0 0 0 0 22.59289750913922 -19.465435771369755 0 -19.465435771369755 46.127385751054135 0 0 0 0 13.756839091941004 -1.3890073130055498 0 -1.3890073130055498 4.559740193318726 0 0 0 0 11.986381329232245 -5.3394658957367938 0 -5.3394658957367938 17.601914157030933 0 0 0 0 3.6223474665384465 -0.26872061902400901 0 -0.26872061902400901 16.504411602897193 0 0 0 0 11.899807957120089 2.4442967014875734 0 2.4442967014875734 2.0850346949957759 0 0 0 0 27.078445414052453 -23.427991936207999 0 -23.427991936207999 43.075158856197049 0 0 0 0 -10.914297091389017 0.81396792689838549 0 0.81396792689838549 167.78327473200238 0 0 0 0 5.6514061786340051 0.5593680264527876 0 0.5593680264527876 0.64631826240207424 0 0 0 0 86.101041654750588 -75.760469497034592 0 -75.760469497034592 81.385102155935328 0 0 0 0 19.136486935839912 49.754708983307282 0 49.754708983307282 56.562968717694275 0 0 0 0 16.03761004775879 -44.104503563251455 0 -44.104503563251455 156.68849469321253 0 0 0 0 -1.8475487972100382 6.9597034234092234 0 6.9597034234092234 -0.26790209730233983 0 0 0 0 -32.435217776343052 36.001586499786072 0 36.001586499786072 63.569392906884786 0 0 0 0 35.250308549046736 13.604430764504578 0 13.604430764504578 4.2673920565506078 0 0 0 0 -10.098666032916299 154.84041314409683 0 154.84041314409683 -126.1921153119888 0 0 0 0 27.575312972181564 34.459140787217848 0 34.459140787217848 -12.227825411722733 0 0 0 0 28.118998466874473 15.001771261948306 0 15.001771261948306 -6.4630424690156474 0 0 0 0 17.002501444745576 11.605926031628996 0 11.605926031628996 19.233417985924007 0 0 0 0 25.660436012744867 23.348680409003265 0 23.348680409003265 9.0208409740057505 0 0 0 0 28.145082710259885 9.2028392432914643 0 9.2028392432914643 0.093437237307171017 0 0 0 0 24.837848074770591 11.897063659372733 0 11.897063659372733 3.0433817671910219 0 0 0 0 100.65876400372144 35.685440201778306 0 35.685440201778306 3.5903855316500994 0 0 0 0 26.065545871540962 20.989722731732485 0 20.989722731732485 22.752324714683255 0 0 0 0 33.666390606385903 16.982484967101868 0 16.982484967101868 -7.2838075535132702 0 0 0 0 58.882446868839907 29.939112229401189 0 29.939112229401189 -1.2298552782065144 0 0 0 0 56.156855056750828 24.978900371414056 0 24.978900371414056 1.0183829582624639 0 0 0 0 53.584720706839562 7.6139320910576771 0 7.6139320910576771 -11.348186053412064 0 0 0 0 47.245142560863314 33.355858028033254 0 33.355858028033254 -18.906841701660596 0 0 0 0 37.782995559962686 15.638955261617483 0 15.638955261617483 5.0087267321325104 0 0 0 0 -5.3489999412522593 66.006664068351427 0 66.006664068351427 -25.417582043922266 0 0 0 0 68.358434092864627 3.0205764154193275 0 3.0205764154193275 -9.9358563777154814 0 0 0 0 68.28332142571162 2.7438411765983801 0 2.7438411765983801 -10.772986534665506 0 0 0 0 42.75609250214552 13.554414764808008 0 13.554414764808008 7.4411967284365854 0 0 0 0 66.841182598742307 3.4430534618641104 0 3.4430534618641104 -6.2302175246173306 0 0 0 0 53.666813226906399 -15.515766036667998 0 -15.515766036667998 1.9378631487028777 0 0 0 0 69.150811726565735 -4.8612755231008578 0 -4.8612755231008578 -6.5412963787393892 0 0 0 0 70.09840660561531 -2.3842996797536671 0 -2.3842996797536671 -20.380754223647273 0 0 0 0 84.6102197315995 0.99622054971905527 0 0.99622054971905527 -23.568565969982728 0 0 0 0 73.624550155152974 11.909674518353086 0 11.909674518353086 -17.614538025296952 0 0 0 0 95.547194397760904 15.397154386792636 0 15.397154386792636 -18.301558747773129 0 0 0 0 82.837581590832997 10.44401512836987 0 10.44401512836987 -6.8086044242966182 0 0 0 0 96.991112293977494 7.8357182892630135 0 7.8357182892630135 -26.883830265534925 0 0 0 0 76.630628904746118 -5.1448495512013324 0 -5.1448495512013324 -23.377206108322753 0 0 0 0 117.32413816581175 18.788082144141868 0 18.788082144141868 -11.466429545871051 0 0 0 0 96.994243432110125 -40.409796065082446 0 -40.409796065082446 -30.30934593179245 0 0 0 0 40.279784553142235 -28.225963026219915 0 -28.225963026219915 -10.497472444489404 0 0 0 0 144.99363756937692 -4.843399781074254 0 -4.843399781074254 -21.887909428677176 0 0 0 0 81.553317785386753 -7.8018832180732716 0 -7.8018832180732716 -18.444314286028771 0 0 0 0 93.319312749314122 -13.511977307079178 0 -13.511977307079178 -32.405220165868741 0 0 0 0 65.289704109607555 -11.832321297197723 0 -11.832321297197723 -26.101632215877089 0 0 0 0 76.299033744915505 -32.09296141067216 0 -32.09296141067216 -40.287073805503496 0 0 0 0 38.693828948009468 -28.381113355911566 0 -28.381113355911566 -27.844287780356353 0 0 0 0 24.625591217562032 -28.80453132941193 0 -28.80453132941193 -29.554449833226499 0 0 0 0 65.114481183019961 -28.343971547028559 0 -28.343971547028559 -39.832559949615188 0 0 0 0 83.054354283918656 -9.0787695609540151 0 -9.0787695609540151 -35.584452760093882 0 0 0 0 55.757262730454386 -20.364570340965656 0 -20.364570340965656 -22.086625444046149 0 0 0 0 167.78095536207547 167.34396545816071 0 167.34396545816071 208.53223199931654 0 0 0 0 47.622415902540695 -15.329542939013727 0 -15.329542939013727 -0.089651947054655068 0 0 0 0 157.50558303441358 84.222380168156178 0 84.222380168156178 142.24672550099422 0 0 0 0 109.38313881299655 200.45716229532059 0 200.45716229532059 290.8688829028597 0 0 0 0 332.92684135398304 218.06815210764853 0 218.06815210764853 189.35618585322572 0 0 0 0 237.98618290901504 224.30100052188664 0 224.30100052188664 225.34007207807645 0 0 0 0 244.14352358055976 148.78517854976906 0 148.78517854976906 155.85845358539882 0 0 0 0 383.1722493751513 195.72566665426166 0 195.72566665426166 156.11099196579744 0 0 0 0 39.60870810797681 0.22289540177138178 0 0.22289540177138178 24.83405613354978 0 0 0 0 342.44141011959118 202.68767149658004 0 202.68767149658004 160.57690169033231 0 0 0 0 297.33009719723105 198.94895912191109 0 198.94895912191109 172.32256226498976 0 0 0 0 320.9264686637398 124.87380429579571 0 124.87380429579571 48.033550754867974 0 0 0 0 297.42477558181497 178.59464368018726 0 178.59464368018726 165.35056456406892 0 0 0 0 202.46657142652111 160.205678908761 0 160.205678908761 188.14368638632004 0 0 0 0 238.75071990315337 135.43184015720908 0 135.43184015720908 183.67337300651343 0 0 0 0 269.90813180291298 177.09908909130445 0 177.09908909130445 171.61110949477916 0 0 0 0 109.87828192385496 88.583400561801227 0 88.583400561801227 169.85914300526019 0 0 0 0 163.90448902992648 135.83865436135056 0 135.83865436135056 187.30038314488593 0 0 0 0 231.24041581408528 140.33206615929066 0 140.33206615929066 156.16741478068252 0 0 0 0 223.16096363084216 176.29749627097681 0 176.29749627097681 192.2654695454421 0 0 0 0 138.0750732224551 66.12623109931701 0 66.12623109931701 95.407440568309539 0 0 0 0 129.32599978799226 53.279305721177479 0 53.279305721177479 125.88207219720971 0 0 0 0 109.00465273740701 86.554856001979715 0 86.554856001979715 141.04598959776013 0 0 0 0 102.27860730978136 118.56407442267482 0 118.56407442267482 123.00885764548912 0 0 0 0 149.33921881791321 97.782641207480992 0 97.782641207480992 126.18717158359874 0 0 0 0 149.9356624857628 86.371469100250806 0 86.371469100250806 147.68754523046664 0 0 0 0 19.939129450170014 -8.0794121788372237 0 -8.0794121788372237 9.1055608096340421 0 0 0 0 105.75045670513646 35.920621744920936 0 35.920621744920936 75.929924398446019 0 0 0 0 9.8609006457061525 -8.2716816280006142 0 -8.2716816280006142 -3.4170803172876063 0 0 0 0 73.910905812546844 65.935151007747663 0 65.935151007747663 150.50663306868591 0 0 0 0 116.85176470750594 106.71255029641725 0 106.71255029641725 82.791503640586825 0 0 0 0 147.80793548152724 91.541968817456109 0 91.541968817456109 105.88616699443446 0 0 0 0 113.72989868440345 93.176655852192198 0 93.176655852192198 162.21808777176557 0 0 0 0 152.76911713541631 126.84183472121731 0 126.84183472121731 160.94421422358755 0 0 0 0 201.03642019939434 126.64365372242901 0 126.64365372242901 150.54243531686006 0 0 0 0 159.32466966754873 131.53936449087632 0 131.53936449087632 169.69420831706884 0 0 0 0 158.55827172821751 102.84585664332849 0 102.84585664332849 124.24950114342573 0 0 0 0 165.22943104844671 112.50380543274059 0 112.50380543274059 175.1127350953866 0 0 0 0 175.3777524367797 117.08464386316336 0 117.08464386316336 230.88639064444396 0 0 0 0 234.00953503842175 154.45643163656041 0 154.45643163656041 175.47788547005803 0 0 0 0 111.1423150667033 117.73375093797267 0 117.73375093797267 224.80545187781172 0 0 0 0 174.02080158216268 138.38918202825243 0 138.38918202825243 139.68928161654731 0 0 0 0 191.37801422185294 124.14977855447978 0 124.14977855447978 205.60443006893092 0 0 0 0 176.01291897580813 184.00995895204687 0 184.00995895204687 266.31205342705698 0 0 0 0 111.42535144882382 -13.722408997494483 0 -13.722408997494483 -24.2937965284322 0 0 0 0 125.63679953493485 -22.622989242940925 0 -22.622989242940925 -16.895297442555716 0 0 0 0 62.194809418087516 -357.57407598653924 0 -357.57407598653924 -114.47082949239064 0 0 0 0 405.18932041111111 121.65026608976166 0 121.65026608976166 -73.802665879315896 0 0 0 0 27.692600103251834 13.128242033829025 0 13.128242033829025 4.6551250644510471 0 0 0 0 39.866804114774823 -24.115504724718669 0 -24.115504724718669 -65.895883617973595 0 0 0 0 133.5890310866385 -12.063996994280558 0 -12.063996994280558 -30.437061905009742 0 0 0 0 183.91580590834201 39.450210345992446 0 39.450210345992446 -169.64348726635717 0 0 0 0 336.37244557763916 165.30272519010487 0 165.30272519010487 162.50693936472271 0 0 0 0 293.10649485917384 141.40393182342996 0 141.40393182342996 178.93274861966711 0 0 0 0 231.73214514116989 163.49717597146082 0 163.49717597146082 210.9524889378381 0 0 0 0 561.98776575535885 684.77390081943508 0 684.77390081943508 535.33336126543304 0 0 0 0 -49.862907263988745 -153.71981667014853 0 -153.71981667014853 -32.552176593874719 0 0 0 0 4.8607379418087078 -3.3608867547008714 0 -3.3608867547008714 3.1772842786496911 0 0 0 0 -69.477629044893547 -76.482493263333097 0 -76.482493263333097 -46.909786747463841 0 0 0 0 605.18149203368375 -182.41189162530995 0 -182.41189162530995 1.2894892696563147 0 0 0 0 770.44536862199311 474.40776031332462 0 474.40776031332462 -73.016965412180184 0 0 0 0 589.52647398093177 65.51854817680686 0 65.51854817680686 -152.81879130350353 0 0 0 0 488.52844018977885 -305.80851219778577 0 -305.80851219778577 -263.29159249718543 0 0 0 0 12.668855681244167 -173.14596951605051 0 -173.14596951605051 -26.833026470482963 0 0 0 0 73.697178021175205 -142.83563486013509 0 -142.83563486013509 25.11026480497901 0 0 0 0 36.632459777163604 -90.320762815907514 0 -90.320762815907514 -47.160133334612738 0 0 0 0 59.222549468481702 -73.884231796488592 0 -73.884231796488592 -84.88619887778458 0 0 0 0 62.00317654014907 -24.320763902893873 0 -24.320763902893873 -67.790197933543368 0 0 0 0 4.8962331797520164 -28.788701864138147 0 -28.788701864138147 -57.745388051638656 0 0 0 0 50.268391461046122 -52.233700325228597 0 -52.233700325228597 -59.434984487826227 0 0 0 0 5.6310196899139555 -27.857419698093736 0 -27.857419698093736 -87.818168489707205 0 0 0 0 615.00955715490272 421.70618131580011 0 421.70618131580011 156.32544127745064 0 0 0 0 15.224565401817301 -12.091650134833372 0 -12.091650134833372 9.9811315173407333 0 0 0 0 6.6049875759345014 -63.094104560205324 0 -63.094104560205324 -83.128897697822083 0 0 0 0 5.6204237191705033 -63.46708122558357 0 -63.46708122558357 -63.933906168134911 0 0 0 0 26.374673594153137 -25.686976728468153 0 -25.686976728468153 -16.655215630724342 0 0 0 0 56.031554303270241 -35.627848360618714 0 -35.627848360618714 -65.820201561027261 0 0 0 0 28.559727889467126 -23.307464826062684 0 -23.307464826062684 14.945140787771628 0 0 0 0 59.949761278126971 -30.376020856140258 0 -30.376020856140258 -16.886877314282117 0 0 0 0 390.38681247419663 77.753879826373293 0 77.753879826373293 32.821882786948663 0 0 0 0 342.31436533792294 207.54531219843182 0 207.54531219843182 79.300146425335697 0 0 0 0 509.99673538918432 386.3450459490881 0 386.3450459490881 282.96653416589027 0 0 0 0 313.13528835836041 187.75818542983086 0 187.75818542983086 139.37107814600586 0 0 0 0 384.42379027661809 167.82293771639638 0 167.82293771639638 49.750946728033796 0 0 0 0 542.55372305266792 110.04152635786363 0 110.04152635786363 43.436310595744928 0 0 0 0 -1.7526478547538318 -0.43769974403522838 0 -0.43769974403522838 1.724186315474032 0 0 0 0 251.95237564662239 -73.466621566064077 0 -73.466621566064077 -39.429058544587861 0 0 0 0 -40.14298571809195 208.04763105462882 0 208.04763105462882 39.069678755831376 0 0 0 0 176.30511643090358 172.79627232289849 0 172.79627232289849 174.324930643367 0 0 0 0 523.36973655124893 119.27700324677812 0 119.27700324677812 149.70276159397099 0 0 0 0 491.0901762789872 303.44704476857873 0 303.44704476857873 51.136788451250652 0 0 0 0 773.71471387753263 300.30388886787824 0 300.30388886787824 23.020245968462746 0 0 0 0 476.6491007504992 123.98028948510037 0 123.98028948510037 -10.490076020937067 0 0 0 0 -69.417272061502445 -86.344009829285028 0 -86.344009829285028 65.080765357401788 0 0 0 0 357.85652413807111 15.379364565533081 0 15.379364565533081 -108.09545620495055 0 0 0 0 -0.29899882868244276 -0.68675871851317538 0 -0.68675871851317538 -3.5990442539806393 0 0 0 0 229.29566927715314 -190.39233774292325 0 -190.39233774292325 9.4917121387202315 0 0 0 0 651.70163181443786 70.866619431109712 0 70.866619431109712 -119.5924260689435 0 0 0 0 41.609438011451857 -62.479321082216316 0 -62.479321082216316 -41.562069740613424 0 0 0 0 62.213588502956554 13.106413442618987 0 13.106413442618987 -79.742372821615731 0 0 0 0 9.0554310115537469 -2.0433589195796458 0 -2.0433589195796458 -11.070419088278156 0 0 0 0 62.213588503102073 13.106413442662415 0 13.106413442662415 -79.742372821609024 0 0 0 0 7.6720781567699419 -1.2460212744056776 0 -1.2460212744056776 -2.2454843838287459 0 0 0 0 62.213588503029314 13.106413442587836 0 13.106413442587836 -79.742372821624485 0 0 0 0 427.64952271436778 -240.20426430460748 0 -240.20426430460748 144.04236504928213 0 0 0 0 51.285597365456567 10.397275057698664 0 10.397275057698664 -12.114737734490379 0 0 0 0 27.543711593840271 6.1241866063182897 0 6.1241866063182897 -13.806567411592368 0 0 0 0 27.307171514833243 16.929045081178558 0 16.929045081178558 -13.461332736222019 0 0 0 0 24.462079884459058 3.1522676957225819 0 3.1522676957225819 -24.159198925287143 0 0 0 0 594.69964163081022 -646.39293588336204 0 -646.39293588336204 76.85988661646843 0 0 0 0 6.7937483703711621 0.86617701579642414 0 0.86617701579642414 -3.6670047290505918 0 0 0 0 -140.39289208909031 220.80365138980142 0 220.80365138980142 -109.56522464674708 0 0 0 0 65.299389970299671 -94.091367001348317 0 -94.091367001348317 -121.55437755938988 0 0 0 0 -41.514717906524311 4.9287484720996417 0 4.9287484720996417 -40.722266869210671 0 0 0 0 44.630134355612995 0.15182218586602403 0 0.15182218586602403 -3.6848705495118299 0 0 0 0 156.82473468939133 32.095532333870096 0 32.095532333870096 42.140625163030563 0 0 0 0 2.3727149449987337 -80.972604108634641 0 -80.972604108634641 64.146524178097934 0 0 0 0 5.2490124243195169 -151.59897688613819 0 -151.59897688613819 -6.7692919626852017 0 0 0 0 2.2735925496537561 6.1555150052363388 0 6.1555150052363388 -6.1015969466796163 0 0 0 0 -78.681220616483188 143.1304990805512 0 143.1304990805512 -92.649491886554415 0 0 0 0 59.014482421289358 -8.66735450547651 0 -8.66735450547651 -83.790894499349861 0 0 0 0 40.968774166821277 13.244809031576672 0 13.244809031576672 3.9756259033972583 0 0 0 0 8.2712808087512109 0.89215295270784623 0 0.89215295270784623 -0.31630283570120293 0 0 0 0 33.842083238287159 3.6399632949315008 0 3.6399632949315008 -1.5403364889925442 0 0 0 0 5.9630029078834923 8.1493770022198078 0 8.1493770022198078 -54.214533175364977 0 0 0 0 -0.11568062501674703 -0.10245184927771334 0 -0.10245184927771334 -0.18436214274511312 0 0 0 0 48.811788532824721 -0.31024478360808416 0 -0.31024478360808416 -8.2121011375249395 0 0 0 0 28.092911349769565 17.43958250470029 0 17.43958250470029 -19.044708199719089 0 0 0 0 84.353514589893166 7.4611781927145326 0 7.4611781927145326 -23.368860062743948 0 0 0 0 77.070312658426701 -1.1509182739915786 0 -1.1509182739915786 -23.851134119168421 0 0 0 0 51.981151259416947 3.9019159929249838 0 3.9019159929249838 -11.383613115474418 0 0 0 0 18.660339515292435 19.964444726335312 0 19.964444726335312 -9.7892136453759875 0 0 0 0 9.1002057230216451 14.883155341190927 0 14.883155341190927 -12.416283798383912 0 0 0 0 -1.8201488737977343 -9.1105100974819209 0 -9.1105100974819209 -0.1108001011179777 0 0 0 0 14.338981953791517 -13.077139210913575 0 -13.077139210913575 0.175398648234595 0 0 0 0 14.429592821754341 -13.166308391361817 0 -13.166308391361817 -0.093633268451466245 0 0 0 0 71.650396891171113 -8.1523159622601362 0 -8.1523159622601362 -24.473056273822234 0 0 0 0 69.012622315893168 48.436548308180647 0 48.436548308180647 -25.024228465931472 0 0 0 0 69.225550953764468 15.998362143179914 0 15.998362143179914 -6.6625174164031336 0 0 0 0 21.91030853150005 11.455419601995048 0 11.455419601995048 -24.072805372075308 0 0 0 0 693.09614501962824 -42.85967034165671 0 -42.85967034165671 -135.17751687888563 0 0 0 0 525.46808799300925 -144.7331533221851 0 -144.7331533221851 -16.108453850867818 0 0 0 0 -2.3384771294624045 1.1983541561437221 0 1.1983541561437221 -0.92325395399342192 0 0 0 0 338.30757030159293 399.24454899359495 0 399.24454899359495 278.11635466697686 0 0 0 0 256.497845810125 -237.40033564741509 0 -237.40033564741509 90.216906383637934 0 0 0 0 -197.11158090225945 72.98126857577131 0 72.98126857577131 123.99642474819395 0 0 0 0 699.80348450738529 11.015816652822878 0 11.015816652822878 -210.2374437419835 0 0 0 0 717.83473463528208 72.181865060788368 0 72.181865060788368 -220.81265224708835 0 0 0 0 436.99206326648709 67.084901834247034 0 67.084901834247034 -60.65215478683308 0 0 0 0 748.71329095089459 356.42886577624608 0 356.42886577624608 39.370382375741883 0 0 0 0 303.70847396663157 109.10122250964423 0 109.10122250964423 -53.126742185103467 0 0 0 0 6.5740775506765203 -2.2173873450119999 0 -2.2173873450119999 0.51409916830284152 0 0 0 0 1070.731444563673 291.43945365873515 0 291.43945365873515 -108.15861350548221 0 0 0 0 17.814132946388895 -1.2981455241598461 0 -1.2981455241598461 0.49119709364281872 0 0 0 0 1592.2341030221432 -505.18822352056077 0 -505.18822352056077 -540.01842398488952 0 0 0 0 573.88103962175956 428.83579021161154 0 428.83579021161154 289.27119094990621 0 0 0 0 386.42829556201468 491.12660206591499 0 491.12660206591499 527.58907564941023 0 0 0 0 73.179927827965003 -422.84017930053506 0 -422.84017930053506 -468.32254984762699 0 0 0 0 102.73094148148084 182.78399103856464 0 182.78399103856464 165.58410262111374 0 0 0 0 391.82131531852065 979.35239908793346 0 979.35239908793346 159.42599958864298 0 0 0 0 575.55804849530978 -1058.4352393409304 0 -1058.4352393409304 414.37744489888473 0 0 0 0 -112.76872323009593 46.836393853775235 0 46.836393853775235 279.07034262800516 0 0 0 0 159.3146883782756 307.79418109269091 0 307.79418109269091 470.133667510956 0 0 0 0 546.44780523092777 378.68942996452915 0 378.68942996452915 166.77095574827854 0 0 0 0 319.59089163194585 194.05979921636629 0 194.05979921636629 92.829159511084981 0 0 0 0 135.99376926984405 53.429707236533886 0 53.429707236533886 23.050351450333892 0 0 0 0 281.43804170233489 229.47846849424536 0 229.47846849424536 132.17279369234257 0 0 0 0 -14.77124678997825 -460.09392652112979 0 -460.09392652112979 -1012.225799097424 0 0 0 0 37.431593954388518 388.35358098789061 0 388.35358098789061 -40.009461415696023 0 0 0 0 8.2634547614792666 -4.2832939352268085 0 -4.2832939352268085 2.4877503172604074 0 0 0 0 698.68916552436713 78.566148266212053 0 78.566148266212053 27.14888328600955 0 0 0 0 371.24043745529343 85.842167195841981 0 85.842167195841981 -0.06937867344691101 0 0 0 0 62.664038799382979 32.638872062681003 0 32.638872062681003 -34.97203015176072 0 0 0 0 -4.8394838203457766 16.557139292482034 0 16.557139292482034 9.7087479503763454 0 0 0 0 110.24143504381937 -212.40862101100538 0 -212.40862101100538 -384.14173636231453 0 0 0 0 1175.6117791901925 438.70295972927306 0 438.70295972927306 -768.65664209582769 0 0 0 0 13.278958167968256 3.7357029169274227 0 3.7357029169274227 -11.082941711074124 0 0 0 0 106.82247008081686 -173.78710453267882 0 -173.78710453267882 68.007374032453299 0 0 0 0 151.15051942344871 -20.429617879743091 0 -20.429617879743091 -5.1050448717528525 0 0 0 0 86.026269914582372 -96.383358603151237 0 -96.383358603151237 152.97376183924598 0 0 0 0 11.028449455693845 9.1709623975177976 0 9.1709623975177976 8.6870299362760512 0 0 0 0 -12.031495013143285 21.114891972051055 0 21.114891972051055 31.951422604260188 0 0 0 0 10.712299261489534 -18.430384145606354 0 -18.430384145606354 109.07189684349805 0 0 0 0 45.743870021367911 -98.899564278532125 0 -98.899564278532125 -61.940929294436046 0 0 0 0 15.834478058832417 -2.1787572682100986 0 -2.1787572682100986 0.91351635075052284 0 0 0 0 32.646725824051828 -857.17480968327288 0 -857.17480968327288 742.47980975548853 0 0 0 0 -65.688795617606957 712.59413125916763 0 712.59413125916763 1097.0578441761368 0 0 0 0 -103.72805980010889 -32.270237543013991 0 -32.270237543013991 92.16439367377825 0 0 0 0 47.172546671325108 43.705310956732148 0 43.705310956732148 42.278799414907041 0 0 0 0 58.578136921278201 -25.024796404796462 0 -25.024796404796462 -36.870219898218011 0 0 0 0 3.4778973982956813 -1.4713017974597449 0 -1.4713017974597449 -1.1783328816735694 0 0 0 0 182.45625502848998 148.81463331763689 0 148.81463331763689 135.22403633401484 0 0 0 0 -35.829898632197001 -116.44284411801941 0 -116.44284411801941 126.77137643045262 0 0 0 0 140.89721294447372 -125.56763377406594 0 -125.56763377406594 13.197496667211908 0 0 0 0 11.565001466294291 3.9778345166893843 0 3.9778345166893843 1.7008284457344252 0 0 0 0 24.559776998643429 25.209300278682676 0 25.209300278682676 7.0135427284828893 0 0 0 0 0.26486315882561939 -1.2612015611286012 0 -1.2612015611286012 2.2992293152135184 0 0 0 0 4.5200029636158092 1.0661577921828354 0 1.0661577921828354 0.087128146083705227 0 0 0 0 264.22173972334713 -136.3708503452749 0 -136.3708503452749 89.121733129294626 0 0 0 0 20.661308668000856 38.782204208671075 0 38.782204208671075 -14.065573711649296 0 0 0 0 8.3858417264437435 0.80197161226239544 0 0.80197161226239544 0.52852058461140494 0 0 0 0 64.170665417346754 -3.4098370653575145 0 -3.4098370653575145 -61.308570709501211 0 0 0 0 82.123135257163085 19.313452807998203 0 19.313452807998203 9.2843712040669999 0 0 0 0 0.1688954264496374 -0.17646157911566718 0 -0.17646157911566718 1.2626001136656297 0 0 0 0 127.56752020206477 77.377570411556633 0 77.377570411556633 9.9500599392296181 0 0 0 0 129.08471691384329 63.454242786079817 0 63.454242786079817 49.363118928613829 0 0 0 0 0.13140271801967174 24.753623739041444 0 24.753623739041444 76.8457217627749 0 0 0 0 13.598041788936825 -7.9865782471354407 0 -7.9865782471354407 3.7444920783406559 0 0 0 0 92.045593879200169 45.746686481911979 0 45.746686481911979 -0.51504665631495072 0 0 0 0 3.3777076111582574 5.5553227777462837 0 5.5553227777462837 30.062542260368105 0 0 0 0 14.131194538653315 1.9732250990819011 0 1.9732250990819011 0.46434378439446888 0 0 0 0 164.46728302502743 63.784845600333398 0 63.784845600333398 8.6330479053502813 0 0 0 0 172.95167400014179 31.4497746883236 0 31.4497746883236 -24.213162571982139 0 0 0 0 174.53795870652539 22.722992511543907 0 22.722992511543907 12.893505666560486 0 0 0 0 141.26056115277606 42.458293944067691 0 42.458293944067691 2.707044662797216 0 0 0 0 94.129515237116721 12.909712800113084 0 12.909712800113084 -3.2487019455620612 0 0 0 0 90.391545374873374 28.821384207016919 0 28.821384207016919 7.3446108131651329 0 0 0 0 86.857314494794338 -5.8611445384907981 0 -5.8611445384907981 11.492478715641166 0 0 0 0 47.858725146686652 -1.9713761931444154 0 -1.9713761931444154 -23.844040239033767 0 0 0 0 -174.01805522509676 -239.56531157595055 0 -239.56531157595055 -168.77682235223983 0 0 0 0 91.096066179088666 -396.73643007562896 0 -396.73643007562896 -553.92011853084841 0 0 0 0 48.89012648705193 8.4804958293116215 0 8.4804958293116215 9.4133179789059795 0 0 0 0 -871.34402988228248 -486.35388286992384 0 -486.35388286992384 -30.252665559331945 0 0 0 0 -1579.2211325016688 -328.51119914494848 0 -328.51119914494848 73.980534344322223 0 0 0 0 -91.405064705268614 165.88614241253742 0 165.88614241253742 103.57400938737192 0 0 0 0 -664.22536563494941 550.75089001107517 0 550.75089001107517 -28.039933771494589 0 0 0 0 134.17534463123593 -23.057429031615357 0 -23.057429031615357 11.032486608309227 0 0 0 0 110.80188149708374 -25.428072631370028 0 -25.428072631370028 -25.827567768730617 0 0 0 0 228.06294603997958 -53.429679910523191 0 -53.429679910523191 -89.096223938082403 0 0 0 0 64.064171849744056 -3.0431236818760397 0 -3.0431236818760397 6.3332958680856599 0 0 0 0 143.6351124829398 -7.3717006259124673 0 -7.3717006259124673 27.493984357859517 0 0 0 0 20.3232317991299 13.863590239694432 0 13.863590239694432 18.260457746939043 0 0 0 0 132.73419164591178 -35.232420263992481 0 -35.232420263992481 50.441119453470947 0 0 0 0 177.97852660910576 -80.215079256569425 0 -80.215079256569425 12.056432662503539 0 0 0 0 61.425648188240302 -39.764048628433386 0 -39.764048628433386 14.368893189485789 0 0 0 0 143.24633278144756 -39.840398882586669 0 -39.840398882586669 -10.708554449779967 0 0 0 0 66.713817961674067 -11.837925421140881 0 -11.837925421140881 -37.478603507200347 0 0 0 0 58.062066585936009 -49.89708302975535 0 -49.89708302975535 -0.40483911581577559 0 0 0 0 40.171579051816565 3.0643729207395864 0 3.0643729207395864 -24.22387592534367 0 0 0 0 59.550538522336865 -19.881197100425425 0 -19.881197100425425 -3.9292381420019638 0 0 0 0 85.44088662386639 -17.72565491777209 0 -17.72565491777209 -62.260493469662833 0 0 0 0 81.75370856023801 -30.61465128505165 0 -30.61465128505165 -68.803485523662403 0 0 0 0 55.666611469212455 -0.60094441099028018 0 -0.60094441099028018 -33.359418074234135 0 0 0 0 136.56507184290513 -8.3409174805622968 0 -8.3409174805622968 4.1298538225710217 0 0 0 0 164.28899882851874 40.063443565212765 0 40.063443565212765 131.64784026941197 0 0 0 0 84.912495762483474 7.896192991502943 0 7.896192991502943 -33.164488321860624 0 0 0 0 73.744746854586992 -37.098395744998754 0 -37.098395744998754 -69.982497170222672 0 0 0 0 69.544833038540673 -29.760559691553567 0 -29.760559691553567 -82.013812610020182 0 0 0 0 64.566514180361992 -24.687531612665907 0 -24.687531612665907 -60.394011748720331 0 0 0 0 107.80378074914915 94.579012382123437 0 94.579012382123437 264.60396007799272 0 0 0 0 93.674409675343384 -6.2116025318335062 0 -6.2116025318335062 -27.765148224596082 0 0 0 0 100.43054212856441 108.82113882098929 0 108.82113882098929 247.16687662952336 0 0 0 0 153.00598502428329 -27.913545795847313 0 -27.913545795847313 295.93632384131342 0 0 0 0 112.27874010291816 60.337184820710263 0 60.337184820710263 134.50546605724412 0 0 0 0 123.51893062973977 -138.47191806969386 0 -138.47191806969386 476.42880424584382 0 0 0 0 -1.2385272146216355 -1.2757969379057528 0 -1.2757969379057528 7.8628557740941289 0 0 0 0 231.42662394215586 -122.37762021494473 0 -122.37762021494473 217.42442543755169 0 0 0 0 248.67209765920416 -22.783560888971806 0 -22.783560888971806 -43.670583652718051 0 0 0 0 368.34545144349977 388.41186466178442 0 388.41186466178442 230.7184903394791 0 0 0 0 87.02148105485503 170.46550638566919 0 170.46550638566919 112.98223087661972 0 0 0 0 86.165570726179794 177.11548078960448 0 177.11548078960448 102.54627822830662 0 0 0 0 -149.03360955651442 11.316123092979069 0 11.316123092979069 144.00472103889297 0 0 0 0 -60.763202235015342 -45.962895981860129 0 -45.962895981860129 97.903967662565265 0 0 0 0 -71.916709113427714 127.24679508984934 0 127.24679508984934 318.05081050305671 0 0 0 0 338.58189913146634 214.42798692555516 0 214.42798692555516 113.37102549658084 0 0 0 0 -95.219681660149945 359.49000067820816 0 359.49000067820816 430.26262271967425 0 0 0 0 -363.34298508244683 227.29279623776529 0 227.29279623776529 469.2813181134261 0 0 0 0 -277.5688818115741 -76.257148197828428 0 -76.257148197828428 226.39493944887363 0 0 0 0 -335.81312258940216 -59.085229702736683 0 -59.085229702736683 230.11413733274821 0 0 0 0 28.36570689639727 2.488452167274346 0 2.488452167274346 22.052228745623843 0 0 0 0 136.22175153040735 42.027429942439994 0 42.027429942439994 185.46073910070845 0 0 0 0 45.333701614603058 -8.0583952675113935 0 -8.0583952675113935 -34.233859371684211 0 0 0 0 117.02690014839027 109.15415473688518 0 109.15415473688518 150.83589542096161 0 0 0 0 227.01393391480087 189.99181450409378 0 189.99181450409378 -41.570636274082062 0 0 0 0 72.198572265158873 280.79533224067745 0 280.79533224067745 414.07739881608995 0 0 0 0 -97.573805640458886 22.021798063889037 0 22.021798063889037 242.85213130431657 0 0 0 0 1387.8973609667373 -382.70662069175705 0 -382.70662069175705 -39.44785291331209 0 0 0 0 0.96206149324707724 -0.2979978308141682 0 -0.2979978308141682 4.8768291592703505 0 0 0 0 1088.6082130405484 22.271847570439604 0 22.271847570439604 884.18432687435416 0 0 0 0 1.5144611682339146 -2.2064664202022612 0 -2.2064664202022612 10.51949216912984 0 0 0 0 749.973620360528 600.57190204158223 0 600.57190204158223 122.73560797717073 0 0 0 0 959.12679647720506 -277.0339419558295 0 -277.0339419558295 202.73070152817036 0 0 0 0 -181.48972977844096 149.73279637047744 0 149.73279637047744 253.1518780872284 0 0 0 0 204.45043018228898 -92.424792844084095 0 -92.424792844084095 81.367921520045456 0 0 0 0 1066.8373678634221 19.743481670100607 0 19.743481670100607 -217.02144885246889 0 0 0 0 1.0116921058820196 -6.047471936379921 0 -6.047471936379921 28.826432609102561 0 0 0 0 385.69532444741344 148.88890931288915 0 148.88890931288915 81.216640930029826 0 0 0 0 621.53218650380586 -224.20319146312772 0 -224.20319146312772 166.86234712574606 0 0 0 0 1040.5758534376578 -484.34342629424987 0 -484.34342629424987 111.81300360144087 0 0 0 0 27.583248057308083 11.8738345990173 0 11.8738345990173 -35.481593659216742 0 0 0 0 -51.435850255409605 -8.3829939380111682 0 -8.3829939380111682 5.2865654791755787 0 0 0 0 -27.757140237863496 16.181413518279641 0 16.181413518279641 5.1526929560019035 0 0 0 0 -36.609203057363629 2.517344790571542 0 2.517344790571542 -11.984828221924943 0 0 0 0 -21.432730939144676 -8.8764183374689765 0 -8.8764183374689765 68.897262288747697 0 0 0 0 31.825765700450575 91.489958084710452 0 91.489958084710452 81.309074348835566 0 0 0 0 -34.24978000261035 148.98738681768873 0 148.98738681768873 265.42434077839971 0 0 0 0 163.50014987305622 324.05425975645085 0 324.05425975645085 63.807139379087403 0 0 0 0 -6.1649836442666128 66.186620630620382 0 66.186620630620382 73.733647768788614 0 0 0 0 110.21521374557051 109.00710565504778 0 109.00710565504778 75.967770679228124 0 0 0 0 176.07680835291831 187.61652711895204 0 187.61652711895204 1.5597638415370056 0 0 0 0 122.19295426925237 117.42327323652626 0 117.42327323652626 31.922722526374855 0 0 0 0 325.56479623701307 64.670118648162315 0 64.670118648162315 -503.57568104294023 0 0 0 0 136.25356620344985 -16.643817519651861 0 -16.643817519651861 -31.29577193867037 0 0 0 0 473.42255826789187 432.69224851074705 0 432.69224851074705 -120.31156585924873 0 0 0 0 149.50806114730949 327.89972061879234 0 327.89972061879234 302.28989055635975 0 0 0 0 466.93916564989195 345.67730142870414 0 345.67730142870414 264.34289847292712 0 0 0 0 288.72125268132368 345.92975119684434 0 345.92975119684434 323.12884283010953 0 0 0 0 700.5584131089272 -1011.7391868009845 0 -1011.7391868009845 -37.702881495012662 0 0 0 0 301.07578282605391 -560.06454109375863 0 -560.06454109375863 -512.51899772449451 0 0 0 0 -104.40648405451452 519.62525598747879 0 519.62525598747879 1012.204488125506 0 0 0 0 558.60652324810508 -157.90191600375465 0 -157.90191600375465 822.94383215825655 0 0 0 0 143.49366580256839 -20.801611031572151 0 -20.801611031572151 -23.209181348076175 0 0 0 0 205.38357101827569 47.869690036462316 0 47.869690036462316 -17.550963315635272 0 0 0 0 180.37000267814619 -28.944320277597313 0 -28.944320277597313 -122.80649081687147 0 0 0 0 237.10821227211272 70.087489768753812 0 70.087489768753812 -76.455167342708876 0 0 0 0 522.68969343422214 179.26665566288116 0 179.26665566288116 7.9030662299672727 0 0 0 0 243.43353704655601 38.890525735733235 0 38.890525735733235 -46.079012909057141 0 0 0 0 227.34314137103502 170.12320278685519 0 170.12320278685519 95.947563191027896 0 0 0 0 19.261966696627496 80.107736806572561 0 80.107736806572561 121.44616953175228 0 0 0 0 199.04040720820194 262.0683358196419 0 262.0683358196419 305.58692878650038 0 0 0 0 328.5783383392627 54.141861530448288 0 54.141861530448288 -0.0095201910941060952 0 0 0 0 3.0759056138858796 0.13112818130034753 0 0.13112818130034753 -0.0028172089434977399 0 0 0 0 280.68545798706327 -106.50978007900289 0 -106.50978007900289 28.016061493648749 0 0 0 0 18.618288183588447 -55.459692781847323 0 -55.459692781847323 -1.4126083342918747 0 0 0 0 133.1760736485594 39.038002554252607 0 39.038002554252607 144.10758493771814 0 0 0 0 138.54583051214649 42.563655734402609 0 42.563655734402609 9.5303147043451375 0 0 0 0 87.731912446935894 -20.334044240675784 0 -20.334044240675784 -36.60920154200241 0 0 0 0 13.793355541463825 -49.816845158652157 0 -49.816845158652157 11.843839019922125 0 0 0 0 176.7395753778037 -5.2092132467371783 0 -5.2092132467371783 -70.485637727589705 0 0 0 0 94.558747129703988 -146.74844969089446 0 -146.74844969089446 -103.95932658576977 0 0 0 0 123.2517205432691 -8.7526318947099782 0 -8.7526318947099782 -35.716409946868623 0 0 0 0 158.99932757711736 107.29910784341527 0 107.29910784341527 20.680007446051604 0 0 0 0 156.28890902564444 54.33263622321175 0 54.33263622321175 52.491039116162938 0 0 0 0 42.775004391805851 -7.3889358399806015 0 -7.3889358399806015 0.058514108078226199 0 0 0 0 2284.1553427163817 570.0286358504618 0 570.0286358504618 -102.62992136635143 0 0 0 0 929.96183280912373 504.58136577824888 0 504.58136577824888 394.74527115012393 0 0 0 0 51.461568483842711 -89.398730864946231 0 -89.398730864946231 -59.513011175544044 0 0 0 0 8.1711247231406361 30.168675771429562 0 30.168675771429562 65.167883014993592 0 0 0 0 108.95137555180918 0.8982402797992961 0 0.8982402797992961 -35.809261955945679 0 0 0 0 127.40290339549392 76.941635318203225 0 76.941635318203225 95.52098108426253 0 0 0 0 42.875942887039855 2.0976499526249199 0 2.0976499526249199 -35.217623452018564 0 0 0 0 67.715849151893053 -13.232871193124527 0 -13.232871193124527 -5.4303997304771014 0 0 0 0 8.1585761589198995 8.1092934694137853 0 8.1092934694137853 1.2541229978026798 0 0 0 0 1634.2701616625927 636.04709822407551 0 636.04709822407551 347.73263322467602 0 0 0 0 81.337501145915667 0.99642807699809954 0 0.99642807699809954 -24.898362729608305 0 0 0 0 43.99895474086361 0.93445336464056084 0 0.93445336464056084 5.9190494053456364 0 0 0 0 3494.8935842605642 2388.8515703729281 0 2388.8515703729281 1410.3759221179546 0 0 0 0 16.427901841997993 -1.4004524358111894 0 -1.4004524358111894 -1.9833068837605137 0 0 0 0 1629.4485738025542 1271.7427464463569 0 1271.7427464463569 764.84870625825067 0 0 0 0 3500.5075698272994 1354.1147502714541 0 1354.1147502714541 -64.715992572256013 0 0 0 0 2323.6712383640843 901.01011054919729 0 901.01011054919729 -231.02136319497785 0 0 0 0 3499.0235634923101 642.63404350098233 0 642.63404350098233 -494.37095084773625 0 0 0 0 3499.8033146560701 195.88688919244876 0 195.88688919244876 -623.62045221337667 0 0 0 0 2748.9285440259773 427.05272444689126 0 427.05272444689126 -541.08971753788774 0 0 0 0 2640.9796426212779 270.46077702704383 0 270.46077702704383 -284.05605448397591 0 0 0 0 2321.4282593273529 192.41577903341181 0 192.41577903341181 -292.9042403658853 0 0 0 0 2335.7414528406516 479.95522591028009 0 479.95522591028009 -132.17831007550336 0 0 0 0 1854.098801022119 499.45930460004541 0 499.45930460004541 -70.692321382851276 0 0 0 0 1576.0246370561581 263.54652508826734 0 263.54652508826734 57.973071667953491 0 0 0 0 -5.6919077543272714 23.808259202461841 0 23.808259202461841 48.004874685618148 0 0 0 0 49.371649120614165 68.022985307813087 0 68.022985307813087 59.117400297544009 0 0 0 0 -13.979916907388599 12.628612096656724 0 12.628612096656724 19.117189181072426 0 0 0 0 1910.6691298555234 226.49651810325463 0 226.49651810325463 12.021342033135284 0 0 0 0 1903.920067518804 285.7490914295422 0 285.7490914295422 -48.169392468201522 0 0 0 0 1951.3250228873803 239.23659211697282 0 239.23659211697282 -14.018439210581391 0 0 0 0 1946.2071528446395 217.54327533914284 0 217.54327533914284 -15.952096313039235 0 0 0 0 1982.3012137188052 248.38912297006186 0 248.38912297006186 -60.761129239377908 0 0 0 0 2321.2737496536138 203.08796457036976 0 203.08796457036976 -117.77045894276466 0 0 0 0 2015.0288850938014 99.176678274199958 0 99.176678274199958 -114.42226960459925 0 0 0 0 1960.0161623044405 65.154299897752537 0 65.154299897752537 -72.119831505903903 0 0 0 0 1996.6817980769192 97.187993724371836 0 97.187993724371836 -114.03245180358465 0 0 0 0 1800.5235557984488 112.46695678879001 0 112.46695678879001 -5.3958914864133476 0 0 0 0 -4.9411834438575681 5.5749316793033756 0 5.5749316793033756 8.5570777602272585 0 0 0 0 -11.532563114822551 -8.7591566148037145 0 -8.7591566148037145 -7.8166473078790659 0 0 0 0 -52.192117508717274 3.3790466467183293 0 3.3790466467183293 26.237751143953574 0 0 0 0 -12.714174559929234 11.880421409849191 0 11.880421409849191 -6.9795217362013773 0 0 0 0 1446.5854578162762 -72.79774929787186 0 -72.79774929787186 33.141681019547264 0 0 0 0 1478.3727852722004 -17.58108936968415 0 -17.58108936968415 37.060104198139925 0 0 0 0 1.335465872130559 4.5862764540386536 0 4.5862764540386536 7.3578055701866223 0 0 0 0 -33.566513637962998 16.816343894833025 0 16.816343894833025 13.375729018152242 0 0 0 0 1727.5879193901492 71.914984116501842 0 71.914984116501842 -69.788017215100723 0 0 0 0 2001.8186740646852 -218.31501104101085 0 -218.31501104101085 -95.492081544753546 0 0 0 0 2594.4321122012043 -377.57402812479529 0 -377.57402812479529 -286.34532897250904 0 0 0 0 2123.059648059927 -111.58927374150906 0 -111.58927374150906 -241.26866737417231 0 0 0 0 2764.7043014441588 -136.0348391813335 0 -136.0348391813335 -527.94541054133163 0 0 0 0 3499.2365284445696 -552.98533216459145 0 -552.98533216459145 -620.92999697425023 0 0 0 0 2802.6476295922694 -62.862162543413461 0 -62.862162543413461 -555.94972151669754 0 0 0 0 2301.8756202584045 -68.448209280126321 0 -68.448209280126321 -247.52873496057757 0 0 0 0 2648.653176743006 147.66718676242201 0 147.66718676242201 -322.79641583198872 0 0 0 0 469.41249874915957 17.097974501377834 0 17.097974501377834 -89.801733987415673 0 0 0 0 392.27664250627276 -152.74191981925213 0 -152.74191981925213 337.91756877968896 0 0 0 0 146.76269000118918 87.718610029788351 0 87.718610029788351 646.29473008433456 0 0 0 0 531.95847780446638 217.47030544462584 0 217.47030544462584 251.6622681626132 0 0 0 0 504.14974543738936 -488.61011406989775 0 -488.61011406989775 191.22709302916496 0 0 0 0 9.8531045502604684 -118.31224716006022 0 -118.31224716006022 1132.8481294087023 0 0 0 0 83.999435927980812 108.49778052709379 0 108.49778052709379 152.29007898902853 0 0 0 0 -197.33966745050566 -283.00593541756405 0 -283.00593541756405 275.83016298498569 0 0 0 0 63.331053976493422 -6.2392395633398223 0 -6.2392395633398223 -252.57232854002174 0 0 0 0 -121.87887208357279 104.32160682015797 0 104.32160682015797 635.2900764058536 0 0 0 0 21.106043179542212 -8.2423861983893474 0 -8.2423861983893474 2.816223308310521 0 0 0 0 209.30743009000435 199.70850646489089 0 199.70850646489089 -76.057935870850955 0 0 0 0 6.6104201348280185 -3.0707214398570031 0 -3.0707214398570031 1.6122806285592133 0 0 0 0 54.09426396805793 13.361582666339757 0 13.361582666339757 -52.742204020527026 0 0 0 0 197.69704813920544 131.78201267298019 0 131.78201267298019 -162.97501671163624 0 0 0 0 138.98224809739622 -41.93382856847083 0 -41.93382856847083 -242.05579370612492 0 0 0 0 221.60463791768143 140.41708755197195 0 140.41708755197195 -162.35377933192149 0 0 0 0 199.08275686755769 3.0335846463998735 0 3.0335846463998735 -210.33175019956923 0 0 0 0 289.04214410172426 156.3082970298554 0 156.3082970298554 -134.08459267993214 0 0 0 0 196.95905300581035 143.63929176186488 0 143.63929176186488 -52.782864924643263 0 0 0 0 405.69670186753501 34.083333022818906 0 34.083333022818906 -36.856287873597466 0 0 0 0 217.406418476814 -44.092182756017351 0 -44.092182756017351 -68.511642412357602 0 0 0 0 204.90466255487991 -199.0635754939872 0 -199.0635754939872 -116.68418805895789 0 0 0 0 385.22418098542767 -188.01708389417979 0 -188.01708389417979 -73.995318952831553 0 0 0 0 417.41968427679967 -130.35060224483709 0 -130.35060224483709 -105.80742369643576 0 0 0 0 206.02586919112946 -169.41633411921745 0 -169.41633411921745 -28.37771847569087 0 0 0 0 335.39586557424991 -132.96457347251913 0 -132.96457347251913 -39.182160931026772 0 0 0 0 336.05782159036607 -21.475544979989209 0 -21.475544979989209 -17.387004729824682 0 0 0 0 302.12485573696904 -104.46738801477153 0 -104.46738801477153 -140.23835475371075 0 0 0 0 223.49609101307578 -138.08424701135144 0 -138.08424701135144 -60.106191664561152 0 0 0 0 131.03862853989995 55.642784703411195 0 55.642784703411195 -4.5528121023309325 0 0 0 0 92.39978720236104 -76.721935559919956 0 -76.721935559919956 -20.145650366131449 0 0 0 0 -52.844690957732382 -36.828110849499978 0 -36.828110849499978 -54.662244069111594 0 0 0 0 15.993343494482588 -2.0707579910826581 0 -2.0707579910826581 -0.72150931581905298 0 0 0 0 225.05790806277764 -114.93600726421832 0 -114.93600726421832 -613.38671211080987 0 0 0 0 71.924805312541139 -58.381949336619101 0 -58.381949336619101 -376.73857498364816 0 0 0 0 664.43200902325043 161.28988455911224 0 161.28988455911224 179.9279131171719 0 0 0 0 559.79407121190889 -220.58900316129478 0 -220.58900316129478 -158.36380249992504 0 0 0 0 199.31690672033801 -320.346922644958 0 -320.346922644958 -116.28774019669231 0 0 0 0 7.1210167911225426 -0.44153204871050633 0 -0.44153204871050633 -0.16140680255422113 0 0 0 0 506.02608695648087 551.76752421151252 0 551.76752421151252 76.695408232983908 0 0 0 0 204.66672924087834 208.5643597507096 0 208.5643597507096 366.70029871957399 0 0 0 0 492.73946187080583 16.800717041330216 0 16.800717041330216 168.62125724201098 0 0 0 0 746.63156717779566 443.11359690467054 0 443.11359690467054 -178.42297562851115 0 0 0 0 587.08689695251815 389.53288576036522 0 389.53288576036522 -186.99045580486785 0 0 0 0 469.8650737016942 491.63095160914366 0 491.63095160914366 229.85009107003168 0 0 0 0 300.94215418804379 253.8968817272235 0 253.8968817272235 -100.68873727579069 0 0 0 0 283.15815290568571 241.80362291782745 0 241.80362291782745 8.2840316451643616 0 0 0 0 83.47498346795328 -96.206224184684658 0 -96.206224184684658 -217.45087282676988 0 0 0 0 488.508753289585 229.35977452349528 0 229.35977452349528 -328.79223947486321 0 0 0 0 141.45437299521291 336.58372458507461 0 336.58372458507461 -35.640428298126551 0 0 0 0 575.62398448336899 401.06289889055824 0 401.06289889055824 -124.85341182578173 0 0 0 0 220.76393897256639 299.67315167976534 0 299.67315167976534 -27.915213841957083 0 0 0 0 659.04990404534328 201.221333118416 0 201.221333118416 -5.8506462792970524 0 0 0 0 622.36757867388587 -514.20594110114212 0 -514.20594110114212 704.5837278585077 0 0 0 0 12.327281541705872 1.9018740443084603 0 1.9018740443084603 0.86365802682070225 0 0 0 0 1198.8474246717487 482.33551904678984 0 482.33551904678984 138.75666297202747 0 0 0 0 342.23901227490569 347.42201113956776 0 347.42201113956776 803.66916108778901 0 0 0 0 484.41759958977491 -365.2154602242905 0 -365.2154602242905 428.08108515381423 0 0 0 0 1199.9820462128846 254.26109226461026 0 254.26109226461026 -190.92960126866782 0 0 0 0 447.75839208749676 553.96204728586167 0 553.96204728586167 282.73082626482716 0 0 0 0 145.6561030932462 97.682927932797895 0 97.682927932797895 128.21215115394261 0 0 0 0 -79.51724955267855 -72.655074649486892 0 -72.655074649486892 22.902669132254857 0 0 0 0 161.38265030481853 44.967206328264069 0 44.967206328264069 303.81905222608276 0 0 0 0 -158.34322921547573 -181.34685123126553 0 -181.34685123126553 161.23912941332514 0 0 0 0 -47.629651396448025 -33.066180238736138 0 -33.066180238736138 59.11958392238256 0 0 0 0 -102.92028937145915 -304.29057756751547 0 -304.29057756751547 -230.36577598186295 0 0 0 0 40.986152850789949 17.090414934797082 0 17.090414934797082 66.297892112394038 0 0 0 0 85.800367853677017 33.061589364958309 0 33.061589364958309 60.758257586913714 0 0 0 0 98.287545808821903 -20.217606039460293 0 -20.217606039460293 -22.078014052482011 0 0 0 0 -24.045021278272543 -145.20649754844786 0 -145.20649754844786 -10.066518271569294 0 0 0 0 40.513690766412765 -113.80770140504137 0 -113.80770140504137 -126.6396584194008 0 0 0 0 12.226351953367143 -5.913472134175521 0 -5.913472134175521 2.4060247650109972 0 0 0 0 75.223293029943306 -31.897654881105382 0 -31.897654881105382 -39.671502562198043 0 0 0 0 1.820467407948513 -8.6524934785917509 0 -8.6524934785917509 -2.1693179587370901 0 0 0 0 7.0125592345890766 -11.370677720727116 0 -11.370677720727116 -10.734881100650897 0 0 0 0 70.996281854721019 3.4150193769219186 0 3.4150193769219186 -163.73072315895195 0 0 0 0 -79.155353528862179 -82.156449717686584 0 -82.156449717686584 136.00955870348912 0 0 0 0 -61.578853626211639 -72.819918525056522 0 -72.819918525056522 -148.52127439752593 0 0 0 0 -2.0169434371700277 1.9407928452711616 0 1.9407928452711616 1.1140097897959182 0 0 0 0 6.1349834371649195 -225.65190350509812 0 -225.65190350509812 -357.23883882217518 0 0 0 0 -103.61055958163342 -163.48589191608465 0 -163.48589191608465 -49.216216725917974 0 0 0 0 -12.786954195355065 13.343782297656047 0 13.343782297656047 2.990280575865448 0 0 0 0 28.898679056313995 229.71764074613128 0 229.71764074613128 -633.83944027451787 0 0 0 0 202.35169543007214 -53.17053169357041 0 -53.17053169357041 -178.62559696407607 0 0 0 0 -1.2006344726006262 -2.290321523811599 0 -2.290321523811599 -4.5705893578657379 0 0 0 0 262.59841223311378 -128.73690750945775 0 -128.73690750945775 -21.832261908280884 0 0 0 0 388.99125422051293 -326.90986220519187 0 -326.90986220519187 -592.54295960162301 0 0 0 0 -257.00681270186033 -83.559443246400065 0 -83.559443246400065 145.22711807603071 0 0 0 0 267.00752402472426 393.16989573657122 0 393.16989573657122 -426.69985261464842 0 0 0 0 -44.938665895251688 -154.77510468754187 0 -154.77510468754187 -39.603868755705207 0 0 0 0 15.488834329647943 -290.70713260466664 0 -290.70713260466664 -264.61911300447014 0 0 0 0 333.69334252191766 -367.12084163473844 0 -367.12084163473844 -271.27223193148438 0 0 0 0 157.95136885954707 -142.79687907169466 0 -142.79687907169466 -163.17476571373436 0 0 0 0 14.650339634245029 -127.45377658176631 0 -127.45377658176631 -79.045816354364888 0 0 0 0 55.158221153222257 -47.454657865549734 0 -47.454657865549734 -12.158208383603778 0 0 0 0 64.913200075636354 -37.087223523860104 0 -37.087223523860104 5.7829342631873706 0 0 0 0 61.353467518334583 -94.233824052253851 0 -94.233824052253851 -27.248381372564836 0 0 0 0 101.06429354976717 -33.096713515665506 0 -33.096713515665506 -44.311811840388486 0 0 0 0 42.113063468692417 -38.984288898318255 0 -38.984288898318255 43.352627802501956 0 0 0 0 8.0105989913906654 -2.0238134864379731 0 -2.0238134864379731 -1.4618843707786411 0 0 0 0 114.52894252853002 -55.004452673218111 0 -55.004452673218111 35.455438899536603 0 0 0 0 178.43452766409609 -40.660082661801425 0 -40.660082661801425 5.7663582139575738 0 0 0 0 29.693372443718545 -39.813801941547808 0 -39.813801941547808 -18.786213391787896 0 0 0 0 54.51781894027954 -18.348105266544735 0 -18.348105266544735 41.636009469246346 0 0 0 0 77.879108984518098 -12.672495468690613 0 -12.672495468690613 42.007658133508585 0 0 0 0 58.321253298220697 -34.130945901200072 0 -34.130945901200072 6.9845053506543859 0 0 0 0 78.494155524167951 -22.977883031212961 0 -22.977883031212961 -1.0776096698934436 0 0 0 0 81.348210277210455 -40.626232356471519 0 -40.626232356471519 -44.834066390800444 0 0 0 0 74.496273267352024 -24.560219627910385 0 -24.560219627910385 1.3565029117817717 0 0 0 0 81.237981984446378 -38.869722875210357 0 -38.869722875210357 -24.797769781678653 0 0 0 0 33.856014223953309 -30.724228507623707 0 -30.724228507623707 -3.4290324814257689 0 0 0 0 56.815941405235208 -33.511264913349351 0 -33.511264913349351 -2.2779405831015538 0 0 0 0 47.472321481211111 -28.45956068081432 0 -28.45956068081432 -11.639001266334162 0 0 0 0 63.538879297208041 -28.942961234239192 0 -28.942961234239192 0.35022218392350624 0 0 0 0 40.513249654973976 -12.542833633843699 0 -12.542833633843699 7.0587453796585047 0 0 0 0 42.156558287912048 -16.153969066426725 0 -16.153969066426725 -37.010741802728262 0 0 0 0 60.049549748546838 -29.629197184580143 0 -29.629197184580143 -23.503736521052993 0 0 0 0 57.099785490038812 -40.458671058046491 0 -40.458671058046491 -32.534217210011462 0 0 0 0 57.843282786648189 -8.7667830963430475 0 -8.7667830963430475 4.3963344524759229 0 0 0 0 63.230190177739132 -34.341813088491108 0 -34.341813088491108 -3.3433490969409831 0 0 0 0 117.9626064472468 -9.9905494701793032 0 -9.9905494701793032 13.549935165914576 0 0 0 0 60.197828839794965 -30.074254703432189 0 -30.074254703432189 -1.3274377031448239 0 0 0 0 28.705968923700823 -19.775767130001405 0 -19.775767130001405 10.176223725424482 0 0 0 0 41.921576208541225 -15.509035241445147 0 -15.509035241445147 0.58876717687542168 0 0 0 0 65.540752153858193 -19.614294319554574 0 -19.614294319554574 0.18865684223555945 0 0 0 0 39.522280168705038 -16.906897346253118 0 -16.906897346253118 7.0968823187495218 0 0 0 0 86.719304475260287 -27.626823184013119 0 -27.626823184013119 21.169074393003029 0 0 0 0 62.295098217376903 -21.823626942443013 0 -21.823626942443013 -2.2394398538290439 0 0 0 0 69.182528503122739 -26.230545466186868 0 -26.230545466186868 0.80319295823755965 0 0 0 0 39.752082009512378 -39.612823461461403 0 -39.612823461461403 7.4470732235190553 0 0 0 0 24.699791341696255 -30.805506262185478 0 -30.805506262185478 5.7153319830043223 0 0 0 0 36.080815376040022 -43.956646722681938 0 -43.956646722681938 5.3332785435666175 0 0 0 0 62.867134474654449 -33.210942110628821 0 -33.210942110628821 1.8676962396075396 0 0 0 0 17.865108064899687 -32.178219278182951 0 -32.178219278182951 -0.92504487751648412 0 0 0 0 8.81876706762705 -16.630706907209969 0 -16.630706907209969 -9.9624452972766449 0 0 0 0 38.994675499469196 -17.601601811215211 0 -17.601601811215211 1.060128128630403 0 0 0 0 60.064190394760175 -21.203052444176585 0 -21.203052444176585 -0.60194885973871592 0 0 0 0 45.832801187351478 -3.1800161815452554 0 -3.1800161815452554 -2.0474422713445648 0 0 0 0 30.0412904223762 -19.940545152729541 0 -19.940545152729541 1.8418603690675717 0 0 0 0 6.87791551021418 -11.081485776609263 0 -11.081485776609263 1.5993659516776344 0 0 0 0 -34.171354683540812 -58.414253481686274 0 -58.414253481686274 72.673505515478837 0 0 0 0 61.555291278877121 -22.690937740943184 0 -22.690937740943184 -33.609024347832474 0 0 0 0 52.54262654757197 -12.119051134507998 0 -12.119051134507998 -4.5521170328716671 0 0 0 0 82.652947303422224 -32.031359525661117 0 -32.031359525661117 0.20115566443969168 0 0 0 0 67.975338461579668 -60.587097869920626 0 -60.587097869920626 19.189936277172137 0 0 0 0 -13.043983772546198 -197.49585870514284 0 -197.49585870514284 11.974286682007175 0 0 0 0 111.25124486967616 20.43828995592753 0 20.43828995592753 -137.41610678271491 0 0 0 0 153.09432467153056 110.59442416305183 0 110.59442416305183 5.9507722501496119 0 0 0 0 72.892319325528661 -181.28538168253442 0 -181.28538168253442 220.46544169064737 0 0 0 0 -0.86832033333820391 2.9930774512596789 0 2.9930774512596789 1.5228335894620753 0 0 0 0 242.2456694178054 9.8669472367030266 0 9.8669472367030266 100.69884752657617 0 0 0 0 194.9238527324087 -33.613558915016029 0 -33.613558915016029 276.70425922260438 0 0 0 0 570.74510548511535 273.30982267463526 0 273.30982267463526 366.80915466551187 0 0 0 0 299.93555835099141 26.478214708885616 0 26.478214708885616 186.0944887802134 0 0 0 0 277.64182171710127 -49.437296978798543 0 -49.437296978798543 595.62352699616895 0 0 0 0 271.98955218306219 -126.24979375933185 0 -126.24979375933185 185.73692448521615 0 0 0 0 400.02391369769975 -48.362247444937339 0 -48.362247444937339 -111.54103641183337 0 0 0 0 403.21257463059737 -86.810054237581426 0 -86.810054237581426 -129.99886536828581 0 0 0 0 169.19669270371378 -122.17416026937053 0 -122.17416026937053 77.860109421518928 0 0 0 0 235.51662708449658 1.820349029174622 0 1.820349029174622 -50.331901208931413 0 0 0 0 162.60908314596327 -186.87950071522903 0 -186.87950071522903 -207.24919340949828 0 0 0 0 91.145596639296855 -61.836809970024433 0 -61.836809970024433 -26.471751635356554 0 0 0 0 90.245180641393716 -18.619772025722099 0 -18.619772025722099 -4.8370894581839412 0 0 0 0 16.356063718903897 -14.923544870852311 0 -14.923544870852311 -83.241744599689355 0 0 0 0 233.51984254316812 177.6642864271555 0 177.6642864271555 -15.166029635490304 0 0 0 0 307.77604635729631 76.921010046188513 0 76.921010046188513 -316.26517723415236 0 0 0 0 322.09929406144511 -75.620139449194539 0 -75.620139449194539 -97.932901079804651 0 0 0 0 508.78824556906329 297.02739504101646 0 297.02739504101646 -190.1804203060733 0 0 0 0 12.7684896766973 -18.894079803521358 0 -18.894079803521358 -1.1589806835711984 0 0 0 0 -21.933874790156551 -262.49020117406735 0 -262.49020117406735 123.12312424577112 0 0 0 0 143.27031928558014 -34.677069306709186 0 -34.677069306709186 2.9519289567406659 0 0 0 0 158.75393759160033 -53.961405237464419 0 -53.961405237464419 -4.2604151104224002 0 0 0 0 176.00491796893766 -34.956176564625366 0 -34.956176564625366 -45.080654547966333 0 0 0 0 205.13255696813576 -28.94233681480182 0 -28.94233681480182 -47.010415862665468 0 0 0 0 101.55910887171208 -20.754028003772824 0 -20.754028003772824 -5.7257882638310091 0 0 0 0 155.43180198477421 -42.989148599732289 0 -42.989148599732289 -11.697562946737889 0 0 0 0 191.48435378761496 -58.71570062200044 0 -58.71570062200044 -22.727346614322414 0 0 0 0 119.31448479038954 -104.49681466704624 0 -104.49681466704624 -59.195753801203864 0 0 0 0 20.500143799746411 9.8797305452930715 0 9.8797305452930715 -14.836486582879363 0 0 0 0 42.713049799398334 -19.3521053258258 0 -19.3521053258258 -4.9751701784464712 0 0 0 0 124.68539069431426 24.931914316831808 0 24.931914316831808 -44.597878175704864 0 0 0 0 -1.5105740841105444 -6.9956758516697661 0 -6.9956758516697661 -4.0003468513919662 0 0 0 0 22.185485774360131 -76.135778693445218 0 -76.135778693445218 52.525299326095706 0 0 0 0 45.347526567275054 -14.655540922459977 0 -14.655540922459977 -12.071972390249471 0 0 0 0 51.622093971830438 -20.480548619529827 0 -20.480548619529827 -5.3410724829555836 0 0 0 0 111.88012557646834 -36.306515079337714 0 -36.306515079337714 -27.069987449840028 0 0 0 0 70.194654813822808 -21.11432400272264 0 -21.11432400272264 -3.0946832997802716 0 0 0 0 79.576527337841981 3.0181841583460027 0 3.0181841583460027 4.5465014024334778 0 0 0 0 -0.34904906378505984 -23.684443170629947 0 -23.684443170629947 -40.756929182524573 0 0 0 0 36.436036783515192 -46.066639817403825 0 -46.066639817403825 -47.625741073098652 0 0 0 0 46.922347736654046 -46.41602896897416 0 -46.41602896897416 -34.712073094062362 0 0 0 0 -16.795709687368799 -56.573587234538309 0 -56.573587234538309 -11.741664903100627 0 0 0 0 3.6644734358160349 -29.048399175008853 0 -29.048399175008853 -34.652760225487782 0 0 0 0 -33.543392607411079 -50.795265380170179 0 -50.795265380170179 -6.0542140296279285 0 0 0 0 24.18419667283888 -61.20190899752447 0 -61.20190899752447 15.371235033754374 0 0 0 0 12.29487072878328 36.024196641818804 0 36.024196641818804 -64.90250398954754 0 0 0 0 9.288372847848045 -2.5836814279818299 0 -2.5836814279818299 -8.5040572934970839 0 0 0 0 65.00416609108288 90.20545443800998 0 90.20545443800998 -18.947701217826022 0 0 0 0 585.57938532326079 298.6275836882669 0 298.6275836882669 166.96093221515548 0 0 0 0 24.677302288854136 -11.258961586200829 0 -11.258961586200829 1.4533603177677201 0 0 0 0 727.47627085194108 426.2689359637825 0 426.2689359637825 281.77598607838968 0 0 0 0 590.1832513438203 229.65395600964303 0 229.65395600964303 304.04165968295001 0 0 0 0 -6.0767567870197965 0.14819404609952613 0 0.14819404609952613 4.1146520837439606 0 0 0 0 1316.8945227139229 160.10012021194098 0 160.10012021194098 123.56355485666791 0 0 0 0 1188.2970480224176 632.83246712065602 0 632.83246712065602 278.28683373461899 0 0 0 0 463.72877636743215 704.26720338072573 0 704.26720338072573 762.28391779607955 0 0 0 0 11.773940091487091 -2.025254547398994 0 -2.025254547398994 -0.30016299837373994 0 0 0 0 222.67900101751002 -274.80371778320915 0 -274.80371778320915 38.085338476150866 0 0 0 0 1168.9721828866641 1190.2569226886008 0 1190.2569226886008 1012.3915425286041 0 0 0 0 1738.7739056364444 977.89857220278157 0 977.89857220278157 121.84824807998814 0 0 0 0 564.01267634883698 298.94452070456907 0 298.94452070456907 964.07938969934605 0 0 0 0 1359.1977549602325 -112.75778590593941 0 -112.75778590593941 487.6688775007342 0 0 0 0 445.60315533290122 204.90342591398348 0 204.90342591398348 467.37979274426289 0 0 0 0 590.32427940877824 -50.796634136871717 0 -50.796634136871717 188.3145370660859 0 0 0 0 302.06116627476877 -38.121995500681578 0 -38.121995500681578 199.74114260409078 0 0 0 0 -348.30774822169406 738.26546652552361 0 738.26546652552361 184.57585564956526 0 0 0 0 571.70910025094054 75.91993648092739 0 75.91993648092739 164.47384112734653 0 0 0 0 699.15224107399263 1033.6640851880788 0 1033.6640851880788 219.03885711890257 0 0 0 0 -434.98951905019203 -93.33052811813468 0 -93.33052811813468 -19.103859427743373 0 0 0 0 174.56507991615945 250.13215245395804 0 250.13215245395804 113.27172641492325 0 0 0 0 240.80477618797158 -216.13756767940458 0 -216.13756767940458 -78.636343806009791 0 0 0 0 399.09624423140485 -52.044066303836189 0 -52.044066303836189 -240.55152665369815 0 0 0 0 -20.655546525689715 -424.31595687665458 0 -424.31595687665458 -561.47468768777799 0 0 0 0 96.814480025532248 -82.538375061191459 0 -82.538375061191459 141.23229697166062 0 0 0 0 933.38794987705478 101.58016361804312 0 101.58016361804312 -985.55338659154904 0 0 0 0 42.76684706834466 -11.946331777774667 0 -11.946331777774667 -7.6569699564728708 0 0 0 0 189.02401828099391 -185.56879968782869 0 -185.56879968782869 -113.28097676861216 0 0 0 0 95.319932670008711 -64.4699792126803 0 -64.4699792126803 12.443775425050262 0 0 0 0 621.78592523126281 449.76100619992212 0 449.76100619992212 370.68773979897378 0 0 0 0 201.5747246938372 -227.20920204629874 0 -227.20920204629874 16.699377060422194 0 0 0 0 488.64657091601111 -17.099005149232653 0 -17.099005149232653 58.187547762346185 0 0 0 0 336.23487283920258 103.29361200525864 0 103.29361200525864 22.081640269159834 0 0 0 0 724.6699129937133 366.33383645740003 0 366.33383645740003 459.85504625509566 0 0 0 0 591.95311402944208 -186.84493306041804 0 -186.84493306041804 -20.714529126678826 0 0 0 0 471.70143172388998 495.02064688632413 0 495.02064688632413 466.20556205764751 0 0 0 0 938.65501081269758 378.25479815531889 0 378.25479815531889 230.95951601872366 0 0 0 0 868.2428690881643 521.23868690740665 0 521.23868690740665 271.53920404272321 0 0 0 0 618.24036130237801 197.51418739803103 0 197.51418739803103 458.10608067172689 0 0 0 0 280.20397117648827 325.69800873193071 0 325.69800873193071 464.24631327574207 0 0 0 0 590.48044180373745 285.3737672452603 0 285.3737672452603 89.698715107500902 0 0 0 0 5.1429946981634416 -2.8527096935567258 0 -2.8527096935567258 0.94500303237162697 0 0 0 0 490.79889895264569 253.26716466480457 0 253.26716466480457 191.2142627314056 0 0 0 0 317.70881373020529 237.35367361838962 0 237.35367361838962 265.0469850752097 0 0 0 0 315.26836694048689 309.37115297267746 0 309.37115297267746 266.81994124099401 0 0 0 0 43.772361243267795 -11.917238777158243 0 -11.917238777158243 -3.3997076733284306 0 0 0 0 108.02968274427258 42.575039719570213 0 42.575039719570213 287.10509707960136 0 0 0 0 216.19688366801711 453.87462020317071 0 453.87462020317071 399.94423819669919 0 0 0 0 181.26930039765284 -22.595483506876008 0 -22.595483506876008 20.686761890880007 0 0 0 0 3.922944130281607 -8.6800331983505004 0 -8.6800331983505004 8.8067467123643119 0 0 0 0 418.07536031156633 302.61532638944936 0 302.61532638944936 201.91368783392227 0 0 0 0 372.67492440586102 170.31722405528126 0 170.31722405528126 12.376457449328882 0 0 0 0 236.58001945339493 50.68689073256246 0 50.68689073256246 74.604558537380683 0 0 0 0 143.0788406531604 -33.16741581764456 0 -33.16741581764456 -32.357312104492486 0 0 0 0 205.08658114059654 -67.818710643686643 0 -67.818710643686643 51.786987131227761 0 0 0 0 192.32437936061615 -27.202520561833353 0 -27.202520561833353 -58.024164602253791 0 0 0 0 184.75473681630314 -27.78223919246134 0 -27.78223919246134 -19.902586215740758 0 0 0 0 341.42090472287418 -92.182099923967598 0 -92.182099923967598 -220.66213516442804 0 0 0 0 258.47268883453216 -4.4156472579757065 0 -4.4156472579757065 -49.508914668033185 0 0 0 0 193.65360359896917 -40.989023299600596 0 -40.989023299600596 -17.651403691292071 0 0 0 0 302.79530620742298 -11.652875573808501 0 -11.652875573808501 -58.61761870528801 0 0 0 0 383.19061610769131 -8.2971305814081688 0 -8.2971305814081688 -48.419579525646895 0 0 0 0 305.52216551763922 73.571928707384473 0 73.571928707384473 10.847368131122494 0 0 0 0 288.2272583958038 8.1865960528130017 0 8.1865960528130017 -44.249826627374205 0 0 0 0 277.17511123635632 0.36387002931996903 0 0.36387002931996903 -47.011669013453513 0 0 0 0 214.44097183994745 20.835264953681303 0 20.835264953681303 -8.0261369445457831 0 0 0 0 222.52679704421462 54.429794973566459 0 54.429794973566459 -44.013088991200675 0 0 0 0 27.800900569160589 0.9362285658742735 0 0.9362285658742735 -0.25752959314217172 0 0 0 0 92.42480159655679 -69.012119862548616 0 -69.012119862548616 27.611615993171654 0 0 0 0 219.14034904204163 -3.9466457552966858 0 -3.9466457552966858 -78.190081105525906 0 0 0 0 -1.5438799312028522 -5.3856423507788804 0 -5.3856423507788804 3.8861891107757649 0 0 0 0 135.52797451557853 99.693537003984503 0 99.693537003984503 -11.618104327766382 0 0 0 0 171.48712539077678 38.968716123131912 0 38.968716123131912 39.911850695650401 0 0 0 0 -271.71408194357355 74.38638321475446 0 74.38638321475446 223.7954674009834 0 0 0 0 47.705980853468645 -113.04110380510724 0 -113.04110380510724 -219.81653814525393 0 0 0 0 38.167184422610433 -15.629140920938909 0 -15.629140920938909 3.1925643583332284 0 0 0 0 1222.6211284026504 206.77861707435477 0 206.77861707435477 -360.3196793153711 0 0 0 0 475.74330627487507 -242.29638221074015 0 -242.29638221074015 37.528253646804444 0 0 0 0 567.67023420840269 309.16346669224777 0 309.16346669224777 -176.33343986576415 0 0 0 0 265.03942885609285 -99.449618122617494 0 -99.449618122617494 -14.602500327235248 0 0 0 0 206.39487829394056 -149.65063685530004 0 -149.65063685530004 182.45693450933686 0 0 0 0 43.148587217263412 -364.9004256476328 0 -364.9004256476328 507.66661450203719 0 0 0 0 971.23950449674157 -442.37681098977555 0 -442.37681098977555 29.055961310951488 0 0 0 0 13.78908667810731 -1.474333477333829 0 -1.474333477333829 -8.3482630841903287 0 0 0 0 1203.4525631099241 -503.12211048143945 0 -503.12211048143945 192.51972516646856 0 0 0 0 -60.710053294023965 -169.58759814061523 0 -169.58759814061523 456.73864284128285 0 0 0 0 -12.11069382311689 94.282492088749223 0 94.282492088749223 95.62577654798406 0 0 0 0 -14.400014802231453 -388.94789134210305 0 -388.94789134210305 118.38912080822945 0 0 0 0 25.788852805922943 -103.90869823012629 0 -103.90869823012629 -211.78757769834579 0 0 0 0 211.47753974939405 -228.94996463239175 0 -228.94996463239175 22.598696916487825 0 0 0 0 -108.59702806908172 -395.34040887450374 0 -395.34040887450374 141.08281280421215 0 0 0 0 33.709501284800353 -107.61965763110879 0 -107.61965763110879 -524.2485978281029 0 0 0 0 -226.9374077450193 -133.08828857437146 0 -133.08828857437146 32.535204810544883 0 0 0 0 -248.92105259445088 -309.24056177615438 0 -309.24056177615438 110.33916647110982 0 0 0 0 -9.349384059656586 -161.37000938615319 0 -161.37000938615319 34.559991598771603 0 0 0 0 145.18947021112399 -0.59127417958268325 0 -0.59127417958268325 -17.04887418733415 0 0 0 0 0.38602197007834604 5.0367863759036879 0 5.0367863759036879 -5.995391761586891 0 0 0 0 191.3095489750267 107.80161307439312 0 107.80161307439312 -16.903423697061953 0 0 0 0 215.87277796128183 -74.065432927162419 0 -74.065432927162419 -18.316797912364564 0 0 0 0 210.42248473368818 -75.611270327524835 0 -75.611270327524835 0.57398052716075654 0 0 0 0 191.86077729304088 -48.886512419931933 0 -48.886512419931933 -38.096135995050645 0 0 0 0 213.63749953877414 -62.130768339000952 0 -62.130768339000952 -41.488571751951895 0 0 0 0 186.2205256963789 -62.178607835139701 0 -62.178607835139701 -24.612824794106928 0 0 0 0 171.86032710950531 -67.905285355165802 0 -67.905285355165802 12.563766525196115 0 0 0 0 195.77450747588591 -74.078625117796491 0 -74.078625117796491 -10.215011868461261 0 0 0 0 168.6374900714145 -57.826422383249337 0 -57.826422383249337 -13.978059831199403 0 0 0 0 152.79906028374535 -62.509944875330717 0 -62.509944875330717 43.028009986656087 0 0 0 0 150.86615140178765 -70.293774197204243 0 -70.293774197204243 13.103773240423379 0 0 0 0 166.41951241003699 -84.574285672908445 0 -84.574285672908445 25.189501799445679 0 0 0 0 167.23718469610321 -100.97613373943909 0 -100.97613373943909 34.789864337864856 0 0 0 0 219.47676030520233 -87.380887311755146 0 -87.380887311755146 -7.9144790927712165 0 0 0 0 163.10262178788253 -52.092859458995804 0 -52.092859458995804 -3.5627689641231441 0 0 0 0 242.90735397925528 35.763762396197251 0 35.763762396197251 -59.423600360191358 0 0 0 0 82.95299432695505 26.259244874444576 0 26.259244874444576 -4.5607615710503131 0 0 0 0 160.91922954082838 -48.405674520118012 0 -48.405674520118012 18.48619893813472 0 0 0 0 299.94431714026814 21.026039211462404 0 21.026039211462404 -59.973240547280056 0 0 0 0 116.60367043246515 114.79271622989893 0 114.79271622989893 63.374046020320748 0 0 0 0 37.737557130006337 18.355905647281858 0 18.355905647281858 -15.76293482539243 0 0 0 0 106.56057161341596 -41.818081088049894 0 -41.818081088049894 44.563255508535633 0 0 0 0 106.33765554378624 -76.229831278118127 0 -76.229831278118127 82.387190725252367 0 0 0 0 111.46313400528743 -86.523940431799929 0 -86.523940431799929 154.91636983433727 0 0 0 0 229.5263889202979 -166.86368079620695 0 -166.86368079620695 103.52753258697248 0 0 0 0 36.663874801004681 -14.000469152647266 0 -14.000469152647266 -3.6166566687071868 0 0 0 0 157.32202682620846 -26.950847924677873 0 -26.950847924677873 -49.738483636652745 0 0 0 0 120.91931899817428 -77.157806876663017 0 -77.157806876663017 35.302077526353969 0 0 0 0 26.391979907277346 -10.416472382534096 0 -10.416472382534096 -4.2119062224629484 0 0 0 0 21.097569287870272 -2.5764526620068295 0 -2.5764526620068295 -4.8498289502607825 0 0 0 0 18.076408770488342 -4.7855180624595732 0 -4.7855180624595732 -13.304858369657893 0 0 0 0 -39.548920043598628 -132.67498624902942 0 -132.67498624902942 -153.91441568535333 0 0 0 0 -29.490649663843215 34.383720201726419 0 34.383720201726419 15.700173277843987 0 0 0 0 -29.616114334727172 -33.525147268233013 0 -33.525147268233013 26.61811434366939 0 0 0 0 11.722212345422633 -1.4238370745838438 0 -1.4238370745838438 -3.3941014134686025 0 0 0 0 -184.10569771990413 -241.63886842839997 0 -241.63886842839997 -232.58672709886946 0 0 0 0 78.500131841923576 -37.259288898401792 0 -37.259288898401792 34.565837397204973 0 0 0 0 290.1562591806869 -78.018318396421819 0 -78.018318396421819 -6.5162677469148775 0 0 0 0 3.9126314851862389 4.0635078131716966 0 4.0635078131716966 -2.5424744820856127 0 0 0 0 66.479042392777046 28.670081909759119 0 28.670081909759119 -7.0848579314488234 0 0 0 0 275.84518995780672 8.8014207792674597 0 8.8014207792674597 -6.0938194566602775 0 0 0 0 -247.2654773854174 -403.46700416727458 0 -403.46700416727458 -297.41106060765242 0 0 0 0 5.6479834313782646 -3.2012128666768405 0 -3.2012128666768405 -1.1108200731803821 0 0 0 0 -268.67079576788819 -194.84520087218897 0 -194.84520087218897 -191.97149205407641 0 0 0 0 -65.523975442134542 -170.327453048488 0 -170.327453048488 -297.16490184896406 0 0 0 0 10.365093360145693 -107.42845568042037 0 -107.42845568042037 -205.54123509143631 0 0 0 0 101.56695890634728 -97.225045385097786 0 -97.225045385097786 -235.29856548498992 0 0 0 0 51.725966967671411 -203.52153236463312 0 -203.52153236463312 -276.78814484856747 0 0 0 0 -73.035231189714978 -167.1454030391572 0 -167.1454030391572 -212.97810576611664 0 0 0 0 31.175965865695616 -154.83915538937845 0 -154.83915538937845 -228.33285936326752 0 0 0 0 88.5632290909125 -120.52062364541064 0 -120.52062364541064 -235.85644021797032 0 0 0 0 28.731726469723071 -147.68509877533251 0 -147.68509877533251 -240.10727813704625 0 0 0 0 -5.6899328165673069 -125.08552793494238 0 -125.08552793494238 -216.91893015412688 0 0 0 0 -28.937720290472498 -153.50191922476009 0 -153.50191922476009 -206.02145788681582 0 0 0 0 45.974468799613533 -58.563715490294783 0 -58.563715490294783 -184.50885465939587 0 0 0 0 95.818628554145107 -71.799711943676357 0 -71.799711943676357 -209.25381643734465 0 0 0 0 185.87670055089984 0.49676730096268784 0 0.49676730096268784 -195.49966908956958 0 0 0 0 104.58433086468722 -100.29727843538888 0 -100.29727843538888 -233.41524385148796 0 0 0 0 304.57675076226587 -39.20582701188772 0 -39.20582701188772 -248.55546821431147 0 0 0 0 261.25901635527771 24.477485147340303 0 24.477485147340303 -208.67405916712073 0 0 0 0 700.14868992238189 -66.628632048161961 0 -66.628632048161961 -190.03046077788696 0 0 0 0 68.813443805091083 -62.859898372257703 0 -62.859898372257703 -41.748231746652976 0 0 0 0 270.49627651800984 -148.41332598237187 0 -148.41332598237187 -16.785920251307715 0 0 0 0 181.33223253570031 -213.47658542908238 0 -213.47658542908238 -174.06854775891179 0 0 0 0 -151.20977504701295 -186.98141214626219 0 -186.98141214626219 -123.74008166072861 0 0 0 0 3.3001194494072479 -262.42726761297536 0 -262.42726761297536 -302.28228857043314 0 0 0 0 -119.43093152339861 -179.67875153567286 0 -179.67875153567286 -364.13536297584358 0 0 0 0 -102.82248143559991 -97.250895582053246 0 -97.250895582053246 55.320931336606577 0 0 0 0 -458.0144890565025 -448.00110387113932 0 -448.00110387113932 -113.80567939876494 0 0 0 0 13.053984482352462 -363.70276231943058 0 -363.70276231943058 -158.49376859099391 0 0 0 0 87.718295973041677 -223.22081604404468 0 -223.22081604404468 -162.24720083731376 0 0 0 0 88.414758387109032 -198.73025760480863 0 -198.73025760480863 108.03286100897139 0 0 0 0 -26.279373409575783 -137.38751813124321 0 -137.38751813124321 218.17277869090753 0 0 0 0 -15.595565619581976 -180.38502355759013 0 -180.38502355759013 47.243799160705322 0 0 0 0 52.476702125117299 -91.425193536883626 0 -91.425193536883626 181.50621190510327 0 0 0 0 70.175787818341632 -157.1426802244651 0 -157.1426802244651 201.53343314639403 0 0 0 0 114.79842638509581 -99.961316010795429 0 -99.961316010795429 380.01759748891516 0 0 0 0 146.51936450442008 -96.305413543266354 0 -96.305413543266354 167.8429429984804 0 0 0 0 146.23317077780666 -71.272252917458047 0 -71.272252917458047 253.31672082317795 0 0 0 0 278.5556490537565 -67.557913856133553 0 -67.557913856133553 189.98237425847609 0 0 0 0 360.8267290112708 -167.42185828335576 0 -167.42185828335576 191.1724916472289 0 0 0 0 436.34738316723087 -121.73224247962955 0 -121.73224247962955 -11.475880493044798 0 0 0 0 796.59972714398464 57.708875671962574 0 57.708875671962574 67.645609992905065 0 0 0 0 266.53308161570931 -105.03046257949134 0 -105.03046257949134 274.79727685601722 0 0 0 0 71.333271878846062 -59.368179210182383 0 -59.368179210182383 205.50190247416094 0 0 0 0 249.06439685329678 -160.75238885344669 0 -160.75238885344669 102.48266696660801 0 0 0 0 -197.26005961268675 -95.960926159775369 0 -95.960926159775369 6.4690275600856353 0 0 0 0 2.2180891277453156 -4.185939548187406 0 -4.185939548187406 5.2821374896083721 0 0 0 0 416.42899450786354 -269.0795752384787 0 -269.0795752384787 147.39737137177616 0 0 0 0 250.63312276305078 274.46803704359115 0 274.46803704359115 240.84221407231092 0 0 0 0 -46.276697736928327 -101.83931641317685 0 -101.83931641317685 35.805189983669834 0 0 0 0 95.850328692569747 -24.678608185692156 0 -24.678608185692156 -47.96245223139465 0 0 0 0 40.434191704698605 36.522317829797657 0 36.522317829797657 -19.131625056112625 0 0 0 0 143.04259764627204 -33.141824957098891 0 -33.141824957098891 -7.8494589686849849 0 0 0 0 51.343974325344789 -111.96020590035644 0 -111.96020590035644 38.009323780621571 0 0 0 0 257.94171200126584 -153.65572696457312 0 -153.65572696457312 -15.328280610190859 0 0 0 0 1.8309919822494294 -1.4922403669871471 0 -1.4922403669871471 0.21427326316467887 0 0 0 0 678.49908058988512 132.46904055284227 0 132.46904055284227 -38.363888923551613 0 0 0 0 176.83628989142017 -188.28198603787769 0 -188.28198603787769 27.459787965948664 0 0 0 0 207.05254696283373 -70.156635451997175 0 -70.156635451997175 -35.489919369178665 0 0 0 0 46.293964851080091 -60.074657711104578 0 -60.074657711104578 25.930897770489992 0 0 0 0 44.358913904463407 -92.846759262453929 0 -92.846759262453929 153.94707403211009 0 0 0 0 67.332638380001299 -15.328100349202941 0 -15.328100349202941 18.86897036899029 0 0 0 0 120.04534454947861 -68.923905997456359 0 -68.923905997456359 25.635910174041697 0 0 0 0 105.83268646115903 -32.244236269556168 0 -32.244236269556168 -39.166949962453927 0 0 0 0 9.3852013367759355 -55.489803297365427 0 -55.489803297365427 -91.421185257293104 0 0 0 0 9.1938849700090941 -67.468644891118117 0 -67.468644891118117 -4.3821415349313142 0 0 0 0 63.000077396500274 -4.5214482017854607 0 -4.5214482017854607 7.2691343432078384 0 0 0 0 -150.75379042289569 -91.05285714757872 0 -91.05285714757872 38.837219321849261 0 0 0 0 32.763759534711426 -76.366152039814935 0 -76.366152039814935 -34.786710525885042 0 0 0 0 -210.62713936442742 7.9639113657641474 0 7.9639113657641474 30.763471760424864 0 0 0 0 -343.23920443886891 -197.70161867433421 0 -197.70161867433421 -132.60985128922403 0 0 0 0 -343.36704729606208 -210.64847855294767 0 -210.64847855294767 58.142250584195153 0 0 0 0 0.53717578406333644 -1.2595181556664556 0 -1.2595181556664556 2.3397595250618188 0 0 0 0 -114.80832606689364 18.438294913731454 0 18.438294913731454 -59.572957993957118 0 0 0 0 18.242513968104333 13.675012161303528 0 13.675012161303528 -8.4997900299212539 0 0 0 0 -49.159301354739 40.662324223453197 0 40.662324223453197 -0.31304837950460751 0 0 0 0 -65.706112300147652 -4.0358037214039086 0 -4.0358037214039086 17.258076017998519 0 0 0 0 58.715163615706842 31.148670240588444 0 31.148670240588444 -5.8730641701877175 0 0 0 0 0.1446272512403084 4.7045299194255676 0 4.7045299194255676 5.0076715987229363 0 0 0 0 -3.0910729838942643 17.427763851844475 0 17.427763851844475 -27.120250843349368 0 0 0 0 13.132290203648154 -47.300321008499395 0 -47.300321008499395 53.298400414218577 0 0 0 0 108.75663396186428 -9.4141828182282552 0 -9.4141828182282552 -20.174930751470583 0 0 0 0 4.912218289756936 1.0522526460843196 0 1.0522526460843196 -2.2756210995656403 0 0 0 0 27.848163871880388 -115.54102381866664 0 -115.54102381866664 -102.00449178271674 0 0 0 0 -29.915528271434596 -119.59010985064378 0 -119.59010985064378 -26.531723502096611 0 0 0 0 73.019472584564937 67.871244647536059 0 67.871244647536059 53.437629188238304 0 0 0 0 1.105651330665637 -1.7532247838410058 0 -1.7532247838410058 0.44372407290856075 0 0 0 0 105.69769607791386 -123.72422178301099 0 -123.72422178301099 36.713385088430186 0 0 0 0 -42.1203931167056 -29.491847505469096 0 -29.491847505469096 199.17569736969222 0 0 0 0 140.41140587426707 83.882956596845403 0 83.882956596845403 141.87455598240967 0 0 0 0 100.15319811872178 -90.779154848320161 0 -90.779154848320161 166.56243885114372 0 0 0 0 189.02366248102044 28.552370602884253 0 28.552370602884253 -13.158452436126026 0 0 0 0 87.500301198393572 36.345849068281495 0 36.345849068281495 -13.561939562120273 0 0 0 0 132.37632505927468 24.352162424872404 0 24.352162424872404 -59.119673832813532 0 0 0 0 81.68030888348585 19.322209574094359 0 19.322209574094359 -53.230849783290068 0 0 0 0 80.196517405915074 30.792661197488997 0 30.792661197488997 -49.830193484154051 0 0 0 0 109.23097566806246 39.908776041027977 0 39.908776041027977 -47.523767235490595 0 0 0 0 55.251371899139485 -51.15738616907754 0 -51.15738616907754 23.053913110659778 0 0 0 0 20.315598045737715 -2.6129955914020684 0 -2.6129955914020684 -33.481133234184881 0 0 0 0 4.3102170270940405 -50.416835119050916 0 -50.416835119050916 31.924480237402804 0 0 0 0 33.332445700154494 -46.862896131462662 0 -46.862896131462662 31.141959611095444 0 0 0 0 44.288783848693129 -7.7318676291163229 0 -7.7318676291163229 46.801399793010887 0 0 0 0 67.734988842354142 -9.8968198616880088 0 -9.8968198616880088 91.653966426494208 0 0 0 0 0.25914445558737498 -48.860721371529053 0 -48.860721371529053 84.694405691477186 0 0 0 0 -5.1668477476923726 -19.623246660536097 0 -19.623246660536097 107.89544207310223 0 0 0 0 -24.119889237830648 -43.217656525368966 0 -43.217656525368966 127.25295321773001 0 0 0 0 -6.688007604185259 0.41695931755748461 0 0.41695931755748461 7.2612164875540657 0 0 0 0 7.4447934075815283 -50.597345572148981 0 -50.597345572148981 -37.111325861574187 0 0 0 0 -6.8669912136247149 -3.234600993906497 0 -3.234600993906497 -39.74807675237389 0 0 0 0 3.8486496442349107 -0.73189485871911586 0 -0.73189485871911586 -0.26276649647482264 0 0 0 0 5.6547482114667673 -2.1199496094355545 0 -2.1199496094355545 1.2376981467317885 0 0 0 0 -12.358210343052633 -6.2573770853699244 0 -6.2573770853699244 23.875598758377805 0 0 0 0 9.921101159445243 -10.136688001494923 0 -10.136688001494923 -6.1148582030438057 0 0 0 0 13.906662736149883 -4.7010113464588956 0 -4.7010113464588956 -0.020502329933560135 0 0 0 0 -36.626958969107363 -20.054252617697784 0 -20.054252617697784 34.979273956744692 0 0 0 0 2.802951400776351 -3.8021329570736704 0 -3.8021329570736704 1.848507931738254 0 0 0 0 42.008226037796703 -41.995327506129115 0 -41.995327506129115 -123.51909401080547 0 0 0 0 19.431446937205465 -6.0031163195053949 0 -6.0031163195053949 0.88777704698464754 0 0 0 0 -16.450180156243732 -54.911297960647971 0 -54.911297960647971 -50.705177923821566 0 0 0 0 1.0882477935674046 -0.71943351322220295 0 -0.71943351322220295 0.09352491099286242 0 0 0 0 97.411075943731703 55.306754376769732 0 55.306754376769732 -81.396140566573649 0 0 0 0 -251.89468305505579 10.340798022567469 0 10.340798022567469 44.429537813628485 0 0 0 0 16.240925783262355 -3.6102036084728297 0 -3.6102036084728297 -7.5763219124622125 0 0 0 0 1.5127489961269021 54.924500092311689 0 54.924500092311689 -50.998809960299695 0 0 0 0 151.92486233255477 33.521406385177215 0 33.521406385177215 -78.633460223220197 0 0 0 0 97.261462766749901 56.042812471934212 0 56.042812471934212 -76.374000308163886 0 0 0 0 16.415779379314017 -8.5649330300250881 0 -8.5649330300250881 2.1858695275236575 0 0 0 0 137.04562741256086 12.121269344932898 0 12.121269344932898 1.8122739448836001 0 0 0 0 12.542473816859285 -2.8580192260248083 0 -2.8580192260248083 0.10372440694488794 0 0 0 0 13.306658495683223 -3.7993971995865254 0 -3.7993971995865254 -1.2932103401642232 0 0 0 0 2.4034176520747224 -0.75240321372098151 0 -0.75240321372098151 0.065838543541753086 0 0 0 0 4.9280233585741371 -0.14734569418033419 0 -0.14734569418033419 -0.00046121277167308027 0 0 0 0 44.364356743550161 44.459974250938309 0 44.459974250938309 26.907635315547132 0 0 0 0 0.95116029911355326 0.46852015684186199 0 0.46852015684186199 -0.047148804865303831 0 0 0 0 15.411432805762161 14.147826481259855 0 14.147826481259855 16.696285123297308 0 0 0 0 51.641356411093511 0.89454511305628337 0 0.89454511305628337 -20.593237226494807 0 0 0 0 -0.45672106911990795 7.7173425662883766 0 7.7173425662883766 -1.4421047669009148 0 0 0 0 21.023956309609105 -0.086252548882404412 0 -0.086252548882404412 -2.427652140193008 0 0 0 0 486.39412812096998 -50.039942559717019 0 -50.039942559717019 -35.747713517340344 0 0 0 0 11.981598385279455 0.94352280920682574 0 0.94352280920682574 -1.0506728852821521 0 0 0 0 12.465069282887271 -1.9386506102850944 0 -1.9386506102850944 -5.682196569471671 0 0 0 0 165.13592319999589 18.190142237842338 0 18.190142237842338 -82.300101001569601 0 0 0 0 76.36827134808118 -141.5881249964616 0 -141.5881249964616 5.9241845928245311 0 0 0 0 111.6340582826233 -83.285149690605977 0 -83.285149690605977 195.59862354423086 0 0 0 0 -104.47416641782911 -18.377727222014983 0 -18.377727222014983 56.996449558669383 0 0 0 0 3.2208997261842001 -0.72807670222810827 0 -0.72807670222810827 2.5571142772876176 0 0 0 0 439.54162785675726 -492.91139311848031 0 -492.91139311848031 582.47334079570339 0 0 0 0 159.26217866059596 -227.29771865898647 0 -227.29771865898647 331.09093959839947 0 0 0 0 5.8019768431396415 -1.3564684167330867 0 -1.3564684167330867 0.74550722097436717 0 0 0 0 260.39162132743513 -228.44015033861794 0 -228.44015033861794 217.26852592200294 0 0 0 0 386.13107116783794 -395.10862394028948 0 -395.10862394028948 317.37610880017098 0 0 0 0 211.97061747906264 -247.07824115704062 0 -247.07824115704062 223.6203189044686 0 0 0 0 232.24573660222813 -191.84259719043325 0 -191.84259719043325 190.09782455976983 0 0 0 0 144.43641351947736 -228.79237187166683 0 -228.79237187166683 264.25079867234808 0 0 0 0 241.35876128462405 -150.22925962504428 0 -150.22925962504428 318.5390320106975 0 0 0 0 110.9624216578959 116.16213846626488 0 116.16213846626488 -44.803237214295223 0 0 0 0 34.15566854501958 -2.7524444074916801 0 -2.7524444074916801 84.514642476824065 0 0 0 0 148.7347103616903 -204.37132897108765 0 -204.37132897108765 363.35447525719826 0 0 0 0 0.80961375567497385 0.5467571811234393 0 0.5467571811234393 0.43808465143978559 0 0 0 0 -12.795984541815415 -53.255803804352354 0 -53.255803804352354 102.22726862080799 0 0 0 0 -26.070072251633974 -34.142346667173797 0 -34.142346667173797 269.34695217265232 0 0 0 0 9.1719173142701038 -55.106128445377124 0 -55.106128445377124 47.55774560862892 0 0 0 0 0.15927052151653243 -1.3300768897465289 0 -1.3300768897465289 1.1811537120720619 0 0 0 0 -35.533257099232287 -8.7687260460099878 0 -8.7687260460099878 112.80351494757184 0 0 0 0 89.301072099762678 -43.803432467289895 0 -43.803432467289895 -29.600879796915251 0 0 0 0 -35.347365298075601 47.455346211230335 0 47.455346211230335 36.770312571755312 0 0 0 0 -158.75011357256153 -31.745237684614807 0 -31.745237684614807 106.52894305108561 0 0 0 0 224.03849449995323 -16.061524506342579 0 -16.061524506342579 -70.03701364101434 0 0 0 0 35.118371995602502 0.54328054653615254 0 0.54328054653615254 -36.156661485625136 0 0 0 0 16.783374474858988 -7.4595456374369045 0 -7.4595456374369045 2.15020183920962 0 0 0 0 1.7430762385180856 0.058392199508087828 0 0.058392199508087828 -0.10987514461481702 0 0 0 0 84.021221230766969 -13.396343785747945 0 -13.396343785747945 5.320432216242402 0 0 0 0 3.5168762871762738 -8.7297543530615105 0 -8.7297543530615105 0.037399532351601664 0 0 0 0 44.134850330388872 21.433144089547049 0 21.433144089547049 -5.7724344105467607 0 0 0 0 91.96317726631969 -12.764995865465377 0 -12.764995865465377 -0.054899409982073238 0 0 0 0 0.81614949020149652 -59.071158794770305 0 -59.071158794770305 35.202046024532528 0 0 0 0 15.537466188178314 -5.9635863407661027 0 -5.9635863407661027 0.60505826227699899 0 0 0 0 -59.602408856269903 -15.750663963265623 0 -15.750663963265623 52.671569527403776 0 0 0 0 243.58656747440546 118.82949022366313 0 118.82949022366313 68.329130538664003 0 0 0 0 3.6813343829673499 -1.8708530390277929 0 -1.8708530390277929 -0.15458456569695034 0 0 0 0 -72.458232014874739 44.511219120266595 0 44.511219120266595 3.3026946946881552 0 0 0 0 -7.5699713306603371 -3.6392948091794062 0 -3.6392948091794062 -2.4933295286246384 0 0 0 0 -20.188177893374814 0.76077028391146073 0 0.76077028391146073 0.046167660112195655 0 0 0 0 0.90681563121987097 0.2790087375708481 0 0.2790087375708481 -0.20384659528181395 0 0 0 0 -19.512402894208208 1.0718142575849785 0 1.0718142575849785 -0.25879017607952448 0 0 0 0 787.6964565035305 -197.24742450170467 0 -197.24742450170467 -25.934359058869294 0 0 0 0 674.82198425388196 -147.60330540316301 0 -147.60330540316301 0.19673536797833277 0 0 0 0 636.29839226021431 -188.79316075302643 0 -188.79316075302643 83.658212223882714 0 0 0 0 579.20703963009873 -121.04310425920805 0 -121.04310425920805 56.423864764720676 0 0 0 0 788.14539770374358 -204.39072731789801 0 -204.39072731789801 19.122922212173307 0 0 0 0 743.08054850279586 -366.1838443259237 0 -366.1838443259237 195.55669056815609 0 0 0 0 508.92617851014074 -252.69643133222741 0 -252.69643133222741 422.48272951750903 0 0 0 0 779.05832934760838 -330.91130552169875 0 -330.91130552169875 -43.161766826348426 0 0 0 0 485.42276156977823 -8.9900289172722747 0 -8.9900289172722747 0.15242955432692451 0 0 0 0 388.91874605343037 -55.344096576837671 0 -55.344096576837671 174.93753637413266 0 0 0 0 542.58104386752893 -116.3629447772652 0 -116.3629447772652 199.07617531138447 0 0 0 0 356.07473676104564 11.595315682083154 0 11.595315682083154 245.64268960572889 0 0 0 0 352.51303036560421 -137.38511349047056 0 -137.38511349047056 245.44735983637094 0 0 0 0 261.93513044020438 62.547162853667601 0 62.547162853667601 218.31174009270288 0 0 0 0 287.41467580781318 -41.687942333226736 0 -41.687942333226736 170.37099786972047 0 0 0 0 831.92799072521302 -200.88383885019101 0 -200.88383885019101 141.88026559674313 0 0 0 0 449.40540776608395 -32.98309356723982 0 -32.98309356723982 346.0923508426435 0 0 0 0 323.06226622122631 -51.379419410620201 0 -51.379419410620201 189.79917413008673 0 0 0 0 400.74054970746511 -290.98207240535709 0 -290.98207240535709 84.452030113208608 0 0 0 0 614.43287533109833 -265.79546363132954 0 -265.79546363132954 60.581199629050587 0 0 0 0 514.14983929376467 -203.81011412918321 0 -203.81011412918321 148.54422008114042 0 0 0 0 552.36736151530204 -232.31539787541217 0 -232.31539787541217 -21.393549724721417 0 0 0 0 553.64609646711324 -221.1716634560301 0 -221.1716634560301 66.743253526863555 0 0 0 0 552.97562414513595 -400.41815605107354 0 -400.41815605107354 -241.99146172350959 0 0 0 0 5.5980283525965433 -0.42609275646574929 0 -0.42609275646574929 -0.24324647764032603 0 0 0 0 69.79048865763616 37.863507493647326 0 37.863507493647326 -135.98767181838281 0 0 0 0 131.16165738552809 -329.02672645254785 0 -329.02672645254785 -23.410323626565855 0 0 0 0 175.09583269512223 -178.40767466500355 0 -178.40767466500355 84.307938349541303 0 0 0 0 183.78523014176949 115.63093025370176 0 115.63093025370176 -32.79579500553973 0 0 0 0 -35.230134954865207 -29.081505194895829 0 -29.081505194895829 -59.055332207620914 0 0 0 0 230.25833151045663 85.904987039202851 0 85.904987039202851 -420.44821864039415 0 0 0 0 167.67105322368297 -104.69298064516569 0 -104.69298064516569 -552.62195531681118 0 0 0 0 12.928973689938175 -0.36008921311549003 0 -0.36008921311549003 -0.95638477959724266 0 0 0 0 159.25348626881896 85.46083363448551 0 85.46083363448551 -377.42672729779696 0 0 0 0 80.320295183908456 142.96083153237115 0 142.96083153237115 -189.55799318062134 0 0 0 0 120.01227574492623 -74.417657716921553 0 -74.417657716921553 -476.62827121444769 0 0 0 0 13.002554606621516 -0.058939063313442119 0 -0.058939063313442119 -0.98861576793886741 0 0 0 0 279.50347603503178 -28.407196872828919 0 -28.407196872828919 -195.61902073678175 0 0 0 0 138.29265097802272 95.645848766633037 0 95.645848766633037 -158.03110209125666 0 0 0 0 223.34679951284124 224.81136951380626 0 224.81136951380626 -127.1105380285527 0 0 0 0 323.44667945144465 52.22621562050108 0 52.22621562050108 -209.2011801189775 0 0 0 0 338.98761202541937 182.56087538517789 0 182.56087538517789 -171.22935941172452 0 0 0 0 425.31088310247287 382.6282230337485 0 382.6282230337485 4.4088893639692301 0 0 0 0 113.01607370444253 109.84111613590889 0 109.84111613590889 -156.69436225773148 0 0 0 0 376.99768857129675 179.69374836077168 0 179.69374836077168 144.39702797964787 0 0 0 0 400.60821365493757 -28.139140820333751 0 -28.139140820333751 208.0140322518088 0 0 0 0 168.19259485371003 28.509281283288146 0 28.509281283288146 113.73655386393551 0 0 0 0 205.80505171744153 128.81829153284178 0 128.81829153284178 113.24484493969734 0 0 0 0 188.82972883092589 39.168030570243509 0 39.168030570243509 20.36843691448621 0 0 0 0 312.50125609436509 71.011650641813674 0 71.011650641813674 28.558955478972493 0 0 0 0 614.30824316159487 37.64111802745721 0 37.64111802745721 -87.534313270450752 0 0 0 0 527.44714127392217 -151.44593516384643 0 -151.44593516384643 -225.93610327789449 0 0 0 0 118.41852252779063 70.688848280083306 0 70.688848280083306 -173.67732355052615 0 0 0 0 5.7395888525963983 0.15271360546819679 0 0.15271360546819679 -0.31299136298517993 0 0 0 0 66.135896123814746 -336.19548054566053 0 -336.19548054566053 -259.77436349364314 0 0 0 0 530.52966767345788 482.56332324434459 0 482.56332324434459 93.734753597781548 0 0 0 0 30.294671007795841 180.48040038863761 0 180.48040038863761 12.686660122295066 0 0 0 0 574.68251173179306 217.14974545353812 0 217.14974545353812 -73.862517692499779 0 0 0 0 243.41822353600855 248.44534807966815 0 248.44534807966815 45.553044318060415 0 0 0 0 517.46738838897363 349.91674474104082 0 349.91674474104082 -67.974308000166815 0 0 0 0 246.08984454179881 283.66656368602889 0 283.66656368602889 77.514217226906112 0 0 0 0 180.85280667025654 70.548826616206327 0 70.548826616206327 -82.059810938328681 0 0 0 0 464.55513055521442 197.06333779157686 0 197.06333779157686 -73.686119076462404 0 0 0 0 394.30574803554919 274.69455025367728 0 274.69455025367728 -105.24599112377575 0 0 0 0 884.36612810014776 217.59641713213657 0 217.59641713213657 -100.26835044552342 0 0 0 0 185.43873259202519 26.950824962141596 0 26.950824962141596 66.188856948489217 0 0 0 0 289.88489684862725 118.22676578148486 0 118.22676578148486 53.433627789769389 0 0 0 0 -47.306755441655696 -36.915322817705743 0 -36.915322817705743 -56.820351135120106 0 0 0 0 184.18413012027304 63.428809906499069 0 63.428809906499069 -69.172388092440514 0 0 0 0 42.068931406407501 -140.60771537010726 0 -140.60771537010726 -257.6869729613025 0 0 0 0 11.2112572778546 -0.41202231883788443 0 -0.41202231883788443 -0.92147728469311896 0 0 0 0 207.47289108611585 90.715834825706679 0 90.715834825706679 -211.19759960422007 0 0 0 0 30.513637539872434 -20.311109942869187 0 -20.311109942869187 75.153976423946744 0 0 0 0 133.30108986757114 90.021780758689971 0 90.021780758689971 -61.886703499598035 0 0 0 0 591.97061208359082 137.53957350246372 0 137.53957350246372 107.72722302841414 0 0 0 0 749.44804687763099 4.10416271005613 0 4.10416271005613 160.23449263762726 0 0 0 0 543.69461556991155 521.47516640494507 0 521.47516640494507 259.49000686934494 0 0 0 0 4.9357609902533568 0.031676238065365681 0 0.031676238065365681 -0.21369137870600563 0 0 0 0 336.66063195171591 -264.22452774231959 0 -264.22452774231959 -168.44103947496171 0 0 0 0 302.9738869212415 118.09048209964408 0 118.09048209964408 263.87331119222233 0 0 0 0 441.10908353504783 -42.582431053728747 0 -42.582431053728747 38.182356059200679 0 0 0 0 371.61783587999525 16.004264570027715 0 16.004264570027715 -0.10299074141080264 0 0 0 0 128.10492190194054 -0.087722789360114461 0 -0.087722789360114461 134.79040160684821 0 0 0 0 285.66881411505165 -51.840566670520978 0 -51.840566670520978 78.969627058455785 0 0 0 0 278.49544908352982 183.6176096454252 0 183.6176096454252 174.05518771544467 0 0 0 0 189.13602693202847 57.362094056650193 0 57.362094056650193 0.33967110240814619 0 0 0 0 367.14747854583402 162.5130829836821 0 162.5130829836821 -0.27979039132067068 0 0 0 0 181.13669853215106 394.6684026166314 0 394.6684026166314 526.55271224722264 0 0 0 0 3.8088872418246069 0.7149755154817008 0 0.7149755154817008 -0.098596230259368672 0 0 0 0 119.37500508264202 -63.338515221287864 0 -63.338515221287864 -153.00427065224446 0 0 0 0 50.671636922066682 77.62014492621222 0 77.62014492621222 -51.043059001168544 0 0 0 0 -0.86881104191706982 58.932789581045427 0 58.932789581045427 0.089648815644459451 0 0 0 0 -4.6225688849081052 47.312461908443275 0 47.312461908443275 -29.162587580801855 0 0 0 0 3.5415301670727786 34.449111104694921 0 34.449111104694921 -34.6493827247822 0 0 0 0 28.207784708858526 21.501994923087224 0 21.501994923087224 -122.95563770350554 0 0 0 0 7.7823005801037652 23.591789965487276 0 23.591789965487276 -27.187935071603533 0 0 0 0 9.527286047742848 0.47476539906501714 0 0.47476539906501714 -0.49431289023773783 0 0 0 0 73.73587618523743 195.4941992302754 0 195.4941992302754 179.3251482566987 0 0 0 0 187.36127443361329 98.852314122782715 0 98.852314122782715 -32.585468434185373 0 0 0 0 260.85105574209592 285.35816274818654 0 285.35816274818654 56.585845242698696 0 0 0 0 33.915458765375661 64.467236243286749 0 64.467236243286749 57.63573216872625 0 0 0 0 452.95971518717124 68.873401364493475 0 68.873401364493475 0.49395945827728838 0 0 0 0 405.74247784150066 354.63528501242286 0 354.63528501242286 89.15166568118309 0 0 0 0 200.56849959049578 347.0778220470159 0 347.0778220470159 323.33317664622587 0 0 0 0 297.09025686228415 268.98123552345555 0 268.98123552345555 0.90211263859979596 0 0 0 0 -9.7895037531852722 80.601561689367486 0 80.601561689367486 31.983995717977095 0 0 0 0 217.84258674031298 17.715934827804858 0 17.715934827804858 -251.0295228417408 0 0 0 0 84.218562326010215 156.50817963322052 0 156.50817963322052 -95.182270233103907 0 0 0 0 11.094551605288871 -0.37219202163164766 0 -0.37219202163164766 -1.0412364185328067 0 0 0 0 147.18477126004291 64.54547761221086 0 64.54547761221086 12.678757479642911 0 0 0 0 478.15231876363396 178.68494541355216 0 178.68494541355216 -3.1929510816144671 0 0 0 0 405.86632831669704 425.36028070248994 0 425.36028070248994 176.76193779369709 0 0 0 0 265.07915286416574 250.4411348455053 0 250.4411348455053 61.751712353589284 0 0 0 0 30.946377421892976 11.946260431580704 0 11.946260431580704 7.5613771854278582 0 0 0 0 0.15503997891636345 -0.13399292266254292 0 -0.13399292266254292 0.049445049747076072 0 0 0 0 67.068593279262132 15.100291551187214 0 15.100291551187214 -8.7426188306609056 0 0 0 0 7.293402104798588 -8.1601068061927844 0 -8.1601068061927844 3.1969001195866587 0 0 0 0 30.058278617478209 -12.434966001434111 0 -12.434966001434111 0.0270305982305055 0 0 0 0 39.313311152276583 -2.5398697455201766 0 -2.5398697455201766 -9.4542287183982552 0 0 0 0 9.9099103715852834 -9.8299547469626773 0 -9.8299547469626773 -1.2003555032721636 0 0 0 0 9.3581903692356718 -15.607674485952865 0 -15.607674485952865 -1.2816664740578005 0 0 0 0 28.399303917249199 -14.626416317097977 0 -14.626416317097977 -6.679892998816122 0 0 0 0 20.558529158181045 -0.61272458085663573 0 -0.61272458085663573 -2.0059340515515487 0 0 0 0 20.386334164097207 -9.8138716051924177 0 -9.8138716051924177 -3.5094416452326982 0 0 0 0 69.585664639715105 -43.635183969114848 0 -43.635183969114848 65.569271410151941 0 0 0 0 -2.5603013757790904 -15.042057934134334 0 -15.042057934134334 -1.047891825380816 0 0 0 0 8.6249914796989344 -4.8209243098146715 0 -4.8209243098146715 -1.1861721558930276 0 0 0 0 14.368517981687546 15.73400729747096 0 15.73400729747096 10.363066203136839 0 0 0 0 -3.5976720718317665 -14.274180915142907 0 -14.274180915142907 1.9415141443580453 0 0 0 0 3.274325096339453 -13.115897202839889 0 -13.115897202839889 1.1121308776107171 0 0 0 0 -6.4681847132451367 -7.5934416914526235 0 -7.5934416914526235 -9.1637067320179852 0 0 0 0 -3.5868573072220897 -12.147038615536227 0 -12.147038615536227 -5.2276479945750793 0 0 0 0 -2.1907809266704135 -13.049632865803556 0 -13.049632865803556 -5.5262158928604563 0 0 0 0 -0.68648095225216821 -10.963610958771326 0 -10.963610958771326 -2.6354673230868144 0 0 0 0 -0.71305039792787284 -16.392035422539159 0 -16.392035422539159 0.30785062387226958 0 0 0 0 1.3708026480162516 -14.883392641095941 0 -14.883392641095941 2.725424586021667 0 0 0 0 2.5345077447418589 0.42677862520026633 0 0.42677862520026633 -21.040005017915895 0 0 0 0 2.6011884732142789 -0.93423367925966661 0 -0.93423367925966661 -7.6766842370845865 0 0 0 0 -1.2865047663799487 -3.8533285714449157 0 -3.8533285714449157 -8.2972045040238172 0 0 0 0 2.6137247411825228 0.22335471729819645 0 0.22335471729819645 -25.899523282472234 0 0 0 0 0.63979432705673389 -6.3496497618308165 0 -6.3496497618308165 -41.412914518852588 0 0 0 0 -2.5597248733974993 -8.8031237514733078 0 -8.8031237514733078 -25.538974096408595 0 0 0 0 -13.771016482904088 -10.151697073899236 0 -10.151697073899236 -9.5351691554166607 0 0 0 0 2.5977696454409767 0.48290255606434584 0 0.48290255606434584 -0.0870660663148837 0 0 0 0 -32.414229656278621 17.633077127566857 0 17.633077127566857 -0.081372979968338852 0 0 0 0 -14.25506385328481 -12.544553249189597 0 -12.544553249189597 -14.908405769988523 0 0 0 0 -16.470797224581474 45.227838771662583 0 45.227838771662583 -16.916210621210169 0 0 0 0 -1.944002692354843 42.879258240693829 0 42.879258240693829 -21.860605672189148 0 0 0 0 -32.466508822020842 29.396101235296342 0 29.396101235296342 -12.42403138015478 0 0 0 0 2.3058846709902525 0.41599564491812657 0 0.41599564491812657 -0.65251729342180975 0 0 0 0 -20.552958230575314 34.162863849190884 0 34.162863849190884 21.087083017277592 0 0 0 0 -1.4934941707761027 36.238507125877277 0 36.238507125877277 -17.540144483569399 0 0 0 0 19.630478853985551 10.739680328038922 0 10.739680328038922 -19.091755597404642 0 0 0 0 0.33371486798569094 30.790407970035794 0 30.790407970035794 -8.5217386904035948 0 0 0 0 1.8578960912668911 6.250936354736325 0 6.250936354736325 0.77121236651847624 0 0 0 0 12.909625731655979 17.656813529624706 0 17.656813529624706 -25.797508999534969 0 0 0 0 5.5170712835970335 20.126217203387185 0 20.126217203387185 -18.42082320727944 0 0 0 0 4.5603024687734433 9.3899220242683725 0 9.3899220242683725 4.8358386291515103 0 0 0 0 2.3931413315876853 22.17666094316742 0 22.17666094316742 -19.755556979126538 0 0 0 0 81.307452356668364 -41.887385563942964 0 -41.887385563942964 -80.534241829146708 0 0 0 0 13.126617081075949 0.59023392397996943 0 0.59023392397996943 -0.96499060156132344 0 0 0 0 131.33692855121626 21.74012117743996 0 21.74012117743996 -48.284144512284598 0 0 0 0 -67.301309811366082 -37.089168207804619 0 -37.089168207804619 70.828304334253062 0 0 0 0 40.143150898140448 -8.7387152693644747 0 -8.7387152693644747 -11.17952620326796 0 0 0 0 1.6990286365135105 -0.2734975474238297 0 -0.2734975474238297 -0.25395757298317689 0 0 0 0 34.540850857085388 -10.9449901650847 0 -10.9449901650847 6.2200363837182522 0 0 0 0 -2.0574337325087981 94.453133866649821 0 94.453133866649821 -91.753754379333429 0 0 0 0 0.90484700119310446 1.6203146953343506 0 1.6203146953343506 -0.00019946717279291371 0 0 0 0 13.97205002066039 -10.297196115318037 0 -10.297196115318037 -5.9722885718771863 0 0 0 0 17.189812838565558 -3.6440250715275369 0 -3.6440250715275369 -8.319588894576782 0 0 0 0 1.4579275092837634 -3.8813540615598541 0 -3.8813540615598541 -2.1096514167071234 0 0 0 0 21.048932086647255 -7.6218420112972041 0 -7.6218420112972041 -4.763641936664051 0 0 0 0 17.279268863381731 -13.101398940596273 0 -13.101398940596273 -1.0343527523415972 0 0 0 0 8.0888053032109895 -5.4261629348775671 0 -5.4261629348775671 -0.59211078866138078 0 0 0 0 19.076139187571243 0.93936260445661901 0 0.93936260445661901 -0.52627605326040339 0 0 0 0 13.182813887906377 -4.3731599466697162 0 -4.3731599466697162 -1.2382199721299969 0 0 0 0 23.222772869325127 -0.93821729780556495 0 -0.93821729780556495 2.4298838459598002 0 0 0 0 24.894328011359903 -0.07546098419061309 0 -0.07546098419061309 -4.3771538709356435 0 0 0 0 10.311672232317505 14.984546974752295 0 14.984546974752295 43.28533249760909 0 0 0 0 17.007477188017219 21.675433619527269 0 21.675433619527269 -3.0063635754643201 0 0 0 0 8.828959362700175 -5.06992233798033 0 -5.06992233798033 -0.68732279428160736 0 0 0 0 5.4422474808670813 -19.291379147445042 0 -19.291379147445042 8.122525605572875 0 0 0 0 18.594676352237002 -0.32217050172934592 0 -0.32217050172934592 -1.0674152037123861 0 0 0 0 26.702976300992304 3.1174158560543077 0 3.1174158560543077 -16.019875600662999 0 0 0 0 1.9896503878117073 -8.1354285267486119 0 -8.1354285267486119 32.397735670577816 0 0 0 0 11.321749024735254 16.808770733937447 0 16.808770733937447 71.668709826973426 0 0 0 0 18.15949709105189 7.0153993762749423 0 7.0153993762749423 17.318991146090013 0 0 0 0 47.454814055578026 -16.688095571527022 0 -16.688095571527022 27.593789609858703 0 0 0 0 -0.19078449850726997 -0.20099291921530948 0 -0.20099291921530948 0.33445190618359244 0 0 0 0 22.438614637503633 7.4389960926430518 0 7.4389960926430518 5.3677844964415158 0 0 0 0 -17.125988489868178 95.444031610336822 0 95.444031610336822 124.95705617426043 0 0 0 0 107.23960836158949 70.991902644573969 0 70.991902644573969 44.332452574980636 0 0 0 0 105.61472392416545 58.912065901235977 0 58.912065901235977 45.742654999049137 0 0 0 0 216.36024908528634 27.347443375209721 0 27.347443375209721 -0.74872193243488994 0 0 0 0 194.15459003993601 1.1380978853738348 0 1.1380978853738348 -15.20126748192593 0 0 0 0 101.49593098905825 0.49204155606277222 0 0.49204155606277222 -1.8222886772648224 0 0 0 0 108.45340057549038 30.81788460571277 0 30.81788460571277 11.351820701997553 0 0 0 0 29.034477131601307 21.043829003922312 0 21.043829003922312 12.415963659820571 0 0 0 0 93.048177188273257 33.729694827371468 0 33.729694827371468 38.045067333767079 0 0 0 0 40.553115824135602 34.691428908016682 0 34.691428908016682 39.054250888194915 0 0 0 0 34.707107852911577 44.925706114126598 0 44.925706114126598 62.568141629977745 0 0 0 0 15.28660319474875 23.36434269847118 0 23.36434269847118 43.708832362631426 0 0 0 0 27.590028615362826 36.725268196269099 0 36.725268196269099 42.573878155332437 0 0 0 0 43.048224823302007 36.045984205628983 0 36.045984205628983 24.382003308449015 0 0 0 0 31.297976738627767 47.619306445708958 0 47.619306445708958 8.8526694971026707 0 0 0 0 31.845573331491323 31.283801391093071 0 31.283801391093071 22.362357390516571 0 0 0 0 29.198260458775621 40.148130362286871 0 40.148130362286871 21.618706758795057 0 0 0 0 29.77188261016272 31.408267496080068 0 31.408267496080068 3.5545678614950305 0 0 0 0 27.777773964167864 32.292702729853261 0 32.292702729853261 16.034117076904892 0 0 0 0 25.503499339320115 25.115906660482803 0 25.115906660482803 16.026307417699883 0 0 0 0 23.167403601895785 28.250384122147576 0 28.250384122147576 27.77754593271942 0 0 0 0 20.763164317220799 21.229510703368433 0 21.229510703368433 39.118921214069573 0 0 0 0 24.386818924278487 27.359576963710559 0 27.359576963710559 25.033047185905456 0 0 0 0 26.916523608088028 19.420195679361171 0 19.420195679361171 30.75223282416696 0 0 0 0 0.18799906079115658 -0.21704700125044951 0 -0.21704700125044951 0.15860697043699545 0 0 0 0 111.03478757714765 15.809411086233759 0 15.809411086233759 0.28033745265153698 0 0 0 0 49.591243263697834 -176.47470910005035 0 -176.47470910005035 -70.949504672800828 0 0 0 0 140.96332565469493 69.501806468523256 0 69.501806468523256 52.564965084402104 0 0 0 0 53.725781316912617 10.230739956543786 0 10.230739956543786 43.401289257282727 0 0 0 0 104.35575396476634 -28.013687485860103 0 -28.013687485860103 -145.91547192508261 0 0 0 0 100.62182000708708 -99.39483967696107 0 -99.39483967696107 -349.23592388186182 0 0 0 0 -59.502234551589936 38.795210131769977 0 38.795210131769977 -101.35387603507957 0 0 0 0 -137.4314608825116 -108.55567639888392 0 -108.55567639888392 -90.55639573465885 0 0 0 0 135.25891913773376 -179.18046293061229 0 -179.18046293061229 -254.65875969713397 0 0 0 0 606.73390720938187 74.754627774623884 0 74.754627774623884 -157.05900206615641 0 0 0 0 4.8272685175143693 0.088992918106207242 0 0.088992918106207242 -0.32322624640452846 0 0 0 0 188.32131401680817 198.55656278140179 0 198.55656278140179 172.05281292598934 0 0 0 0 135.85842758405852 -17.475726651335563 0 -17.475726651335563 215.45418788007174 0 0 0 0 165.99633682431886 11.658798866375015 0 11.658798866375015 -40.849445330462281 0 0 0 0 215.16509366303944 19.58157250002234 0 19.58157250002234 -41.48684525361314 0 0 0 0 0.52365547226089859 -0.2217187391051425 0 -0.2217187391051425 0.15812465825771688 0 0 0 0 239.58230453712167 8.2992196833438605 0 8.2992196833438605 -36.738101174536887 0 0 0 0 109.88554966577794 57.518933676087372 0 57.518933676087372 48.228946866478523 0 0 0 0 126.17688850137347 76.531617533692 0 76.531617533692 59.787800732005422 0 0 0 0 98.517165401819511 0.9996975929297065 0 0.9996975929297065 27.235885674372312 0 0 0 0 137.41360819722468 63.370549031359687 0 63.370549031359687 67.836332679712399 0 0 0 0 196.29141401937977 81.979074887510592 0 81.979074887510592 51.808896511352906 0 0 0 0 101.98811620126071 42.251807352524033 0 42.251807352524033 38.176603758341685 0 0 0 0 126.46127921872539 110.53330648876538 0 110.53330648876538 55.686333901001944 0 0 0 0 185.73444612218009 74.687950356947397 0 74.687950356947397 38.93096587658566 0 0 0 0 162.61683667983743 140.37183065319658 0 140.37183065319658 33.482965124015323 0 0 0 0 102.45093810868275 54.775034068534154 0 54.775034068534154 29.371755018773868 0 0 0 0 -48.801260612628539 -29.857666704497774 0 -29.857666704497774 -89.074652627722031 0 0 0 0 71.883133828550854 84.03714928871338 0 84.03714928871338 1.4000136932112923 0 0 0 0 45.824685047555249 -38.840600744255909 0 -38.840600744255909 -91.615860535275374 0 0 0 0 115.86193630389243 100.6290478484125 0 100.6290478484125 -77.403671910554507 0 0 0 0 33.872387001261814 -43.140363548090264 0 -43.140363548090264 -86.099593193161013 0 0 0 0 98.839180128765292 -84.862951208410777 0 -84.862951208410777 -403.95854969451727 0 0 0 0 -25.883136617223499 -69.257919386165213 0 -69.257919386165213 -109.01111675076123 0 0 0 0 15.349901374083629 -2.8059380740862672 0 -2.8059380740862672 -0.43308584162570896 0 0 0 0 12.995766413383535 55.920468930311671 0 55.920468930311671 -219.58515499933122 0 0 0 0 580.90604328585323 -22.697290879126115 0 -22.697290879126115 -181.6701672929787 0 0 0 0 553.0061700677179 93.941402168084949 0 93.941402168084949 -193.47903434524665 0 0 0 0 358.35315485138563 30.052759398301703 0 30.052759398301703 -155.06544254151743 0 0 0 0 295.0433255021162 226.00437971813801 0 226.00437971813801 -128.85881495435086 0 0 0 0 429.53118301471113 134.93785538276148 0 134.93785538276148 -198.43312125800657 0 0 0 0 218.73937435548578 83.820243234899181 0 83.820243234899181 -26.970911991844673 0 0 0 0 237.20336852845503 9.0811929169960877 0 9.0811929169960877 -13.616268710646807 0 0 0 0 422.63265667617088 -5.800423577563663 0 -5.800423577563663 11.003847343544408 0 0 0 0 404.1711306310026 92.949158773646786 0 92.949158773646786 -28.233919504560845 0 0 0 0 535.54800046369201 103.65055625726117 0 103.65055625726117 -116.35756910625713 0 0 0 0 450.88476652366808 90.864044729427604 0 90.864044729427604 -112.85269037967237 0 0 0 0 427.70253073671483 60.531976658876346 0 60.531976658876346 -144.40623643211021 0 0 0 0 271.1089421317447 108.22005540956071 0 108.22005540956071 -14.52954601655415 0 0 0 0 359.57361844129628 166.73510766485151 0 166.73510766485151 21.712650633520866 0 0 0 0 336.70870278103394 134.05620339999609 0 134.05620339999609 -6.1056622472819981 0 0 0 0 233.31497209667577 238.89110038557806 0 238.89110038557806 290.82740759019919 0 0 0 0 3.4454742269705321 0.010651153059407115 0 0.010651153059407115 0.045088884367537843 0 0 0 0 228.40943830515607 -119.90673567582357 0 -119.90673567582357 -87.457622699258138 0 0 0 0 388.63129715081595 172.18402578168696 0 172.18402578168696 354.59460495037121 0 0 0 0 598.28055569666321 279.21901542198691 0 279.21901542198691 46.57466990959216 0 0 0 0 685.52021024446003 18.285564755708492 0 18.285564755708492 -30.731019343185039 0 0 0 0 504.89552064624149 3.9063481369312711 0 3.9063481369312711 -100.70736301657917 0 0 0 0 231.61631719625439 145.54251531336678 0 145.54251531336678 37.501319289108551 0 0 0 0 183.83630852969509 86.19063242325646 0 86.19063242325646 164.62769390213055 0 0 0 0 367.79386215734121 63.30099283857168 0 63.30099283857168 -13.518892767927468 0 0 0 0 0.49748149367025007 0.11369509571269987 0 0.11369509571269987 0.054417730788971053 0 0 0 0 319.1503545975138 73.538056670956593 0 73.538056670956593 12.453223009988719 0 0 0 0 229.29413351403491 -43.834317384368568 0 -43.834317384368568 -48.749852863475233 0 0 0 0 212.46506160096033 -28.774509699985611 0 -28.774509699985611 -33.190474759300763 0 0 0 0 60.507680024820729 -33.878085803109876 0 -33.878085803109876 -10.06864987303976 0 0 0 0 204.53696626040255 -56.576062954965423 0 -56.576062954965423 -33.767516288924142 0 0 0 0 79.232079121997231 13.049483408064338 0 13.049483408064338 -25.546306076763521 0 0 0 0 47.390990811982192 33.724540226166894 0 33.724540226166894 -11.467721707603516 0 0 0 0 20.300775350129697 27.394404676155894 0 27.394404676155894 -12.497121002247276 0 0 0 0 15.648532326566055 47.619283823464485 0 47.619283823464485 -36.109591487617308 0 0 0 0 30.548237942741252 34.906586452972356 0 34.906586452972356 -71.658003197625874 0 0 0 0 12.32641722416156 9.9584465984015083 0 9.9584465984015083 -21.10678509632902 0 0 0 0 42.232925112068187 27.45674039826784 0 27.45674039826784 -147.34271273986107 0 0 0 0 4.7845007570576854 5.502942537819024 0 5.502942537819024 -7.5470293769934216 0 0 0 0 8.8631199088568451 3.2638372861675609 0 3.2638372861675609 0.70925217883996861 0 0 0 0 4.4138729271944612 17.034267721256384 0 17.034267721256384 -58.275738692698084 0 0 0 0 22.998294287885074 7.4435830435812278 0 7.4435830435812278 -98.698608539210952 0 0 0 0 -12.925328274490312 42.197685638493908 0 42.197685638493908 -119.94688263056881 0 0 0 0 6.8688204473880887 1.4405762058589744 0 1.4405762058589744 -2.7483940593925773 0 0 0 0 -28.244921076184255 -50.514261489835917 0 -50.514261489835917 0.18344705480495804 0 0 0 0 12.032836568396306 64.076158743500258 0 64.076158743500258 -95.190797987048938 0 0 0 0 39.712115141461254 27.688773547850097 0 27.688773547850097 -19.870952489738031 0 0 0 0 35.559438968379254 30.467576889465896 0 30.467576889465896 -4.1318068597677211 0 0 0 0 35.5054657057226 31.22899224056868 0 31.22899224056868 -13.634530236655808 0 0 0 0 32.398468812112696 38.474714280787097 0 38.474714280787097 2.9336050844487871 0 0 0 0 40.398466455953894 30.798961628831414 0 30.798961628831414 -13.756866638569571 0 0 0 0 42.16396828359575 29.599301451084166 0 29.599301451084166 -34.163200447292965 0 0 0 0 32.519768224010477 42.080884638462862 0 42.080884638462862 -13.471231884926562 0 0 0 0 38.283422352171328 34.421173282252653 0 34.421173282252653 -9.7699203573915838 0 0 0 0 37.946123246510979 43.629554417887462 0 43.629554417887462 -36.726641371266886 0 0 0 0 31.891916227090405 27.881025906116321 0 27.881025906116321 -41.217333066194655 0 0 0 0 40.508326469178428 14.019548741441518 0 14.019548741441518 -60.968331156473084 0 0 0 0 36.909688011294804 4.7986701055104497 0 4.7986701055104497 0.012763404478571272 0 0 0 0 31.869155558277271 10.333219974576309 0 10.333219974576309 -1.2650168690491483 0 0 0 0 50.551663963502506 -18.70557766438391 0 -18.70557766438391 -112.29215595849274 0 0 0 0 20.28063477705291 44.650718106549121 0 44.650718106549121 -64.74717771994068 0 0 0 0 40.801445123317535 36.847444627313735 0 36.847444627313735 -40.747336645507659 0 0 0 0 40.177272136206739 7.9015635880783321 0 7.9015635880783321 -51.217219737041262 0 0 0 0 42.65476478527853 17.935030988208208 0 17.935030988208208 -21.599715943106968 0 0 0 0 42.104073192908743 4.3068288049650461 0 4.3068288049650461 0.12730010938673997 0 0 0 0 68.427975317114033 6.9759776111754945 0 6.9759776111754945 -20.100537271864141 0 0 0 0 40.872985383874038 18.827308800197706 0 18.827308800197706 -21.93356151098212 0 0 0 0 153.32005342148477 -216.63491797992322 0 -216.63491797992322 102.94001428622892 0 0 0 0 267.81238472000405 31.353373693802951 0 31.353373693802951 -233.34997901066197 0 0 0 0 43.058851047988838 6.9214857081234484 0 6.9214857081234484 0.43483812049708104 0 0 0 0 119.67362438765122 -15.470254173464127 0 -15.470254173464127 -57.863632608767603 0 0 0 0 36.546672756710905 11.433910338406349 0 11.433910338406349 -19.33127362829299 0 0 0 0 317.3501256951422 -83.551821914570269 0 -83.551821914570269 -186.78118408090631 0 0 0 0 110.85584514836955 -155.15958491368184 0 -155.15958491368184 110.17367226002796 0 0 0 0 -31.552233829846955 139.54646613589318 0 139.54646613589318 239.21127055577131 0 0 0 0 -39.998173447733279 130.38148052733845 0 130.38148052733845 76.338986053061944 0 0 0 0 2.2550143047518532 2.877324394240631 0 2.877324394240631 2.0548139391299767 0 0 0 0 130.29210390659318 192.31381406945337 0 192.31381406945337 -53.792136271834408 0 0 0 0 -40.26959247465129 67.75352507863181 0 67.75352507863181 67.107178231126454 0 0 0 0 -15.194602096758899 29.70357046457832 0 29.70357046457832 67.172000849899433 0 0 0 0 51.343685984582407 92.427774852962187 0 92.427774852962187 -26.467598878690723 0 0 0 0 114.95293832472817 -25.709846673649793 0 -25.709846673649793 -58.484882673233358 0 0 0 0 20.706894269096665 90.526992462882561 0 90.526992462882561 187.8947287770722 0 0 0 0 -11.340797583477979 -12.272482424531219 0 -12.272482424531219 34.451552687818094 0 0 0 0 19.645491321541897 9.3030806131286568 0 9.3030806131286568 2.9857280166457638 0 0 0 0 -10.444845534992055 23.679071411448319 0 23.679071411448319 21.622532340149036 0 0 0 0 36.160912601881137 11.337588229164567 0 11.337588229164567 -7.4536018709407585 0 0 0 0 42.880980000217306 13.759768351735261 0 13.759768351735261 1.2009013077089934 0 0 0 0 -7.6102919938894047 98.459621625560317 0 98.459621625560317 -33.030233825922323 0 0 0 0 47.509094038690819 -6.4502325565931926 0 -6.4502325565931926 46.076140982203924 0 0 0 0 34.497532491004677 18.529398216682807 0 18.529398216682807 75.741831974280785 0 0 0 0 14.711764229199616 -3.0271846218582823 0 -3.0271846218582823 71.757662524011295 0 0 0 0 -77.584778420539806 61.88520529474323 0 61.88520529474323 28.283156594719657 0 0 0 0 -37.608128407970071 -63.374675104312558 0 -63.374675104312558 15.48815902640797 0 0 0 0 32.705028418638562 31.913110346239449 0 31.913110346239449 4.8470299285806711 0 0 0 0 -7.6498557272560106 12.968713719249124 0 12.968713719249124 5.7965006107681196 0 0 0 0 349.78702663536751 5.2932090878024809 0 5.2932090878024809 -73.820911014400735 0 0 0 0 108.61831686949881 -10.198434670608194 0 -10.198434670608194 -58.250040557994794 0 0 0 0 28.157470293474404 32.528724819015906 0 32.528724819015906 0.79503490558098344 0 0 0 0 361.91013431821193 -207.65366998728672 0 -207.65366998728672 19.510027107171311 0 0 0 0 -102.64557721070014 187.53554560706544 0 187.53554560706544 260.24838105459384 0 0 0 0 27.294723173195962 -31.267160882684891 0 -31.267160882684891 25.760438417593321 0 0 0 0 43.089185365795856 27.171714601094948 0 27.171714601094948 6.9223996060985229 0 0 0 0 14.69277929092641 -41.847377560381005 0 -41.847377560381005 -6.0425622601446491 0 0 0 0 58.108534105253057 23.174460532512509 0 23.174460532512509 -113.03547776520483 0 0 0 0 11.703818749403581 32.057715186837527 0 32.057715186837527 -101.08948207716151 0 0 0 0 55.965704544407345 98.543611531345405 0 98.543611531345405 -199.54488788751951 0 0 0 0 -14.83534081367543 104.99971852563772 0 104.99971852563772 -182.55247813843039 0 0 0 0 64.451487628393807 77.269712272124309 0 77.269712272124309 -191.35362046413002 0 0 0 0 12.031001179973828 84.050961958423613 0 84.050961958423613 3.1938510796707078 0 0 0 0 0.99573417348437943 165.0248682903237 0 165.0248682903237 -178.09048183777054 0 0 0 0 -109.34646661215083 71.286667678040374 0 71.286667678040374 -109.26909619966182 0 0 0 0 90.268419323881972 87.082543236481371 0 87.082543236481371 -417.88842092257528 0 0 0 0 6.8175197047821712 10.332692313975556 0 10.332692313975556 -80.918002816948075 0 0 0 0 -23.913397964701289 -8.5114210671396222 0 -8.5114210671396222 -88.804762136963575 0 0 0 0 8.7630356120398574 88.376345822066213 0 88.376345822066213 -276.96310842915591 0 0 0 0 -135.62235576371313 119.37947254785865 0 119.37947254785865 -176.89822122929729 0 0 0 0 -149.96002028042858 333.46256796389207 0 333.46256796389207 -393.08044471525255 0 0 0 0 -2.3612821361379588 -0.88624154543894917 0 -0.88624154543894917 -0.1518900415546911 0 0 0 0 108.33455865302858 -134.7226271590236 0 -134.7226271590236 -18.717111698747885 0 0 0 0 -23.260321101362933 13.733982040611636 0 13.733982040611636 26.246236232922456 0 0 0 0 92.622805262544716 -16.239118705957253 0 -16.239118705957253 -65.147298463245988 0 0 0 0 3.7022384496357859 -4.3024969756150568 0 -4.3024969756150568 -5.5171399320428467 0 0 0 0 -16.369389955842053 117.88587872806102 0 117.88587872806102 -196.50254732573808 0 0 0 0 -25.535712157696253 85.851716009742404 0 85.851716009742404 -206.99561184363779 0 0 0 0 42.612288003481808 -49.16951027527216 0 -49.16951027527216 66.23298332923514 0 0 0 0 31.337161923562405 7.009000791938405 0 7.009000791938405 -1.5914419385649845 0 0 0 0 50.872839270465192 -13.361484506899387 0 -13.361484506899387 47.160076535581766 0 0 0 0 68.500543988162747 -0.73567803397139997 0 -0.73567803397139997 -5.0578313165542585 0 0 0 0 77.716943346647895 -10.268968917338498 0 -10.268968917338498 -34.848741714836478 0 0 0 0 87.692546530444815 -63.968888181928378 0 -63.968888181928378 -9.8385542154981067 0 0 0 0 39.201716887735529 28.173761394332359 0 28.173761394332359 -255.01251037717634 0 0 0 0 28.966528647016275 221.21578572855648 0 221.21578572855648 -785.50793941944949 0 0 0 0 89.187818512269587 131.11927139532878 0 131.11927139532878 -304.75461029307894 0 0 0 0 58.71343146381696 83.526946155853466 0 83.526946155853466 -196.13404747208074 0 0 0 0 87.215732596756425 110.12189731009926 0 110.12189731009926 -188.44151564737427 0 0 0 0 -14.963167659327155 89.326975456227729 0 89.326975456227729 -183.73118984017856 0 0 0 0 14.070437331714544 6.5111840001319798 0 6.5111840001319798 -0.071214284864100641 0 0 0 0 66.132956958070281 10.049813249074305 0 10.049813249074305 -120.01879246484259 0 0 0 0 28.523538321187601 4.2895351755803972 0 4.2895351755803972 4.1597088130195825 0 0 0 0 20.164308604842518 0.079466883957593382 0 0.079466883957593382 -29.392800312115014 0 0 0 0 20.050145059998613 12.57953591282876 0 12.57953591282876 -13.136855542709782 0 0 0 0 -28.472086301582749 -237.45487180290957 0 -237.45487180290957 152.91209683312309 0 0 0 0 0.65132898124284111 22.36582094643029 0 22.36582094643029 11.164458057683078 0 0 0 0 70.445919712044997 110.84038593926607 0 110.84038593926607 122.91050181999094 0 0 0 0 4.1031854613267456 2.9172757038576549 0 2.9172757038576549 1.412648637340491 0 0 0 0 105.19388835374048 81.139099102409546 0 81.139099102409546 -215.55817146143545 0 0 0 0 29.412824400744285 255.28983154455284 0 255.28983154455284 -159.44580893441434 0 0 0 0 3.0683634277374949 -61.886503982122122 0 -61.886503982122122 401.36268281163728 0 0 0 0 20.94292881412548 355.74276483590165 0 355.74276483590165 355.05321975185285 0 0 0 0 -254.90346159809269 42.377790337769738 0 42.377790337769738 -317.07276253216878 0 0 0 0 59.020859536205535 232.19368255063296 0 232.19368255063296 -168.73393194910068 0 0 0 0 38.077601474884432 389.65577179822714 0 389.65577179822714 -617.54522636187949 0 0 0 0 270.55853936471976 -229.66493581473333 0 -229.66493581473333 -266.06483859131322 0 0 0 0 365.74762200575788 302.79695352617455 0 302.79695352617455 -208.01978527601341 0 0 0 0 -47.260611881414661 2.6622701051010154 0 2.6622701051010154 -238.34986298673704 0 0 0 0 -9.3125405637938456 51.127202590619866 0 51.127202590619866 3.8489636834360681 0 0 0 0 -5.505268981854897 253.60591570709482 0 253.60591570709482 -661.01459016095328 0 0 0 0 11.851221990988734 0.59072556355951633 0 0.59072556355951633 -4.6327186748782836 0 0 0 0 -214.309838173358 550.50868337622364 0 550.50868337622364 -1064.9919637526009 0 0 0 0 48.833433511652402 -43.447772553340315 0 -43.447772553340315 -1106.028898707611 0 0 0 0 101.14110211055959 -219.27962078249107 0 -219.27962078249107 -956.97382198774494 0 0 0 0 -2.9389866965064471 14.018828326518783 0 14.018828326518783 1.7436750550734925 0 0 0 0 55.490232426115028 4.6582974005177409 0 4.6582974005177409 -3.3574309866049892 0 0 0 0 162.86689832428237 -114.29257126192931 0 -114.29257126192931 99.964480764607202 0 0 0 0 86.951228410864132 73.281609881103947 0 73.281609881103947 -494.97982228762902 0 0 0 0 -29.57701003368129 68.659666504959205 0 68.659666504959205 -207.45491094377348 0 0 0 0 83.238129598292289 142.91549236443871 0 142.91549236443871 -539.56169812163739 0 0 0 0 -71.181304243043996 136.16291364755216 0 136.16291364755216 161.89848496809464 0 0 0 0 -67.78881937279948 161.16004661737315 0 161.16004661737315 -109.08525916918961 0 0 0 0 135.1135979246319 98.956869623581468 0 98.956869623581468 -314.71222325623285 0 0 0 0 -0.75472166266990826 80.961950733403683 0 80.961950733403683 -138.11851351045084 0 0 0 0 -31.376840136766987 86.252908845282377 0 86.252908845282377 -138.8827500946586 0 0 0 0 45.105750733215245 74.338940744868125 0 74.338940744868125 -81.224361800021967 0 0 0 0 35.616025787323508 1.3211130373311875 0 1.3211130373311875 0.47936463660893014 0 0 0 0 -29.129855352119193 -207.42576834651655 0 -207.42576834651655 436.3161809144662 0 0 0 0 174.02838721722947 -17.07749824406438 0 -17.07749824406438 157.46791459243533 0 0 0 0 -20.332918638665433 -238.31093475888474 0 -238.31093475888474 109.09185939266956 0 0 0 0 -92.141832851011714 -212.91456828214714 0 -212.91456828214714 99.620508768177771 0 0 0 0 126.72897783788358 -179.11970143792558 0 -179.11970143792558 -511.04891246342993 0 0 0 0 6.4071379094783083 -1.370307146760446 0 -1.370307146760446 0.035602843792875705 0 0 0 0 186.11806801446073 -363.75374646053467 0 -363.75374646053467 -41.962928639574976 0 0 0 0 146.6596961305986 -23.218503980004648 0 -23.218503980004648 -100.44737663253198 0 0 0 0 602.75059420565231 -112.65544528956275 0 -112.65544528956275 -115.85877213379185 0 0 0 0 33.19322714992181 28.452887459553253 0 28.452887459553253 -3.708121706250382 0 0 0 0 107.80021286863484 -167.92585906954054 0 -167.92585906954054 98.506834575291265 0 0 0 0 159.29601484677551 413.40608452937158 0 413.40608452937158 -448.41225636489753 0 0 0 0 1697.5064250900905 -434.81589722568197 0 -434.81589722568197 -52.050239128967178 0 0 0 0 105.32654070782883 -320.62804612715638 0 -320.62804612715638 -464.300223444332 0 0 0 0 57.183049999999639 -420.11825755829386 0 -420.11825755829386 -8.7517351115919837 0 0 0 0 -131.90941188328725 -317.96461211092083 0 -317.96461211092083 154.40746195541061 0 0 0 0 83.261895238334546 -154.61594923635272 0 -154.61594923635272 155.79382909370099 0 0 0 0 -98.364968637124548 -364.80480119722893 0 -364.80480119722893 501.7085281028464 0 0 0 0 -239.32614376822312 -11.128602977580613 0 -11.128602977580613 441.14526511012571 0 0 0 0 755.64351984359382 -290.11058854639987 0 -290.11058854639987 214.67076276460023 0 0 0 0 629.13695608960552 -608.059959091785 0 -608.059959091785 511.0964534185473 0 0 0 0 1826.454907586296 -1477.3103946073088 0 -1477.3103946073088 1156.135817215973 0 0 0 0 1016.7029604325799 -35.555850873690588 0 -35.555850873690588 379.2333044998104 0 0 0 0 2919.3917567215249 -119.50882420991911 0 -119.50882420991911 -615.87535991480809 0 0 0 0 6.0659626259125261 -5.6564299458834597 0 -5.6564299458834597 4.8229094935478214 0 0 0 0 1100.9822454069981 1150.4077219198143 0 1150.4077219198143 709.33374232290453 0 0 0 0 749.592653219981 848.32188265117816 0 848.32188265117816 486.91777381563952 0 0 0 0 1615.5169202635516 557.11847415038665 0 557.11847415038665 -78.12251246832875 0 0 0 0 1192.229067525579 524.03133828485579 0 524.03133828485579 -75.485950514967087 0 0 0 0 1166.1838876496295 368.99145188315254 0 368.99145188315254 223.70614370505166 0 0 0 0 886.58177635356697 794.63882767935979 0 794.63882767935979 -609.78731217717041 0 0 0 0 1555.0796491523379 700.74062102946141 0 700.74062102946141 -1050.7491945212228 0 0 0 0 875.67279810794571 1041.2453687127008 0 1041.2453687127008 -899.98845497841808 0 0 0 0 20.198328504375098 -0.45991687095483513 0 -0.45991687095483513 0.29327067614840363 0 0 0 0 1390.6949887838564 -611.19733816472171 0 -611.19733816472171 3031.623324456632 0 0 0 0 887.12437343120837 -1831.1143118332664 0 -1831.1143118332664 2507.798678232376 0 0 0 0 2410.7758088184128 -1121.6275931637026 0 -1121.6275931637026 -498.94235149046472 0 0 0 0 7.7700010042713856 -9.234884181529992 0 -9.234884181529992 12.663026776040384 0 0 0 0 1189.8482860838631 217.24546080912302 0 217.24546080912302 149.20511893441994 0 0 0 0 1384.9822767287042 369.54562923233038 0 369.54562923233038 48.313325494349783 0 0 0 0 3.4017018497214266 -3.5340329457039559 0 -3.5340329457039559 7.6913355115312942 0 0 0 0 226.31294541960597 394.43116969112816 0 394.43116969112816 -75.111341191091469 0 0 0 0 1583.3293587002336 480.50829167983488 0 480.50829167983488 68.799384866087109 0 0 0 0 1187.0909709369589 31.384879179047857 0 31.384879179047857 -142.11086934403284 0 0 0 0 585.4502882723973 739.83508179230512 0 739.83508179230512 -422.77365385972593 0 0 0 0 483.33459230777225 24.377463785246618 0 24.377463785246618 247.78751982427355 0 0 0 0 390.38316231588033 -275.55568770112086 0 -275.55568770112086 1378.9265289881278 0 0 0 0 86.939978318216163 93.939585392145545 0 93.939585392145545 -817.03911210844842 0 0 0 0 -317.63352769104677 -1113.4454570853204 0 -1113.4454570853204 1002.305070480742 0 0 0 0 61.660118308408101 -0.59856357209691424 0 -0.59856357209691424 -3.625222201420006 0 0 0 0 396.72993377909916 -973.09289687397768 0 -973.09289687397768 581.05474510550994 0 0 0 0 -658.83902364058304 -241.10792538353826 0 -241.10792538353826 82.496932998980355 0 0 0 0 -1591.6370623919793 -978.83623854892539 0 -978.83623854892539 1202.095169329087 0 0 0 0 14.534933278337405 -11.383639232402423 0 -11.383639232402423 8.1577152036864096 0 0 0 0 2239.2484919478593 -107.76098211366661 0 -107.76098211366661 -949.0029887252058 0 0 0 0 -616.84117925907049 -598.42221868885599 0 -598.42221868885599 1235.3411769023455 0 0 0 0 2214.3403850650648 -114.62611777839356 0 -114.62611777839356 -814.25969812064432 0 0 0 0 85.610659119631805 3.8748389204043292 0 3.8748389204043292 -4.3910841212763048 0 0 0 0 2831.5793450488309 997.0535954340462 0 997.0535954340462 24.587729516209947 0 0 0 0 516.28094189374315 -928.61094771202988 0 -928.61094771202988 165.7456270341163 0 0 0 0 -181.38272957206209 -612.72163069792441 0 -612.72163069792441 63.957767724939913 0 0 0 0 475.77580241892429 203.90100276730413 0 203.90100276730413 -472.31759942098711 0 0 0 0 -101.81489705148851 -134.01469559168436 0 -134.01469559168436 140.60914756982493 0 0 0 0 -176.94385618966771 17.176862019465602 0 17.176862019465602 -84.66023496478374 0 0 0 0 -98.941507899566204 138.45526597116077 0 138.45526597116077 -176.0952407743298 0 0 0 0 13.754077358811628 -92.096376564596881 0 -92.096376564596881 172.94889402091485 0 0 0 0 82.82033381663615 3.7212594510746655 0 3.7212594510746655 -4.0601155215152316 0 0 0 0 213.61135424567328 -34.648290214162671 0 -34.648290214162671 -220.4024777453659 0 0 0 0 -556.67490105302932 -51.618897002982976 0 -51.618897002982976 -29.006439158389185 0 0 0 0 5.5922366879359231 1.267982533845867 0 1.267982533845867 0.55558951450453886 0 0 0 0 -95.051786550560792 -307.22319187193568 0 -307.22319187193568 451.53886609732308 0 0 0 0 99.959750262452872 92.061758983830032 0 92.061758983830032 -104.24735095019525 0 0 0 0 43.605763200990623 19.91652842760061 0 19.91652842760061 -129.28698143615975 0 0 0 0 18.62051422921499 2.6346685521181783 0 2.6346685521181783 0.57828363819499806 0 0 0 0 -5.0531849207618507 -6.796456105388188 0 -6.796456105388188 -92.109674823092064 0 0 0 0 50.43774327612482 100.22635048047806 0 100.22635048047806 -255.89150161601185 0 0 0 0 74.402228177703364 -35.279386132371172 0 -35.279386132371172 -170.14298400091025 0 0 0 0 106.56574073210322 9.8608818052935732 0 9.8608818052935732 -56.58868045341319 0 0 0 0 -15.689520932535743 27.745902137463816 0 27.745902137463816 -74.09452240607834 0 0 0 0 72.957992926531006 100.69498843212097 0 100.69498843212097 -90.187736601714789 0 0 0 0 17.639797657364397 50.242458946980207 0 50.242458946980207 -71.202294713316633 0 0 0 0 49.67483294205158 75.906160176944923 0 75.906160176944923 -55.016471403241439 0 0 0 0 27.792733578291518 129.2295324954207 0 129.2295324954207 -108.68739670061041 0 0 0 0 -1.0401847601897316 138.52211802990595 0 138.52211802990595 -51.631025730488773 0 0 0 0 -16.071086501964601 185.67357602349722 0 185.67357602349722 -149.46332105516672 0 0 0 0 52.170520175888669 82.988538402396216 0 82.988538402396216 -104.12668213526865 0 0 0 0 7.9224239945760928 -213.23308843724271 0 -213.23308843724271 42.911304384349364 0 0 0 0 -52.400392078037839 -306.71714911702679 0 -306.71714911702679 -100.66719405014646 0 0 0 0 355.44281893035804 14.505396766075876 0 14.505396766075876 -133.14037036717161 0 0 0 0 205.54633456189185 -340.29020638628754 0 -340.29020638628754 30.440288599438816 0 0 0 0 -66.22007741809648 -116.61572638597877 0 -116.61572638597877 120.90615457044987 0 0 0 0 42.265096257520781 10.415978357341913 0 10.415978357341913 -8.2963048817912295 0 0 0 0 -115.73934622119123 -96.301332956105966 0 -96.301332956105966 263.50710078975038 0 0 0 0 -60.70225377753377 -189.73511592359131 0 -189.73511592359131 35.88807853187356 0 0 0 0 -142.85136709771177 -223.276097816864 0 -223.276097816864 170.35388906167663 0 0 0 0 -121.03661918002035 -179.64431717606107 0 -179.64431717606107 169.97514029975434 0 0 0 0 -229.24351412638703 75.919230602933055 0 75.919230602933055 161.48680295876943 0 0 0 0 -197.30146346036054 292.14811305697481 0 292.14811305697481 -44.581636017479468 0 0 0 0 -143.7455344342743 101.39265852380629 0 101.39265852380629 165.84427944166481 0 0 0 0 -2.3119684042976587 107.45595012457113 0 107.45595012457113 -84.777317174695327 0 0 0 0 -55.650972896342864 90.999967323884448 0 90.999967323884448 7.5986217577948025 0 0 0 0 0.011198519147001207 102.18087155771161 0 102.18087155771161 -85.353349055041917 0 0 0 0 -89.89514485924883 139.48628544913407 0 139.48628544913407 -60.979408807483651 0 0 0 0 -47.419701453851303 141.28901208935986 0 141.28901208935986 -62.853364927971825 0 0 0 0 37.573024490193347 110.4186903724451 0 110.4186903724451 -293.77288495028347 0 0 0 0 -22.880510306327778 147.72694146784124 0 147.72694146784124 -163.96268941494145 0 0 0 0 34.67217678653833 66.810116510488569 0 66.810116510488569 -192.52696950595532 0 0 0 0 -27.940035897816415 132.6645306633568 0 132.6645306633568 -300.57497047472816 0 0 0 0 -173.50492962078715 12.791867319867379 0 12.791867319867379 -386.37320498816325 0 0 0 0 -112.20458623417653 319.13792030116178 0 319.13792030116178 -413.96265686275274 0 0 0 0 -90.178496593245654 167.19490433130971 0 167.19490433130971 -151.33292248556199 0 0 0 0 -70.608129593791091 221.60516706714816 0 221.60516706714816 -193.37572811228711 0 0 0 0 -12.812528535039746 125.54296136908556 0 125.54296136908556 -52.134419851250236 0 0 0 0 -38.540130960281203 136.45586045239662 0 136.45586045239662 -15.996428315985213 0 0 0 0 -31.104622372367885 57.065995069573319 0 57.065995069573319 -18.648402752206081 0 0 0 0 10.13743170563248 83.698203348154493 0 83.698203348154493 -73.179333392588546 0 0 0 0 4.741945171597763 104.58435286997815 0 104.58435286997815 -70.025124162728389 0 0 0 0 -3.819766633285326 102.52938965463659 0 102.52938965463659 -54.452158357416138 0 0 0 0 21.883307596915984 52.334210761986924 0 52.334210761986924 -106.88506365241108 0 0 0 0 15.843046942103967 2.7747587615909595 0 2.7747587615909595 3.8790730051887299 0 0 0 0 14.836262045515468 -36.44681685485557 0 -36.44681685485557 39.589109288064265 0 0 0 0 10.382432824073476 96.023928973804004 0 96.023928973804004 -133.046263293013 0 0 0 0 35.384356260838103 55.673671249776362 0 55.673671249776362 -137.29594582180016 0 0 0 0 177.67816495317675 -24.197455153811177 0 -24.197455153811177 -83.864830741350261 0 0 0 0 -203.59321765272762 26.229338102096108 0 26.229338102096108 138.15717051938532 0 0 0 0 -4.7167604194837622 60.29614913444243 0 60.29614913444243 -108.73110265585274 0 0 0 0 19.241775537637238 8.2611829172786191 0 8.2611829172786191 1.8214388413613811 0 0 0 0 27.607595454768557 8.8348865702776749 0 8.8348865702776749 2.5327608778070041 0 0 0 0 37.181140184894701 2.1655036191776702 0 2.1655036191776702 0.7774799369595744 0 0 0 0 40.353983734326903 14.802474382653305 0 14.802474382653305 -10.864498686394729 0 0 0 0 27.08653081459488 40.354436764280763 0 40.354436764280763 -39.755078279748204 0 0 0 0 10.706525658632074 -5.5131881850032869 0 -5.5131881850032869 -5.7900025869399245 0 0 0 0 -100.75803657059441 -56.281508687234464 0 -56.281508687234464 132.29201397361976 0 0 0 0 30.499973772428348 -2.0611708035594347 0 -2.0611708035594347 4.8792220968930451 0 0 0 0 28.46301799548155 -1.6312746492007619 0 -1.6312746492007619 -1.2273733332269652 0 0 0 0 35.610412203401211 11.098817089292538 0 11.098817089292538 -0.33122067815305201 0 0 0 0 25.779181303223595 11.057742351411889 0 11.057742351411889 -45.230846166271121 0 0 0 0 25.257081659745978 8.3530675474663774 0 8.3530675474663774 3.9864581908372161 0 0 0 0 33.470221187235438 -0.0024797724756808748 0 -0.0024797724756808748 5.9538967719290667 0 0 0 0 29.324798193585593 0.34686172935357718 0 0.34686172935357718 11.071034535607396 0 0 0 0 20.59456070545275 20.816997855028795 0 20.816997855028795 -2.9284002446538082 0 0 0 0 19.11231151195534 19.6700462497442 0 19.6700462497442 0.58008699702767075 0 0 0 0 22.28684265378979 15.96529533403187 0 15.96529533403187 -4.7462043787092885 0 0 0 0 33.438233854394639 18.660963814750122 0 18.660963814750122 -10.147005744829515 0 0 0 0 29.227870340648224 22.571465130537856 0 22.571465130537856 1.0770291644366097 0 0 0 0 34.925130935909692 27.960511257948099 0 27.960511257948099 -9.4712495535791916 0 0 0 0 28.967220805498073 24.140699185258207 0 24.140699185258207 -2.388147736231808 0 0 0 0 38.346482256776653 23.369080235348992 0 23.369080235348992 -11.957593874403511 0 0 0 0 10.072644264871087 -0.041952771631684982 0 -0.041952771631684982 0.71660998856132174 0 0 0 0 34.477728856843896 -49.25518511237442 0 -49.25518511237442 -8.3890303920372844 0 0 0 0 3.814169762834922 -1.573583043780161 0 -1.573583043780161 0.33160852237122462 0 0 0 0 -4.7320630370977597 -225.92001257785421 0 -225.92001257785421 7.9110167005587755 0 0 0 0 17.024720741712372 -10.936641169050745 0 -10.936641169050745 -9.1492174415025147 0 0 0 0 -124.80234645420569 207.66087229641437 0 207.66087229641437 196.87326755014601 0 0 0 0 68.093180268289046 -0.71065185886688553 0 -0.71065185886688553 -0.12137747762606649 0 0 0 0 92.235014718200546 -21.072270453284546 0 -21.072270453284546 -110.48662786812417 0 0 0 0 17.394693707944896 -16.804717976365481 0 -16.804717976365481 -4.4654750500606273 0 0 0 0 19.762457014017855 -2.767015550003066 0 -2.767015550003066 9.8652586524767685 0 0 0 0 23.239114417665405 -4.627998474195465 0 -4.627998474195465 7.1249168527542679 0 0 0 0 19.682978543838544 -3.3819686865231802 0 -3.3819686865231802 6.0404124101860361 0 0 0 0 15.107382698188303 -8.5958732959677491 0 -8.5958732959677491 17.447935439159664 0 0 0 0 8.5993501362099778 -18.956912557939177 0 -18.956912557939177 0.96416861499164952 0 0 0 0 18.450552901340416 -10.958855287037068 0 -10.958855287037068 9.4564109708869637 0 0 0 0 23.571244116697926 -3.5992707080083619 0 -3.5992707080083619 13.095509977817869 0 0 0 0 21.335061911882235 11.768322695289456 0 11.768322695289456 2.4539066683794433 0 0 0 0 23.582767418120056 -5.3094188341415247 0 -5.3094188341415247 6.9380726746835535 0 0 0 0 22.621024602791294 14.862220422771458 0 14.862220422771458 -2.956680519529042 0 0 0 0 3.0857452074809544 11.957159527952541 0 11.957159527952541 2.4306652098638115 0 0 0 0 22.117450472167548 8.0417494972336385 0 8.0417494972336385 35.204541193245859 0 0 0 0 2.1759358288836665 -14.423392645890772 0 -14.423392645890772 14.851832393414725 0 0 0 0 -14.940628672979074 2.2356999694712272 0 2.2356999694712272 4.9004136069324886 0 0 0 0 -4.1285451575289471 4.0364359880713181 0 4.0364359880713181 4.765638210009552 0 0 0 0 3.3739833663858008 -18.176730935442947 0 -18.176730935442947 21.79735966382259 0 0 0 0 0.67834721907274798 -20.185053021177282 0 -20.185053021177282 26.301109221397382 0 0 0 0 2.8160593747743405 -24.604939227747309 0 -24.604939227747309 23.426653346622061 0 0 0 0 16.66893854882801 -10.572600526453925 0 -10.572600526453925 25.973058743058573 0 0 0 0 -6.0163662748527713 -18.638121480826612 0 -18.638121480826612 25.807828637513467 0 0 0 0 4.5072006063419394 -20.299102738198144 0 -20.299102738198144 15.419550632745995 0 0 0 0 7.8690838537877426 -22.318451914693924 0 -22.318451914693924 14.492290541357306 0 0 0 0 2.7911103233636823 -31.059036395611201 0 -31.059036395611201 -1.9778777452256691 0 0 0 0 9.4176499060704373 -23.751045739755909 0 -23.751045739755909 3.6544357532611684 0 0 0 0 -14.255829862609971 -28.059014617137336 0 -28.059014617137336 15.784610818225246 0 0 0 0 -9.7792617463128408 -1.8960645800088685 0 -1.8960645800088685 29.240576034056176 0 0 0 0 6.7155294615658931 -7.0509809510022023 0 -7.0509809510022023 27.762861798956692 0 0 0 0 38.770856623072177 23.66658394678916 0 23.66658394678916 41.566849800542059 0 0 0 0 180.66325819175108 -46.631518600183426 0 -46.631518600183426 -0.29791173443641128 0 0 0 0 77.163659357232973 48.548094588749109 0 48.548094588749109 36.474181941662593 0 0 0 0 30.440637615014566 30.100951856716733 0 30.100951856716733 35.131164818825255 0 0 0 0 0.42293704309668101 0.23631333970584478 0 0.23631333970584478 0.013357187091847411 0 0 0 0 7.941255035211725 48.54963481804009 0 48.54963481804009 -3.6098714613206084 0 0 0 0 -23.075968666642439 -126.26856228954762 0 -126.26856228954762 244.93733846080841 0 0 0 0 -16.836687245871872 -122.97958977404096 0 -122.97958977404096 132.60845478649378 0 0 0 0 211.26713121166176 -169.3811013203877 0 -169.3811013203877 141.41886904639432 0 0 0 0 -33.026476060244022 -173.49054539850727 0 -173.49054539850727 216.56225279018508 0 0 0 0 -142.68545365594673 71.917099920777332 0 71.917099920777332 -9.5412929207557227 0 0 0 0 378.05409394923481 -9.1402704523616194 0 -9.1402704523616194 23.74213373113821 0 0 0 0 -131.63593508723579 -246.83355794037467 0 -246.83355794037467 -86.864593429401339 0 0 0 0 23.932054843520746 -218.29632563646101 0 -218.29632563646101 398.94394574668559 0 0 0 0 376.13747924796189 -138.38341774276068 0 -138.38341774276068 -453.89327680260772 0 0 0 0 227.29524736307212 118.60224217750306 0 118.60224217750306 -242.02634158345882 0 0 0 0 3.3001820431090323 -0.7957761260623073 0 -0.7957761260623073 -0.41758330001277155 0 0 0 0 89.177087081696897 -3.1117931237098055 0 -3.1117931237098055 -2.1099144216077836 0 0 0 0 385.29469858342782 -331.1737090880456 0 -331.1737090880456 -94.344067011380957 0 0 0 0 344.97257646187791 528.07992742560691 0 528.07992742560691 -1717.8550744195657 0 0 0 0 -27.502423804755381 -49.589216795077618 0 -49.589216795077618 -965.5462582072355 0 0 0 0 -83.403925701510161 512.1878773200358 0 512.1878773200358 -807.91300475940216 0 0 0 0 -215.13663150444336 318.89662242531358 0 318.89662242531358 -63.615066176631444 0 0 0 0 -318.29555625520879 544.53614476775329 0 544.53614476775329 264.88598862232811 0 0 0 0 -1076.7134687790312 -94.424149145235504 0 -94.424149145235504 165.86364825885312 0 0 0 0 -288.42277853337873 1224.6778699908841 0 1224.6778699908841 -921.60085370973457 0 0 0 0 1211.6073376442073 548.37661105935149 0 548.37661105935149 343.98104780978656 0 0 0 0 -138.83318709694686 348.21643291816474 0 348.21643291816474 669.57467642771462 0 0 0 0 120.92257374418477 -614.34252233081884 0 -614.34252233081884 1450.5238892649613 0 0 0 0 1012.397972650986 4.1230063193443129 0 4.1230063193443129 1711.046693516086 0 0 0 0 -138.24979724564764 -333.01617329932446 0 -333.01617329932446 1133.6165872236186 0 0 0 0 -232.67153470317317 -10.610975327313543 0 -10.610975327313543 436.12484171175606 0 0 0 0 -294.00849925949296 356.98261795348708 0 356.98261795348708 343.44493587930924 0 0 0 0 -186.3725206499912 225.68298164528994 0 225.68298164528994 -45.731337046960107 0 0 0 0 -151.55532841628883 103.02483088207691 0 103.02483088207691 261.22719832769758 0 0 0 0 3414.366420115085 854.57661895787328 0 854.57661895787328 710.82793656368403 0 0 0 0 -798.55387989369046 -2544.4921708330498 0 -2544.4921708330498 346.04913448357161 0 0 0 0 33.072976219780799 -12.631087011402265 0 -12.631087011402265 4.2473896741480255 0 0 0 0 3675.3020612639521 -994.95779262828296 0 -994.95779262828296 443.84025725039282 0 0 0 0 4086.7915872006561 -1377.7468586136438 0 -1377.7468586136438 534.67987679195676 0 0 0 0 787.60450591526751 173.75589279615679 0 173.75589279615679 2396.0088872040283 0 0 0 0 1903.6343010753335 -1541.5387458011048 0 -1541.5387458011048 2480.8789956310166 0 0 0 0 3038.5382462520865 411.78393136287104 0 411.78393136287104 -1422.0430055657907 0 0 0 0 2303.2606897773512 -778.19773424785672 0 -778.19773424785672 -2544.3223366917828 0 0 0 0 121.47917628485447 -1772.8563403083185 0 -1772.8563403083185 682.50141609209186 0 0 0 0 -241.04363903430203 -132.71966993158605 0 -132.71966993158605 103.77980168014142 0 0 0 0 81.165246857177067 -10.085933443512097 0 -10.085933443512097 -2.0915532691898653 0 0 0 0 184.96391964278882 -150.51807304373824 0 -150.51807304373824 -580.99111975312735 0 0 0 0 24.485913581171189 -196.02154878796409 0 -196.02154878796409 120.17849146592653 0 0 0 0 6.4639243607634853 -59.179416411753664 0 -59.179416411753664 -39.273312080324786 0 0 0 0 -33.674271460724412 -76.457680719950758 0 -76.457680719950758 210.754878780024 0 0 0 0 479.13065818410541 188.83497854887287 0 188.83497854887287 135.40648255493875 0 0 0 0 432.89923437218386 139.35999998624584 0 139.35999998624584 172.62314890679068 0 0 0 0 543.13241629628465 14.838131863927117 0 14.838131863927117 129.18926781282153 0 0 0 0 9.0123698347609889 1.2684697679251187 0 1.2684697679251187 -0.030993043223504158 0 0 0 0 1331.0774527761532 320.49251469537205 0 320.49251469537205 83.794949579967351 0 0 0 0 629.92480506416177 -264.06519348385052 0 -264.06519348385052 -92.877650926020891 0 0 0 0 3.3742444254752719 1.2282676609806629 0 1.2282676609806629 -0.14175744836020865 0 0 0 0 40.722573629679573 14.348367180149147 0 14.348367180149147 56.737832266013811 0 0 0 0 -57.166633630731667 -91.339644865405319 0 -91.339644865405319 363.09819764092435 0 0 0 0 20.246051153146254 -9.9838796420037283 0 -9.9838796420037283 24.81634986485642 0 0 0 0 23.280112800290226 -89.42212772438512 0 -89.42212772438512 -32.596834107139614 0 0 0 0 -14.134189797448926 -2.3838864082671307 0 -2.3838864082671307 220.76351634467417 0 0 0 0 91.639831514941761 -111.59657961839105 0 -111.59657961839105 112.43287767775894 0 0 0 0 159.12975670563173 155.67050088300334 0 155.67050088300334 18.308544912930302 0 0 0 0 49.545103005337296 17.755494706193758 0 17.755494706193758 33.935945953306145 0 0 0 0 82.022977791988524 35.768123596348687 0 35.768123596348687 42.313086809011565 0 0 0 0 37.127643371000886 16.874052431646305 0 16.874052431646305 38.970528457524097 0 0 0 0 101.93535429770418 35.302947042304254 0 35.302947042304254 38.493277530428941 0 0 0 0 -107.22938000704744 45.554625303599664 0 45.554625303599664 92.293451170255025 0 0 0 0 73.465955981315346 45.466644803223971 0 45.466644803223971 58.00048862400763 0 0 0 0 16.65521027933903 7.3969821016474615 0 7.3969821016474615 1.7488331278062339 0 0 0 0 20.122806266088446 2.1798166138657322 0 2.1798166138657322 -15.118572663469592 0 0 0 0 18.055317498118256 4.102299208764947 0 4.102299208764947 -0.10584294092589808 0 0 0 0 58.240828023401264 6.4727903874129424 0 6.4727903874129424 -46.450911724178354 0 0 0 0 26.638242682805867 46.376861820190584 0 46.376861820190584 16.171103914989118 0 0 0 0 1.0805087002174218 2.1404908541119525 0 2.1404908541119525 0.38266381387865755 0 0 0 0 14.132270268280649 4.7156585620664107 0 4.7156585620664107 1.9388508601839161 0 0 0 0 15.83794964291917 6.1679476171158569 0 6.1679476171158569 1.8065915828839327 0 0 0 0 11.592720068924223 17.258011713149958 0 17.258011713149958 0.71703485531679689 0 0 0 0 11.448255871297306 31.784665208027377 0 31.784665208027377 -27.069905940259105 0 0 0 0 40.170148350545787 41.079097982347662 0 41.079097982347662 -26.216123484857007 0 0 0 0 55.594992805981747 10.215868865559969 0 10.215868865559969 -35.604952520324332 0 0 0 0 40.626432907767594 23.789066422272754 0 23.789066422272754 -30.441844514486036 0 0 0 0 8.0467635093373246 6.0847880177573188 0 6.0847880177573188 -35.945331996431833 0 0 0 0 71.770938672008924 -1.275779931835018 0 -1.275779931835018 -35.450890658748648 0 0 0 0 63.963723225504509 0.047689313861553728 0 0.047689313861553728 -30.294090569391415 0 0 0 0 2.2184099935984705 52.627685857939014 0 52.627685857939014 -27.105213571891852 0 0 0 0 94.778313945484115 70.898124659854489 0 70.898124659854489 -28.972277261716158 0 0 0 0 -26.225218614097685 35.137930384741821 0 35.137930384741821 -7.5203473708752426 0 0 0 0 2.5270322381018122 5.5911959881809423 0 5.5911959881809423 5.20540477947368 0 0 0 0 925.4603231746587 399.64147957721735 0 399.64147957721735 68.241313593977139 0 0 0 0 1153.7558798659302 438.29283995764951 0 438.29283995764951 11.784151684812322 0 0 0 0 1259.8049617242395 622.63460361158002 0 622.63460361158002 10.773669986791191 0 0 0 0 1043.816668151303 596.57533291071672 0 596.57533291071672 83.133877676685827 0 0 0 0 580.74499170726631 660.26578320112219 0 660.26578320112219 775.13826401448011 0 0 0 0 1540.7606813782186 679.26547114001187 0 679.26547114001187 58.576621681336889 0 0 0 0 5.1081106798374094 -4.6947977573258868 0 -4.6947977573258868 9.0555844110792805 0 0 0 0 744.50899247814959 471.45333481591081 0 471.45333481591081 302.52072384054748 0 0 0 0 6.959113156714011 5.1258423512401805 0 5.1258423512401805 -2.4444583595080829 0 0 0 0 17.61641231920191 1.7992992692126109 0 1.7992992692126109 -1.2129240610088341 0 0 0 0 -2.3535986467935004 0.18708055103869015 0 0.18708055103869015 2.4375313647131205 0 0 0 0 22.886846036628413 26.4778652028984 0 26.4778652028984 31.722808044375569 0 0 0 0 11.465023109514732 15.262988096487142 0 15.262988096487142 43.362236038726387 0 0 0 0 8.6078540881862864 7.8444187639267753 0 7.8444187639267753 25.187577444205569 0 0 0 0 12.861977964435937 6.5232365350753518 0 6.5232365350753518 9.1412568558288569 0 0 0 0 13.063800388961681 16.197448408530366 0 16.197448408530366 18.800804873211263 0 0 0 0 16.125533907557838 21.290300067102415 0 21.290300067102415 27.150108234649583 0 0 0 0 22.474505502555985 26.494959569358748 0 26.494959569358748 21.965151619797417 0 0 0 0 18.089190378697822 20.034299127213174 0 20.034299127213174 24.081571089643091 0 0 0 0 27.148915068348288 27.609104154275585 0 27.609104154275585 3.843128639816932 0 0 0 0 29.722187685489189 26.832921841987485 0 26.832921841987485 3.2829017639508677 0 0 0 0 21.94999848389125 19.898728940536635 0 19.898728940536635 3.9459591145716004 0 0 0 0 19.924707658065017 21.673135266383369 0 21.673135266383369 13.867571500511836 0 0 0 0 25.584458762197755 26.258491475805727 0 26.258491475805727 11.894533703390223 0 0 0 0 18.933872346096905 21.224082963155354 0 21.224082963155354 17.538907509646762 0 0 0 0 17.968069639609894 18.401125697156839 0 18.401125697156839 9.434250893647679 0 0 0 0 17.615594128787052 17.952289261443148 0 17.952289261443148 12.072699822325184 0 0 0 0 16.068085023031017 15.02843698347856 0 15.02843698347856 10.151360417005645 0 0 0 0 20.207098151615355 19.978910156797877 0 19.978910156797877 9.5706899567566452 0 0 0 0 19.932266292613349 18.699543350719338 0 18.699543350719338 3.6589704720271214 0 0 0 0 19.336686050606659 17.595634928835928 0 17.595634928835928 2.5769620930445072 0 0 0 0 19.052092391262704 18.087048634447246 0 18.087048634447246 3.6103446868985287 0 0 0 0 18.094228326137454 16.696342577772356 0 16.696342577772356 4.2715192775699009 0 0 0 0 18.024735895945923 17.021577876485853 0 17.021577876485853 9.7009757395596097 0 0 0 0 16.068272312550107 15.573433222926422 0 15.573433222926422 14.318929005476051 0 0 0 0 16.598540729261003 14.971165812307941 0 14.971165812307941 14.302575230536657 0 0 0 0 15.661519726141705 14.343820837669536 0 14.343820837669536 17.276379953254008 0 0 0 0 15.673738238721853 10.707034733143718 0 10.707034733143718 6.4069870199126768 0 0 0 0 12.794158586708363 8.9552414712827684 0 8.9552414712827684 16.984640494983172 0 0 0 0 5.7477030516891574 1.165280663322136 0 1.165280663322136 0.15157578301785812 0 0 0 0 -0.017125787111808677 0.33704558756632252 0 0.33704558756632252 0.47528062940720889 0 0 0 0 1.4645250129688065 -0.99529641037761252 0 -0.99529641037761252 2.4208658555018507 0 0 0 0 14.049297067773296 1.3947077523355063 0 1.3947077523355063 2.8382281448001585 0 0 0 0 7.4392448588837965 1.5913167074655874 0 1.5913167074655874 -0.62689172603522614 0 0 0 0 3.2704557958641089 0.45629385960643276 0 0.45629385960643276 -1.232856372158718 0 0 0 0 5.4152212037538447 0.86570827826473362 0 0.86570827826473362 -0.62145702516518353 0 0 0 0 20.551307819390786 8.9820774776964925 0 8.9820774776964925 1.7371090128931428 0 0 0 0 12.544354821860907 4.0696885848399802 0 4.0696885848399802 -0.51662825828094583 0 0 0 0 2.3555547574363516 3.1116886373063721 0 3.1116886373063721 1.1372376026628475 0 0 0 0 17.849963049477083 32.978515127475362 0 32.978515127475362 -17.699478008237804 0 0 0 0 14.419721394472276 7.8837216119327991 0 7.8837216119327991 1.7740931592940223 0 0 0 0 17.198460657884425 7.5568308429854412 0 7.5568308429854412 -19.76432955610575 0 0 0 0 -16.986949856043793 58.907087470144177 0 58.907087470144177 39.465335196704416 0 0 0 0 -58.92098354868358 -26.346880451282459 0 -26.346880451282459 -48.067896767429829 0 0 0 0 44.979365088074701 2.0666819169921382 0 2.0666819169921382 32.764889459220285 0 0 0 0 0.69147910944826663 0.61459021316629503 0 0.61459021316629503 0.097991955353298632 0 0 0 0 16.56019978428958 -13.608327968152139 0 -13.608327968152139 -5.1411998075476504 0 0 0 0 -13.320524899138945 -56.20395027486181 0 -56.20395027486181 120.38305025389445 0 0 0 0 10.735638256912353 -17.641734627731012 0 -17.641734627731012 24.944638397078165 0 0 0 0 52.575002395315096 11.457673493938501 0 11.457673493938501 34.325985394404597 0 0 0 0 12.971125681789999 9.5778428964564881 0 9.5778428964564881 -8.5505421438724056 0 0 0 0 9.9144447344930882 5.8121721395670178 0 5.8121721395670178 -0.067399795493953141 0 0 0 0 28.178340548154665 -0.65740506990368885 0 -0.65740506990368885 -36.262572822719335 0 0 0 0 15.444542028766591 13.021390649342379 0 13.021390649342379 -5.8451798930368568 0 0 0 0 14.578370606434191 3.0356257563413216 0 3.0356257563413216 -1.3435766251263521 0 0 0 0 13.195408932133319 4.3685035759837803 0 4.3685035759837803 0.90698563409192379 0 0 0 0 18.151066688005812 12.891040302836359 0 12.891040302836359 6.219669200916087 0 0 0 0 12.630314719921444 13.731978561448614 0 13.731978561448614 9.0002618409816932 0 0 0 0 5.508224215819979 1.7479980605806702 0 1.7479980605806702 0.78023866132525299 0 0 0 0 10.765387057967018 1.7145003643045129 0 1.7145003643045129 -18.701901367945993 0 0 0 0 21.113990801410409 5.3360922610457333 0 5.3360922610457333 -1.964702720060262 0 0 0 0 25.869164533083676 -3.4325381042316394 0 -3.4325381042316394 -35.425189562116202 0 0 0 0 23.995036678970791 -2.1235277261878309 0 -2.1235277261878309 -30.884541809315806 0 0 0 0 20.744278072314046 -33.239755270533124 0 -33.239755270533124 -17.368775053032778 0 0 0 0 3.7603578429116169 -14.141196863929622 0 -14.141196863929622 -21.983816494941365 0 0 0 0 11.788505001597514 -20.999849574200368 0 -20.999849574200368 -20.62427484908585 0 0 0 0 7.345654051246413 -0.91297309873800714 0 -0.91297309873800714 -2.8661210221965163 0 0 0 0 14.786800463931286 5.3208846512882246 0 5.3208846512882246 1.5060180922949939 0 0 0 0 11.784447198464477 1.636271060135158 0 1.636271060135158 0.9971596465654784 0 0 0 0 7.2308913225533615 -0.011382520668938412 0 -0.011382520668938412 -0.83810500673763499 0 0 0 0 2.698541495797798 -0.17534433895926327 0 -0.17534433895926327 -0.97102752419024485 0 0 0 0 4.1448079922977286 -3.234133948308056 0 -3.234133948308056 -3.3361383132671127 0 0 0 0 11.947454086563084 3.8682331988349148 0 3.8682331988349148 1.537543183129614 0 0 0 0 2.8480019762934887 -0.7681340081977055 0 -0.7681340081977055 -0.27884981624182337 0 0 0 0 18.533582409133487 0.13022499302662105 0 0.13022499302662105 0.65239314925344161 0 0 0 0 5.1757007975510305 2.5840580772829185 0 2.5840580772829185 -0.13370615789631934 0 0 0 0 8.6241663489927305 0.62600897778577291 0 0.62600897778577291 -0.54945459340976299 0 0 0 0 16.09657261762186 2.0371456140429558 0 2.0371456140429558 2.4162350960132262 0 0 0 0 6.4014604243980102 -0.07410524961330367 0 -0.07410524961330367 -0.53421359451068895 0 0 0 0 9.3230163895059377 -3.0592276943660153 0 -3.0592276943660153 12.712100199159877 0 0 0 0 12.816981004711124 -7.9424450813948653 0 -7.9424450813948653 27.351743938109593 0 0 0 0 2.9313322373390633 -0.35917592374002538 0 -0.35917592374002538 -0.45184926048201929 0 0 0 0 2.9297938505318939 0.82683433419896346 0 0.82683433419896346 -0.4010039463388676 0 0 0 0 25.016328956422512 6.8730754692528926 0 6.8730754692528926 -3.0416897653379564 0 0 0 0 0.83207977183801063 -0.45795486750364489 0 -0.45795486750364489 0.14671412461153838 0 0 0 0 27.677003601478646 1.6701778358072374 0 1.6701778358072374 -2.9383116596066827 0 0 0 0 19.502263574628159 0.80490609628589027 0 0.80490609628589027 -2.3088459097109464 0 0 0 0 20.636176362182596 2.2353415390973339 0 2.2353415390973339 -0.5050416899534298 0 0 0 0 8.7228904512303416 3.7522794275005253 0 3.7522794275005253 6.852953616638672 0 0 0 0 1.5565912696807231 0.0261703386659633 0 0.0261703386659633 -0.17432925693713464 0 0 0 0 14.101002879018779 3.5847979140092292 0 3.5847979140092292 0.62507478226996227 0 0 0 0 -54.448785990382021 -6.059746315063677 0 -6.059746315063677 -0.095340562637147741 0 0 0 0 3.9528961763259645 1.8023679859806805 0 1.8023679859806805 0.42300253058154108 0 0 0 0 1.5100415313791018 -3.004763772352161 0 -3.004763772352161 -0.21626223882807416 0 0 0 0 0.53225102607666486 -1.5246054803319851 0 -1.5246054803319851 -1.6899874738959149 0 0 0 0 -0.52606663769805095 -0.56127062132975425 0 -0.56127062132975425 -0.29252271069838398 0 0 0 0 -14.131610679571168 -34.022673037724871 0 -34.022673037724871 11.691653036938799 0 0 0 0 -158.03226944040216 23.006084280802508 0 23.006084280802508 11.015918063614064 0 0 0 0 -24.283156115816382 -33.963444545247171 0 -33.963444545247171 7.8943920960938385 0 0 0 0 96.048632915524649 -51.58221735259923 0 -51.58221735259923 -13.655694479005263 0 0 0 0 116.26147392917483 -20.562591165904408 0 -20.562591165904408 -14.136369660386496 0 0 0 0 -16.274944523693193 -47.697859659780462 0 -47.697859659780462 24.992311043638438 0 0 0 0 116.16552803312152 119.78413863771804 0 119.78413863771804 23.19032692716867 0 0 0 0 197.032910530761 -3.2933185931127653 0 -3.2933185931127653 0.19450436998677456 0 0 0 0 -37.400702149781864 -14.09759505745509 0 -14.09759505745509 0.048846370976005388 0 0 0 0 -13.742219591033063 -81.935857395818232 0 -81.935857395818232 1.280568019393364 0 0 0 0 -16.246227486917633 -27.230741056149231 0 -27.230741056149231 -20.003428674383855 0 0 0 0 -4.2855294886539923 2.0765060874343595 0 2.0765060874343595 -4.1522721775188387 0 0 0 0 10.589215393629274 -6.7245264452616613 0 -6.7245264452616613 -17.823402981821502 0 0 0 0 -10.058211463619955 -7.3137279802940016 0 -7.3137279802940016 -0.040431253993830206 0 0 0 0 -15.932338568137084 -13.597505752891699 0 -13.597505752891699 -4.0362172686568805 0 0 0 0 1370.6725900097808 440.58813314081129 0 440.58813314081129 96.636071308900554 0 0 0 0 1356.8658341066548 661.17563884587685 0 661.17563884587685 -27.332946681753917 0 0 0 0 1350.4902582272771 560.51295053870012 0 560.51295053870012 156.12478525953301 0 0 0 0 0.78065079663577386 2.177336639426386 0 2.177336639426386 1.9640295693141909 0 0 0 0 1840.9317551845306 487.75307783618632 0 487.75307783618632 -54.617715030585458 0 0 0 0 -184.64146448133397 59.736479731082625 0 59.736479731082625 48.863335352600188 0 0 0 0 90.127309477442395 10.464445148568377 0 10.464445148568377 -26.566038043419326 0 0 0 0 235.37574085958477 -42.820485898357539 0 -42.820485898357539 -8.6367637154134922 0 0 0 0 107.98110431555688 -7.3535092303688572 0 -7.3535092303688572 156.30002896833821 0 0 0 0 237.48642333754105 294.05530593805292 0 294.05530593805292 152.3681690090236 0 0 0 0 991.95612381216779 264.28005887633287 0 264.28005887633287 31.057456382950264 0 0 0 0 498.1466791952771 174.73702909149566 0 174.73702909149566 28.269147251278909 0 0 0 0 506.49351218145239 292.77506627142986 0 292.77506627142986 299.11118377309987 0 0 0 0 1059.6859019931144 163.90433331645542 0 163.90433331645542 0.39626342740434173 0 0 0 0 1346.0555411519454 507.77364564725235 0 507.77364564725235 404.00870494005267 0 0 0 0 1517.6358368538786 129.6035580188933 0 129.6035580188933 114.83696079904504 0 0 0 0 994.31111320611672 230.39076368038232 0 230.39076368038232 236.83110451864349 0 0 0 0 1846.8187598563236 377.78721377783853 0 377.78721377783853 -29.562203523221285 0 0 0 0 1569.2505575543255 1052.4418142469538 0 1052.4418142469538 518.52803633066708 0 0 0 0 1574.2178875669269 423.62161188011271 0 423.62161188011271 -0.74180271604102233 0 0 0 0 73.749915902153589 -221.63173781746795 0 -221.63173781746795 -277.45918591625519 0 0 0 0 5.3680244334827876 37.242839554072773 0 37.242839554072773 0.2456582243854897 0 0 0 0 54.786710463069539 98.175494950120196 0 98.175494950120196 -121.14148222377202 0 0 0 0 20.188574601368487 -3.747067568969257 0 -3.747067568969257 -1.3116946824155797 0 0 0 0 44.507545135551482 -89.577179047024117 0 -89.577179047024117 -251.4993029542988 0 0 0 0 9.2859300454113054 -0.63345043616037344 0 -0.63345043616037344 -0.59382467859923438 0 0 0 0 563.92476806648483 559.37503242625689 0 559.37503242625689 278.45032045741499 0 0 0 0 457.96645918443392 466.69380354171534 0 466.69380354171534 -55.752241720251746 0 0 0 0 451.02343010050754 72.702463284509719 0 72.702463284509719 -288.73489613820391 0 0 0 0 443.61893528127257 244.21883172703593 0 244.21883172703593 34.247825573401634 0 0 0 0 906.47359362308634 378.7671504375698 0 378.7671504375698 -91.949396202521456 0 0 0 0 855.80294924156624 545.57116492728471 0 545.57116492728471 88.634977627458682 0 0 0 0 289.52988030508277 -180.56529241837848 0 -180.56529241837848 -651.56259244530372 0 0 0 0 -105.18424060236612 53.258100721883444 0 53.258100721883444 84.629610871094741 0 0 0 0 184.30992740004876 333.14339922353099 0 333.14339922353099 120.80577074597785 0 0 0 0 137.48962757451227 -47.89177834701669 0 -47.89177834701669 -126.02210978133286 0 0 0 0 21.002355868923189 -5.284850997462982 0 -5.284850997462982 -0.58306086082975517 0 0 0 0 -25.100892543341615 15.484629870636788 0 15.484629870636788 13.471260883535884 0 0 0 0 129.38517347268498 126.08144823618008 0 126.08144823618008 -40.599078307606199 0 0 0 0 287.8182625353511 8.8698857500309209 0 8.8698857500309209 0.0072978526007685257 0 0 0 0 463.4164866633364 136.92656510468549 0 136.92656510468549 -29.442143801928008 0 0 0 0 815.52578350437398 -61.444959235119882 0 -61.444959235119882 31.700675440779165 0 0 0 0 688.77522370430961 -12.627376582287477 0 -12.627376582287477 -0.19238750943277086 0 0 0 0 1491.7423833809298 218.28850263807533 0 218.28850263807533 0.35414722954683947 0 0 0 0 2430.6900489595791 -237.68289530886838 0 -237.68289530886838 9.8701739252925336 0 0 0 0 4.5665415187678633 2.6218108136444584 0 2.6218108136444584 1.0638381407816466 0 0 0 0 1498.3335966077429 -63.816803065450415 0 -63.816803065450415 112.80899979713831 0 0 0 0 1420.595543731848 -144.72103433458938 0 -144.72103433458938 174.82095196904606 0 0 0 0 1378.3436629584248 -89.9968481625923 0 -89.9968481625923 28.998208165610322 0 0 0 0 1033.9263698110008 9.2766456108847706 0 9.2766456108847706 134.40604678050386 0 0 0 0 1973.371923660532 -422.19901189266085 0 -422.19901189266085 -6.7801588767079011 0 0 0 0 1749.0619761814451 -121.7508496098751 0 -121.7508496098751 80.097710384759239 0 0 0 0 1333.0223664191144 -223.6072816822641 0 -223.6072816822641 159.6834698764842 0 0 0 0 1509.7414921594727 -386.3495206966079 0 -386.3495206966079 228.55281476176924 0 0 0 0 1327.7661617366248 -214.4043051048975 0 -214.4043051048975 4.7038211182211853 0 0 0 0 1528.6293330131966 -142.25666045374834 0 -142.25666045374834 -14.460267477047637 0 0 0 0 1236.1956557026424 -34.968301226008407 0 -34.968301226008407 -10.346127059721312 0 0 0 0 1122.8889755207638 -128.06383414222591 0 -128.06383414222591 -63.539289882414778 0 0 0 0 1036.0693474325235 -89.264797099040379 0 -89.264797099040379 79.171996118316656 0 0 0 0 49.647938407897527 278.96562655948361 0 278.96562655948361 177.9791574618875 0 0 0 0 1315.9918275403761 30.648865210426493 0 30.648865210426493 -148.95387052618946 0 0 0 0 7.0276324212059791 7.7632562589193412 0 7.7632562589193412 6.7247054112970313 0 0 0 0 2196.0195542349829 -209.17494816467115 0 -209.17494816467115 -1247.9867869609334 0 0 0 0 285.23107035698195 -868.29280816128676 0 -868.29280816128676 -370.38135346692081 0 0 0 0 1164.8395196426864 402.63836152692585 0 402.63836152692585 163.44701966644976 0 0 0 0 9.4619043054076428 -2.8198755846459136 0 -2.8198755846459136 0.20743634442408099 0 0 0 0 1170.0225230722717 -474.11976275148083 0 -474.11976275148083 -195.92822173400435 0 0 0 0 1201.2846634858142 -284.61262114147371 0 -284.61262114147371 865.25490125082433 0 0 0 0 1538.5407327354405 -261.24919240658187 0 -261.24919240658187 -129.87008219756444 0 0 0 0 8.4542149238094595 12.184418961378071 0 12.184418961378071 12.327472101662345 0 0 0 0 1278.8648803449178 -177.52551808983071 0 -177.52551808983071 11.806993457457793 0 0 0 0 855.22595466566781 -195.24955680971505 0 -195.24955680971505 240.222077437091 0 0 0 0 461.04917381265841 -268.09372206441935 0 -268.09372206441935 226.8071931625426 0 0 0 0 984.61192449877126 -43.999859714797367 0 -43.999859714797367 -145.76871821947225 0 0 0 0 1067.4205987478708 -21.670774406792589 0 -21.670774406792589 -75.816814830282055 0 0 0 0 1211.0345567625554 -173.99538595293302 0 -173.99538595293302 -133.61621320800714 0 0 0 0 1154.7876850274624 -77.29202880473531 0 -77.29202880473531 -137.68207464801137 0 0 0 0 1456.9259238016384 -163.5025238366602 0 -163.5025238366602 20.178600545920744 0 0 0 0 1309.9777075014426 -77.227405428735437 0 -77.227405428735437 -44.084326008960716 0 0 0 0 1456.4956058888638 -203.93636557874629 0 -203.93636557874629 -158.9166241293342 0 0 0 0 1348.2708269013456 -33.930269227798817 0 -33.930269227798817 -324.81796511199809 0 0 0 0 1348.8614163408783 -106.71246095141032 0 -106.71246095141032 -124.47191363185993 0 0 0 0 1337.1143821815349 -149.34644618449761 0 -149.34644618449761 -278.78946832888323 0 0 0 0 1164.6504830893391 -211.08072382692171 0 -211.08072382692171 -299.24807071646865 0 0 0 0 994.17470964526001 -191.58503694519595 0 -191.58503694519595 -158.85119797627704 0 0 0 0 1079.5567182903615 -153.64173240061245 0 -153.64173240061245 -203.73917099498431 0 0 0 0 1084.3037879957774 -117.68642847180195 0 -117.68642847180195 -206.43129685187705 0 0 0 0 995.09883092409655 -226.38348854534854 0 -226.38348854534854 -139.95572918764992 0 0 0 0 1033.6990786449314 -380.87121530175659 0 -380.87121530175659 -173.67696438795974 0 0 0 0 1135.2119500414119 -388.22566944831397 0 -388.22566944831397 -173.94264854514813 0 0 0 0 1494.0131236772086 -91.779894086264619 0 -91.779894086264619 -460.85788158390642 0 0 0 0 1511.0269427626627 -277.69509478778582 0 -277.69509478778582 -306.73778634706468 0 0 0 0 1468.6681510832423 -99.151585474826788 0 -99.151585474826788 -437.95067218470649 0 0 0 0 2344.6271868347649 45.696223590856562 0 45.696223590856562 -487.42734628846847 0 0 0 0 3708.2916676020686 1284.126554724251 0 1284.126554724251 942.51106533379607 0 0 0 0 925.98286623111926 -537.13293459978195 0 -537.13293459978195 175.93863658944178 0 0 0 0 1793.4271983599901 -971.64389836624764 0 -971.64389836624764 74.280077925668593 0 0 0 0 921.74783033948916 -558.49496689706575 0 -558.49496689706575 68.266880839988517 0 0 0 0 347.53156481965561 -315.37628622765715 0 -315.37628622765715 165.62095137279539 0 0 0 0 557.05851486552274 -216.188479133501 0 -216.188479133501 -36.856643217188321 0 0 0 0 844.70825686099124 -556.93053168146707 0 -556.93053168146707 149.89714756637113 0 0 0 0 7.2887807577679666 13.463286599593175 0 13.463286599593175 18.394827007950489 0 0 0 0 1534.0391379577659 497.08963164023623 0 497.08963164023623 -726.30059946881556 0 0 0 0 577.94680287197116 354.31505472909475 0 354.31505472909475 -253.29206621881985 0 0 0 0 1600.3976860694529 -240.0266452438359 0 -240.0266452438359 -723.44178378093056 0 0 0 0 1551.7376961169066 -70.927960515236919 0 -70.927960515236919 328.54052663687253 0 0 0 0 -701.47811521524272 15.467683501177817 0 15.467683501177817 2054.9224826315326 0 0 0 0 3.4018435377750365 6.0889794100030485 0 6.0889794100030485 11.760014908178263 0 0 0 0 2002.4736935054243 300.36278992367602 0 300.36278992367602 149.28170317357279 0 0 0 0 1365.2789902097793 774.60593303023927 0 774.60593303023927 1185.3999444799765 0 0 0 0 878.32188515237067 -211.24249131954576 0 -211.24249131954576 234.02936501855328 0 0 0 0 1111.1412414947445 271.20408887317069 0 271.20408887317069 320.66613299491496 0 0 0 0 1022.376696265841 518.07439858121268 0 518.07439858121268 465.64558166317715 0 0 0 0 1058.89995810439 250.69298006814932 0 250.69298006814932 403.008613507767 0 0 0 0 974.99121974782611 452.34311953601593 0 452.34311953601593 647.67410301347024 0 0 0 0 943.42915449530847 419.62245397168886 0 419.62245397168886 268.87081134156369 0 0 0 0 970.98077719299181 406.96151858846309 0 406.96151858846309 257.02934304285338 0 0 0 0 1106.7246801513138 676.01717474225165 0 676.01717474225165 513.09605928105429 0 0 0 0 854.99512149111979 365.34492151897609 0 365.34492151897609 369.97245175582191 0 0 0 0 925.69435127226461 544.85169207058448 0 544.85169207058448 501.72891484882291 0 0 0 0 986.66076536502806 425.57494265594096 0 425.57494265594096 734.81966507782147 0 0 0 0 1284.5971528087684 227.67785096553655 0 227.67785096553655 458.18957922942479 0 0 0 0 1200.7363693611405 375.34415773293586 0 375.34415773293586 202.75342915144182 0 0 0 0 1249.56343754103 632.86741571129562 0 632.86741571129562 15.475766101570457 0 0 0 0 833.71465966450342 457.86328050016789 0 457.86328050016789 184.21385453373841 0 0 0 0 931.5351284012213 380.50090201281557 0 380.50090201281557 -6.8460460462803967 0 0 0 0 715.54940190639172 28.665168181697084 0 28.665168181697084 83.064938141071394 0 0 0 0 582.96723603672581 51.687224349510132 0 51.687224349510132 234.38820749387344 0 0 0 0 689.14280984156358 473.82778876859481 0 473.82778876859481 307.77438423682099 0 0 0 0 3491.1331330921239 957.38254571341645 0 957.38254571341645 -28.369986160477335 0 0 0 0 1852.0365816660633 448.97637173159126 0 448.97637173159126 -144.16511737099538 0 0 0 0 2104.6366251315485 905.12973614179714 0 905.12973614179714 -3.6988037296765697 0 0 0 0 1534.063312996057 714.72262109889766 0 714.72262109889766 124.71643471539369 0 0 0 0 3485.0577842679554 66.951824804253448 0 66.951824804253448 -12.865501606377457 0 0 0 0 1380.3709927181771 262.49244984258888 0 262.49244984258888 -5.1264052719065489 0 0 0 0 5.33024070964629 0.26823358819206078 0 0.26823358819206078 -1.7635529928207037 0 0 0 0 1096.6806220967337 24.415177504295542 0 24.415177504295542 -5.5970310736942164 0 0 0 0 43.000691452965839 -61.404449064556964 0 -61.404449064556964 -0.60635605536667114 0 0 0 0 8.6492339134097733 -0.51692277740728798 0 -0.51692277740728798 -0.65222979160752648 0 0 0 0 517.49962511472404 7.404640261212732 0 7.404640261212732 1.2791505472238307 0 0 0 0 3491.0464026698296 1251.2599707308407 0 1251.2599707308407 28.685224822598652 0 0 0 0 14.195810580277168 -3.1242280136308693 0 -3.1242280136308693 -0.50327678536891174 0 0 0 0 2182.6919795329304 1137.2950208847999 0 1137.2950208847999 287.27447710137653 0 0 0 0 3.5494542687312105 3.3391519636953433 0 3.3391519636953433 -1.5317749477870644 0 0 0 0 43.00069145303091 41.890136538069427 0 41.890136538069427 -10.672887997482349 0 0 0 0 1952.2694539606455 1036.5650594786739 0 1036.5650594786739 366.18402629329609 0 0 0 0 1929.7644460802549 618.69703539387831 0 618.69703539387831 75.653964122963856 0 0 0 0 2477.5806923941782 846.0689693264319 0 846.0689693264319 115.98334298696159 0 0 0 0 2141.1722162447695 1047.528839465012 0 1047.528839465012 301.22083341830762 0 0 0 0 3496.3015148128325 2255.6886238279963 0 2255.6886238279963 1339.0465732131083 0 0 0 0 9.9203520325011425 3.758007525034202 0 3.758007525034202 0.19144003664807333 0 0 0 0 29.952375750697684 -4.9284937342913127 0 -4.9284937342913127 -0.07505140299007966 0 0 0 0 8.0926664921603901 3.1864745211654792 0 3.1864745211654792 -0.67601490553307708 0 0 0 0 1438.2889669482684 409.27805153475413 0 409.27805153475413 354.10980799176792 0 0 0 0 2485.8919221492833 465.32385773282334 0 465.32385773282334 2.1346251631786601 0 0 0 0 1554.7468699697129 751.66794001711764 0 751.66794001711764 211.02580224397119 0 0 0 0 1821.8919117945043 1014.9132581204976 0 1014.9132581204976 404.69083472516132 0 0 0 0 1.0646160438321317 5.8378735586884147 0 5.8378735586884147 -9.7548380497227285 0 0 0 0 1534.5407723318203 711.85392921051903 0 711.85392921051903 206.53408366671314 0 0 0 0 866.01328315645878 686.87320197073097 0 686.87320197073097 564.42537279983981 0 0 0 0 743.87838293724053 320.08198340308229 0 320.08198340308229 69.633114539487906 0 0 0 0 74.11632263919455 389.87409071046795 0 389.87409071046795 47.816435878813536 0 0 0 0 372.73183063259057 131.32840682866757 0 131.32840682866757 223.91555547945745 0 0 0 0 1.5393232602911269 3.1497943963368584 0 3.1497943963368584 -5.4665344512985836 0 0 0 0 829.05473648148472 663.46132913488884 0 663.46132913488884 404.62760464490594 0 0 0 0 283.48280510536006 579.09083327928306 0 579.09083327928306 493.91695720329608 0 0 0 0 1005.7079576981196 262.77630164504683 0 262.77630164504683 237.51340477922622 0 0 0 0 1225.2048501495447 670.17470490918868 0 670.17470490918868 162.48061712621652 0 0 0 0 640.31779765785905 129.65916234955944 0 129.65916234955944 0.22483514426095419 0 0 0 0 1.1675654619842248 1.2765866080447665 0 1.2765866080447665 -0.99266346595226618 0 0 0 0 824.45428564379108 408.44238848466233 0 408.44238848466233 370.49653819443165 0 0 0 0 540.82976716353733 368.70852711228486 0 368.70852711228486 368.28639019759112 0 0 0 0 883.97209907336946 387.54680789580806 0 387.54680789580806 0.76346058458170829 0 0 0 0 1272.3817394913349 55.031065011293073 0 55.031065011293073 249.02363670371531 0 0 0 0 994.36793792500976 203.15258990362395 0 203.15258990362395 220.73659065784665 0 0 0 0 887.32770903564233 -101.44463928184086 0 -101.44463928184086 131.29675222740434 0 0 0 0 665.7252943621279 100.25494192409974 0 100.25494192409974 273.44551177716426 0 0 0 0 815.63332579408598 169.37491709045457 0 169.37491709045457 165.56800405378294 0 0 0 0 628.437584739062 334.87235463044556 0 334.87235463044556 358.90298104282738 0 0 0 0 449.80218459419848 -11.724629529370901 0 -11.724629529370901 110.538605464385 0 0 0 0 521.25092361395946 296.31137460514378 0 296.31137460514378 -37.487837880442385 0 0 0 0 631.74439194097067 142.81040422189199 0 142.81040422189199 17.534537179878271 0 0 0 0 744.78248716513917 -101.67461431697052 0 -101.67461431697052 -39.379266231423571 0 0 0 0 1086.7112041724322 -66.242291923391463 0 -66.242291923391463 -4.4341123528347453 0 0 0 0 872.4829206111317 -8.6992012674818397 0 -8.6992012674818397 12.038482551730795 0 0 0 0 546.86189879386802 -76.716729698846848 0 -76.716729698846848 -71.225739699500991 0 0 0 0 903.76140345932799 -128.29948082211604 0 -128.29948082211604 -113.98450351293332 0 0 0 0 819.68199023070338 30.741317240145804 0 30.741317240145804 -100.75129724701856 0 0 0 0 279.04098781873472 -52.196975606330852 0 -52.196975606330852 -27.359878899532305 0 0 0 0 491.23334261513082 110.41756281019161 0 110.41756281019161 -127.93483310325314 0 0 0 0 183.69230402694666 16.06979214833791 0 16.06979214833791 -40.152086550355307 0 0 0 0 450.24060900934273 56.500873879552273 0 56.500873879552273 -140.42078153285456 0 0 0 0 178.41295337950578 -13.632957540560199 0 -13.632957540560199 -201.80268027006059 0 0 0 0 103.29457511406326 175.02098378439717 0 175.02098378439717 -135.68073701498361 0 0 0 0 148.34509651731059 -0.097618680057166785 0 -0.097618680057166785 -21.102291261047867 0 0 0 0 706.37170614473871 -70.922405861269908 0 -70.922405861269908 -109.21251170559754 0 0 0 0 430.51178845778304 -65.390663561130793 0 -65.390663561130793 -71.362158399679174 0 0 0 0 729.60754078366153 -13.632847829670027 0 -13.632847829670027 -155.91803130295784 0 0 0 0 732.66442242464109 -127.60340631301233 0 -127.60340631301233 -104.45264733765998 0 0 0 0 681.51038634884753 -170.70912298858912 0 -170.70912298858912 -114.09586019625567 0 0 0 0 346.85780185565818 -95.374585728881357 0 -95.374585728881357 -19.427035987620911 0 0 0 0 251.04414465968148 -83.316168552867566 0 -83.316168552867566 36.182925924343181 0 0 0 0 472.47446179449616 -64.450711369385544 0 -64.450711369385544 -55.217877570357814 0 0 0 0 574.93309626620612 -257.44291811852327 0 -257.44291811852327 -14.25555254482515 0 0 0 0 270.38730043641408 -224.78276550125884 0 -224.78276550125884 135.4063910842724 0 0 0 0 248.77248005986803 -1.2256024750275856 0 -1.2256024750275856 -28.153780769896912 0 0 0 0 462.17346644097415 -228.68985372009774 0 -228.68985372009774 38.861914346070989 0 0 0 0 182.61368989609764 -33.291171683546054 0 -33.291171683546054 -32.098662799919111 0 0 0 0 74.528541766398121 27.587896118401659 0 27.587896118401659 13.448088893761451 0 0 0 0 81.804955286937911 60.324302123162511 0 60.324302123162511 -97.424456017137345 0 0 0 0 56.719466094677045 -47.218195739832026 0 -47.218195739832026 -52.48237853149476 0 0 0 0 219.79184477962554 21.40300403796482 0 21.40300403796482 -61.997330556110683 0 0 0 0 73.071914872911293 12.107146647705122 0 12.107146647705122 7.62719717395521 0 0 0 0 340.12590901042677 21.592699709390729 0 21.592699709390729 -68.115580645224327 0 0 0 0 322.12700525722175 67.9622499942259 0 67.9622499942259 -1.3743958731611343 0 0 0 0 -1.6252351881909561 2.8665975383567002 0 2.8665975383567002 -20.391068989997947 0 0 0 0 -180.84510005939228 85.976990685431019 0 85.976990685431019 48.707691590934246 0 0 0 0 247.37900549908227 -49.899228345752249 0 -49.899228345752249 -151.31472645822487 0 0 0 0 137.12855058498099 46.892200114336532 0 46.892200114336532 44.325017815802937 0 0 0 0 23.339691584951652 62.020577367688929 0 62.020577367688929 -52.10662751871223 0 0 0 0 45.705277350421966 5.6425424125781607 0 5.6425424125781607 -71.755007286313287 0 0 0 0 21.081227134040091 -86.27270166736659 0 -86.27270166736659 -128.70082829056616 0 0 0 0 155.81429091433529 -72.200770572680767 0 -72.200770572680767 -179.87106007589807 0 0 0 0 -1.6644490216148711 -0.62811041427497116 0 -0.62811041427497116 -1.475157629080589 0 0 0 0 128.98765924226609 67.054598809817222 0 67.054598809817222 -163.07546208353034 0 0 0 0 237.74535479172482 48.141962957539249 0 48.141962957539249 -198.7779818324741 0 0 0 0 152.95067585693323 121.20087907242669 0 121.20087907242669 84.761439797305229 0 0 0 0 356.21817983000074 3.0000210669436456 0 3.0000210669436456 -166.18021379560724 0 0 0 0 462.50775477843126 36.564160656804688 0 36.564160656804688 17.21091739410906 0 0 0 0 383.35028645265265 131.56389548030165 0 131.56389548030165 48.252316516832707 0 0 0 0 196.01539314554248 25.338078445721976 0 25.338078445721976 34.301779711950758 0 0 0 0 590.57638934534589 269.69795447564638 0 269.69795447564638 320.10737691923987 0 0 0 0 -474.9926843755602 105.20561057500504 0 105.20561057500504 155.95556960554541 0 0 0 0 0.71069398627476232 1.4219406053929049 0 1.4219406053929049 -5.5710921529810467 0 0 0 0 523.67479568157069 349.07089693139937 0 349.07089693139937 273.50868671429953 0 0 0 0 884.00084351836085 452.43235998202255 0 452.43235998202255 191.19378464042302 0 0 0 0 582.48845920393069 269.36365503393426 0 269.36365503393426 380.3622969721348 0 0 0 0 1924.0859693077218 1056.8445216897089 0 1056.8445216897089 410.07838657902516 0 0 0 0 832.94879581099667 1181.5262669083734 0 1181.5262669083734 699.57321718078538 0 0 0 0 1622.6324576856277 984.94739240329955 0 984.94739240329955 556.98240824183881 0 0 0 0 0.9277444758596971 7.3952771373830331 0 7.3952771373830331 -10.97513033324722 0 0 0 0 1025.6977368786756 134.23878619439455 0 134.23878619439455 276.38712010142365 0 0 0 0 -95.319201589707518 318.15904430851134 0 318.15904430851134 196.43728412456335 0 0 0 0 395.40612446458545 579.60946753935264 0 579.60946753935264 297.27039885106296 0 0 0 0 153.42552546948718 31.354894952729751 0 31.354894952729751 -114.17684311599146 0 0 0 0 7.0348854904287208 -1.1110125411296679 0 -1.1110125411296679 -2.548362691576521 0 0 0 0 -216.58963150117779 132.77040343932998 0 132.77040343932998 -66.899948153051696 0 0 0 0 185.22915537125664 115.37107343481955 0 115.37107343481955 -204.10552781812441 0 0 0 0 8.3149454367454609 2.8277162451901035 0 2.8277162451901035 -4.1821786568491746 0 0 0 0 -38.410144711539033 90.359449263830044 0 90.359449263830044 61.687922210108908 0 0 0 0 88.370732520852471 141.78902186277719 0 141.78902186277719 -175.44396443091699 0 0 0 0 7.9284836326098258 17.395704633016805 0 17.395704633016805 3.4193727309584059 0 0 0 0 63.218644714768743 45.909444071296946 0 45.909444071296946 -4.2497448411826326 0 0 0 0 58.282984100264002 11.234325565766675 0 11.234325565766675 1.3807740602115928 0 0 0 0 94.001710011361865 19.763762016491 0 19.763762016491 -61.345336676452689 0 0 0 0 38.666101728187641 21.872870081733595 0 21.872870081733595 -13.897564346264517 0 0 0 0 35.136196187115274 12.09771584958844 0 12.09771584958844 6.8633550834800872 0 0 0 0 30.054028523083389 5.5325029769839063 0 5.5325029769839063 -14.083390246592939 0 0 0 0 1534.3014775263655 1176.0321824307362 0 1176.0321824307362 333.39676920140107 0 0 0 0 441.07353104065987 475.17470252952955 0 475.17470252952955 398.99501200602492 0 0 0 0 330.48153963717618 741.17326035196584 0 741.17326035196584 807.17650239830073 0 0 0 0 365.73016478928912 -130.4083605470862 0 -130.4083605470862 -49.338156779402084 0 0 0 0 29.420368451057129 -5.3138371889920961 0 -5.3138371889920961 -12.506221926392326 0 0 0 0 2.9156565105834034 3.7103248846770924 0 3.7103248846770924 -6.4633593160257217 0 0 0 0 267.50027492076333 851.62760165368763 0 851.62760165368763 2682.4624826320264 0 0 0 0 87.752101115329424 169.57660832080091 0 169.57660832080091 224.07742193576451 0 0 0 0 3487.2229936691647 -328.49920712026659 0 -328.49920712026659 6.5083070384251736 0 0 0 0 20.750805568396459 11.489939211503923 0 11.489939211503923 7.7320695935068837 0 0 0 0 3489.8469030855922 2676.5161434407405 0 2676.5161434407405 799.47912065482217 0 0 0 0 3504.2359233975731 1649.9793177123765 0 1649.9793177123765 158.32637705535751 0 0 0 0 1783.9968414362957 1933.781648260858 0 1933.781648260858 504.83158704671905 0 0 0 0 1876.1837911457114 1202.7313826103618 0 1202.7313826103618 679.86624235754743 0 0 0 0 1415.8219093179141 1224.0806318325788 0 1224.0806318325788 690.63662108282676 0 0 0 0 2058.3121997407143 1260.6194953557988 0 1260.6194953557988 513.22879393492769 0 0 0 0 2202.3124986394178 1142.1779246084682 0 1142.1779246084682 43.670410429571561 0 0 0 0 2441.0243994127377 -780.93083842001101 0 -780.93083842001101 -435.15032184204921 0 0 0 0 3491.5244605499465 -1053.8118421803629 0 -1053.8118421803629 -373.21658471608924 0 0 0 0 564.73256597296859 -552.54816060313635 0 -552.54816060313635 334.74776831176064 0 0 0 0 154.64334985508322 232.57179446147302 0 232.57179446147302 143.93173536149979 0 0 0 0 12.831977919386588 -3.671436090217739 0 -3.671436090217739 1.469457185457467 0 0 0 0 1141.254119344565 -1293.2930275267397 0 -1293.2930275267397 1060.9378782708507 0 0 0 0 3501.1833104894231 721.40852066932996 0 721.40852066932996 11.663067700052132 0 0 0 0 3427.1389489601229 287.36314624382959 0 287.36314624382959 93.182127790899528 0 0 0 0 11.821696292667184 -15.409137004855211 0 -15.409137004855211 73.13088172912633 0 0 0 0 6.1647017253497154 -1.1338632477535953 0 -1.1338632477535953 0.12898911435811033 0 0 0 0 521.46926982131845 8.2486506534551385 0 8.2486506534551385 9.1005692937399836 0 0 0 0 53.255574613038334 -8.8435408808491935 0 -8.8435408808491935 -5.6058328188926012 0 0 0 0 19.348928776939886 2.2644051311746267 0 2.2644051311746267 1.9097508943094801 0 0 0 0 91.217642506831908 6.8317064138580577 0 6.8317064138580577 -2.4999500694760215 0 0 0 0 30.944238939084016 -7.3550099460973399 0 -7.3550099460973399 3.7478984534256488 0 0 0 0 32.319673080841312 27.088883232369639 0 27.088883232369639 70.898048194807672 0 0 0 0 72.670752472618915 40.145056481198964 0 40.145056481198964 33.202034863988175 0 0 0 0 63.572763351323374 20.816237182799863 0 20.816237182799863 -13.943088058287003 0 0 0 0 44.460392971435795 2.0354020216124411 0 2.0354020216124411 13.247531605843591 0 0 0 0 41.65269400361484 9.1571342050742217 0 9.1571342050742217 -1.3449141726939287 0 0 0 0 19.934090614519569 17.690917803324567 0 17.690917803324567 1.5537828905979105 0 0 0 0 39.25883755031191 34.865191739268511 0 34.865191739268511 10.335732691938656 0 0 0 0 49.604454830274335 16.388124757713854 0 16.388124757713854 -14.382052677729007 0 0 0 0 120.21770099870628 15.693236367033023 0 15.693236367033023 6.0195237836855426 0 0 0 0 37.141514393614273 18.513127273758215 0 18.513127273758215 3.7710699807643571 0 0 0 0 100.53779588258476 50.956298820359734 0 50.956298820359734 -14.372715158270694 0 0 0 0 77.776552497205557 39.445626313001867 0 39.445626313001867 -3.4486627904875604 0 0 0 0 67.247968423354905 2.3695224380888362 0 2.3695224380888362 22.922917647348008 0 0 0 0 57.700389274919672 21.675193833073756 0 21.675193833073756 1.8456539745422642 0 0 0 0 68.573928510519238 -0.96848273922766737 0 -0.96848273922766737 -8.3132883077283353 0 0 0 0 81.185895780727151 4.9624229915916658 0 4.9624229915916658 -9.5762313715231357 0 0 0 0 104.2066156029905 -21.335809002327096 0 -21.335809002327096 -71.371644287633899 0 0 0 0 4.0639302252938023 13.674279767775371 0 13.674279767775371 -0.80376663769488221 0 0 0 0 47.698330992015968 9.0095666061570938 0 9.0095666061570938 1.4307543159771461 0 0 0 0 -45.090116529609077 38.894412087612636 0 38.894412087612636 142.71126330717004 0 0 0 0 63.837195029517432 -4.4932500617011595 0 -4.4932500617011595 -9.1658994979438333 0 0 0 0 75.814173133596341 -213.67696489593141 0 -213.67696489593141 -245.25227964228225 0 0 0 0 22.234212236479955 -3.4892575442709983 0 -3.4892575442709983 -7.6516878337411018 0 0 0 0 -77.85291893100657 159.31254021574 0 159.31254021574 -285.33420378310711 0 0 0 0 140.98464615107514 61.703278408815549 0 61.703278408815549 -334.70880726009273 0 0 0 0 94.846717654952954 186.56353452004532 0 186.56353452004532 -664.01236563467501 0 0 0 0 1496.3532955837727 -381.57034794090532 0 -381.57034794090532 -925.87728208978297 0 0 0 0 -13.492827982852759 52.521126825636728 0 52.521126825636728 -43.619381077251177 0 0 0 0 21.888265987592305 -9.4290623836887022 0 -9.4290623836887022 5.6197692119044564 0 0 0 0 9.596590826171564 -12.426613010186074 0 -12.426613010186074 7.7522625950158108 0 0 0 0 -346.48379113513874 -416.44946578208544 0 -416.44946578208544 -93.185954198561149 0 0 0 0 305.42362341426633 -452.57509997141659 0 -452.57509997141659 -306.50917695997236 0 0 0 0 -96.206176266226976 -152.8366592533813 0 -152.8366592533813 -91.007129189369607 0 0 0 0 747.45668555692828 -238.6833218833707 0 -238.6833218833707 -440.88313580262246 0 0 0 0 330.04542020495865 -80.682631311993873 0 -80.682631311993873 -402.18575434694094 0 0 0 0 182.29656417218212 -309.57439300065698 0 -309.57439300065698 266.39226293731826 0 0 0 0 216.28089295371319 -248.79801093171614 0 -248.79801093171614 -237.68549131749069 0 0 0 0 302.89051770913647 104.11225607221729 0 104.11225607221729 -417.21544380758132 0 0 0 0 -22.295660839197808 -39.492478451562647 0 -39.492478451562647 -402.45676449353067 0 0 0 0 652.08649761043489 -3.9445864622739464 0 -3.9445864622739464 -718.82517526417746 0 0 0 0 651.64845336835424 193.01146771159972 0 193.01146771159972 -322.13275733360422 0 0 0 0 188.86299855964899 -11.51543000010895 0 -11.51543000010895 -403.95966131522346 0 0 0 0 49.479898461817356 229.36605786327112 0 229.36605786327112 -219.63736365174896 0 0 0 0 -25.788374419164029 107.89100261176998 0 107.89100261176998 -288.38592522806397 0 0 0 0 20.137873819287051 114.47434537069898 0 114.47434537069898 -287.81566526598147 0 0 0 0 -10.707458668002801 119.30713269673981 0 119.30713269673981 -218.44511685172893 0 0 0 0 43.004756307294883 72.480114205326913 0 72.480114205326913 -210.91807722362319 0 0 0 0 14.126447663593259 3.1861910522292192 0 3.1861910522292192 -20.428981907558288 0 0 0 0 129.44668291705602 103.90301483856148 0 103.90301483856148 22.797288862704249 0 0 0 0 -5.6540771000727545 107.32977092802867 0 107.32977092802867 -190.79649996037722 0 0 0 0 24.745689484192582 -2.1474028970350716 0 -2.1474028970350716 -6.3035009820552972 0 0 0 0 64.016258507999737 33.266035409838167 0 33.266035409838167 91.108715753421862 0 0 0 0 274.68870895163855 -54.511087533759053 0 -54.511087533759053 27.932003929471648 0 0 0 0 248.49678647406108 -301.81986368829598 0 -301.81986368829598 -786.74061670829678 0 0 0 0 4.9317674625281427 -2.2267051915769258 0 -2.2267051915769258 0.88264854350679833 0 0 0 0 38.079499300103635 -29.639960685988413 0 -29.639960685988413 366.44877812581387 0 0 0 0 33.564925657759886 1113.8875933212721 0 1113.8875933212721 -383.91429386157233 0 0 0 0 70.677305569784949 -16.073615883753519 0 -16.073615883753519 -69.91220216820102 0 0 0 0 178.63999315923866 -75.548590198162401 0 -75.548590198162401 -146.51870406579815 0 0 0 0 84.57864491827786 -12.986180552907172 0 -12.986180552907172 -83.542454736509171 0 0 0 0 81.372694001249585 -3.9066639187737948 0 -3.9066639187737948 -5.2963301943174859 0 0 0 0 67.080182836677864 0.60350406812867163 0 0.60350406812867163 -8.2770027696792887 0 0 0 0 32.179860568459844 25.624277556363324 0 25.624277556363324 2.1341979378400993 0 0 0 0 92.302315782813821 -36.604581364148089 0 -36.604581364148089 -85.477029424553791 0 0 0 0 59.451919081388041 13.052911938577381 0 13.052911938577381 -93.212720749823006 0 0 0 0 11.470867033281252 -10.074016576762688 0 -10.074016576762688 -8.2068163504950711 0 0 0 0 19.588660957906143 5.430738777749383 0 5.430738777749383 -3.6048471089690723 0 0 0 0 37.307848697266309 52.143135427736581 0 52.143135427736581 16.718732754858991 0 0 0 0 139.09265327245521 47.710030353311538 0 47.710030353311538 -4.4737297980359472 0 0 0 0 145.22511686043435 4.2049914313415684 0 4.2049914313415684 -54.94872809698245 0 0 0 0 126.37013556271268 20.268407111956115 0 20.268407111956115 12.475656754969805 0 0 0 0 17.043301233030192 0.49517210997626648 0 0.49517210997626648 -39.887109103498695 0 0 0 0 159.45672743946488 29.037238939319877 0 29.037238939319877 -36.519613493288489 0 0 0 0 158.75553966723237 39.48710913615048 0 39.48710913615048 -5.1113154486340591 0 0 0 0 97.624461411650529 -12.596736792469869 0 -12.596736792469869 -26.50011423762875 0 0 0 0 75.506314153297609 3.2350895677773615 0 3.2350895677773615 -10.584987919162435 0 0 0 0 148.52594357884664 48.249842632623654 0 48.249842632623654 -122.98038092950387 0 0 0 0 0.84443516280589392 -11.898402010086784 0 -11.898402010086784 -12.392301840343862 0 0 0 0 51.156360530701932 -7.5888346481788176 0 -7.5888346481788176 -73.580523968788839 0 0 0 0 53.80909355548647 31.217352481331091 0 31.217352481331091 -0.037546125073276926 0 0 0 0 42.31025737940049 16.542990182791698 0 16.542990182791698 -14.55297034994182 0 0 0 0 51.83266056906723 27.491896754129698 0 27.491896754129698 6.6300479029916346 0 0 0 0 109.01495499019074 -25.454127959596008 0 -25.454127959596008 -36.51271422474565 0 0 0 0 984.47770889606909 500.90469229604605 0 500.90469229604605 244.25407309806906 0 0 0 0 58.245835849556613 -2.6059727635126109 0 -2.6059727635126109 -18.736460689616905 0 0 0 0 137.65881031271419 -4.8717942947760093 0 -4.8717942947760093 -55.933325781326857 0 0 0 0 38.438854308769805 -1.2866331339664612 0 -1.2866331339664612 -31.99442104631089 0 0 0 0 0.93798068111675548 2.2924635924565813 0 2.2924635924565813 -3.9747050701444842 0 0 0 0 76.792520286255353 -9.8890759256090561 0 -9.8890759256090561 -11.469892472669782 0 0 0 0 35.388199753579102 36.277442011259154 0 36.277442011259154 -28.582805990367603 0 0 0 0 81.788471047955682 43.614820143250654 0 43.614820143250654 -156.92926880729647 0 0 0 0 34.998467294116381 -21.77443224383677 0 -21.77443224383677 -47.088917402908919 0 0 0 0 205.84210689137399 -55.246283753106127 0 -55.246283753106127 -303.94083103016237 0 0 0 0 40.119026620498232 -8.5828634880788215 0 -8.5828634880788215 -0.1617444680984752 0 0 0 0 55.377607332632977 2.3378093091930339 0 2.3378093091930339 -10.507781245586632 0 0 0 0 895.48354308766284 1216.7811778552975 0 1216.7811778552975 1133.5136916223746 0 0 0 0 529.01051811933576 1035.6487273090111 0 1035.6487273090111 1043.9885527339538 0 0 0 0 810.38708101485099 1719.3528215752265 0 1719.3528215752265 236.08910166879309 0 0 0 0 771.07180923734632 802.63343689084604 0 802.63343689084604 -21.320617774147649 0 0 0 0 596.18184022740206 171.75108166920376 0 171.75108166920376 -21.789817581719035 0 0 0 0 2394.0173019942158 1167.0565654349409 0 1167.0565654349409 12.861427551065105 0 0 0 0 1453.6832060703018 -203.28363415202955 0 -203.28363415202955 -993.51205712708997 0 0 0 0 4427.3464616213751 243.66769173999865 0 243.66769173999865 -1180.0627752313974 0 0 0 0 3656.9663184035744 2476.5892385638058 0 2476.5892385638058 -221.22630798290311 0 0 0 0 1368.683892165498 1801.0177678414861 0 1801.0177678414861 195.37235096229233 0 0 0 0 1397.1551219638059 1867.6474317493041 0 1867.6474317493041 -363.9941091022431 0 0 0 0 1004.1180946627501 2564.7490358555119 0 2564.7490358555119 584.20171069940693 0 0 0 0 33.77573780280585 12.620052575648998 0 12.620052575648998 3.9309614465760045 0 0 0 0 2558.1292980304988 -708.17072104067381 0 -708.17072104067381 -219.72041188255025 0 0 0 0 4092.7984935897694 1396.2908739255415 0 1396.2908739255415 -386.05065520518707 0 0 0 0 0.4578580725444521 2.521688284626066 0 2.521688284626066 -2.2665253219253296 0 0 0 0 2670.6908720051797 1336.8269711615012 0 1336.8269711615012 2917.810550869588 0 0 0 0 1678.5368401076121 560.72180124511738 0 560.72180124511738 -299.1355474995068 0 0 0 0 1782.2566865776462 736.31992988909451 0 736.31992988909451 -56.15257695968242 0 0 0 0 1852.9258848367367 783.62895971748185 0 783.62895971748185 -510.43190467191357 0 0 0 0 1826.7193617685916 -126.10552775302614 0 -126.10552775302614 -269.48655942284927 0 0 0 0 349.3087183502721 -403.84424970031529 0 -403.84424970031529 5.6219995137984142 0 0 0 0 607.78202565840184 16.664690895569052 0 16.664690895569052 -98.230332886909991 0 0 0 0 1039.4225739865396 83.041304380218776 0 83.041304380218776 -113.17831661672926 0 0 0 0 818.3233291176366 230.88541505336252 0 230.88541505336252 51.371017115092442 0 0 0 0 815.6940653983329 299.23439360189064 0 299.23439360189064 -32.813647845677842 0 0 0 0 1292.6447181864933 452.8825175711828 0 452.8825175711828 -55.011309609801039 0 0 0 0 1359.98136124753 433.68519677856659 0 433.68519677856659 -118.29929812541903 0 0 0 0 1502.1926458082708 572.90796531595902 0 572.90796531595902 -122.27453149087935 0 0 0 0 1619.5065842655458 555.97629050091814 0 555.97629050091814 -135.36603811057066 0 0 0 0 1614.0503904221405 477.42206237586748 0 477.42206237586748 -176.78622838898494 0 0 0 0 1505.5018006074388 422.95612965229736 0 422.95612965229736 -150.2490531775068 0 0 0 0 1546.2005175381892 505.202631386711 0 505.202631386711 -18.583539097234961 0 0 0 0 952.09182677634817 344.38096608065649 0 344.38096608065649 579.67579458335501 0 0 0 0 1791.7340426372466 347.5955017541898 0 347.5955017541898 37.932740216691577 0 0 0 0 1090.7485474783462 840.93161360127397 0 840.93161360127397 143.28804696674632 0 0 0 0 1925.1128645672129 1455.1505686158985 0 1455.1505686158985 595.42490785967379 0 0 0 0 -905.06499207950401 462.14077589258136 0 462.14077589258136 384.43400555912967 0 0 0 0 577.29900065228867 349.12386274997721 0 349.12386274997721 -213.36701475547488 0 0 0 0 -123.30899519230297 1037.2591470968273 0 1037.2591470968273 618.88602679245901 0 0 0 0 395.87286299229891 92.751929989713659 0 92.751929989713659 -107.351687723032 0 0 0 0 1196.3223543952336 680.22286022635728 0 680.22286022635728 300.60894428391038 0 0 0 0 966.5539111900307 -383.0038213199025 0 -383.0038213199025 -316.41719474601541 0 0 0 0 89.223512716962432 -642.10356836137976 0 -642.10356836137976 -164.25786605660522 0 0 0 0 -502.71607688585937 -223.05624947105582 0 -223.05624947105582 -82.811727873217592 0 0 0 0 -218.45693731258871 -183.04909540946431 0 -183.04909540946431 -153.25610719465021 0 0 0 0 -369.75368669672025 -249.77777823621 0 -249.77777823621 -83.23026171646967 0 0 0 0 -357.44606854498124 -596.55404361076148 0 -596.55404361076148 -160.7837299898047 0 0 0 0 10.453754426761066 -4.4497263405987724 0 -4.4497263405987724 1.4692186296997289 0 0 0 0 1620.2196457727005 806.42476830979354 0 806.42476830979354 79.88088702048266 0 0 0 0 1025.6516820255274 753.26839128843028 0 753.26839128843028 82.052007475169461 0 0 0 0 752.06812421762152 324.34848022032656 0 324.34848022032656 -199.51208231063089 0 0 0 0 358.08283598479466 75.483347883552653 0 75.483347883552653 -26.594518389253221 0 0 0 0 538.19070425364043 -152.44324495693678 0 -152.44324495693678 -757.60765430893855 0 0 0 0 23.551800618235688 -10.933714029919258 0 -10.933714029919258 2.5256002696683888 0 0 0 0 72.562457406042085 -467.21285333332332 0 -467.21285333332332 -777.17001743889341 0 0 0 0 476.20692664282251 -1160.0976971700077 0 -1160.0976971700077 62.928911569843564 0 0 0 0 620.84507772707002 334.94930894305821 0 334.94930894305821 -273.29991563656051 0 0 0 0 -13.240374184646498 -921.95525461095599 0 -921.95525461095599 122.38160819606641 0 0 0 0 14.417557769043583 -5.3343584691778645 0 -5.3343584691778645 1.6728118935574345 0 0 0 0 3493.6071467335423 1085.5442107563545 0 1085.5442107563545 -518.18410186694371 0 0 0 0 1663.5957134724376 886.93568792504061 0 886.93568792504061 -426.92082424849957 0 0 0 0 3500.0755074761 77.805344379062902 0 77.805344379062902 -240.75069120969025 0 0 0 0 2969.5714020012674 -211.12803189231775 0 -211.12803189231775 -392.15914496238202 0 0 0 0 6.2790992721513703 -5.3696897028508914 0 -5.3696897028508914 3.3435358298689382 0 0 0 0 -584.87721884849452 -431.95434248507502 0 -431.95434248507502 -323.67939945823196 0 0 0 0 1610.5990095966554 300.14248823844758 0 300.14248823844758 -268.12570458140425 0 0 0 0 3125.742663237681 170.81709109607635 0 170.81709109607635 -283.04284493963604 0 0 0 0 3501.5037506190638 -356.17337526438871 0 -356.17337526438871 -614.9848907371836 0 0 0 0 607.11608332182368 -568.94266300713525 0 -568.94266300713525 -246.64260371002115 0 0 0 0 221.31030492576247 154.91258035233363 0 154.91258035233363 1041.7721975672375 0 0 0 0 959.69650120817096 -119.70270745473226 0 -119.70270745473226 -528.00723322724912 0 0 0 0 217.61345640293439 -272.82302101353105 0 -272.82302101353105 -544.08563147236976 0 0 0 0 54.675359239903628 380.10213137568007 0 380.10213137568007 -613.14980616448906 0 0 0 0 299.13133455855132 -2181.0737636560734 0 -2181.0737636560734 -2972.2538414391547 0 0 0 0 -486.79086465631553 -310.5338550145857 0 -310.5338550145857 -688.41844941899399 0 0 0 0 -872.52471449508448 -2075.7036473585858 0 -2075.7036473585858 2425.2645460025369 0 0 0 0 513.04573224045816 413.83727616109712 0 413.83727616109712 2236.5430664358914 0 0 0 0 2361.6337679333083 -2193.2461202207296 0 -2193.2461202207296 -108.80183469950292 0 0 0 0 1798.1258420838567 -367.40341232184358 0 -367.40341232184358 89.252656569578221 0 0 0 0 1361.7615663953475 -1050.6407045567082 0 -1050.6407045567082 1599.9185506145709 0 0 0 0 32.688130208832206 -8.4240294572444299 0 -8.4240294572444299 1.4147181528611823 0 0 0 0 913.16410678088141 359.17483900726529 0 359.17483900726529 -453.7008048523939 0 0 0 0 963.00767999733944 331.12373825980774 0 331.12373825980774 144.91078347479993 0 0 0 0 593.53152839030372 64.120981965214014 0 64.120981965214014 246.21533409186958 0 0 0 0 1356.7272876286588 -120.52715076527238 0 -120.52715076527238 616.69009602624794 0 0 0 0 689.86752790489845 -311.38183537719181 0 -311.38183537719181 907.14678019563826 0 0 0 0 973.41195588448318 -509.03697242174962 0 -509.03697242174962 1336.7667220215185 0 0 0 0 605.07104209286172 19.268397426424201 0 19.268397426424201 2136.8104100705568 0 0 0 0 851.59739965325571 110.10456941742086 0 110.10456941742086 2520.7599100927728 0 0 0 0 454.62403671108768 771.04069078962311 0 771.04069078962311 2528.132187422515 0 0 0 0 2262.01822254945 -749.74551683588288 0 -749.74551683588288 2748.3771815839527 0 0 0 0 526.66643866703635 146.53846533157201 0 146.53846533157201 3628.254722044132 0 0 0 0 1169.1897469759206 339.55009065418653 0 339.55009065418653 1719.0625586397255 0 0 0 0 916.69550484140927 138.51197399748844 0 138.51197399748844 1704.3404517030417 0 0 0 0 1006.2249907074874 556.69499722411979 0 556.69499722411979 1694.5001828830109 0 0 0 0 254.2353258531075 -414.0681246774493 0 -414.0681246774493 1258.5978562627242 0 0 0 0 37.394152158236579 -3.4634168194541672 0 -3.4634168194541672 -0.31390674479264735 0 0 0 0 1395.8124082290306 2019.1272949523363 0 2019.1272949523363 3155.0068178766273 0 0 0 0 -18.466745877522044 10.340293405917691 0 10.340293405917691 96.435356933148796 0 0 0 0 143.50790682369916 -542.84795516328518 0 -542.84795516328518 215.66815543421035 0 0 0 0 5.547481906467624 9.1771680789826604 0 9.1771680789826604 -3.0726719978517991 0 0 0 0 3284.9982249732275 -1748.2997958472461 0 -1748.2997958472461 190.89645371200822 0 0 0 0 3530.4562324536673 1292.1934089888339 0 1292.1934089888339 1542.7025518299679 0 0 0 0 1172.7315334585874 818.14455613473228 0 818.14455613473228 1447.3895779273851 0 0 0 0 519.76796196585929 1091.5018673563291 0 1091.5018673563291 2235.6907627189685 0 0 0 0 1596.630690726277 1631.2290818788802 0 1631.2290818788802 952.73040623112365 0 0 0 0 595.98117027019907 1117.8297492033553 0 1117.8297492033553 695.04739767388617 0 0 0 0 1781.1740429214478 774.42060920409222 0 774.42060920409222 519.37141724522007 0 0 0 0 329.53752149579668 542.23872537790578 0 542.23872537790578 490.41785261498717 0 0 0 0 1002.0102529459218 1383.4629636316938 0 1383.4629636316938 -60.426941396938219 0 0 0 0 -96.179921291804931 196.97482903097125 0 196.97482903097125 -847.61814825033775 0 0 0 0 -381.23242948992265 1684.6594310409637 0 1684.6594310409637 648.06219842281939 0 0 0 0 450.49671167165798 403.73857656682799 0 403.73857656682799 621.85259016895225 0 0 0 0 1235.5234737169958 -43.569484820046 0 -43.569484820046 802.40707483083133 0 0 0 0 343.23313290368242 462.19206196743232 0 462.19206196743232 -785.24748544290878 0 0 0 0 1182.0702436270658 54.634089956328751 0 54.634089956328751 -631.6844077155074 0 0 0 0 867.66971804331843 -77.784011917502738 0 -77.784011917502738 -1524.4723420695725 0 0 0 0 41.332015447740559 28.53131162866157 0 28.53131162866157 -1538.1395536410896 0 0 0 0 175.69447691224923 -106.87850177120299 0 -106.87850177120299 -1441.0460991101486 0 0 0 0 488.84583169125108 359.56442565113741 0 359.56442565113741 -2152.5117227433329 0 0 0 0 -50.766075630992418 217.93068408014977 0 217.93068408014977 -105.63062384889369 0 0 0 0 9.1093991304374811 12.784004620097626 0 12.784004620097626 -1.9617359162595611 0 0 0 0 111.64140925924016 22.064368555875213 0 22.064368555875213 0.74080206431082074 0 0 0 0 84.072738952426278 26.216799803995265 0 26.216799803995265 4.8737084371955133 0 0 0 0 362.86797498191299 1189.8853182593978 0 1189.8853182593978 -2123.7293387231348 0 0 0 0 172.97455428456306 276.07711113018013 0 276.07711113018013 -510.85490693126462 0 0 0 0 -48.491760940276436 215.432936675539 0 215.432936675539 -125.14165904806158 0 0 0 0 -38.883277614122562 263.97882291364289 0 263.97882291364289 8.1445311072173041 0 0 0 0 555.02006853838975 -65.75635704010007 0 -65.75635704010007 -121.41481420064808 0 0 0 0 80.716927394172671 21.493974145003008 0 21.493974145003008 -178.84680062282007 0 0 0 0 73.826085635526397 71.463592131956929 0 71.463592131956929 86.412286203065392 0 0 0 0 372.08050821648067 106.09005540062773 0 106.09005540062773 55.239087210318225 0 0 0 0 345.43650041872752 52.911192350571341 0 52.911192350571341 31.784403800398856 0 0 0 0 123.42594166016352 173.58749840607874 0 173.58749840607874 -184.31594291017089 0 0 0 0 33.161101157069425 -34.524615153754858 0 -34.524615153754858 -315.48066874933346 0 0 0 0 13.784524154703831 78.295697929282852 0 78.295697929282852 94.798339882014389 0 0 0 0 -99.794231523561393 109.0328210455655 0 109.0328210455655 110.57090769501627 0 0 0 0 61.416004736789546 184.50717591341058 0 184.50717591341058 132.92613188127729 0 0 0 0 269.09361336347501 233.62562946829064 0 233.62562946829064 145.0778997623537 0 0 0 0 210.9006759282056 133.32389003460631 0 133.32389003460631 151.20893761976376 0 0 0 0 232.25081775591389 155.39843885781232 0 155.39843885781232 101.19314151291121 0 0 0 0 176.0690730926508 157.65946159367854 0 157.65946159367854 139.27161647365119 0 0 0 0 137.28895523010215 146.7905691243692 0 146.7905691243692 -108.72594550354563 0 0 0 0 173.45812630646833 99.763650449247905 0 99.763650449247905 -74.416036126742483 0 0 0 0 96.875625783097348 -170.98290943269535 0 -170.98290943269535 -10.80558567919195 0 0 0 0 6.6696625322853151 -8.7443035493607866 0 -8.7443035493607866 -2.1854102653141796 0 0 0 0 117.46708695063751 -13.171430311890568 0 -13.171430311890568 -5.2458132865111429 0 0 0 0 105.31983097859097 91.259483086431047 0 91.259483086431047 142.0173604553861 0 0 0 0 138.30166481640481 -119.51284578936747 0 -119.51284578936747 -105.89596467124363 0 0 0 0 108.89066438556179 -25.617920265170611 0 -25.617920265170611 -1.8756732566825356 0 0 0 0 295.64315886171437 -973.88015439773983 0 -973.88015439773983 -2675.6222666103777 0 0 0 0 462.42600987564947 -385.78878300839256 0 -385.78878300839256 -2251.5270042049815 0 0 0 0 313.21033962447109 103.93940636733788 0 103.93940636733788 -1377.2998796442632 0 0 0 0 530.17119318487676 50.106470511892553 0 50.106470511892553 -124.42397110001707 0 0 0 0 86.706236612252496 -25.186701243796698 0 -25.186701243796698 1.9726076749293711 0 0 0 0 355.75240629966356 172.98084712258094 0 172.98084712258094 148.18020548225559 0 0 0 0 91.10256559779009 144.89960220528792 0 144.89960220528792 210.85671421790039 0 0 0 0 571.36472336795123 -33.960481921780058 0 -33.960481921780058 209.55914212195455 0 0 0 0 959.06763153530483 513.85439284697759 0 513.85439284697759 211.70758140840508 0 0 0 0 1009.4620406965478 -7.3811724091273163 0 -7.3811724091273163 89.610593362518102 0 0 0 0 3.0766734675717942 -1.6410565845455807 0 -1.6410565845455807 0.89221409823367481 0 0 0 0 1091.5130586234882 285.95320367211127 0 285.95320367211127 203.59428202473711 0 0 0 0 322.59792191834276 280.37712541975498 0 280.37712541975498 317.3051778517405 0 0 0 0 258.28637591024744 128.56599732319921 0 128.56599732319921 115.86032791641753 0 0 0 0 1410.0830432704606 193.50500452925439 0 193.50500452925439 -131.90464013801295 0 0 0 0 667.44692471931194 319.31915791168558 0 319.31915791168558 354.73940759925745 0 0 0 0 535.86462424257115 2.2411808849516319 0 2.2411808849516319 11.368909886974507 0 0 0 0 3.3460355958067254 -2.6724107566259079 0 -2.6724107566259079 3.1595763755652215 0 0 0 0 274.97272948018144 175.50040704220271 0 175.50040704220271 198.15778942712745 0 0 0 0 963.75413684729574 -299.77597845045585 0 -299.77597845045585 385.82560327211831 0 0 0 0 1331.7614713930434 25.574639577598418 0 25.574639577598418 -577.68080891474938 0 0 0 0 294.08140520919733 185.01276177448494 0 185.01276177448494 -101.62428928574582 0 0 0 0 241.15704446051677 138.8785610805694 0 138.8785610805694 649.82439916701105 0 0 0 0 1141.4872763663438 -658.34309523844763 0 -658.34309523844763 -599.27355244619139 0 0 0 0 1086.550692017343 313.61130922831785 0 313.61130922831785 -564.82468249539693 0 0 0 0 294.11960248135802 206.85680302974743 0 206.85680302974743 -48.08060080544692 0 0 0 0 20.059255120402668 164.86986567404892 0 164.86986567404892 -51.181845075634698 0 0 0 0 58.190088109266071 118.15040449890853 0 118.15040449890853 432.92633331631941 0 0 0 0 274.97963124982925 120.5547716536274 0 120.5547716536274 153.11241492522947 0 0 0 0 176.25943083381571 36.378959045100459 0 36.378959045100459 279.7148936305266 0 0 0 0 149.71088328336918 1.4652239622760135 0 1.4652239622760135 409.00243541208937 0 0 0 0 1.5603892207764005 -1.2103148630764053 0 -1.2103148630764053 1.5541849740180673 0 0 0 0 175.66009491904697 153.01825605764151 0 153.01825605764151 137.33671261472671 0 0 0 0 174.31926008994196 151.28171664997748 0 151.28171664997748 150.31011658775446 0 0 0 0 110.9029609068748 134.09300276100674 0 134.09300276100674 242.83489259420168 0 0 0 0 57.862239860623959 115.25855053180328 0 115.25855053180328 239.46007042184402 0 0 0 0 1.4820918248659325 0.038504197205945445 0 0.038504197205945445 -0.26690041152375465 0 0 0 0 115.74618973989891 146.96174965965534 0 146.96174965965534 232.13216754272639 0 0 0 0 203.45621062110513 23.754346308493041 0 23.754346308493041 64.301032265018534 0 0 0 0 179.86240057598388 131.54848005546455 0 131.54848005546455 175.95205466475829 0 0 0 0 7.3655978324750322 61.455513570404491 0 61.455513570404491 165.1417271531063 0 0 0 0 3.3528408384673298 -0.27186055456109415 0 -0.27186055456109415 -0.51532899873928484 0 0 0 0 95.800101994420402 225.94251034036586 0 225.94251034036586 304.17934387847163 0 0 0 0 187.70876313100234 177.46080305685723 0 177.46080305685723 132.99553886424565 0 0 0 0 109.17771941332103 163.19017090703733 0 163.19017090703733 94.607416289320781 0 0 0 0 88.609436425482272 124.6124380074848 0 124.6124380074848 259.35084374104531 0 0 0 0 73.945066075393697 102.55272410647945 0 102.55272410647945 100.17292885668144 0 0 0 0 130.19421851080551 86.397909646709991 0 86.397909646709991 -142.41951326772232 0 0 0 0 81.72949153965601 76.588183890172786 0 76.588183890172786 138.31338370868457 0 0 0 0 -8.0760852122475626 178.15001904440419 0 178.15001904440419 319.02828465195643 0 0 0 0 79.928699985837738 179.92100438161754 0 179.92100438161754 68.894631082068372 0 0 0 0 27.32367191411322 138.49623370572817 0 138.49623370572817 232.15017390172432 0 0 0 0 113.9695272876852 120.92516725200142 0 120.92516725200142 -129.81320653834973 0 0 0 0 39.758917812545405 106.77487709533875 0 106.77487709533875 35.531221485128526 0 0 0 0 95.020788237801753 223.47401336595613 0 223.47401336595613 -113.13478565120477 0 0 0 0 82.821673810321954 89.749898142567417 0 89.749898142567417 -314.09081993151449 0 0 0 0 73.508937550392147 124.3549948124795 0 124.3549948124795 -129.67776092034956 0 0 0 0 134.35536110807152 100.55906439815499 0 100.55906439815499 -322.25946510526182 0 0 0 0 140.72597044195572 17.674162620258016 0 17.674162620258016 -459.36514035775963 0 0 0 0 113.94210242690133 75.148312036202185 0 75.148312036202185 -324.49168897369964 0 0 0 0 106.15280372367124 9.9298255259018333 0 9.9298255259018333 -398.06444030940747 0 0 0 0 118.93790141594945 -22.562429432311774 0 -22.562429432311774 -448.66800659981163 0 0 0 0 86.903105521458201 -3.3957850722149487 0 -3.3957850722149487 -435.56701284468818 0 0 0 0 82.718023529479979 -75.463593427126398 0 -75.463593427126398 -504.70923922848942 0 0 0 0 147.24557710860972 -11.420570987016617 0 -11.420570987016617 -625.37402304230864 0 0 0 0 -1.5295777697756421 -25.215824623215667 0 -25.215824623215667 -625.88495454030999 0 0 0 0 109.30463190597948 37.281347452410955 0 37.281347452410955 -654.43905983489458 0 0 0 0 147.90853688924108 75.17514059768655 0 75.17514059768655 -543.42480184650458 0 0 0 0 91.622524773505575 -19.796129772075346 0 -19.796129772075346 -527.40371983330078 0 0 0 0 103.000181701369 83.619909357789311 0 83.619909357789311 -139.78109480987416 0 0 0 0 139.11195751066407 41.002758879255225 0 41.002758879255225 -296.83727364866763 0 0 0 0 140.82804069828126 -8.5025395030024811 0 -8.5025395030024811 -388.72474713108613 0 0 0 0 150.79531362415582 21.678142373453738 0 21.678142373453738 -387.25413902156106 0 0 0 0 136.57182550631114 9.2346638084359256 0 9.2346638084359256 -308.75294969250945 0 0 0 0 126.14804310681211 89.691856089576902 0 89.691856089576902 -306.5684459194581 0 0 0 0 102.18993800110184 62.747570612715208 0 62.747570612715208 -357.18840529727004 0 0 0 0 57.085531241733406 41.632979080974565 0 41.632979080974565 -365.49467025173635 0 0 0 0 99.338182001078167 86.682530192239369 0 86.682530192239369 -428.02194034786953 0 0 0 0 68.067287673713125 -1.3964723857681696 0 -1.3964723857681696 -1.5913126809671325 0 0 0 0 39.037394036330156 -16.993186475243579 0 -16.993186475243579 3.7497780051927498 0 0 0 0 97.552056059517781 -7.6692008013524173 0 -7.6692008013524173 -372.20330408692416 0 0 0 0 41.274955905479146 -28.517252866511853 0 -28.517252866511853 -101.40395073235686 0 0 0 0 67.668062826705864 14.460852204338721 0 14.460852204338721 -384.38785570354958 0 0 0 0 93.148796971217962 -151.14018129204851 0 -151.14018129204851 -296.50046525692665 0 0 0 0 67.353230257540417 -13.111318373604263 0 -13.111318373604263 24.990654062730755 0 0 0 0 -8.5143339052545954 -3.619787698271506 0 -3.619787698271506 9.1811225837861379 0 0 0 0 -79.45095033448888 -92.682319788103996 0 -92.682319788103996 -487.5737182519515 0 0 0 0 3.7390203391362888 -4.6342310266885676 0 -4.6342310266885676 0.47945566776330217 0 0 0 0 28.327591423476406 -204.31695832680725 0 -204.31695832680725 -360.25096774008489 0 0 0 0 200.86549176523113 -226.94603231252859 0 -226.94603231252859 -357.53687357717354 0 0 0 0 51.526987340766937 -224.79396696307685 0 -224.79396696307685 -342.52769852001438 0 0 0 0 -33.042293261896702 -183.28289780391697 0 -183.28289780391697 -306.06659648976029 0 0 0 0 -21.731859265302774 -212.20079985483699 0 -212.20079985483699 -299.41943635154985 0 0 0 0 28.734303900819214 -204.24664862796453 0 -204.24664862796453 -373.46935508667957 0 0 0 0 -107.42741385174304 -177.27566701324031 0 -177.27566701324031 -313.00838165651658 0 0 0 0 -121.03355517271848 -160.79064248729628 0 -160.79064248729628 -332.96736497376696 0 0 0 0 -28.654859905160265 -14.004466270098419 0 -14.004466270098419 -304.79226744960033 0 0 0 0 -18.471919221562842 -17.659822745268528 0 -17.659822745268528 9.2331500217047591 0 0 0 0 -2.3807335832394756 3.8070843643522654 0 3.8070843643522654 4.2282003959037651 0 0 0 0 -83.272774120741815 -46.77235596524514 0 -46.77235596524514 92.542674083395312 0 0 0 0 21.114363012860849 -1.2915648098505699 0 -1.2915648098505699 -12.287772919610916 0 0 0 0 26.481928811000174 -18.934219994626424 0 -18.934219994626424 10.188471296022621 0 0 0 0 -58.954322988242893 -243.98120503936764 0 -243.98120503936764 -337.37065522247758 0 0 0 0 22.147448682855611 -49.812404401431451 0 -49.812404401431451 -16.285798132597392 0 0 0 0 6.625070625393974 1.6062168699093338 0 1.6062168699093338 1.7700276283045606 0 0 0 0 25.814465894554502 -27.510268623013005 0 -27.510268623013005 -2.7691701469814851 0 0 0 0 -17.18717261578422 -428.17793282406546 0 -428.17793282406546 -119.69904752611012 0 0 0 0 128.94874338465888 -91.450709098139214 0 -91.450709098139214 -699.76556147181691 0 0 0 0 24.648270079623508 -9.8223308251349515 0 -9.8223308251349515 1.2131524106314879 0 0 0 0 115.55309570131794 -273.46712325461112 0 -273.46712325461112 -897.80197510620201 0 0 0 0 96.290249327429308 -13.728067947332445 0 -13.728067947332445 -0.34508376335999413 0 0 0 0 57.665804313852277 34.633579438510196 0 34.633579438510196 -58.430809297924725 0 0 0 0 66.207925805807463 -40.290236515437755 0 -40.290236515437755 -392.71757051424026 0 0 0 0 80.496728764104773 -153.55842196016056 0 -153.55842196016056 -576.50895174023844 0 0 0 0 -29.608451718406286 -83.878003653542237 0 -83.878003653542237 -51.324586768075278 0 0 0 0 12.399888553802157 -117.87741093762543 0 -117.87741093762543 -448.96883840550436 0 0 0 0 17.691974782253965 -88.1373700795275 0 -88.1373700795275 -433.72082649403433 0 0 0 0 -159.99458066830357 -118.94246352548021 0 -118.94246352548021 -365.56688481687524 0 0 0 0 -127.67408235778566 -25.033487682068881 0 -25.033487682068881 -552.36239875222964 0 0 0 0 -37.854427787140594 -200.52768114726132 0 -200.52768114726132 -399.09132016018521 0 0 0 0 -79.528555071745359 -207.13686850902195 0 -207.13686850902195 -286.37301176391338 0 0 0 0 -3.6472872186786844 -263.24388150286359 0 -263.24388150286359 -245.0537683485818 0 0 0 0 42.017941521706234 -277.96509722731389 0 -277.96509722731389 -319.05278176628053 0 0 0 0 -28.824513274390483 -250.09569648393108 0 -250.09569648393108 -281.22777640593631 0 0 0 0 -8.0216633587551769 -209.73987878207208 0 -209.73987878207208 -272.19961639548546 0 0 0 0 -80.758502176369802 -270.79867399752811 0 -270.79867399752811 -234.97249521640333 0 0 0 0 -80.636821143296402 -174.56606968935876 0 -174.56606968935876 -364.76569148747512 0 0 0 0 -31.943038522673305 -265.76903952752582 0 -265.76903952752582 -322.89577594436514 0 0 0 0 8.0771448666346259 -224.0216871953171 0 -224.0216871953171 -416.46020017507453 0 0 0 0 17.664825832318456 -285.05405676309147 0 -285.05405676309147 -439.45131445433617 0 0 0 0 -4.3314356968621723 -28.549106034158285 0 -28.549106034158285 -688.20118233193352 0 0 0 0 10.783676846573144 -154.32814093143202 0 -154.32814093143202 -669.4600658489635 0 0 0 0 -82.484152274697408 -412.57704126000772 0 -412.57704126000772 -662.91612763581099 0 0 0 0 -152.7776750831581 -235.04343465493366 0 -235.04343465493366 -361.70214311497602 0 0 0 0 90.49485040219588 -230.45270143643211 0 -230.45270143643211 -634.53508124338214 0 0 0 0 152.63702186279625 -209.94241714357486 0 -209.94241714357486 -371.47662179806184 0 0 0 0 -87.965512976923492 -219.69771821646509 0 -219.69771821646509 -149.53328364784738 0 0 0 0 156.70330131690389 -304.95553096988033 0 -304.95553096988033 -132.0377323223347 0 0 0 0 488.60608531609614 112.4440708760294 0 112.4440708760294 -394.62367005823353 0 0 0 0 -34.57386113287248 204.93143140950383 0 204.93143140950383 -651.28583858470301 0 0 0 0 319.89472442139959 -59.748675883442957 0 -59.748675883442957 -453.97582861589672 0 0 0 0 -222.63391927789053 -356.22957488977499 0 -356.22957488977499 -478.39333034710126 0 0 0 0 -130.36855036242935 387.86982844768386 0 387.86982844768386 178.22630853331657 0 0 0 0 8.2108370722388955 -4.0112021968608857 0 -4.0112021968608857 0.33271518147038659 0 0 0 0 499.25030998285001 -21.785625523924864 0 -21.785625523924864 -990.37932743826809 0 0 0 0 571.73514892980165 -880.5396570088019 0 -880.5396570088019 -374.9123560186797 0 0 0 0 527.36137350374338 -256.17023909954014 0 -256.17023909954014 -677.0373590824347 0 0 0 0 548.1883924453432 -367.16234798290645 0 -367.16234798290645 -168.47807729753276 0 0 0 0 475.90920818767518 38.053656945788134 0 38.053656945788134 -288.52721011041376 0 0 0 0 500.07277526623147 149.1090690085839 0 149.1090690085839 -646.4443547620632 0 0 0 0 465.64916073425775 122.99547166410775 0 122.99547166410775 -333.21862991962189 0 0 0 0 363.163503388967 192.30901903725953 0 192.30901903725953 -40.104800516574869 0 0 0 0 277.74354121002762 103.84621772582113 0 103.84621772582113 -111.21398021423221 0 0 0 0 228.75188880880523 152.9461444858598 0 152.9461444858598 43.167519674676896 0 0 0 0 206.893339461707 4.0437238341273769 0 4.0437238341273769 -5.7073449535737382 0 0 0 0 283.94926116094939 19.220163091036738 0 19.220163091036738 -116.63118002887188 0 0 0 0 399.88077834653086 -16.678409639004258 0 -16.678409639004258 -325.90491161215323 0 0 0 0 66.86558829387377 175.33327005255651 0 175.33327005255651 -24.567557411089638 0 0 0 0 51.13150976248653 76.251105720230044 0 76.251105720230044 12.152019362602005 0 0 0 0 70.689783971925863 -0.17960880249893307 0 -0.17960880249893307 -333.76263715830441 0 0 0 0 18.765117032104172 69.022123802919054 0 69.022123802919054 -89.698636153820644 0 0 0 0 140.45501787542526 -189.96321447417358 0 -189.96321447417358 351.31330605805442 0 0 0 0 -90.763124458775565 130.93982570720573 0 130.93982570720573 -18.064899179030533 0 0 0 0 -184.1768626245721 517.45427307946557 0 517.45427307946557 80.949017125202317 0 0 0 0 241.3115564226373 178.72036179644419 0 178.72036179644419 -804.18386782392895 0 0 0 0 119.54582155782555 -423.54675059799376 0 -423.54675059799376 -1482.9212860328735 0 0 0 0 121.91496101342094 -20.895342910830752 0 -20.895342910830752 0.6498630020073547 0 0 0 0 128.05189938947296 208.71495204869274 0 208.71495204869274 -565.33477737082455 0 0 0 0 519.59978442078136 141.72733648764915 0 141.72733648764915 -1177.7404333035788 0 0 0 0 100.2940396615013 0.68790227304202745 0 0.68790227304202745 -604.90449102386867 0 0 0 0 222.36697609195107 243.22930509824226 0 243.22930509824226 -498.5753415037816 0 0 0 0 13.210358733020257 -14.761322027952133 0 -14.761322027952133 -222.84698354938723 0 0 0 0 159.42139261213197 125.17483834186356 0 125.17483834186356 -354.25944414530886 0 0 0 0 34.916047149919905 73.538999557964416 0 73.538999557964416 -344.94290068557837 0 0 0 0 188.86694300108502 89.381105537990265 0 89.381105537990265 -708.9330667677259 0 0 0 0 14.105208705121186 -167.87081560516685 0 -167.87081560516685 -756.8866064752383 0 0 0 0 -99.989729227381758 -125.74679428543459 0 -125.74679428543459 -656.14690584709024 0 0 0 0 122.95624186230998 -78.605433503558345 0 -78.605433503558345 -709.42792642282984 0 0 0 0 -73.449288727731982 -210.74438586102303 0 -210.74438586102303 -706.24419305460378 0 0 0 0 267.71843211037049 -166.2087363269261 0 -166.2087363269261 -1201.7273610120585 0 0 0 0 118.62309400647131 -18.805946750253113 0 -18.805946750253113 0.24507257154536877 0 0 0 0 279.00485027009199 180.73782618283519 0 180.73782618283519 -947.59332557968014 0 0 0 0 1898.2494591493924 848.11520658977872 0 848.11520658977872 140.91566646990452 0 0 0 0 28.625191135124567 -13.559991335995967 0 -13.559991335995967 1.9159871551872913 0 0 0 0 1890.280413385186 725.20840447123737 0 725.20840447123737 209.98556984829582 0 0 0 0 890.51733470117324 540.61957600938672 0 540.61957600938672 250.21271999360874 0 0 0 0 1498.595789900719 706.18893641197587 0 706.18893641197587 123.41370590075536 0 0 0 0 544.09137235224625 211.09070352289322 0 211.09070352289322 334.04659353368504 0 0 0 0 1305.77634566905 123.7483882864732 0 123.7483882864732 -2.2086188165161502 0 0 0 0 2407.8564989721453 102.40474300634986 0 102.40474300634986 -463.6749806536406 0 0 0 0 3501.4535735487152 760.64882779776292 0 760.64882779776292 -477.26925526620954 0 0 0 0 2324.3185204405236 -0.42787664786638402 0 -0.42787664786638402 -484.65023728604547 0 0 0 0 2424.5384742125534 -864.32878354760817 0 -864.32878354760817 -25.944393558651655 0 0 0 0 3491.3811140272264 -425.66027773977379 0 -425.66027773977379 -652.96713203951072 0 0 0 0 810.75630066999111 237.32872894561666 0 237.32872894561666 63.783463491383941 0 0 0 0 1081.3346610672888 -566.19935356974997 0 -566.19935356974997 105.83167666807714 0 0 0 0 255.21650695650169 161.64124715105396 0 161.64124715105396 229.0302310280947 0 0 0 0 716.95158857246861 100.01432206815213 0 100.01432206815213 199.2483401765906 0 0 0 0 633.99795032562179 84.960046886963468 0 84.960046886963468 66.540034183942765 0 0 0 0 526.99523569410667 247.78859047273011 0 247.78859047273011 156.69310871930711 0 0 0 0 1811.5461677323992 604.96587968718063 0 604.96587968718063 -95.194032005142844 0 0 0 0 1.7896508178108093 -1.0874623820631086 0 -1.0874623820631086 0.45209118234917489 0 0 0 0 10.688792049987548 -5.0893839371537979 0 -5.0893839371537979 1.7251422817792605 0 0 0 0 2229.3291293095172 417.32868989625769 0 417.32868989625769 24.039742549697472 0 0 0 0 2395.2894633618635 545.70111405784724 0 545.70111405784724 -7.6010510355035876 0 0 0 0 2436.1077225002591 120.3970340481256 0 120.3970340481256 6.9938198733748322 0 0 0 0 2227.632325414173 605.80781073325397 0 605.80781073325397 68.18001813666956 0 0 0 0 2825.0951887666379 537.20637117206138 0 537.20637117206138 -9.4071643851632416 0 0 0 0 2228.992857191437 500.94419061269826 0 500.94419061269826 223.23990081488819 0 0 0 0 2326.8194048146593 546.54843544220421 0 546.54843544220421 165.22974977125887 0 0 0 0 2322.9363883638407 632.50483990191424 0 632.50483990191424 142.60990916940386 0 0 0 0 2124.2112744648766 614.4582721682275 0 614.4582721682275 205.29220783233836 0 0 0 0 3.4683050903983315 0.62289283163029552 0 0.62289283163029552 -0.97000555251312837 0 0 0 0 2774.8136844372202 326.70142623158694 0 326.70142623158694 179.11155972082383 0 0 0 0 3334.8145463253459 844.93909440780874 0 844.93909440780874 176.37103504613742 0 0 0 0 574.14443145963014 351.72380238050937 0 351.72380238050937 82.325217401568921 0 0 0 0 628.33588928108657 -9.7235566750291014 0 -9.7235566750291014 9.234090310528245 0 0 0 0 34.561314781410658 -17.399464172422263 0 -17.399464172422263 2.1511611213670556 0 0 0 0 98.415734414455073 85.653867651992869 0 85.653867651992869 -18.565058006631602 0 0 0 0 86.036417380812054 29.696018751899658 0 29.696018751899658 -93.725154754308051 0 0 0 0 4.594180024903725 10.442888937479722 0 10.442888937479722 0.45508549091463069 0 0 0 0 2230.6822855855935 883.43572031388021 0 883.43572031388021 -56.041599386443522 0 0 0 0 2714.9628473179109 367.52830235175458 0 367.52830235175458 -39.83944868390563 0 0 0 0 2558.79316621826 776.83340687503039 0 776.83340687503039 -21.576041510526011 0 0 0 0 2825.3342144022317 531.08696938766866 0 531.08696938766866 -22.087890751423856 0 0 0 0 1490.8437746185518 1410.9324603398402 0 1410.9324603398402 586.51320854781443 0 0 0 0 2035.0151898306067 758.20942679926407 0 758.20942679926407 152.06317306796586 0 0 0 0 886.42274149500736 557.75049404338438 0 557.75049404338438 387.33667448951786 0 0 0 0 1151.7304041075713 765.30030086100885 0 765.30030086100885 407.68700733912783 0 0 0 0 1364.2182981962615 505.04546649840006 0 505.04546649840006 218.79172750834041 0 0 0 0 1820.9687488357449 828.92578768725321 0 828.92578768725321 216.68753828489463 0 0 0 0 2091.6653743636853 736.61767012999405 0 736.61767012999405 159.27570192602457 0 0 0 0 1956.8034015985613 549.95394278979177 0 549.95394278979177 234.19861741079609 0 0 0 0 1801.901124148113 598.40975372285334 0 598.40975372285334 135.0935082102325 0 0 0 0 1812.418201381417 640.19926471903136 0 640.19926471903136 73.68298641278335 0 0 0 0 1521.984061024541 693.96255859391454 0 693.96255859391454 153.54205366651018 0 0 0 0 1801.7288458406329 426.43442527985076 0 426.43442527985076 68.461342762740927 0 0 0 0 1211.6355641159971 557.90826845027982 0 557.90826845027982 29.948749275067364 0 0 0 0 1407.3291144877476 536.39252868164624 0 536.39252868164624 -5.9259897811885622 0 0 0 0 1068.9463871296903 677.52344979115253 0 677.52344979115253 291.82320765730526 0 0 0 0 589.26756789661886 326.94186206125272 0 326.94186206125272 112.27953246614564 0 0 0 0 1208.7967097742317 507.99779689976276 0 507.99779689976276 27.625507113730279 0 0 0 0 564.96873770477396 362.46319657901728 0 362.46319657901728 154.401970930293 0 0 0 0 499.91740530596144 170.99314688531922 0 170.99314688531922 91.052286287876825 0 0 0 0 4.7763849085966683 0.14486242557193663 0 0.14486242557193663 -1.31370734258206 0 0 0 0 122.32843410944406 281.20147229916597 0 281.20147229916597 324.27895794572828 0 0 0 0 493.05650922311179 407.92212407629563 0 407.92212407629563 298.18257232453186 0 0 0 0 3.7789117310536255 0.88835162827116676 0 0.88835162827116676 -1.4814985598263837 0 0 0 0 167.27449541138776 306.45716562895046 0 306.45716562895046 203.63617345600528 0 0 0 0 55.481231462035794 46.033650357626129 0 46.033650357626129 259.76354208240707 0 0 0 0 129.95463502807979 128.64107340709472 0 128.64107340709472 -34.745732785042492 0 0 0 0 157.52621889615693 50.599137242034431 0 50.599137242034431 -364.91521375228149 0 0 0 0 58.594933156062325 -24.683971681332878 0 -24.683971681332878 -94.509961848425291 0 0 0 0 -76.569883846765151 58.633014367614862 0 58.633014367614862 171.34975403850649 0 0 0 0 165.25669126541106 295.52583077888085 0 295.52583077888085 -752.6030448032634 0 0 0 0 49.036160729383894 19.23255501924131 0 19.23255501924131 5.9830094375854141 0 0 0 0 -72.358841584893526 185.29697921765592 0 185.29697921765592 -357.0432005012201 0 0 0 0 65.429243965809292 16.528105097627304 0 16.528105097627304 -384.73768486196559 0 0 0 0 -1.1648658753256314 128.32396361438146 0 128.32396361438146 3.6952781280088516 0 0 0 0 59.021251368272118 19.443463905729075 0 19.443463905729075 6.7051467812788363 0 0 0 0 47.627905851481046 28.505390884611074 0 28.505390884611074 -28.495271075826167 0 0 0 0 -3.6258859420195222 -6.2286875887916722 0 -6.2286875887916722 215.79443159951347 0 0 0 0 -74.558545198138745 47.59344344643398 0 47.59344344643398 219.77648657528408 0 0 0 0 -0.1006095496314714 -0.2105356803350027 0 -0.2105356803350027 0.96392628941865477 0 0 0 0 -0.37444809695938375 -0.053754159646879351 0 -0.053754159646879351 0.85016430555192679 0 0 0 0 -53.650461950026511 5.7330066299595046 0 5.7330066299595046 236.58146659255272 0 0 0 0 -78.057402978270147 -55.740156044707604 0 -55.740156044707604 123.52108315517557 0 0 0 0 -0.93642779310539481 330.41262684225489 0 330.41262684225489 -238.00507743907718 0 0 0 0 2.7745494517876068 -26.091349177669713 0 -26.091349177669713 -34.616920990518565 0 0 0 0 -245.23138488715995 188.22896935131837 0 188.22896935131837 251.80573606567333 0 0 0 0 263.09347868441728 -226.80133871352263 0 -226.80133871352263 298.61805068228341 0 0 0 0 30.444096878425626 93.657984086082308 0 93.657984086082308 109.86518243387263 0 0 0 0 635.35422609594389 58.047274962066297 0 58.047274962066297 176.0766933891714 0 0 0 0 558.17291652839776 -105.93571566428329 0 -105.93571566428329 86.113588168310741 0 0 0 0 200.56799093417794 41.329912181034473 0 41.329912181034473 156.33938902026784 0 0 0 0 114.4563658654879 -65.982316018739596 0 -65.982316018739596 209.93954053833875 0 0 0 0 1204.8900362414824 -64.670924840651082 0 -64.670924840651082 11.68979107147976 0 0 0 0 708.64903774819686 115.65664831051276 0 115.65664831051276 190.31503787068124 0 0 0 0 382.87550249007836 -607.51889965796352 0 -607.51889965796352 276.15906665587181 0 0 0 0 727.06333784245362 -174.44935868516188 0 -174.44935868516188 91.955563893165504 0 0 0 0 1790.5623736394191 18.33234688925495 0 18.33234688925495 -12.73361836488732 0 0 0 0 21.893534459810084 8.4160469489427321 0 8.4160469489427321 3.3140874592314447 0 0 0 0 2265.0800963204128 -553.58132521956895 0 -553.58132521956895 -45.536947233970523 0 0 0 0 102.90380524770467 745.04836873668444 0 745.04836873668444 619.07415749809797 0 0 0 0 37.317751192393189 -202.99616216509685 0 -202.99616216509685 -424.18666424790956 0 0 0 0 1320.3062865373795 1668.5077854243955 0 1668.5077854243955 717.11168679265711 0 0 0 0 3061.5098905123705 180.86337241842557 0 180.86337241842557 54.063167795341769 0 0 0 0 3718.4641855067675 1055.5756586769255 0 1055.5756586769255 -215.0374371834198 0 0 0 0 2913.0985128261891 1014.326309611808 0 1014.326309611808 1414.3931141395983 0 0 0 0 0.47753372187542809 4.2977764523111759 0 4.2977764523111759 1.8770086809851572 0 0 0 0 -250.28089670210011 132.27847383414658 0 132.27847383414658 76.098208508142534 0 0 0 0 2954.0213080490576 1647.1832268445883 0 1647.1832268445883 660.01583118527333 0 0 0 0 3496.2804935793465 638.10693462370818 0 638.10693462370818 -151.12101852741671 0 0 0 0 1722.5673770566518 141.53446559197982 0 141.53446559197982 -145.19900455130778 0 0 0 0 2482.297438503334 790.29253186900928 0 790.29253186900928 81.345999060129202 0 0 0 0 1736.8925386605151 426.93720761200456 0 426.93720761200456 -8.9244766412271019 0 0 0 0 1461.1896146610516 463.23090366394592 0 463.23090366394592 218.65933781814181 0 0 0 0 2303.4837339872029 551.51978580427044 0 551.51978580427044 60.908210067635316 0 0 0 0 1979.5494995337867 780.00787510229975 0 780.00787510229975 175.52537684500794 0 0 0 0 2209.9546320282898 540.28224120291168 0 540.28224120291168 417.38997293363957 0 0 0 0 1887.4700728780954 987.74242062208884 0 987.74242062208884 290.84044719003305 0 0 0 0 1778.4685753221274 815.27649154021367 0 815.27649154021367 468.44788734163944 0 0 0 0 2397.8952741772318 571.86310576922835 0 571.86310576922835 161.1224363590643 0 0 0 0 2793.9704694697175 -170.76799048885584 0 -170.76799048885584 -3.4347509992299408 0 0 0 0 3491.7328746680978 -418.68172364594602 0 -418.68172364594602 65.85510109517196 0 0 0 0 -341.03681001751102 -531.90707012940538 0 -531.90707012940538 544.44937543240906 0 0 0 0 1478.326670752369 -871.86984618809208 0 -871.86984618809208 589.20810219713564 0 0 0 0 1233.1242935124428 961.72146211990412 0 961.72146211990412 654.05759470670068 0 0 0 0 47.102831348485779 516.05234246491455 0 516.05234246491455 501.79813387134976 0 0 0 0 822.82126139278625 126.553511123769 0 126.553511123769 -395.86907363111413 0 0 0 0 118.72828289119798 -222.56083023951052 0 -222.56083023951052 -467.86188651089151 0 0 0 0 3496.0818652099156 1956.3673359196869 0 1956.3673359196869 884.92384956595777 0 0 0 0 13.547638528366349 -4.1525963067710805 0 -4.1525963067710805 1.7899719591329584 0 0 0 0 3500.0468003288534 -54.72257859846016 0 -54.72257859846016 -49.221110595195519 0 0 0 0 3913.6238229650953 753.36100536197921 0 753.36100536197921 542.37080648717313 0 0 0 0 3498.6534339508489 129.28254529771002 0 129.28254529771002 1244.7483661115054 0 0 0 0 3967.2308159735394 368.5310020154227 0 368.5310020154227 -328.68768970540145 0 0 0 0 3419.4269161479024 -319.29117527936586 0 -319.29117527936586 710.93317882164115 0 0 0 0 3502.4610095188345 62.775184840828103 0 62.775184840828103 -121.00689742234293 0 0 0 0 2298.9807080713435 540.43998132590184 0 540.43998132590184 231.33442267911425 0 0 0 0 2902.297386615719 1585.8558510286925 0 1585.8558510286925 -125.40346157115826 0 0 0 0 917.05179270860936 492.04158422967623 0 492.04158422967623 321.74041211456313 0 0 0 0 1624.919193293339 806.19372164426431 0 806.19372164426431 308.03282395805775 0 0 0 0 1060.3412012998597 141.88096000993124 0 141.88096000993124 104.17417752348103 0 0 0 0 -354.09960483353279 -112.34609159466709 0 -112.34609159466709 330.06165669718649 0 0 0 0 917.14362284389063 472.31437160758151 0 472.31437160758151 370.34677350198876 0 0 0 0 480.84766174450669 -427.31465664212419 0 -427.31465664212419 -517.25324337289635 0 0 0 0 378.13071587419472 1726.3872945330838 0 1726.3872945330838 240.68157493331023 0 0 0 0 25.681863133580869 5.669770194203327 0 5.669770194203327 1.3873249897116535 0 0 0 0 3702.542422153193 -1652.5341472941188 0 -1652.5341472941188 797.15543095368173 0 0 0 0 768.67846673532949 -441.09624084907063 0 -441.09624084907063 441.49582269220332 0 0 0 0 60.020492228488663 11.440833283859376 0 11.440833283859376 -1.2285841120967702 0 0 0 0 833.81205300993952 -329.59740414741105 0 -329.59740414741105 145.68123850889128 0 0 0 0 183.94695055024386 -145.4235792734257 0 -145.4235792734257 198.8920730127233 0 0 0 0 188.83833744538424 56.393679350350681 0 56.393679350350681 -949.47708135988739 0 0 0 0 -35.126368138309772 14.965499548430046 0 14.965499548430046 53.860969263470025 0 0 0 0 229.60111857824086 -344.08001180287602 0 -344.08001180287602 -825.84099325848717 0 0 0 0 218.07414357073503 77.696554685343159 0 77.696554685343159 -2.8317502706042319 0 0 0 0 65.619624547111385 11.04467145417556 0 11.04467145417556 -2.6490013641269545 0 0 0 0 616.89594831602153 -843.76208628465201 0 -843.76208628465201 -252.75143073453637 0 0 0 0 -176.15973929650136 -342.23281438652975 0 -342.23281438652975 21.522171602076469 0 0 0 0 39.591466922798645 -434.24798070910208 0 -434.24798070910208 -37.116456534480221 0 0 0 0 164.39543843602223 992.46371562970342 0 992.46371562970342 -1115.6552979270509 0 0 0 0 597.91911738779891 -94.761929081509436 0 -94.761929081509436 -13.461608900882197 0 0 0 0 576.34833892954339 -141.37122464698302 0 -141.37122464698302 69.033316397096542 0 0 0 0 907.55175320192211 195.06279552463729 0 195.06279552463729 183.29751376840886 0 0 0 0 588.20337260782981 -109.89324148915244 0 -109.89324148915244 134.7827446250709 0 0 0 0 142.8319297227572 116.32109035558346 0 116.32109035558346 0.98130880731883963 0 0 0 0 557.00651624859893 -31.255604261536632 0 -31.255604261536632 24.075488348757744 0 0 0 0 7.7250049848046416 -5.8374506285671401 0 -5.8374506285671401 3.7962892671305219 0 0 0 0 596.98092646514624 -82.044037862167997 0 -82.044037862167997 -155.89324907600326 0 0 0 0 -127.73486835931544 -98.330692805026445 0 -98.330692805026445 154.64137606183942 0 0 0 0 -31.535037999549786 -214.93614840696165 0 -214.93614840696165 -78.882087070104149 0 0 0 0 57.87960289073817 13.289341834949767 0 13.289341834949767 113.13122713008306 0 0 0 0 21.07043793904279 -13.746576999498956 0 -13.746576999498956 8.159116391598161 0 0 0 0 -84.004295789556636 -341.65094439542167 0 -341.65094439542167 -369.57458488174962 0 0 0 0 121.87627706912826 -175.19762133622544 0 -175.19762133622544 -349.72263836454874 0 0 0 0 -31.662387330427009 -73.542383248932765 0 -73.542383248932765 -52.052351008920141 0 0 0 0 14.623216310290445 -119.18386485982489 0 -119.18386485982489 -33.2484977693546 0 0 0 0 2.8950158570901579 0.62404390998756298 0 0.62404390998756298 -0.9125803240400614 0 0 0 0 21.021667985769454 -132.86189148986051 0 -132.86189148986051 -40.759725406187485 0 0 0 0 -211.18821654921339 -188.20034973486668 0 -188.20034973486668 -11.303994466011545 0 0 0 0 -186.80776461679125 -319.32973490417601 0 -319.32973490417601 -24.161901913005295 0 0 0 0 4.666996143236247 -44.575437768350184 0 -44.575437768350184 -99.610088656077323 0 0 0 0 -30.159385419137834 -262.5973750921587 0 -262.5973750921587 -366.06379625938592 0 0 0 0 -11.479823439010943 19.440255339548457 0 19.440255339548457 -295.61426811231507 0 0 0 0 121.91559570137906 -122.53384621725223 0 -122.53384621725223 -171.3944945491512 0 0 0 0 95.75437310907455 -2.1064777605510501 0 -2.1064777605510501 -35.946383995392353 0 0 0 0 132.70852461804498 -185.49687085807801 0 -185.49687085807801 35.181368833233108 0 0 0 0 102.65000022287131 -18.082914251204556 0 -18.082914251204556 -137.48212076507411 0 0 0 0 82.594763796349156 18.895555408432827 0 18.895555408432827 -5.682541523712521 0 0 0 0 69.388395842756395 0.44473308523982014 0 0.44473308523982014 -8.4968446623071969 0 0 0 0 88.198500255175503 -8.0003508691836647 0 -8.0003508691836647 -10.999392437189536 0 0 0 0 94.814977369392182 18.865979678115337 0 18.865979678115337 -62.857592666682748 0 0 0 0 82.236969229078568 -35.112348510667516 0 -35.112348510667516 -39.854895712989901 0 0 0 0 154.16273576075855 21.133564607256659 0 21.133564607256659 -85.133508829826155 0 0 0 0 91.406013414698464 -104.2878196646684 0 -104.2878196646684 -182.78900596671701 0 0 0 0 85.009993558967835 -108.48430169912308 0 -108.48430169912308 -154.31557680571677 0 0 0 0 95.630471552060044 -110.55627573619222 0 -110.55627573619222 -186.01217159706289 0 0 0 0 121.94835880158462 -8.5696852847991067 0 -8.5696852847991067 -246.00547275173994 0 0 0 0 157.8393677467393 -35.368770924378168 0 -35.368770924378168 -266.76277093609883 0 0 0 0 329.9178372588849 -47.151459323417384 0 -47.151459323417384 -253.83900062696739 0 0 0 0 202.26186855053311 -111.94640707717986 0 -111.94640707717986 -137.98036500438866 0 0 0 0 423.14216775751265 -121.42914930401002 0 -121.42914930401002 -137.5817600178425 0 0 0 0 397.80254632034394 -110.57139884809646 0 -110.57139884809646 3.8589291403980042 0 0 0 0 105.07383142641993 -125.52122786946984 0 -125.52122786946984 167.2433535836376 0 0 0 0 275.59459479251018 -277.12681233083413 0 -277.12681233083413 -6.3150809822436713 0 0 0 0 73.739777536862675 -173.2994555244486 0 -173.2994555244486 -57.84997518086584 0 0 0 0 228.34058725571776 -176.03243483035828 0 -176.03243483035828 -155.88171694111679 0 0 0 0 76.445460160618495 -188.47756311073368 0 -188.47756311073368 -119.54853907871166 0 0 0 0 66.752292158301316 -147.29477616675979 0 -147.29477616675979 -126.40516772827323 0 0 0 0 80.531332635993749 -204.05669121203778 0 -204.05669121203778 -23.478695042178515 0 0 0 0 -126.02212527067604 -138.82355962884412 0 -138.82355962884412 32.749270082726525 0 0 0 0 -198.56484997549342 -295.89061843754138 0 -295.89061843754138 -76.065275014713279 0 0 0 0 37.005562275955867 -50.249780219429894 0 -50.249780219429894 -5.5275659126424124 0 0 0 0 323.97922480753459 -645.3569533536496 0 -645.3569533536496 759.34878483211469 0 0 0 0 1320.7382750471415 530.49288854759106 0 530.49288854759106 -304.3708129971269 0 0 0 0 -2.3641546569309 -9.2453855704663592 0 -9.2453855704663592 0.48851007440175687 0 0 0 0 102.2307165114139 -155.44375955360772 0 -155.44375955360772 111.1753553892064 0 0 0 0 48.030499024421992 -40.890702541208363 0 -40.890702541208363 -13.712833764367378 0 0 0 0 -16.103323983097653 -147.27187171176411 0 -147.27187171176411 -128.94599590532107 0 0 0 0 -146.76651148645897 -95.317329885614768 0 -95.317329885614768 47.277580072718308 0 0 0 0 14.576938205921184 2.7716839738873418 0 2.7716839738873418 -0.72852096115833787 0 0 0 0 865.90831702986452 -441.64765674887826 0 -441.64765674887826 79.252278300104734 0 0 0 0 371.44493274307206 9.7076129520341397 0 9.7076129520341397 -98.488672718994778 0 0 0 0 2282.384994509016 -907.45217289592415 0 -907.45217289592415 58.253682000176383 0 0 0 0 987.35094984803982 -328.9607888789775 0 -328.9607888789775 -123.93995456956941 0 0 0 0 2253.4972414442091 -206.51183589866577 0 -206.51183589866577 -498.22780020567336 0 0 0 0 1655.6281426486826 -450.7798835773724 0 -450.7798835773724 -436.52344754841124 0 0 0 0 1029.877195569592 -423.86491885919583 0 -423.86491885919583 -255.86285803282385 0 0 0 0 1143.0052456480771 -1139.772674075421 0 -1139.772674075421 -1346.1105940691934 0 0 0 0 1693.9908533404312 1696.5193682238378 0 1696.5193682238378 275.63785325579192 0 0 0 0 18.230266262026497 -2.1863004403764208 0 -2.1863004403764208 -1.8909699774773419 0 0 0 0 2432.273389012149 885.24501614412429 0 885.24501614412429 -561.63974453336459 0 0 0 0 132.94826529826878 145.28370806093915 0 145.28370806093915 -417.20815343326819 0 0 0 0 35.917419831060904 -6.607896435099744 0 -6.607896435099744 -2.3884375492292333 0 0 0 0 1554.2224050530535 126.99689536361097 0 126.99689536361097 -1153.1952802406936 0 0 0 0 1419.0448307499164 602.58156181226104 0 602.58156181226104 -790.1158280244689 0 0 0 0 3494.3101319789416 2076.812143111164 0 2076.812143111164 113.41129840514908 0 0 0 0 3500.4063196378302 1007.0936599682102 0 1007.0936599682102 -846.67267344200218 0 0 0 0 2873.2306857013309 431.9149606260994 0 431.9149606260994 -419.00426616531894 0 0 0 0 1906.1669765145855 236.70763497557482 0 236.70763497557482 -457.37954867539707 0 0 0 0 1985.2615856666548 -219.0178767341298 0 -219.0178767341298 -193.97797964097299 0 0 0 0 -1.2032365281142647 4.5317376537301151 0 4.5317376537301151 6.8415384283678975 0 0 0 0 -100.26614444600818 40.535019389786612 0 40.535019389786612 96.184334324429074 0 0 0 0 4.063820531338024 199.08364863460702 0 199.08364863460702 336.95240372672561 0 0 0 0 1852.1137305464927 236.92348639748525 0 236.92348639748525 -216.17733014401529 0 0 0 0 1.0935779426235968 209.36067762869698 0 209.36067762869698 365.14650335335364 0 0 0 0 1007.6451489243318 581.36705325291587 0 581.36705325291587 71.119865729640878 0 0 0 0 876.31217353152761 30.352437423917536 0 30.352437423917536 136.09692022853596 0 0 0 0 1127.296690479885 79.203009861780629 0 79.203009861780629 105.89102501191701 0 0 0 0 883.55143890782665 58.841147844790498 0 58.841147844790498 74.682784305972746 0 0 0 0 691.50579299371384 189.84426044856536 0 189.84426044856536 106.25477947454522 0 0 0 0 300.14713849400687 -8.2301063372865428 0 -8.2301063372865428 151.26492540506024 0 0 0 0 733.44126863017846 -38.709582989108185 0 -38.709582989108185 211.73866873565748 0 0 0 0 1093.5627336128164 -65.126922418352251 0 -65.126922418352251 -56.647598306360123 0 0 0 0 2.4139159001397275 -66.304883436542468 0 -66.304883436542468 -48.297381272555867 0 0 0 0 1219.0377736522678 75.587324961973081 0 75.587324961973081 34.377579007721579 0 0 0 0 1332.1338148603099 -275.03007870497095 0 -275.03007870497095 276.01322027402421 0 0 0 0 1237.9202184104688 -44.617061205830851 0 -44.617061205830851 401.77651872521892 0 0 0 0 1361.2347966390516 -216.46397445141974 0 -216.46397445141974 261.29307631793563 0 0 0 0 1332.1338148602881 -275.03007870496094 0 -275.03007870496094 276.01322027402193 0 0 0 0 1332.1338148602517 -275.03007870496731 0 -275.03007870496731 276.01322027404785 0 0 0 0 33.659568633636809 36.934443139851282 0 36.934443139851282 -9.9614315313156112 0 0 0 0 26.141038537505665 45.984236643958866 0 45.984236643958866 -5.6827194808129207 0 0 0 0 -6.1459719859221238 10.517291969214803 0 10.517291969214803 -7.879647882783388 0 0 0 0 73.982180681490718 46.33017623907017 0 46.33017623907017 5.1390266351993432 0 0 0 0 25.41256455086841 36.881646784935583 0 36.881646784935583 2.2478142306316613 0 0 0 0 44.56741802930992 19.279112259523117 0 19.279112259523117 0.56632653830502022 0 0 0 0 49.696491480608529 22.933157195263448 0 22.933157195263448 0.76103823036271478 0 0 0 0 44.584049981949647 19.271089691803354 0 19.271089691803354 19.934933608445135 0 0 0 0 48.267829480531873 30.532224551997842 0 30.532224551997842 24.321131852561848 0 0 0 0 45.48209820316697 14.862465914161476 0 14.862465914161476 13.37729863808795 0 0 0 0 54.533160784565553 29.001799177930934 0 29.001799177930934 3.6770756523710588 0 0 0 0 178.85202743129139 112.5362665773506 0 112.5362665773506 82.767731182682382 0 0 0 0 117.5803802859682 175.07758516096567 0 175.07758516096567 73.363379566355889 0 0 0 0 92.148007495110505 158.94165133075467 0 158.94165133075467 -52.220286806599233 0 0 0 0 64.669081639587603 41.459986818956622 0 41.459986818956622 40.271835844274847 0 0 0 0 -0.043836681530638799 0.68691563278619938 0 0.68691563278619938 -0.92469890531752341 0 0 0 0 -5.7611254974536621 5.9405503342381145 0 5.9405503342381145 -6.197546979567659 0 0 0 0 31.922366393597258 185.2861170936294 0 185.2861170936294 255.22011399798339 0 0 0 0 132.35427282288856 36.592259740463078 0 36.592259740463078 -92.31609176474376 0 0 0 0 144.10648226599915 87.892049791166755 0 87.892049791166755 306.44110600594831 0 0 0 0 -16.632868640789184 38.774674670380023 0 38.774674670380023 250.72592932242151 0 0 0 0 166.06947386297179 223.29794647524795 0 223.29794647524795 194.31568779191275 0 0 0 0 197.29096815217963 184.26020765666794 0 184.26020765666794 175.25568245028353 0 0 0 0 367.96758137748475 364.8960144851344 0 364.8960144851344 333.21941286677065 0 0 0 0 34.429995791550027 134.75431533703068 0 134.75431533703068 160.31946816750224 0 0 0 0 34.670260447284818 -3.1937579987607023 0 -3.1937579987607023 74.53499339434893 0 0 0 0 73.082654044639639 150.3036484593631 0 150.3036484593631 151.32274528970902 0 0 0 0 45.881420510129828 150.26677462612179 0 150.26677462612179 166.08476946580049 0 0 0 0 51.941302074021223 133.28975938257599 0 133.28975938257599 142.99844975283577 0 0 0 0 101.64955397587437 132.65133194772636 0 132.65133194772636 78.457578210245629 0 0 0 0 86.902621568093309 156.84797379350448 0 156.84797379350448 127.71975538439528 0 0 0 0 201.8642497600581 245.60914908041485 0 245.60914908041485 194.18528353991405 0 0 0 0 70.274373485471187 151.75557894221151 0 151.75557894221151 173.03401281712286 0 0 0 0 193.31756834472981 202.55106888348519 0 202.55106888348519 131.75732180969453 0 0 0 0 425.6740889665125 257.17602430834768 0 257.17602430834768 -25.454243419074601 0 0 0 0 402.34658352624683 185.14733973517423 0 185.14733973517423 25.169679977429951 0 0 0 0 555.94715876243754 393.00241402468191 0 393.00241402468191 235.92807934456278 0 0 0 0 484.18176106758301 20.860676339266661 0 20.860676339266661 -211.32874734890538 0 0 0 0 529.12340883877914 292.53745017413985 0 292.53745017413985 -118.10975079198033 0 0 0 0 494.89539947769254 111.40527444126133 0 111.40527444126133 357.4579267484196 0 0 0 0 1170.6243122673795 126.37176914304086 0 126.37176914304086 180.31981020121475 0 0 0 0 423.96856586468857 470.55356115222003 0 470.55356115222003 384.03865143493067 0 0 0 0 2.9190055149959342 -2.7782131794182501 0 -2.7782131794182501 3.9290338885353648 0 0 0 0 56.971466105987929 52.991579088370713 0 52.991579088370713 451.77607427775996 0 0 0 0 891.46045421510462 -225.52117785944392 0 -225.52117785944392 237.8126692402443 0 0 0 0 594.55842203650082 -411.75948955803574 0 -411.75948955803574 167.56904078370735 0 0 0 0 974.49224851988401 216.26322566986528 0 216.26322566986528 -158.59188969361549 0 0 0 0 69.300464487616409 -118.12132784756523 0 -118.12132784756523 3.5241464040259416 0 0 0 0 120.20004308882199 -203.69186285252442 0 -203.69186285252442 -149.89481430397245 0 0 0 0 -26.260678079474019 -28.265196206055407 0 -28.265196206055407 143.15026388099204 0 0 0 0 -75.800594467871633 -271.00752037568191 0 -271.00752037568191 39.350869962632714 0 0 0 0 -18.96541415766842 -180.91409217884757 0 -180.91409217884757 -187.28548109119174 0 0 0 0 -62.24493455000993 -244.28289645769087 0 -244.28289645769087 -167.59092845198211 0 0 0 0 -27.76518097405642 -124.08276079408324 0 -124.08276079408324 -91.647020310811513 0 0 0 0 -65.527293529165036 -132.73093282256878 0 -132.73093282256878 -58.060482444907393 0 0 0 0 -26.283743841778687 -35.31258213479822 0 -35.31258213479822 31.965158183233143 0 0 0 0 -42.095164912418113 -95.94833231782161 0 -95.94833231782161 -64.831168675543267 0 0 0 0 26.142001315285597 -3.7261756057969251 0 -3.7261756057969251 -6.2057191283336124 0 0 0 0 9.8961248066061671 7.5069238338720652 0 7.5069238338720652 97.194286137635345 0 0 0 0 53.700475957120943 -0.13497446597091312 0 -0.13497446597091312 41.604973258091604 0 0 0 0 -20.208895998548542 -213.27700560540052 0 -213.27700560540052 -362.3342442223784 0 0 0 0 -132.17968089871692 -124.23642130814034 0 -124.23642130814034 -225.71856390533594 0 0 0 0 -39.349266078068467 -108.79885025120984 0 -108.79885025120984 -335.92039525043401 0 0 0 0 -38.200973337705364 -162.79859830135183 0 -162.79859830135183 -236.75328103452648 0 0 0 0 -34.011291146831354 -117.85722200823193 0 -117.85722200823193 -196.06242457962207 0 0 0 0 -33.031738461741043 -193.14092087493373 0 -193.14092087493373 -250.95378690479174 0 0 0 0 -59.021632303827573 -184.94469645894378 0 -184.94469645894378 -251.83895818017481 0 0 0 0 -10.079056076866436 -223.12085404973385 0 -223.12085404973385 -254.86233296736464 0 0 0 0 -31.758039051048399 -158.8446575679809 0 -158.8446575679809 -212.14365476576631 0 0 0 0 -43.020869986181424 -173.55275092101249 0 -173.55275092101249 -174.13811395768062 0 0 0 0 -26.041318618914374 -88.11989570650303 0 -88.11989570650303 -101.51202822258028 0 0 0 0 5.0144216112967115 -10.517890325884764 0 -10.517890325884764 -22.5306144115508 0 0 0 0 -26.022107518219855 -64.804031946958958 0 -64.804031946958958 -37.777422957939962 0 0 0 0 -18.828936582536699 -44.302413160264678 0 -44.302413160264678 -81.718182713669194 0 0 0 0 -32.821839206826098 -134.46007968571223 0 -134.46007968571223 -169.0066266310896 0 0 0 0 -51.852372868568636 -74.07902418680078 0 -74.07902418680078 -181.06402568911972 0 0 0 0 -45.378443517089181 -58.166955941167885 0 -58.166955941167885 -45.761951089397826 0 0 0 0 -16.780765566578339 -103.33377306868783 0 -103.33377306868783 -158.51122796233039 0 0 0 0 -5.288907215162908 -89.20900828237518 0 -89.20900828237518 -197.01520704756115 0 0 0 0 -50.330832106701564 -159.09109917504429 0 -159.09109917504429 -217.33422037841137 0 0 0 0 46.374426005855639 -38.745739593174619 0 -38.745739593174619 -50.791917944424263 0 0 0 0 -10.406328735858551 -12.042052162775292 0 -12.042052162775292 51.590242387272212 0 0 0 0 26.316623521155634 -1.0573889155156166 0 -1.0573889155156166 -19.759865341515706 0 0 0 0 11.122158609921826 -11.571512023212279 0 -11.571512023212279 34.515789347472946 0 0 0 0 35.681983189409948 -26.402339994628846 0 -26.402339994628846 71.18933752161891 0 0 0 0 11.800166403176263 -36.931362728964814 0 -36.931362728964814 68.194466455145971 0 0 0 0 45.833982441858097 11.016552814612794 0 11.016552814612794 45.321558275077223 0 0 0 0 95.710329653331428 -15.513025966291195 0 -15.513025966291195 52.960779769125111 0 0 0 0 39.077666082426731 -34.134356193711255 0 -34.134356193711255 85.796102466005095 0 0 0 0 10.297969807264266 0.94873246531898303 0 0.94873246531898303 -0.77800420024124062 0 0 0 0 105.59598110378192 -16.521620620379792 0 -16.521620620379792 -15.832877511221113 0 0 0 0 2.3914830668445148 -6.9321541380762888 0 -6.9321541380762888 9.3892506505758107 0 0 0 0 -21.366506405491236 -186.89305073515084 0 -186.89305073515084 97.829747845139536 0 0 0 0 59.664234302250406 84.576703020378318 0 84.576703020378318 78.112567318848136 0 0 0 0 47.073476241504068 28.930333367519779 0 28.930333367519779 42.574619196921958 0 0 0 0 -8.5108316858404578 -17.829004307707237 0 -17.829004307707237 28.075965880524564 0 0 0 0 39.403164602474135 37.461078416384225 0 37.461078416384225 33.540185132045394 0 0 0 0 120.75471794242912 14.09338356336275 0 14.09338356336275 101.77601949743803 0 0 0 0 16.966571916595697 1.4854345722072377 0 1.4854345722072377 13.734863032258307 0 0 0 0 91.089266097409563 53.124763715805273 0 53.124763715805273 54.286842053069478 0 0 0 0 150.26503868431246 180.28472046300203 0 180.28472046300203 85.951348093939259 0 0 0 0 -38.940175724263099 113.11616288252935 0 113.11616288252935 119.88071344430728 0 0 0 0 187.4279036618891 164.26869447748902 0 164.26869447748902 3.9745264886751102 0 0 0 0 54.528475546441769 77.87882264705047 0 77.87882264705047 -41.057543405226198 0 0 0 0 -47.134453173909947 44.524708482352032 0 44.524708482352032 44.53017900198779 0 0 0 0 52.339147506582549 83.531689934361253 0 83.531689934361253 30.811971985982836 0 0 0 0 73.029486951790147 40.553267271635178 0 40.553267271635178 22.706235673108267 0 0 0 0 174.82869438869784 139.68576827977631 0 139.68576827977631 -84.482016434092202 0 0 0 0 254.55876649582206 139.44873338120397 0 139.44873338120397 -226.18992262065876 0 0 0 0 19.376932143331942 82.223647011117464 0 82.223647011117464 -58.962100660432043 0 0 0 0 104.33429049070401 49.358931180346474 0 49.358931180346474 -24.900675715501222 0 0 0 0 -28.047128681841969 122.9414714249242 0 122.9414714249242 -48.471986960336835 0 0 0 0 53.777978712733116 36.037049798348839 0 36.037049798348839 15.163747855857928 0 0 0 0 14.096287761006156 7.2956759256465773 0 7.2956759256465773 -1.3029602176183812 0 0 0 0 56.801543914113672 4.7716815454273629 0 4.7716815454273629 1.6415210500106081 0 0 0 0 66.013490820764673 14.044227031449809 0 14.044227031449809 1.3193828673508889 0 0 0 0 58.925979348499141 10.466545380794287 0 10.466545380794287 -6.8417186104048824 0 0 0 0 2.7003114640159041 5.8728219574033202 0 5.8728219574033202 2.07919966694767 0 0 0 0 42.115110940205341 98.14181144684153 0 98.14181144684153 57.298030778238058 0 0 0 0 62.154733131377839 8.8279571789115963 0 8.8279571789115963 3.639117383748542 0 0 0 0 64.348270143679187 1.3202718679709431 0 1.3202718679709431 -5.9591366552299299 0 0 0 0 56.694451667551903 16.684001801920658 0 16.684001801920658 1.486319762228959 0 0 0 0 11.276653792392608 325.60005584487772 0 325.60005584487772 -363.78888848674433 0 0 0 0 5.652002156525711 -5.6655585120755134 0 -5.6655585120755134 -1.6392245735257021 0 0 0 0 109.49680536069491 -72.706608245956659 0 -72.706608245956659 0.28086479954072274 0 0 0 0 -129.19986855036404 210.18528219803193 0 210.18528219803193 -222.23630305720962 0 0 0 0 88.144611815383541 244.24014845990587 0 244.24014845990587 -217.02767428609513 0 0 0 0 7.2662480478411453 56.040320191031697 0 56.040320191031697 -318.16415359434541 0 0 0 0 202.16994051533766 117.74368013298454 0 117.74368013298454 -351.11692877051246 0 0 0 0 173.29657923364721 86.505578331210927 0 86.505578331210927 -383.75382155485931 0 0 0 0 186.5232961229085 112.51036470288273 0 112.51036470288273 -307.30924026033699 0 0 0 0 151.53305628978705 64.513407564811587 0 64.513407564811587 -259.06241820022569 0 0 0 0 355.00757448525474 106.23194189295918 0 106.23194189295918 -253.21721182729561 0 0 0 0 263.57928178284601 -0.21277235406569162 0 -0.21277235406569162 -190.87564803998066 0 0 0 0 188.02787377951427 162.83420401553144 0 162.83420401553144 -157.43941045467636 0 0 0 0 236.66299631602669 276.96652237025 0 276.96652237025 -146.77980483958936 0 0 0 0 63.895675673895312 216.72011560194733 0 216.72011560194733 -167.67098691763476 0 0 0 0 80.077947549249075 239.91581420668626 0 239.91581420668626 -161.92715286288194 0 0 0 0 12.813082640113862 305.77129819682 0 305.77129819682 -45.325476556733975 0 0 0 0 304.43314812012534 365.70701600094225 0 365.70701600094225 -40.6631644337117 0 0 0 0 589.9420006903274 -40.950546390873114 0 -40.950546390873114 -192.9528195525956 0 0 0 0 535.99225413373642 239.48605760138594 0 239.48605760138594 -152.18808443974831 0 0 0 0 305.97385956224002 277.84365073218845 0 277.84365073218845 -45.918236373860054 0 0 0 0 -48.5312113930122 126.21889673958231 0 126.21889673958231 -47.519530482773121 0 0 0 0 48.866981151502898 15.852093288487254 0 15.852093288487254 63.4258438762281 0 0 0 0 12.823411229657443 9.2452992020241833 0 9.2452992020241833 -13.89443610729324 0 0 0 0 -204.2545419346452 132.62298797402138 0 132.62298797402138 -1.1625144287304465 0 0 0 0 26.407857578284165 210.24416669702759 0 210.24416669702759 -72.989622787393273 0 0 0 0 -39.91413672523413 216.50127123213156 0 216.50127123213156 -66.9336209895921 0 0 0 0 -87.352951132930684 205.24117078571942 0 205.24117078571942 19.458116525087917 0 0 0 0 -365.21500273356014 85.939539007201233 0 85.939539007201233 -1.7483551169416387 0 0 0 0 454.72050744378333 344.30779755513163 0 344.30779755513163 179.70377783839285 0 0 0 0 322.60000684737747 756.74912184933373 0 756.74912184933373 734.94073864210441 0 0 0 0 135.56636645748083 459.57030568873233 0 459.57030568873233 663.38497698106721 0 0 0 0 9.8437859091463835 7.2663837812967023 0 7.2663837812967023 6.4598335378504963 0 0 0 0 140.49123632225792 2.098226676406739 0 2.098226676406739 33.412956146073157 0 0 0 0 490.4332498868456 425.61079514840367 0 425.61079514840367 438.99080987601883 0 0 0 0 -148.00324358051324 -70.500414385258409 0 -70.500414385258409 186.29672758718425 0 0 0 0 1862.4841746137863 804.04681556040305 0 804.04681556040305 25.507173443682404 0 0 0 0 1979.8936794369147 -1003.0879851101836 0 -1003.0879851101836 -504.57838260089102 0 0 0 0 2716.7517267546791 1773.3439199273362 0 1773.3439199273362 964.57339124729288 0 0 0 0 24.686423302578987 45.592869483469485 0 45.592869483469485 42.434824800818205 0 0 0 0 4.7439826579222872 21.167915201431406 0 21.167915201431406 23.631740188582551 0 0 0 0 9.2786423470935251 7.6166635570262127 0 7.6166635570262127 0.18242997404365013 0 0 0 0 1715.3529369416751 161.38566913823473 0 161.38566913823473 -22.220970514237251 0 0 0 0 81.010338749213162 -9.5168441852320029 0 -9.5168441852320029 -259.86484682351511 0 0 0 0 1233.5934265994474 -386.78205015303001 0 -386.78205015303001 283.43282260017145 0 0 0 0 1360.6449782022137 -1639.6485493749624 0 -1639.6485493749624 -227.36957919234192 0 0 0 0 720.83698373045991 -158.24337103341111 0 -158.24337103341111 351.19253980486906 0 0 0 0 650.63093396697968 83.086504631202274 0 83.086504631202274 -40.895630945785342 0 0 0 0 27.890486994556053 23.710652214584272 0 23.710652214584272 12.913152181709219 0 0 0 0 791.73235190942978 242.19133219592652 0 242.19133219592652 -79.564173740061278 0 0 0 0 240.31652444356837 -74.387618164049982 0 -74.387618164049982 137.93022533691123 0 0 0 0 901.65571490200455 25.987290987775395 0 25.987290987775395 -20.177572547135014 0 0 0 0 1047.2501896707572 73.36815663114885 0 73.36815663114885 -80.148664104042155 0 0 0 0 5.3356279798317034 20.803442111423042 0 20.803442111423042 12.02586307826504 0 0 0 0 55.128763308701309 48.390669809579776 0 48.390669809579776 10.131377419724231 0 0 0 0 1189.4471987088668 253.24833360101576 0 253.24833360101576 31.027034827333409 0 0 0 0 1498.6801515306802 26.625417560459766 0 26.625417560459766 -47.489218321172302 0 0 0 0 1036.6714382687678 -131.59968361853907 0 -131.59968361853907 65.653626361481884 0 0 0 0 5.2438989217614225 17.123017078993325 0 17.123017078993325 2.7158994707259723 0 0 0 0 -15.761906981259926 37.416962916214061 0 37.416962916214061 25.392669085333182 0 0 0 0 15.432956767601354 6.0752805504073422 0 6.0752805504073422 23.170274950782186 0 0 0 0 1271.2274081260875 -138.02722687838332 0 -138.02722687838332 -25.225298001199917 0 0 0 0 1188.4914123099029 162.94073333118126 0 162.94073333118126 -48.444573616957314 0 0 0 0 899.58306755570175 116.28307418199847 0 116.28307418199847 73.938716812780513 0 0 0 0 157.0757274952166 171.54751894222545 0 171.54751894222545 159.61335899420692 0 0 0 0 818.89066206608186 -59.165297800661619 0 -59.165297800661619 -272.51563141111728 0 0 0 0 154.55305071044495 37.601461599170307 0 37.601461599170307 18.866713575379208 0 0 0 0 245.26636173115912 158.44771899699765 0 158.44771899699765 -16.287709191211434 0 0 0 0 -0.62190370857215882 0.97276486799536599 0 0.97276486799536599 -3.0204318197471993 0 0 0 0 68.315698675040039 20.253295413902833 0 20.253295413902833 -1.7284113068594706 0 0 0 0 7.8944063656350352 5.7325101694736098 0 5.7325101694736098 -1.2083329280049027 0 0 0 0 188.50799111944434 50.406680727094226 0 50.406680727094226 -10.424174535797874 0 0 0 0 104.55780300683364 -16.235430012799725 0 -16.235430012799725 -32.786659815413714 0 0 0 0 173.60662218470952 31.412100147803869 0 31.412100147803869 -54.306662657701963 0 0 0 0 195.19698563235943 -4.8611340661271925 0 -4.8611340661271925 -48.365034195760018 0 0 0 0 150.49431806100165 -0.35038655183427636 0 -0.35038655183427636 -48.802733109689825 0 0 0 0 79.688547980011208 -26.884434128919622 0 -26.884434128919622 -14.114674116325659 0 0 0 0 136.17578065142152 9.4176435837173358 0 9.4176435837173358 6.3871990687623565 0 0 0 0 145.6856826165349 -34.845651278391415 0 -34.845651278391415 -60.967473717658322 0 0 0 0 147.24500676889784 -41.781734199788531 0 -41.781734199788531 -39.879269389866749 0 0 0 0 138.2736520342994 -14.135011350475786 0 -14.135011350475786 -33.546979365622519 0 0 0 0 137.88597414058313 -7.5892142500576938 0 -7.5892142500576938 -63.069548118915918 0 0 0 0 119.57147161819921 31.728093864067205 0 31.728093864067205 -30.057662545840969 0 0 0 0 122.39495805365004 48.475711922865685 0 48.475711922865685 -2.0489263896428156 0 0 0 0 19.849558767075905 10.381527914843673 0 10.381527914843673 34.316223253778162 0 0 0 0 16.526884204957241 7.3420651171384179 0 7.3420651171384179 3.8533422673592668 0 0 0 0 31.553793390316059 29.828225941234336 0 29.828225941234336 -5.1054236935003701 0 0 0 0 44.547141524664767 10.815442219210922 0 10.815442219210922 -17.691232505337894 0 0 0 0 41.69821477592086 24.369808364835876 0 24.369808364835876 -31.810775425348425 0 0 0 0 9.7441298383592603 -8.29646632016712 0 -8.29646632016712 -38.583744783938705 0 0 0 0 65.630472220762385 12.663855600053125 0 12.663855600053125 -27.785928597958446 0 0 0 0 34.531288462212615 -4.8790925278455006 0 -4.8790925278455006 -31.620482121507621 0 0 0 0 53.422340065892058 6.8075692607262113 0 6.8075692607262113 -35.576442826145694 0 0 0 0 90.782894352228141 8.2521403204835337 0 8.2521403204835337 -88.570290120313757 0 0 0 0 -7.1356013668846572 32.354537493456974 0 32.354537493456974 -26.210348410973211 0 0 0 0 92.279738213505425 29.551833671220123 0 29.551833671220123 -40.659886326568767 0 0 0 0 53.398353404213594 47.301717414937514 0 47.301717414937514 -170.43975082932752 0 0 0 0 197.23613776138154 162.15684535156902 0 162.15684535156902 -165.61368198489885 0 0 0 0 92.814750307994473 -46.206617491574775 0 -46.206617491574775 -99.930029681555425 0 0 0 0 209.39898348385668 246.39743923016147 0 246.39743923016147 100.01416142864036 0 0 0 0 131.20198145373615 193.89788291795378 0 193.89788291795378 78.627600069302389 0 0 0 0 192.29049018361547 152.09405232030304 0 152.09405232030304 23.86283302383049 0 0 0 0 154.22679663006329 156.78851322004505 0 156.78851322004505 137.5299973638198 0 0 0 0 208.88931809372662 118.16720280022332 0 118.16720280022332 86.537113364287052 0 0 0 0 292.18147927224891 210.93255532608737 0 210.93255532608737 135.46370983190809 0 0 0 0 0.37638508196003073 1.980362585301858 0 1.980362585301858 -5.0857370397910184 0 0 0 0 0.05356314547763219 0.78957839376801786 0 0.78957839376801786 -1.8203359150596015 0 0 0 0 9.892499567629784 -117.75241713587388 0 -117.75241713587388 -202.32025266412074 0 0 0 0 63.836612725970554 -41.918148162433624 0 -41.918148162433624 -96.246176009853571 0 0 0 0 75.157424647370135 -61.361744026568232 0 -61.361744026568232 -71.050692017054189 0 0 0 0 -30.615313536904068 -130.73710297483257 0 -130.73710297483257 -79.551239050984805 0 0 0 0 106.60137061282876 -62.549946012290945 0 -62.549946012290945 -27.945524239809629 0 0 0 0 142.50625996655072 -96.031111646647588 0 -96.031111646647588 -137.77448014443166 0 0 0 0 182.07194551469547 -25.404192068793463 0 -25.404192068793463 -99.240650228228745 0 0 0 0 0.65942290313711993 2.6576939680609826 0 2.6576939680609826 -6.0872865314506699 0 0 0 0 344.15724898500412 271.03015348017675 0 271.03015348017675 93.534230221833241 0 0 0 0 546.24814180307476 208.01220355753833 0 208.01220355753833 -96.720115755134003 0 0 0 0 1344.0156636430966 283.85776185893405 0 283.85776185893405 -227.17391641674226 0 0 0 0 181.43483170291302 -411.84146271421685 0 -411.84146271421685 -170.04881643246381 0 0 0 0 130.20863502430257 293.4698288884133 0 293.4698288884133 93.237871664345562 0 0 0 0 -0.80624673067980979 1.5586266922717691 0 1.5586266922717691 -1.4902810691233697 0 0 0 0 146.57261070764071 155.43977890407609 0 155.43977890407609 137.8443077412569 0 0 0 0 70.580467903509998 103.5203410576371 0 103.5203410576371 121.27369110505134 0 0 0 0 41.442311637849343 125.67860163315436 0 125.67860163315436 128.12026453227281 0 0 0 0 68.050996903001078 28.069644192445367 0 28.069644192445367 122.14294511454364 0 0 0 0 138.55493533947993 99.287490114966658 0 99.287490114966658 142.43180745854761 0 0 0 0 -3.3935670073216713 4.0678165477975554 0 4.0678165477975554 -3.7062547167836897 0 0 0 0 209.15530620282698 133.68294242316517 0 133.68294242316517 133.88159414543406 0 0 0 0 143.35829815318721 161.45900532922224 0 161.45900532922224 140.59056845038242 0 0 0 0 1.6351090587665809 2.1375944341153783 0 2.1375944341153783 1.067719729242889 0 0 0 0 6.9562783324920874 23.70803152280255 0 23.70803152280255 -4.0391180630882717 0 0 0 0 -124.77837216207809 30.865716688737962 0 30.865716688737962 42.052186170685218 0 0 0 0 64.442022257677309 44.709399483064203 0 44.709399483064203 57.975039626665648 0 0 0 0 -83.162294217301678 43.224551792402508 0 43.224551792402508 -47.51654447223973 0 0 0 0 77.985527058990556 16.404234377718808 0 16.404234377718808 -29.230109563740371 0 0 0 0 165.73705009668811 47.967644099442197 0 47.967644099442197 -52.703772960136121 0 0 0 0 43.921670877345605 106.18362316900141 0 106.18362316900141 -51.799743761667287 0 0 0 0 85.19427839871787 47.960120850853571 0 47.960120850853571 16.354787564404887 0 0 0 0 -106.40603126017959 49.70564747793253 0 49.70564747793253 48.730495101668112 0 0 0 0 54.621851155477771 42.053331926096632 0 42.053331926096632 5.5258793893481766 0 0 0 0 -1.1442088136082873 -0.044388773939303405 0 -0.044388773939303405 1.0028862396223184 0 0 0 0 45.689858840461966 -16.401082344709906 0 -16.401082344709906 -42.8550282531113 0 0 0 0 -80.781064584336491 39.712079511512925 0 39.712079511512925 -41.652562356977405 0 0 0 0 1349.7548219295568 -371.92171308023148 0 -371.92171308023148 -219.13874783283836 0 0 0 0 9.0956835983106998 18.126892727512832 0 18.126892727512832 -10.5008474755279 0 0 0 0 1113.1405688785781 -580.62540091049959 0 -580.62540091049959 -203.23322543882341 0 0 0 0 1649.423919714367 -531.93282784901112 0 -531.93282784901112 -317.49127426763255 0 0 0 0 1599.9809545868557 -127.16650556533088 0 -127.16650556533088 20.241283553008756 0 0 0 0 -504.58748301193918 -207.08760469212206 0 -207.08760469212206 76.724456398158395 0 0 0 0 2.1563850162663645 -2.0181783798882371 0 -2.0181783798882371 -5.6307446083278956 0 0 0 0 2323.6409781640996 -27.070495772196637 0 -27.070495772196637 -199.54571225377686 0 0 0 0 1498.5839922805744 -37.152609471845153 0 -37.152609471845153 117.29361817124754 0 0 0 0 1831.4176661266786 213.67772797213405 0 213.67772797213405 65.224524297230801 0 0 0 0 1581.4337111856912 -155.34670868003343 0 -155.34670868003343 56.326405801559986 0 0 0 0 1771.0200373445259 -64.891758843817342 0 -64.891758843817342 29.946245918149543 0 0 0 0 1576.9457684643903 23.09224589835776 0 23.09224589835776 57.404746544475756 0 0 0 0 1397.1633571950551 53.771786946936572 0 53.771786946936572 76.968574135907147 0 0 0 0 1588.8057439570289 -43.506097620227763 0 -43.506097620227763 -44.953442015777 0 0 0 0 1555.1824649733062 174.03883877207147 0 174.03883877207147 136.61730335999619 0 0 0 0 1407.5637283950055 -139.61326503679109 0 -139.61326503679109 -34.175757408534082 0 0 0 0 1462.8648294475297 52.898424811805171 0 52.898424811805171 -60.745076835110922 0 0 0 0 4.2030948768432737 -7.0959510102152379 0 -7.0959510102152379 -17.161764113417938 0 0 0 0 1218.1345849962149 -41.160761740958378 0 -41.160761740958378 -15.06196747632066 0 0 0 0 7.364846147730324 28.092216956585581 0 28.092216956585581 2.4732487151339981 0 0 0 0 -39.534490064197598 88.399083261107762 0 88.399083261107762 29.411444357485379 0 0 0 0 0.74452542904695207 1.2643175083650462 0 1.2643175083650462 0.15706432476158216 0 0 0 0 -140.21869526578848 40.942722103611459 0 40.942722103611459 39.108366206138726 0 0 0 0 265.52465880962336 -4.397875345877992 0 -4.397875345877992 -36.902354564063216 0 0 0 0 151.02468349433184 46.166593823117182 0 46.166593823117182 -7.5415646285761113 0 0 0 0 141.08991729887202 -12.419612814447873 0 -12.419612814447873 -17.593919188688233 0 0 0 0 126.92327210126678 13.454063596287142 0 13.454063596287142 -15.7593734564486 0 0 0 0 184.19297415012807 78.18577326875527 0 78.18577326875527 31.599587931538736 0 0 0 0 93.46579001682403 22.790193191395247 0 22.790193191395247 47.361769635920155 0 0 0 0 121.88820281276094 12.019588821110347 0 12.019588821110347 -18.050476422147767 0 0 0 0 87.731223933613364 37.961689869336624 0 37.961689869336624 -18.851334541268656 0 0 0 0 103.04172979225768 21.621095563772315 0 21.621095563772315 -15.962087897253696 0 0 0 0 75.515972389795934 36.253801876508533 0 36.253801876508533 -11.214365304575495 0 0 0 0 13.873117532139023 30.98911529151448 0 30.98911529151448 7.3299309871373701 0 0 0 0 819.57571130106089 238.90441695897448 0 238.90441695897448 80.459646662382511 0 0 0 0 1131.2753903265104 444.55287391752654 0 444.55287391752654 138.31994561815372 0 0 0 0 75.78932628162147 32.559573915099691 0 32.559573915099691 -2.4355438243928802 0 0 0 0 67.110369900727164 19.082146928109069 0 19.082146928109069 -16.133104594892757 0 0 0 0 1253.1682193918441 86.603707391456282 0 86.603707391456282 -28.424930817029235 0 0 0 0 1269.6237345213904 -90.320022173474172 0 -90.320022173474172 -106.85117186986736 0 0 0 0 1008.5532782691157 4.604112386373572 0 4.604112386373572 -118.781616337983 0 0 0 0 1292.6206896265003 55.071230285587831 0 55.071230285587831 -113.78006488459505 0 0 0 0 1326.0239591105856 84.664710741448289 0 84.664710741448289 -103.555121001712 0 0 0 0 1373.3728410367958 -146.11272268849052 0 -146.11272268849052 -188.69040815843709 0 0 0 0 3.6003824499544734 -9.012867370207907 0 -9.012867370207907 -27.131987825773937 0 0 0 0 966.68023644268828 -60.590658635141722 0 -60.590658635141722 -82.660771365834989 0 0 0 0 210.91958854073653 -73.232336943463451 0 -73.232336943463451 115.35226634704122 0 0 0 0 1571.0416776604043 230.20617397648766 0 230.20617397648766 -424.92383670486197 0 0 0 0 1049.5474654028008 526.58710044436293 0 526.58710044436293 670.93211820230681 0 0 0 0 1986.5400935698908 242.17782567039467 0 242.17782567039467 -446.74936613740829 0 0 0 0 1257.2965426427659 -626.50998071069671 0 -626.50998071069671 147.64051383799961 0 0 0 0 17.175984042908389 -6.9587537501759922 0 -6.9587537501759922 -9.5586672788104075 0 0 0 0 147.62147115440166 140.1535646790735 0 140.1535646790735 -484.38182296124614 0 0 0 0 64.807599174193314 12.530038834492053 0 12.530038834492053 -2.4744126108133035 0 0 0 0 142.24268691905525 159.14008551594031 0 159.14008551594031 -115.06576758551455 0 0 0 0 85.094872147152728 465.36792200911714 0 465.36792200911714 -112.70454979196438 0 0 0 0 17.256597419303034 -83.708809325809852 0 -83.708809325809852 -203.29584813694981 0 0 0 0 -588.61791120781436 458.15765494974949 0 458.15765494974949 -334.71196588001294 0 0 0 0 13.875521498921856 5.6328005266420407 0 5.6328005266420407 -4.8449169478724556 0 0 0 0 2.7235896960637458 9.0230780596213549 0 9.0230780596213549 3.2166702868132622 0 0 0 0 588.52241171998139 -79.602838276779949 0 -79.602838276779949 -267.05535968895555 0 0 0 0 1532.2429124493904 -43.505276475183337 0 -43.505276475183337 -880.52750910929899 0 0 0 0 384.23800556772585 -258.69082364100632 0 -258.69082364100632 -251.09319506284555 0 0 0 0 916.86421870402864 389.44642365285472 0 389.44642365285472 -768.03712806153271 0 0 0 0 -72.278383040448716 334.06768747345723 0 334.06768747345723 236.29015060173333 0 0 0 0 495.6208961760176 -265.38179514737021 0 -265.38179514737021 1047.1305847004805 0 0 0 0 60.186084025452146 3.0143204438418252 0 3.0143204438418252 476.49477213071714 0 0 0 0 526.39558046412787 19.11428833035518 0 19.11428833035518 337.45905117781149 0 0 0 0 -16.125205382242711 206.22492002786748 0 206.22492002786748 310.42509385546555 0 0 0 0 164.1293710162945 165.43683537723859 0 165.43683537723859 21.357099373390156 0 0 0 0 -22.040391515613237 146.50373529793819 0 146.50373529793819 -83.282145837276403 0 0 0 0 -27.803967402997841 183.35490086297796 0 183.35490086297796 -56.961538990530244 0 0 0 0 60.130644579424079 8.8245275664853189 0 8.8245275664853189 -2.2620606542807562 0 0 0 0 13.453025955787375 3.28284190982383 0 3.28284190982383 0.12543868737673591 0 0 0 0 -118.27480098716183 119.05224054970404 0 119.05224054970404 -27.117861502218148 0 0 0 0 13.306215575184979 84.037313466991691 0 84.037313466991691 -101.97366007315024 0 0 0 0 122.45705767343679 55.986260461125312 0 55.986260461125312 54.40467502888896 0 0 0 0 47.373595993111195 3.731161081947727 0 3.731161081947727 -1.5798981584250851 0 0 0 0 104.4959903619843 79.030832566754157 0 79.030832566754157 119.76806317672708 0 0 0 0 143.05162823204591 122.52675984885809 0 122.52675984885809 89.714660813540831 0 0 0 0 169.44848150480698 228.05171043919017 0 228.05171043919017 242.49385697839898 0 0 0 0 172.74936560481183 194.77285614775519 0 194.77285614775519 268.65421426871308 0 0 0 0 136.24117205368475 204.2122177171982 0 204.2122177171982 329.91993459246351 0 0 0 0 31.624256450799152 2.5577937016529546 0 2.5577937016529546 0.46440962289174958 0 0 0 0 55.960611871377296 90.335008904002279 0 90.335008904002279 185.14782778326708 0 0 0 0 26.88015159519091 34.713255287813581 0 34.713255287813581 -8.2447707888441073 0 0 0 0 64.919778249393858 13.095938617075262 0 13.095938617075262 -97.512003219032323 0 0 0 0 65.521117810361829 57.681680107247985 0 57.681680107247985 -12.011665128859931 0 0 0 0 44.044102218582339 16.215924726829599 0 16.215924726829599 0.20238572157904855 0 0 0 0 16.320369292005125 21.78420852092313 0 21.78420852092313 74.514744110641914 0 0 0 0 38.714901638537413 22.185566545446363 0 22.185566545446363 -0.45533353637529217 0 0 0 0 104.96594483755325 13.516293100916528 0 13.516293100916528 -6.1710693110491093 0 0 0 0 89.071441519768996 1.5138801902207888 0 1.5138801902207888 -10.500982686727184 0 0 0 0 80.23276591407739 8.1992049900714221 0 8.1992049900714221 -15.321914108281817 0 0 0 0 12.884013444568968 4.1688962627791568 0 4.1688962627791568 -10.143409437911069 0 0 0 0 81.275547204677423 5.5056664166695555 0 5.5056664166695555 -23.618766118478899 0 0 0 0 51.378201741085149 21.168307726532589 0 21.168307726532589 -20.255780198353023 0 0 0 0 51.048135450830159 30.351123779587397 0 30.351123779587397 -36.954151534171189 0 0 0 0 -388.73554902450269 172.44590263856753 0 172.44590263856753 173.40921425882698 0 0 0 0 -146.01286491923383 -214.80037234918382 0 -214.80037234918382 -41.097745361691977 0 0 0 0 8.9661759187147254 -9.9242599178096498 0 -9.9242599178096498 32.732132325074417 0 0 0 0 492.44011923065227 -192.50511261759902 0 -192.50511261759902 -41.22763851108175 0 0 0 0 66.890087207584656 -137.30341549918194 0 -137.30341549918194 309.84031790588324 0 0 0 0 411.40954046530169 68.526292086047761 0 68.526292086047761 91.868156270312284 0 0 0 0 537.70446602071934 -263.34406461360709 0 -263.34406461360709 959.23881501863889 0 0 0 0 1055.3474856063531 166.07778130441534 0 166.07778130441534 0.77883036737875955 0 0 0 0 444.80885240884413 179.43030185722006 0 179.43030185722006 116.14841594633526 0 0 0 0 412.02174192679558 596.07849634839113 0 596.07849634839113 894.31849611302425 0 0 0 0 11.636251092902192 0.90219500039267331 0 0.90219500039267331 0.59041782986214697 0 0 0 0 49.875248807429102 -113.02578249074105 0 -113.02578249074105 171.31737987842007 0 0 0 0 555.41824641881612 -302.32920273180071 0 -302.32920273180071 -7.5764939205657118 0 0 0 0 511.45963660552115 -6.055901548629663 0 -6.055901548629663 -10.806736095632914 0 0 0 0 451.29367830286719 77.463871863060376 0 77.463871863060376 -33.19484874647469 0 0 0 0 497.45834045631455 102.83152206654313 0 102.83152206654313 -20.869870275688754 0 0 0 0 734.55646138162683 629.24401703189619 0 629.24401703189619 469.14660543546597 0 0 0 0 1190.2086462126508 112.82810267870104 0 112.82810267870104 -115.26841384753061 0 0 0 0 498.24450397229157 269.77360721563787 0 269.77360721563787 -12.670398418853438 0 0 0 0 -12.57301631964765 110.6088326095396 0 110.6088326095396 596.61701476659255 0 0 0 0 376.68911195080545 396.28802145430632 0 396.28802145430632 53.686991233371032 0 0 0 0 253.11990407715712 152.48872583282764 0 152.48872583282764 -262.03664143707101 0 0 0 0 -116.33900559710673 136.32886226058974 0 136.32886226058974 154.87532842564997 0 0 0 0 -281.07910199754406 -94.725804469833747 0 -94.725804469833747 91.9957986630709 0 0 0 0 -8.3498256970701732 79.444001064880126 0 79.444001064880126 26.028903416587127 0 0 0 0 374.12202036063536 281.23186998097526 0 281.23186998097526 91.025205645668848 0 0 0 0 97.48605488496105 310.80947499934064 0 310.80947499934064 175.64762560724921 0 0 0 0 3.6768132402230194 1.7559357314521007 0 1.7559357314521007 1.0775612102853156 0 0 0 0 -176.83903256233316 -47.258589682395268 0 -47.258589682395268 739.29417399975318 0 0 0 0 433.41638181730741 477.91554444849453 0 477.91554444849453 249.01669910371265 0 0 0 0 537.28009772404403 252.57962280507309 0 252.57962280507309 152.65348577534814 0 0 0 0 481.07918616193911 55.724876534059149 0 55.724876534059149 102.04992445939843 0 0 0 0 682.22279800462638 247.06453533759759 0 247.06453533759759 22.894566399790165 0 0 0 0 344.44066973559075 190.18155499391929 0 190.18155499391929 17.972211857852017 0 0 0 0 412.72567426698879 170.71101806062484 0 170.71101806062484 -16.450478484455289 0 0 0 0 351.10153849195922 40.555027500024835 0 40.555027500024835 -8.4265871649552082 0 0 0 0 312.00608332177831 79.242359747011562 0 79.242359747011562 -46.682222689247283 0 0 0 0 299.19424422644079 -9.1222426017386624 0 -9.1222426017386624 -65.099138975652295 0 0 0 0 399.4764935529347 127.3751119096637 0 127.3751119096637 41.174716467850658 0 0 0 0 406.59473284539308 119.76420772253209 0 119.76420772253209 69.832723167964105 0 0 0 0 347.91064893144812 -3.6506561740773122 0 -3.6506561740773122 13.347459688499839 0 0 0 0 170.15814544838577 6.1650303054793767 0 6.1650303054793767 33.766325162235717 0 0 0 0 310.54641641382841 -40.838183868707347 0 -40.838183868707347 -8.522717164897017 0 0 0 0 191.12289758141378 -0.68172675551863904 0 -0.68172675551863904 -61.164251919133676 0 0 0 0 251.56024350367989 -61.443006931945462 0 -61.443006931945462 -5.3810419343244575 0 0 0 0 266.30693778433306 43.347304972273378 0 43.347304972273378 4.1014337510405312 0 0 0 0 140.93867390567721 -52.837286094992578 0 -52.837286094992578 -46.287793506330217 0 0 0 0 221.32056297771578 -23.545612063159979 0 -23.545612063159979 -119.04196996065275 0 0 0 0 151.21717452131389 -40.440531295752457 0 -40.440531295752457 -155.88432162553181 0 0 0 0 118.28807265756041 -97.947488760676947 0 -97.947488760676947 -176.5371313220171 0 0 0 0 129.10610066375375 -82.772704870286873 0 -82.772704870286873 -211.63549518670163 0 0 0 0 114.38568442810765 -17.093662882090001 0 -17.093662882090001 -145.59919362975711 0 0 0 0 138.59924548291019 -52.863746556954425 0 -52.863746556954425 -112.98105420733168 0 0 0 0 212.64880745350638 -10.765224112496639 0 -10.765224112496639 -157.76062978738332 0 0 0 0 180.76328860676949 5.2816339114123139 0 5.2816339114123139 -107.1221059367831 0 0 0 0 146.03847216414579 -45.686029792955537 0 -45.686029792955537 -184.88566226421057 0 0 0 0 169.87277717410689 21.993319532069762 0 21.993319532069762 -153.30054282208977 0 0 0 0 185.043986847013 7.602475357176445 0 7.602475357176445 -140.47883397381975 0 0 0 0 258.52463586867088 39.196151184550331 0 39.196151184550331 -142.07686980320818 0 0 0 0 275.14092069504841 30.177282000716559 0 30.177282000716559 -113.13329826173191 0 0 0 0 198.3508953871642 4.7520860759115067 0 4.7520860759115067 -57.69350319729574 0 0 0 0 259.0318679126085 26.935814547866585 0 26.935814547866585 -65.954252634532622 0 0 0 0 269.98824700037767 102.55484394035966 0 102.55484394035966 -43.632947868755309 0 0 0 0 308.44127702989681 98.217060152893112 0 98.217060152893112 -87.043443612821193 0 0 0 0 226.39652635482344 60.113047954310218 0 60.113047954310218 -87.711839977560658 0 0 0 0 230.31069284923797 35.49546343633142 0 35.49546343633142 -155.1184304799765 0 0 0 0 215.98195956754716 48.095492731157833 0 48.095492731157833 -106.96776110188546 0 0 0 0 254.20058920402516 59.402027364928017 0 59.402027364928017 -119.00694246769467 0 0 0 0 202.69546235922098 96.840191729941296 0 96.840191729941296 -40.237773767568171 0 0 0 0 252.98444126769954 98.204748335304529 0 98.204748335304529 -88.511539850704025 0 0 0 0 290.29142183566 173.20631828633088 0 173.20631828633088 -2.145326742960151 0 0 0 0 172.14611623788733 179.75030997851616 0 179.75030997851616 47.299707291896539 0 0 0 0 -2.7962907895198441 70.258290605749607 0 70.258290605749607 -105.53610605299218 0 0 0 0 55.812455922619847 -6.2707801072249367 0 -6.2707801072249367 -10.782880170023958 0 0 0 0 108.79634634146896 1.6335074372337886 0 1.6335074372337886 -36.82959981408851 0 0 0 0 0.055074988577381134 1.4595999301020655 0 1.4595999301020655 -1.9994530380862052 0 0 0 0 120.60326331252509 32.774863028555501 0 32.774863028555501 -2.9840430885383284 0 0 0 0 88.694940218396823 11.532301891849343 0 11.532301891849343 23.075577984207939 0 0 0 0 -1.3176387919802517 1.6159881862092647 0 1.6159881862092647 -6.1861497079973002 0 0 0 0 25.993451690892471 4.8804445982814286 0 4.8804445982814286 14.3546676052772 0 0 0 0 41.562630862314109 -2.7917238780671596 0 -2.7917238780671596 -11.278276953155455 0 0 0 0 92.610918745645904 -51.94148822143552 0 -51.94148822143552 57.965277867264604 0 0 0 0 41.791569792407245 -8.0378022583229267 0 -8.0378022583229267 21.481270227731329 0 0 0 0 176.09048086441726 -12.426517147992854 0 -12.426517147992854 -2.4210468482569922 0 0 0 0 130.14663944314452 -54.147638375645101 0 -54.147638375645101 6.1569932830836933 0 0 0 0 113.35052410732533 -18.270876875229533 0 -18.270876875229533 -66.424749921504372 0 0 0 0 81.585252475953894 -52.368016327498026 0 -52.368016327498026 -3.6709969149992503 0 0 0 0 60.707253421060159 -3.1859919135572454 0 -3.1859919135572454 -78.464564131603311 0 0 0 0 97.512249778663318 -70.620772747282899 0 -70.620772747282899 -142.97328205289432 0 0 0 0 175.72189075571077 -67.425605194221134 0 -67.425605194221134 -168.59833097541696 0 0 0 0 65.349915524127482 -162.77759707469315 0 -162.77759707469315 -234.7188072044396 0 0 0 0 120.12337621036568 -63.749676413262023 0 -63.749676413262023 -124.73944229624595 0 0 0 0 152.76225022443577 -39.792074616324044 0 -39.792074616324044 -135.1413204760363 0 0 0 0 81.91398102245148 -52.336824445601451 0 -52.336824445601451 -54.692561353689541 0 0 0 0 150.75219402860441 -85.247512804201264 0 -85.247512804201264 -199.785062972491 0 0 0 0 -56.663797879009508 -24.30231999018838 0 -24.30231999018838 -184.19953975676424 0 0 0 0 93.097439109071274 -15.709827855180038 0 -15.709827855180038 -208.77950618531713 0 0 0 0 299.48047795631646 57.976144378345104 0 57.976144378345104 -179.59960826330391 0 0 0 0 -165.95272374121487 166.25997172765344 0 166.25997172765344 47.984883022643672 0 0 0 0 109.93064947812672 -113.52601691988815 0 -113.52601691988815 -190.44600316343329 0 0 0 0 254.47453623178808 -136.11070927055877 0 -136.11070927055877 -317.55302578224325 0 0 0 0 305.7235414305764 155.7028049769317 0 155.7028049769317 86.285771814614009 0 0 0 0 -318.71662589751577 -230.09513367328438 0 -230.09513367328438 -80.206402302608936 0 0 0 0 -22.119757629308879 -188.27353510764402 0 -188.27353510764402 -226.02308795578529 0 0 0 0 0.11834493326067275 -0.08992641902526799 0 -0.08992641902526799 0.41290892038317173 0 0 0 0 304.17972427052155 -104.15821349185916 0 -104.15821349185916 -53.999321923585228 0 0 0 0 548.0545006038592 4.8411077363691106 0 4.8411077363691106 -127.12692495980103 0 0 0 0 172.46655781738366 13.724559678126116 0 13.724559678126116 -223.04493689972423 0 0 0 0 49.043475737456902 -38.395475883755978 0 -38.395475883755978 -124.99323021240235 0 0 0 0 147.99557139755234 24.397396659601398 0 24.397396659601398 -163.88436583254497 0 0 0 0 283.76649793607066 200.72130971436076 0 200.72130971436076 -223.1087660851183 0 0 0 0 115.12626124798953 242.42546369468931 0 242.42546369468931 49.996903799370216 0 0 0 0 -89.393724993602518 181.34569624958615 0 181.34569624958615 62.385012172974164 0 0 0 0 100.02733969067049 376.15225317493372 0 376.15225317493372 257.88469046404168 0 0 0 0 624.44301811274727 -124.91215744185591 0 -124.91215744185591 -10.830238301983911 0 0 0 0 3.8178466932380815 1.8649929629780644 0 1.8649929629780644 -1.3985149357283044 0 0 0 0 -207.60303599344024 -183.75690353845397 0 -183.75690353845397 230.45885223778723 0 0 0 0 195.7607155922633 -10.698443494246419 0 -10.698443494246419 342.28697950819964 0 0 0 0 405.68918295160256 208.43483799704407 0 208.43483799704407 -232.99535171224051 0 0 0 0 418.87746017944073 677.82579381408948 0 677.82579381408948 568.69217449608436 0 0 0 0 92.238294234888599 -240.38449472706498 0 -240.38449472706498 -67.418550376877988 0 0 0 0 5.1612860799789217 -1.5195322855028053 0 -1.5195322855028053 0.76766995776010627 0 0 0 0 -109.39193817884734 26.613191405321231 0 26.613191405321231 146.58676084338219 0 0 0 0 213.78795865089705 73.567799417721517 0 73.567799417721517 -175.28611408724873 0 0 0 0 582.17201934517288 -124.91725169012086 0 -124.91725169012086 -129.04435608659554 0 0 0 0 157.52994673587818 176.29088062921301 0 176.29088062921301 -1.3824070645482607 0 0 0 0 3.0835259814988234 -1.4657710023730246 0 -1.4657710023730246 0.66195714005052797 0 0 0 0 0.66900787883876234 -0.73049970981246659 0 -0.73049970981246659 -1.9331972677552094 0 0 0 0 233.91530458530815 562.26408905736992 0 562.26408905736992 255.13937829762926 0 0 0 0 132.83442658157583 -235.11392846010909 0 -235.11392846010909 -364.20128396037558 0 0 0 0 -547.19479307014262 831.92951404533358 0 831.92951404533358 856.7911714795755 0 0 0 0 186.48306435088489 73.723353088481645 0 73.723353088481645 -32.015337383618316 0 0 0 0 -129.31267782950454 0.75297818248486692 0 0.75297818248486692 219.99435531769063 0 0 0 0 15.092589925537268 -5.5385214364644817 0 -5.5385214364644817 0.57474288070676582 0 0 0 0 77.62571839933662 -76.529413841782571 0 -76.529413841782571 -116.2156851400382 0 0 0 0 234.68072427657899 494.65360208668926 0 494.65360208668926 643.04146913824979 0 0 0 0 -41.342241950049356 -21.205506640645694 0 -21.205506640645694 60.016134633368665 0 0 0 0 8.083313123167315 1.3531220138509608 0 1.3531220138509608 0.64685299321837453 0 0 0 0 122.93495002541022 -111.52830871625258 0 -111.52830871625258 36.865039538909969 0 0 0 0 1598.4503309797583 -201.60952267698485 0 -201.60952267698485 791.20858745259147 0 0 0 0 388.47942323057214 -118.59099788296589 0 -118.59099788296589 -10.916548741701305 0 0 0 0 1095.8796474377959 162.87113463039043 0 162.87113463039043 -115.3155904392238 0 0 0 0 545.7838936957196 -19.557635894440637 0 -19.557635894440637 -69.74938004887872 0 0 0 0 547.53964159809402 205.71501003574019 0 205.71501003574019 -83.952737717352193 0 0 0 0 419.66322660214064 135.09587322010191 0 135.09587322010191 -103.61942936777177 0 0 0 0 291.34965230926537 174.47786724211576 0 174.47786724211576 -72.685304294745947 0 0 0 0 338.03212572345365 62.842248987083963 0 62.842248987083963 -82.496863216945258 0 0 0 0 204.56174686082522 31.788539261532605 0 31.788539261532605 -60.559283504146038 0 0 0 0 162.8766084513627 43.221497184538066 0 43.221497184538066 -60.631928819348673 0 0 0 0 -4.4988610385735228 50.779479472998901 0 50.779479472998901 -28.039581709681215 0 0 0 0 193.54089260901674 -46.492901884462299 0 -46.492901884462299 6.2953979792509926 0 0 0 0 -31.757093188090948 -5.8347115405030081 0 -5.8347115405030081 21.618945010815722 0 0 0 0 -1.1058378742143731 0.70850837261868094 0 0.70850837261868094 -0.86742264387954915 0 0 0 0 -33.847128880322998 44.902930681228327 0 44.902930681228327 13.406063277071098 0 0 0 0 14.882676500776142 19.025564275064426 0 19.025564275064426 -48.873912235103489 0 0 0 0 -130.63937447189164 -132.19237588477608 0 -132.19237588477608 -3.1561000132493859 0 0 0 0 -41.468276769175645 8.6436800482430272 0 8.6436800482430272 80.660015855898109 0 0 0 0 4.718185354980676 3.9127771318607429 0 3.9127771318607429 -3.7615702575966949 0 0 0 0 -38.764581072809051 35.518169706482468 0 35.518169706482468 26.092876585311615 0 0 0 0 9.7989848303041072 37.697606642675225 0 37.697606642675225 -39.046484718013687 0 0 0 0 20.639374997904142 2.2886368694374615 0 2.2886368694374615 -1.5612475704859874 0 0 0 0 194.86394835517058 0.27399450753671317 0 0.27399450753671317 -108.05171742069984 0 0 0 0 191.18368243414625 11.398462148580222 0 11.398462148580222 -62.134218093320897 0 0 0 0 207.43508187451152 27.207757095191994 0 27.207757095191994 -97.2547528539572 0 0 0 0 199.84575034547379 37.979429128767748 0 37.979429128767748 -110.33692038851478 0 0 0 0 219.1336686056311 60.679996524174356 0 60.679996524174356 -86.205730314797336 0 0 0 0 197.64554407944524 5.4771038231892817 0 5.4771038231892817 -141.14561058947649 0 0 0 0 206.64786462614211 31.274578155076526 0 31.274578155076526 -126.97889296705432 0 0 0 0 222.8072165924068 31.951968161565361 0 31.951968161565361 -137.8950706910291 0 0 0 0 187.98096925730715 0.37543578971681768 0 0.37543578971681768 -146.63705097826994 0 0 0 0 180.56987758957257 9.2481806004735745 0 9.2481806004735745 -119.01252735016305 0 0 0 0 183.42673893965912 10.354771134471093 0 10.354771134471093 -71.671747944116532 0 0 0 0 160.69053108324442 -23.107274918860639 0 -23.107274918860639 -120.75387172479296 0 0 0 0 54.359922231049495 -29.780262802546218 0 -29.780262802546218 -136.84217282712359 0 0 0 0 20.653532128442748 -68.360999851735869 0 -68.360999851735869 -89.082501954409054 0 0 0 0 142.09084564770819 -1.7312315477621496 0 -1.7312315477621496 -91.060750104384624 0 0 0 0 85.855153368991523 -43.207056069064485 0 -43.207056069064485 -120.42737256572514 0 0 0 0 84.018297076151612 -59.655080458179846 0 -59.655080458179846 -131.04029296720182 0 0 0 0 113.64070015027391 -37.978927027415068 0 -37.978927027415068 -161.30804084435857 0 0 0 0 116.91912966321979 -13.098209421408598 0 -13.098209421408598 -121.58582299623711 0 0 0 0 159.64048101003209 -24.856259558625339 0 -24.856259558625339 -159.89048972215483 0 0 0 0 173.48467434705526 14.702950107729691 0 14.702950107729691 -151.42720558144288 0 0 0 0 138.35069853118148 -32.139250069230485 0 -32.139250069230485 -172.97872268131152 0 0 0 0 55.836783329392347 -65.741015087449469 0 -65.741015087449469 -164.49225407283049 0 0 0 0 129.53897845971005 -17.690259016381418 0 -17.690259016381418 -194.15703103552519 0 0 0 0 -119.50331541709602 -320.82132514316498 0 -320.82132514316498 -257.17499193450658 0 0 0 0 44.311980627157027 -48.733124574201071 0 -48.733124574201071 -158.81729558171475 0 0 0 0 75.413663303565045 -98.855968540812071 0 -98.855968540812071 -219.38780900475641 0 0 0 0 -24.352475784784474 -144.63074313348278 0 -144.63074313348278 -200.778318054176 0 0 0 0 -182.855602960135 -126.02427947596993 0 -126.02427947596993 -132.07704664491615 0 0 0 0 466.13199844676274 -34.826834113529173 0 -34.826834113529173 101.9841776186574 0 0 0 0 5.3940225926794056 -7.8216138269092212 0 -7.8216138269092212 2.3670272556411769 0 0 0 0 12.796173565448569 9.1231044036459394 0 9.1231044036459394 0.6864182577154615 0 0 0 0 -11.666754350982956 -15.672411273214379 0 -15.672411273214379 -133.62958749933546 0 0 0 0 277.98418382572709 406.44879666158261 0 406.44879666158261 180.24904254211174 0 0 0 0 319.74889282788354 373.25127784725817 0 373.25127784725817 163.69697214736789 0 0 0 0 26.21837441673415 -1.7223967693194098 0 -1.7223967693194098 7.2309236006816189 0 0 0 0 544.84095067555609 646.85343061751632 0 646.85343061751632 168.40957125247542 0 0 0 0 64.015604485859512 144.20497432116599 0 144.20497432116599 -17.3269465646149 0 0 0 0 35.110518045603705 18.603223221352341 0 18.603223221352341 0.50269250190747394 0 0 0 0 79.588495970024113 29.778749296194103 0 29.778749296194103 -4.3908064748980262 0 0 0 0 33.165830313003099 37.284330751469199 0 37.284330751469199 42.034927477988802 0 0 0 0 87.345449527143501 69.757017156178335 0 69.757017156178335 40.519038418249693 0 0 0 0 50.037700182119195 69.41592942893999 0 69.41592942893999 71.001416869755758 0 0 0 0 -460.04823755309917 25.538373912315137 0 25.538373912315137 159.74667788333863 0 0 0 0 43.052987953939009 102.48571511215368 0 102.48571511215368 140.98698476090976 0 0 0 0 1.4149389086524025 513.50592061003908 0 513.50592061003908 150.5329285197223 0 0 0 0 176.07774417719338 348.99089685879994 0 348.99089685879994 67.38633169643299 0 0 0 0 314.35738398843387 544.60783611921715 0 544.60783611921715 31.755794149949907 0 0 0 0 -322.53122690158489 408.50175866417777 0 408.50175866417777 187.3061198383939 0 0 0 0 185.41198893919136 133.2879496758178 0 133.2879496758178 56.120397121679162 0 0 0 0 1.5645873949522979 56.126440656319247 0 56.126440656319247 75.240551212074706 0 0 0 0 -53.096024181329994 271.23178202328108 0 271.23178202328108 83.551842443729583 0 0 0 0 103.38774775240745 224.28114678162456 0 224.28114678162456 74.893617308460762 0 0 0 0 254.26406731157476 168.72835570383575 0 168.72835570383575 -38.382965252361373 0 0 0 0 245.90686073001234 197.16989451572346 0 197.16989451572346 51.126028409133596 0 0 0 0 181.37765895003031 146.10828812994021 0 146.10828812994021 15.398722358340819 0 0 0 0 151.80132366701582 95.944644811841272 0 95.944644811841272 77.536200667997946 0 0 0 0 36.197309247125858 22.275232008396422 0 22.275232008396422 13.273328283664156 0 0 0 0 209.01249195174069 188.67463284559324 0 188.67463284559324 168.80020565236919 0 0 0 0 129.59582096995749 -0.32879415101517395 0 -0.32879415101517395 -51.192421261962004 0 0 0 0 183.7097294722771 50.774998310421097 0 50.774998310421097 -1.8750221231812247 0 0 0 0 225.20658675160666 163.72639639752924 0 163.72639639752924 144.40095646673581 0 0 0 0 264.59787116630469 144.52648518294791 0 144.52648518294791 151.8735821436785 0 0 0 0 44.274361982313252 6.0337551856636296 0 6.0337551856636296 18.865330256518707 0 0 0 0 139.89918954023597 79.181082672931552 0 79.181082672931552 134.26167948650254 0 0 0 0 248.18712471179606 181.22313164148727 0 181.22313164148727 68.002851505840226 0 0 0 0 392.68966761574302 140.86870041222187 0 140.86870041222187 102.54735897067917 0 0 0 0 101.75327436746738 35.554205617801017 0 35.554205617801017 20.242374204626003 0 0 0 0 134.53770300027657 324.40045557173852 0 324.40045557173852 346.12065977243378 0 0 0 0 106.43471604380102 -27.110314115296205 0 -27.110314115296205 -70.44534143340934 0 0 0 0 38.554312674058565 -4.7311301569131388 0 -4.7311301569131388 -2.9416640774370535 0 0 0 0 178.02297301924227 13.285450701900231 0 13.285450701900231 -19.557084548941475 0 0 0 0 171.16018090674697 -14.338597215076561 0 -14.338597215076561 -59.546454597901402 0 0 0 0 168.53923223668244 17.711150740985204 0 17.711150740985204 -38.785055072068644 0 0 0 0 199.75975825287651 -7.9955088918929391 0 -7.9955088918929391 -9.4330047134792494 0 0 0 0 293.16738282644656 128.23848945211648 0 128.23848945211648 109.19385333922764 0 0 0 0 57.401577699118818 24.10106161073378 0 24.10106161073378 2.7842703032321765 0 0 0 0 207.33130570003959 -17.467736028800573 0 -17.467736028800573 2.5563877728214948 0 0 0 0 194.82587818952743 28.959718266406071 0 28.959718266406071 40.617043510624626 0 0 0 0 196.93102695758353 -0.93335106673953305 0 -0.93335106673953305 -64.486653730418254 0 0 0 0 428.95546272685169 -489.2406983287492 0 -489.2406983287492 -638.05009776773841 0 0 0 0 362.0330955486279 710.60933906501532 0 710.60933906501532 757.82092076031222 0 0 0 0 835.44124480757455 752.49364161787344 0 752.49364161787344 247.99115087465907 0 0 0 0 512.24457507729676 311.55653852792966 0 311.55653852792966 -284.64381900225635 0 0 0 0 240.42203502748453 63.699838255512077 0 63.699838255512077 19.069283587839891 0 0 0 0 465.95942895344342 270.63765306876303 0 270.63765306876303 -347.32022784890614 0 0 0 0 61.102747047436424 177.90882162060734 0 177.90882162060734 -182.97660286718565 0 0 0 0 -115.303298829298 438.39853870056322 0 438.39853870056322 -531.45806363070733 0 0 0 0 50.070015010181066 -3.1512465132049243 0 -3.1512465132049243 -38.133214674748899 0 0 0 0 297.84786100334895 454.35053841715489 0 454.35053841715489 -276.19635688650305 0 0 0 0 175.1325573250852 -32.737057404096063 0 -32.737057404096063 -42.434712393087381 0 0 0 0 341.97041081206407 365.42950980735986 0 365.42950980735986 -99.19293756166735 0 0 0 0 496.55028361125733 220.99471084225297 0 220.99471084225297 -268.29323554318762 0 0 0 0 481.52036339838014 97.795016960512839 0 97.795016960512839 -12.740709322861221 0 0 0 0 349.93975149799371 38.441196044703247 0 38.441196044703247 21.600769478842267 0 0 0 0 327.79021528401063 107.33416310139728 0 107.33416310139728 115.70737712815026 0 0 0 0 319.47393724427093 156.26291764241614 0 156.26291764241614 108.72484433884529 0 0 0 0 304.91180138003256 151.39127264695708 0 151.39127264695708 33.07398839511734 0 0 0 0 293.1295262012718 136.5301169033828 0 136.5301169033828 34.130665439479344 0 0 0 0 368.82083819579566 192.46268976835381 0 192.46268976835381 -91.953338012328459 0 0 0 0 301.6693753671716 282.05971861725629 0 282.05971861725629 -49.740407682482328 0 0 0 0 80.463015857472783 183.0950264279445 0 183.0950264279445 86.968824766390753 0 0 0 0 264.56230573468201 250.56530016689339 0 250.56530016689339 70.231842372730171 0 0 0 0 332.30990314562951 557.42627354440174 0 557.42627354440174 117.24334579092101 0 0 0 0 337.92401046138548 337.86467774263656 0 337.86467774263656 -66.749437648217281 0 0 0 0 178.97821502835723 344.2307306257353 0 344.2307306257353 350.52786040895626 0 0 0 0 232.45688043371774 340.40155928196145 0 340.40155928196145 232.80397648462713 0 0 0 0 36.132677708192205 121.92329292750583 0 121.92329292750583 80.239641545082122 0 0 0 0 80.55639099603286 144.04915696684748 0 144.04915696684748 176.64651670129206 0 0 0 0 66.634137171102338 36.881704779388201 0 36.881704779388201 -5.4897900982414285 0 0 0 0 184.15026949491585 202.62103186828972 0 202.62103186828972 42.721241369083145 0 0 0 0 230.47415436795563 146.05797727920071 0 146.05797727920071 105.71052828078609 0 0 0 0 243.7105267863335 112.12114602257202 0 112.12114602257202 15.652645793470583 0 0 0 0 134.05927394676291 68.035882436763131 0 68.035882436763131 48.628706099865667 0 0 0 0 299.23647467834758 54.101945072534768 0 54.101945072534768 -9.8998579659901225 0 0 0 0 212.72586948558455 99.953255765782842 0 99.953255765782842 58.152679488489866 0 0 0 0 -3.0643058166920474 54.665891744094822 0 54.665891744094822 43.058005129703915 0 0 0 0 197.42816235300415 8.837766762311503 0 8.837766762311503 16.48363676784993 0 0 0 0 191.60660624756929 56.192645615934453 0 56.192645615934453 42.22131334773735 0 0 0 0 23.022551054923902 55.153366411428635 0 55.153366411428635 10.510270655163003 0 0 0 0 266.30590319662224 40.618216366030765 0 40.618216366030765 -9.842346285869553 0 0 0 0 177.5944722878412 46.617664788803268 0 46.617664788803268 12.42097909673339 0 0 0 0 163.84075471137839 13.852669471352783 0 13.852669471352783 -5.4211472509414307 0 0 0 0 249.28874760890903 -25.129192246766252 0 -25.129192246766252 -176.63466700978643 0 0 0 0 323.0448399786369 129.00639658287506 0 129.00639658287506 -34.825511199196626 0 0 0 0 94.837543679997907 67.73889613619076 0 67.73889613619076 -50.563950850373658 0 0 0 0 336.12979886121502 -104.72856748970312 0 -104.72856748970312 -13.427678073594507 0 0 0 0 -9.7638990758023283 32.517827769642849 0 32.517827769642849 -0.78037616370420437 0 0 0 0 89.518118122126907 8.0872839758594637 0 8.0872839758594637 -44.805539324055189 0 0 0 0 75.708882341728895 40.20676392391988 0 40.20676392391988 -117.5119720740222 0 0 0 0 2.4073235086834757 -57.635578670701761 0 -57.635578670701761 -32.118641848279367 0 0 0 0 -49.677420734195039 -56.553910809230729 0 -56.553910809230729 -174.91039694700885 0 0 0 0 165.29375954074203 17.780691017294885 0 17.780691017294885 -198.26949328424962 0 0 0 0 95.216173320161289 26.343461578846032 0 26.343461578846032 -1.6727672950152623 0 0 0 0 24.193382400437258 26.752830183241713 0 26.752830183241713 -24.572399247360408 0 0 0 0 58.729853227142655 25.834405479127405 0 25.834405479127405 -1.0545172483343568 0 0 0 0 3.9745724915245475 2.341023764961875 0 2.341023764961875 0.019016597726039919 0 0 0 0 89.295376648133868 27.212842312467359 0 27.212842312467359 2.7261539677923921 0 0 0 0 1.1981728401402734 9.1444712761257811 0 9.1444712761257811 2.8545487395114346 0 0 0 0 4.458937267321744 52.071252741733588 0 52.071252741733588 -178.4704342970158 0 0 0 0 4.9375730637693778 -19.016984452567158 0 -19.016984452567158 -84.96932701492733 0 0 0 0 34.497995356708998 -20.205894582524763 0 -20.205894582524763 -196.42276684698663 0 0 0 0 -31.184220081471722 36.529337140165126 0 36.529337140165126 -99.632002359796388 0 0 0 0 -25.105875310080592 8.0636863776744576 0 8.0636863776744576 32.044042663758319 0 0 0 0 -59.374509467103053 74.927267323460001 0 74.927267323460001 -29.348558561346181 0 0 0 0 -62.936627180897631 90.227196250128372 0 90.227196250128372 -94.732751654042659 0 0 0 0 40.613756225895486 49.763233674192634 0 49.763233674192634 -9.6103260942454654 0 0 0 0 -44.690099821270451 33.673834050810072 0 33.673834050810072 78.118355411685116 0 0 0 0 66.163837445393938 51.218525201708161 0 51.218525201708161 -27.25681184955738 0 0 0 0 29.110249356736972 24.511628306931225 0 24.511628306931225 8.8195239041555755 0 0 0 0 59.765898489858955 -73.549531867917608 0 -73.549531867917608 -68.254711142177257 0 0 0 0 56.397778603539336 -4.531078964176686 0 -4.531078964176686 37.771488993987532 0 0 0 0 -13.8804671184771 20.408362338172537 0 20.408362338172537 391.06003775915281 0 0 0 0 -98.377735376649071 204.3467060594362 0 204.3467060594362 138.51379407785043 0 0 0 0 -21.434217355505098 123.66565508163239 0 123.66565508163239 -112.40286175143137 0 0 0 0 -22.998898866964737 146.18834740543798 0 146.18834740543798 28.006574952270057 0 0 0 0 29.452384980846546 22.62269538224723 0 22.62269538224723 -30.80593768343897 0 0 0 0 318.72540527963429 253.65980427967315 0 253.65980427967315 3.2384480268110565 0 0 0 0 404.68323084514122 46.170038775083412 0 46.170038775083412 -29.582214726531674 0 0 0 0 688.35560358362272 328.91501026144033 0 328.91501026144033 -103.60403042773942 0 0 0 0 681.65833545858914 -48.803336160421168 0 -48.803336160421168 -214.56512507845764 0 0 0 0 43.079695790846017 257.91074821637994 0 257.91074821637994 993.06032149164821 0 0 0 0 11.835609379102948 6.6747837890945831 0 6.6747837890945831 3.3095458669338456 0 0 0 0 42.691637553201872 9.3964540388128626 0 9.3964540388128626 16.552311461509703 0 0 0 0 22.890298590777093 39.16368241511384 0 39.16368241511384 -9.0988781294377077 0 0 0 0 -24.23427060836184 28.066494204430683 0 28.066494204430683 12.98415335537311 0 0 0 0 29.965306421843707 41.357625578249099 0 41.357625578249099 -5.1443793101603887 0 0 0 0 13.871654296941415 45.866497569367311 0 45.866497569367311 -2.4144156564383934 0 0 0 0 36.436297764306801 69.362097780816043 0 69.362097780816043 -27.989307114422445 0 0 0 0 109.45831291531795 24.062421310710192 0 24.062421310710192 -57.284419638136342 0 0 0 0 -69.135840465723049 -56.575714630168022 0 -56.575714630168022 -131.81084305886725 0 0 0 0 -78.744008161629608 66.353743474527391 0 66.353743474527391 -14.945928621553776 0 0 0 0 103.70207957547973 -51.78809962653645 0 -51.78809962653645 -133.75275536902356 0 0 0 0 167.53145816660253 47.511069884374365 0 47.511069884374365 -140.07062503475822 0 0 0 0 -50.203301387811734 -45.929099621861127 0 -45.929099621861127 -21.430242885118787 0 0 0 0 148.54603703012981 33.830877425964673 0 33.830877425964673 -17.382378184299341 0 0 0 0 239.95074053201824 61.249901354492181 0 61.249901354492181 -83.101628507633905 0 0 0 0 224.11219497633647 94.130901640383172 0 94.130901640383172 -13.822542711680626 0 0 0 0 193.3136965518861 27.090546416508005 0 27.090546416508005 -18.030358107685515 0 0 0 0 144.826345970283 -11.721364341234676 0 -11.721364341234676 -37.21181785600038 0 0 0 0 111.08826817735826 3.988742964840867 0 3.988742964840867 17.578519106347812 0 0 0 0 61.701149108077516 -25.201733209177064 0 -25.201733209177064 -18.061014748231173 0 0 0 0 83.367509362666169 6.5889759789861273 0 6.5889759789861273 7.0398637727912501 0 0 0 0 109.93462623807136 -5.7177158403023896 0 -5.7177158403023896 -0.89382822494053471 0 0 0 0 50.359844724862342 13.431255475311673 0 13.431255475311673 16.494366458425247 0 0 0 0 58.562461971980156 -3.3842095496027014 0 -3.3842095496027014 18.782763022499239 0 0 0 0 65.235220040867716 6.9999544896264752 0 6.9999544896264752 19.874126760269974 0 0 0 0 98.57084742722509 -3.5827423006180652 0 -3.5827423006180652 14.878460903836867 0 0 0 0 65.697218448224703 4.9100870856923962 0 4.9100870856923962 19.222714385770814 0 0 0 0 53.435878440795932 6.2127318020106941 0 6.2127318020106941 21.415435715313151 0 0 0 0 49.018267714964168 4.8954720214101144 0 4.8954720214101144 23.226323436615985 0 0 0 0 54.480547049206507 3.2001244863349712 0 3.2001244863349712 19.673168997488574 0 0 0 0 145.12819631028106 3.9826842307243169 0 3.9826842307243169 6.0088526322365396 0 0 0 0 167.25638693400833 36.068390532934018 0 36.068390532934018 16.445615674896544 0 0 0 0 98.274212553180405 2.4999129051725504 0 2.4999129051725504 18.297341099138748 0 0 0 0 102.71815346501899 7.5254974447859695 0 7.5254974447859695 16.368164286022875 0 0 0 0 99.538976907992037 4.680587993856534 0 4.680587993856534 13.201503410069563 0 0 0 0 105.69921866088407 1.6954620658370914 0 1.6954620658370914 14.639638885769273 0 0 0 0 95.824255538929719 11.341295438168345 0 11.341295438168345 13.215811675567238 0 0 0 0 103.88907154978369 12.725028469284439 0 12.725028469284439 11.582973789831158 0 0 0 0 107.11820624661777 2.0621965467616974 0 2.0621965467616974 19.822601506959472 0 0 0 0 140.79235978097131 13.53015273840947 0 13.53015273840947 13.811587110318385 0 0 0 0 123.98576781740121 4.9545443596462064 0 4.9545443596462064 11.09044066228671 0 0 0 0 132.69022068422782 24.182497905294213 0 24.182497905294213 5.4256407579978259 0 0 0 0 105.89283504674677 25.189701035116741 0 25.189701035116741 5.3962627143843065 0 0 0 0 140.29502917699574 28.55070426578277 0 28.55070426578277 -10.514482491527815 0 0 0 0 133.07209707118454 103.11594863359187 0 103.11594863359187 -98.542050844429014 0 0 0 0 36.115815992292482 16.700839187815291 0 16.700839187815291 -62.310420925746257 0 0 0 0 76.257289746494237 16.203740280242869 0 16.203740280242869 -2.918048191325767 0 0 0 0 76.311941094161256 6.2582248327199324 0 6.2582248327199324 -3.8207005464533585 0 0 0 0 84.804640362389762 -30.990267018231265 0 -30.990267018231265 -19.430029917243889 0 0 0 0 39.361635601853777 56.278010758094979 0 56.278010758094979 33.633476957141283 0 0 0 0 60.320163952138032 14.95937567824858 0 14.95937567824858 -3.035770286111855 0 0 0 0 51.023417591035098 -1.9633731081955297 0 -1.9633731081955297 -4.5958575733273879 0 0 0 0 71.748890937553369 5.9506181574647599 0 5.9506181574647599 19.446731360713557 0 0 0 0 63.930782071634894 35.963665553151259 0 35.963665553151259 -74.143423362190788 0 0 0 0 45.609738028259017 17.251521537770714 0 17.251521537770714 -65.777075028355284 0 0 0 0 59.849466019601095 -17.565531977358887 0 -17.565531977358887 26.311491433877336 0 0 0 0 29.577254073426957 4.2167907678572192 0 4.2167907678572192 -25.122550705861613 0 0 0 0 50.549229168667765 10.419245136386756 0 10.419245136386756 -0.67044137860624708 0 0 0 0 51.298175067357079 18.553228687301953 0 18.553228687301953 14.894472653320918 0 0 0 0 32.374334514785005 28.248295520985266 0 28.248295520985266 12.324532084696784 0 0 0 0 14.934276842192048 28.190669651531266 0 28.190669651531266 17.274807926188259 0 0 0 0 41.137407717007591 28.573080135897953 0 28.573080135897953 8.4782722471056786 0 0 0 0 43.443527334163264 31.911617601017497 0 31.911617601017497 -29.777153957852079 0 0 0 0 91.951148729633132 33.818680195525303 0 33.818680195525303 -83.187971913713682 0 0 0 0 82.25439668539002 15.565163594412752 0 15.565163594412752 -103.85090689792014 0 0 0 0 -91.187558769030147 95.93380521781819 0 95.93380521781819 57.61031319956237 0 0 0 0 30.159554844793092 -96.564349620698749 0 -96.564349620698749 -27.888416846501059 0 0 0 0 31.245185138352099 20.254145328424102 0 20.254145328424102 -17.321321401041132 0 0 0 0 70.232008874074381 27.877098030395473 0 27.877098030395473 -47.210200100732393 0 0 0 0 41.952124569950797 11.639871001630198 0 11.639871001630198 -0.71372600296792255 0 0 0 0 81.050632140973903 47.436589703088202 0 47.436589703088202 -24.107670614554763 0 0 0 0 66.895499921943156 1.9223047987885877 0 1.9223047987885877 -8.2949561151533544 0 0 0 0 151.80549892927593 -5.334697777798624 0 -5.334697777798624 -17.53199094339061 0 0 0 0 3.5662379671382212 4.0639552681893889 0 4.0639552681893889 -1.7331255379348356 0 0 0 0 79.507882860623795 9.2472421566185403 0 9.2472421566185403 16.765836692912899 0 0 0 0 1015.4812619381555 -1078.7684984969746 0 -1078.7684984969746 158.95662344621124 0 0 0 0 195.18174557036582 1280.8666545048377 0 1280.8666545048377 450.36768028842818 0 0 0 0 2274.7382761368062 -373.38494345570518 0 -373.38494345570518 -745.70357174927199 0 0 0 0 1514.5242676804264 -240.32581156059496 0 -240.32581156059496 -721.14451590828457 0 0 0 0 1540.0517006810769 -286.61287859237291 0 -286.61287859237291 -646.90282378228585 0 0 0 0 2253.6634611130721 -154.97638671445475 0 -154.97638671445475 -652.10419187496427 0 0 0 0 1068.0680966559012 -882.87413721864232 0 -882.87413721864232 756.125526479379 0 0 0 0 1386.8988162398164 -1233.2165980524037 0 -1233.2165980524037 507.41288678712954 0 0 0 0 7.7430616369309035 -0.55049020246869418 0 -0.55049020246869418 -4.9315210965208109 0 0 0 0 34.465549888049864 11.381962065921066 0 11.381962065921066 -3.0627463998198681 0 0 0 0 704.63057346027199 39.983367782499954 0 39.983367782499954 -350.56655386951024 0 0 0 0 72.1752461417218 -4.8017590984156868 0 -4.8017590984156868 -47.715143470288467 0 0 0 0 8.4257152678724125 -2.5022955747325568 0 -2.5022955747325568 -17.266402178302922 0 0 0 0 7.5104515658458695 -142.26025900181321 0 -142.26025900181321 -89.465760190470519 0 0 0 0 68.503631958621554 3.126373139995394 0 3.126373139995394 -452.07263498954126 0 0 0 0 454.90255109477584 346.16234262870375 0 346.16234262870375 -934.20157131510314 0 0 0 0 905.52955594104787 -472.94428401197501 0 -472.94428401197501 -346.55592134144354 0 0 0 0 3149.839031765041 34.671873046451765 0 34.671873046451765 -1399.3814924177732 0 0 0 0 3114.1133254054002 223.87960093030597 0 223.87960093030597 0.76943155340035219 0 0 0 0 8.9509794506562343 2.5923767017427011 0 2.5923767017427011 -2.6108331240219336 0 0 0 0 -69.653889157160847 563.32750910481866 0 563.32750910481866 -606.00832712463125 0 0 0 0 2355.3245322707808 348.24043322474427 0 348.24043322474427 -1084.2511684369347 0 0 0 0 -292.5163820593225 -1217.8984320551999 0 -1217.8984320551999 -676.86319137918599 0 0 0 0 -957.06724307635523 384.12727523927606 0 384.12727523927606 266.52688161898277 0 0 0 0 -319.83840146879811 -783.95579578744741 0 -783.95579578744741 44.975076018764383 0 0 0 0 39.842147041686985 -978.5507358856363 0 -978.5507358856363 -1045.43851397854 0 0 0 0 28.974048721016146 -24.576989363550375 0 -24.576989363550375 15.937622830721068 0 0 0 0 -429.82575741967594 -41.210420038479242 0 -41.210420038479242 -200.49399613418836 0 0 0 0 1451.6460838727762 594.26606385783816 0 594.26606385783816 121.86457855917797 0 0 0 0 184.09511728378129 -618.13267735841623 0 -618.13267735841623 -574.58115658568681 0 0 0 0 268.48432117784978 322.56062599001802 0 322.56062599001802 4.1031325818630648 0 0 0 0 86.261255831683229 153.28935581897224 0 153.28935581897224 -147.59769171445708 0 0 0 0 -454.45246428817336 -511.37839873136363 0 -511.37839873136363 -88.413660423712827 0 0 0 0 24.489744279199897 -20.302985071746015 0 -20.302985071746015 13.852001206211668 0 0 0 0 1173.6157773784762 437.04936374311103 0 437.04936374311103 -337.44428376097289 0 0 0 0 9.1872436477284509 -7.7494378023537323 0 -7.7494378023537323 6.0875093109801179 0 0 0 0 -173.55543655300426 -518.67842646591498 0 -518.67842646591498 830.97797211999477 0 0 0 0 -319.6834469713358 -350.74190291008426 0 -350.74190291008426 -32.53996029875816 0 0 0 0 -213.31982965047064 -319.43032872047343 0 -319.43032872047343 -149.66925652446582 0 0 0 0 1381.0404924551131 -491.67936804662509 0 -491.67936804662509 -216.50582501593362 0 0 0 0 171.04974588539153 -352.47513440568116 0 -352.47513440568116 -107.34323811954891 0 0 0 0 144.38452677737587 -144.30470867330428 0 -144.30470867330428 14.821537557800184 0 0 0 0 -382.62682210096682 -280.74858356943423 0 -280.74858356943423 51.462266502048351 0 0 0 0 23.210092001801968 -99.966800311330644 0 -99.966800311330644 -208.84745535629952 0 0 0 0 44.721332843346318 -431.42009888310929 0 -431.42009888310929 31.345006632419199 0 0 0 0 -152.39307518764326 -461.39104360982003 0 -461.39104360982003 -706.13283699466638 0 0 0 0 76.786472863641038 -17.170745976106641 0 -17.170745976106641 2.5482664175628846 0 0 0 0 303.06005737148553 -172.82084724836022 0 -172.82084724836022 -355.77775453968934 0 0 0 0 236.80176899576873 -364.8343663153122 0 -364.8343663153122 855.40656776894366 0 0 0 0 281.89410757926453 -629.56889271911734 0 -629.56889271911734 -1572.6846121863625 0 0 0 0 -46.826110921348118 -658.65138668862483 0 -658.65138668862483 -562.91588355435829 0 0 0 0 -242.03842206133413 -377.19497571820489 0 -377.19497571820489 -99.967890573031809 0 0 0 0 -29.685256239261662 -64.439770575895153 0 -64.439770575895153 274.13062470068826 0 0 0 0 -9.4288715235252312 -121.27181889522922 0 -121.27181889522922 -246.64796379225902 0 0 0 0 105.28047405530299 -21.141983869734137 0 -21.141983869734137 1.949333043996655 0 0 0 0 49.341764765516928 123.49097486922324 0 123.49097486922324 -6.7307220048612635 0 0 0 0 18.972825163902598 262.12499798680892 0 262.12499798680892 214.76415487302313 0 0 0 0 -8.96784534570088 173.93863698834343 0 173.93863698834343 -37.420285697869076 0 0 0 0 107.20720952120746 159.73247158568358 0 159.73247158568358 -50.407891330509756 0 0 0 0 77.480672582472835 112.38413117151003 0 112.38413117151003 38.98454997746785 0 0 0 0 1891.9939628715056 690.56417157397891 0 690.56417157397891 -131.76884977562213 0 0 0 0 467.33664291203058 679.30401153515083 0 679.30401153515083 864.42983756280591 0 0 0 0 132.35753388238845 115.05205788442152 0 115.05205788442152 138.79949323337132 0 0 0 0 492.30351229008647 301.43884055553997 0 301.43884055553997 -140.60619672870416 0 0 0 0 0.42076899811705459 1.6353778432899198 0 1.6353778432899198 -2.6365994656790139 0 0 0 0 415.33544852288696 43.489458585795091 0 43.489458585795091 -344.40472936473543 0 0 0 0 863.30588321589858 -98.185321167626853 0 -98.185321167626853 -192.13573772532345 0 0 0 0 1383.0812215273982 -283.01551226614674 0 -283.01551226614674 -360.05211042914789 0 0 0 0 1080.6501376458145 -1072.3352045951328 0 -1072.3352045951328 1043.7996006123076 0 0 0 0 2366.0676519455833 -768.04835223695522 0 -768.04835223695522 -125.56358757796534 0 0 0 0 17.75601310998907 0.28479023401396297 0 0.28479023401396297 -2.9122391723980385 0 0 0 0 347.77474286760298 -324.54782466291135 0 -324.54782466291135 441.91859510948279 0 0 0 0 11.303988686180674 4.4916568431690393 0 4.4916568431690393 -2.2918978422816103 0 0 0 0 -5.6451832057464344 2.6852572761096525 0 2.6852572761096525 -6.3766447511218303 0 0 0 0 7.579458642681395 5.4825833439122462 0 5.4825833439122462 -5.9676148908402009 0 0 0 0 7.3966465694632504 12.470242777671825 0 12.470242777671825 -9.3219934392284589 0 0 0 0 14.526114916641973 19.006351640280482 0 19.006351640280482 -8.0916308979639862 0 0 0 0 -3.1516876183318203 4.2324049927484495 0 4.2324049927484495 0.67339178554165802 0 0 0 0 1341.7281141695476 -368.96130741039042 0 -368.96130741039042 -172.8377842768241 0 0 0 0 1298.4529056662086 -602.39412052480816 0 -602.39412052480816 132.33483645252727 0 0 0 0 -9.4210433941607334 20.134975338496339 0 20.134975338496339 14.382561514542829 0 0 0 0 12.373155682485958 9.6237463756714305 0 9.6237463756714305 -2.2042774347926297 0 0 0 0 10.177615833337768 3.6734118377638652 0 3.6734118377638652 -12.36702940888074 0 0 0 0 17.184559706482105 0.66413049265509017 0 0.66413049265509017 14.277670653781101 0 0 0 0 47.167311058650739 10.706911934476409 0 10.706911934476409 -10.037451215456485 0 0 0 0 24.126686357463768 14.961265899642626 0 14.961265899642626 -6.4047481753123066 0 0 0 0 12.115938772826354 5.2040638282162179 0 5.2040638282162179 -1.0997965997124135 0 0 0 0 11.285636678716401 3.001631420329204 0 3.001631420329204 -18.156509475083574 0 0 0 0 21.676133670307991 -6.7772539348680354 0 -6.7772539348680354 -9.3313461868756349 0 0 0 0 76.083571483104606 -107.96548225153401 0 -107.96548225153401 -635.70057233750094 0 0 0 0 -27.631916549929883 210.15797909977778 0 210.15797909977778 -133.70331500627663 0 0 0 0 -77.844648763057194 -49.083560903525722 0 -49.083560903525722 -587.29890669561064 0 0 0 0 -324.21294804538047 -141.69053600040024 0 -141.69053600040024 72.494532398033243 0 0 0 0 -410.83773353284778 -296.52755716567106 0 -296.52755716567106 -65.409164987650001 0 0 0 0 8.900551862672728 -387.68208423803299 0 -387.68208423803299 -107.03289323787021 0 0 0 0 20.092007081633255 2.3697405054953187 0 2.3697405054953187 -1.6691114906760944 0 0 0 0 164.92250046227127 -212.74383338487769 0 -212.74383338487769 -242.80838050480915 0 0 0 0 272.64924246830196 -45.373440733914322 0 -45.373440733914322 2.4215438136182001 0 0 0 0 386.58982432868288 -45.994821543675243 0 -45.994821543675243 -50.941133406205154 0 0 0 0 21.750207997791222 46.951267991978739 0 46.951267991978739 53.377644314586632 0 0 0 0 267.98360866466101 103.45350276086265 0 103.45350276086265 19.641724098766872 0 0 0 0 -905.20378925250043 166.81093384383121 0 166.81093384383121 356.20906324743373 0 0 0 0 1.3477172818022538 2.2827998567590768 0 2.2827998567590768 2.3126101875819991 0 0 0 0 -765.41346016274747 -220.79991953015394 0 -220.79991953015394 723.9395477279063 0 0 0 0 2769.4335616382814 -70.006292147069075 0 -70.006292147069075 -347.07387545795109 0 0 0 0 245.93914164250236 -875.47961322015067 0 -875.47961322015067 1011.5306256474082 0 0 0 0 30.330523970666988 -6.5497491866175572 0 -6.5497491866175572 1.4426538433447662 0 0 0 0 2414.5944081666712 1142.2808177715001 0 1142.2808177715001 -132.07809752569619 0 0 0 0 1941.0699612303979 978.58291208821765 0 978.58291208821765 -390.00553073637411 0 0 0 0 2229.9828081922096 802.02560689703944 0 802.02560689703944 -434.25190385963151 0 0 0 0 22.605260145879583 9.2356932122147555 0 9.2356932122147555 -9.9193253405599364 0 0 0 0 27.622347946293303 340.55554608972125 0 340.55554608972125 -1135.3266662413789 0 0 0 0 2.8935879644595843 1.8772008817575596 0 1.8772008817575596 -2.1236347506112399 0 0 0 0 92.219969804806169 -554.37915576827118 0 -554.37915576827118 -837.86744987315797 0 0 0 0 39.983420184347779 5.0693213651411497 0 5.0693213651411497 -28.038649901832429 0 0 0 0 103.80338150359603 -836.80924646346193 0 -836.80924646346193 497.98733912652233 0 0 0 0 -406.27572203834279 -335.66756761773968 0 -335.66756761773968 -274.76292648516301 0 0 0 0 870.79708713619038 -238.3188108934728 0 -238.3188108934728 -267.51881411385148 0 0 0 0 440.55774427509459 491.22080533349344 0 491.22080533349344 -181.00451523585025 0 0 0 0 -71.675857352849562 449.4531020405434 0 449.4531020405434 -183.11670345275343 0 0 0 0 
</DataArray>
<DataArray type="Float64" Name="cross_section_updated" format="ascii">
1 1 1 1 1 1 1 1 0.01088390112941727 1 1 1 1 1 1 1 1 0.012003136082915374 1 1 1 1 1 1 0.011886308805380934 1 1 1 1 1 1 1 1 1 1 0.012501186176542271 1 1 1 1 1 1 0.0093350720759555889 1 1 1 1 1 1 1 1 1 1 1 1 0.016341432438887023 1 1 1 1 1 1 1 1 1 1 1 1 1 0.0098674840879390234 1 1 1 1 1 1 1 1 1 1 1 1 1 1 1 1 1 1 1 1 1 1 1 0.012663160001471024 1 0.010048755058665468 1 0.014735941519551723 1 1 1 0.0098318130650079869 1 1 1 1 1 1 1 1 1 0.013745517408146564 1 1 1 1 1 1 1 1 1 1 1 1 1 1 1 1 1 1 1 1 0.011666846199373658 1 1 1 1 1 0.011453684807500308 1 1 1 1 1 1 0.011866533951166672 1 1 0.014277415458222757 1 1 1 1 1 0.012406670739172787 1 1 1 1 1 1 1 1 1 1 1 1 1 0.010767073851882868 1 1 1 1 1 1 1 1 1 1 1 1 1 1 1 1 1 1 1 1 0.0093827710768164454 1 1 0.010251044223966967 1 1 0.0096914668490611731 1 1 1 1 1 0.014622626171355881 1 1 1 1 1 1 1 1 0.015922142267557882 1 1 1 0.0117645184603444 1 1 1 1 0.012421947827214397 1 1 1 1 1 1 1 1 1 1 0.015315762688743713 1 1 1 1 1 1 1 1 1 1 1 0.020937849777385067 1 1 1 1 0.010945645275045036 1 1 0.0081179050602541089 1 1 1 0.01015754256840536 1 1 1 0.012080847126776165 1 1 1 1 1 1 1 0.021357276404196417 1 0.0099535749043797479 1 1 1 1 1 1 1 1 1 1 1 1 1 1 1 1 1 1 1 1 1 1 1 1 1 1 1 1 1 1 1 1 1 1 1 0.013875778545509775 1 1 1 0.010550665770939492 1 1 1 1 1 1 0.010959219896346604 1 1 1 1 1 1 1 1 1 1 0.0095886265964115706 1 1 1 1 1 1 1 0.010480116898068397 1 0.01003847307673203 1 1 1 0.018297232110486748 1 1 1 1 1 1 0.012668163927523724 1 1 1 0.019209259406783048 1 0.019552479821522341 1 1 1 1 1 1 1 1 1 1 1 1 1 1 1 0.010563170159672189 1 1 1 1 1 1 1 1 1 1 1 1 1 1 1 1 1 1 1 1 1 1 1 1 1 0.0094088106037957739 1 1 1 1 0.015819369892624013 1 1 1 0.012151529275612322 1 1 1 1 1 1 1 1 1 0.0090575163964812782 1 1 0.017274392407851225 1 0.0077250233987810413 1 0.0092592942798516049 1 1 1 1 1 1 0.012621807285313777 1 1 1 1 1 1 1 1 1 1 1 1 1 1 1 1 1 1 1 1 1 1 1 1 1 1 1 0.010427652312698137 0.010045727441267983 1 1 1 1 1 0.010137073242962306 0.017326271298159619 1 0.009847139583954001 1 1 1 1 0.018042432653668245 1 1 1 0.017942619035475334 1 1 1 1 1 1 1 1 1 1 1 1 1 1 0.014274712114243493 1 0.017518741088973493 1 1 0.011285358689585993 0.010989884883427149 0.018587602572840065 1 0.018503096002973354 0.0066274542190986659 1 1 1 1 1 1 1 1 1 0.0087976247549754784 1 1 0.010456586899389468 1 1 1 0.017162171852376618 1 1 1 1 0.0098498645458533901 1 1 0.010115282567936187 1 1 1 1 0.0098637850477457968 1 1 1 1 1 1 1 1 1 0.011267609322490411 1 1 1 1 1 1 1 0.010026880033560623 1 1 0.010995427641898776 1 1 1 0.016007835085099131 0.0098592172497502933 1 1 1 1 0.010603067820041091 1 1 1 1 0.011798681775300489 1 1 1 1 1 1 1 1 1 1 0.011652468554111372 1 0.012085687688369279 1 1 1 0.0099456712919941317 1 1 0.0098252933134440161 1 1 1 1 1 1 1 1 1 1 1 1 1 1 1 1 0.011738920703444485 1 1 0.013975223924376752 1 1 1 1 1 1 1 1 1 1 1 1 0.01124072942249001 1 1 0.010003010379175753 0.012550705342776948 0.011621076842575712 1 1 0.010691567831463503 1 0.011274984062152361 1 1 0.011845721797917626 1 1 0.010807606860876605 1 0.011583241645839388 1 0.010419736295672034 0.011310340834404157 1 1 0.013278065713591429 1 1 1 0.011722460777488074 1 1 1 1 0.010051830003824501 1 1 1 0.010304627936048442 0.010599036028457512 1 1 1 0.011886814992796495 1 1 0.011279805982098393 1 1 1 1 0.011017097676841017 1 1 0.010764155609353003 0.010666535324005575 1 1 0.010330784301571014 1 1 0.010275937162035372 1 0.011945359703757662 1 1 1 1 1 1 1 1 0.010119493322970614 1 1 1 1 0.010745895196644444 1 1 1 1 0.010199555965014926 1 1 1 1 1 1 1 1 1 0.011379182313960838 1 1 0.010110520624524782 1 1 1 1 1 1 1 1 1 1 1 1 1 1 1 1 1 1 1 1 0.0099712798276896386 1 1 0.013236113250253947 1 0.013078191602236267 1 1 1 1 1 1 1 1 1 1 1 1 1 1 0.010340190988802289 1 1 1 1 0.010846135769957124 1 1 1 1 1 1 1 1 1 1 1 1 1 1 1 1 1 1 1 1 1 1 1 1 1 1 1 1 0.010603349577036998 1 1 0.010420455858745807 1 1 1 1 0.010177097571583605 1 1 1 1 1 1 0.011335632879255843 1 1 0.013501769996377493 1 0.0099952560063580054 1 1 1 1 0.010106817864902112 1 0.016799927766506254 0.010871298889399568 1 1 0.010102530233668442 1 1 1 1 1 1 1 1 1 1 1 1 1 1 1 0.0088799526337399667 1 1 1 1 1 1 1 1 1 1 1 1 1 1 1 1 1 1 1 1 1 0.011621473337460742 1 1 1 1 0.010758480718747078 1 1 1 1 1 1 1 0.0094711420299441844 1 1 1 1 1 1 1 1 1 1 1 1 1 1 1 1 1 1 1 1 1 1 1 1 1 1 1 1 1 1 1 1 1 1 1 1 1 1 1 1 1 1 1 1 1 1 1 1 1 1 1 1 1 1 1 0.011256886905024303 1 1 0.010848791297981757 1 0.010897595602775695 1 1 1 1 1 1 1 1 1 1 0.010855787322860742 1 1 1 1 0.012481074714363376 0.01098975689114123 1 1 1 1 1 1 1 0.014096790175730628 0.010615730561807812 1 1 1 1 1 1 1 0.010293732666887422 1 1 1 1 1 1 1 1 1 1 1 1 1 1 1 1 1 1 1 1 0.010694832249050986 1 1 1 1 1 1 1 1 0.010211764190362753 1 1 0.010269401630584438 1 1 1 1 1 1 1 1 1 1 1 1 1 1 1 1 1 1 1 1 1 1 1 1 1 1 1 1 0.011235646531776786 1 1 1 1 1 1 1 1 1 1 1 1 1 1 1 1 1 1 1 1 1 1 1 0.010408846215030444 1 1 1 1 1 1 1 1 1 1 1 1 1 1 1 1 1 1 1 0.0080548803569578352 1 1 1 1 0.0099839507791782238 1 1 1 1 1 0.0093529162041758544 1 1 1 1 1 0.021015181311984748 1 1 1 0.022286729999025943 1 1 1 0.0049916879536835209 1 1 0.010637167547513248 1 0.015755993041338463 1 1 1 0.012155355559759102 1 1 1 1 0.0058678528194047895 1 1 1 1 1 1 1 1 1 1 1 1 1 1 1 1 1 1 1 1 0.011675122510801555 1 1 1 1 1 1 0.0088582383504859259 1 1 1 0.010512146183555636 1 1 1 1 1 1 1 1 1 0.011477708464844029 1 1 1 1 0.019036500647135333 1 1 1 1 1 1 0.015483052180766668 1 1 1 0.0097559141375089878 1 1 1 1 0.0092143070219597896 1 1 1 1 1 1 1 1 1 1 0.011594001534643978 1 1 1 1 1 1 1 1 1 1 0.011200885845973832 1 1 1 0.012678594310817859 1 1 1 1 1 1 1 1 1 1 1 0.012922977114931329 1 1 1 1 1 1 0.011147473062553967 0.012305723955318936 1 0.011805842427978636 1 1 1 1 1 1 1 1 1 1 1 1 0.012201041959150276 0.0096937625545523345 1 1 1 1 0.011551482981177048 1 0.012767583987032944 1 1 1 1 1 1 1 1 1 0.010569396259126245 1 0.013430391892522261 1 1 0.011296925233812472 1 1 0.010545318311554891 1 1 0.013697679144331808 1 0.010906330373098906 1 1 1 0.010826847402059525 1 1 1 0.010524937206737793 0.009309120043849671 1 1 1 0.015112001957534905 1 0.013409744359935669 1 1 1 1 1 1 1 1 1 1 1 1 1 0.0098240861735387243 1 0.0099999243466683454 1 0.013027831724578871 1 1 0.010045334311795048 1 1 1 1 1 0.0098782200906397284 1 1 1 1 1 1 1 1 1 1 1 1 1 1 1 1 1 1 1 1 1 1 1 1 1 1 1 1 1 1 0.010134368954920699 1 1 1 1 0.0099781283521146753 1 1 0.01006142999389693 1 1 1 1 1 1 1 1 1 1 1 0.015085815034445386 1 1 1 1 1 1 1 1 1 1 1 1 1 1 0.014113158323686431 1 0.0099951279111871755 0.009873246873561517 1 1 1 0.0086705195029159916 1 1 1 1 1 1 1 1 1 1 1 1 0.010039340507010689 1 1 1 1 1 1 0.015937948419501836 1 1 1 1 0.016110758684957885 1 1 1 1 1 1 0.010122358973195794 1 1 1 1 1 1 1 0.016565493444241471 1 0.012866388939612712 1 1 0.01649605471689989 1 0.012932662707729331 1 1 1 1 1 1 1 1 1 1 1 1 1 1 1 1 1 1 1 1 1 1 1 1 1 1 1 1 1 1 1 1 1 1 1 1 1 1 1 0.010067506330723964 1 1 1 1 1 1 1 1 1 1 1 1 1 1 1 1 1 1 1 1 1 1 1 1 1 1 1 1 1 1 1 0.010245869853352702 1 1 1 1 0.011444617590907587 1 1 1 1 1 1 0.012261096709762578 1 0.006648958105460772 1 1 0.0081206364877783599 1 1 1 1 1 0.01010881630704983 1 1 0.010622971832569723 1 1 1 1 1 0.015090770663748648 1 1 1 1 1 1 1 1 1 1 1 1 1 0.016657314302483465 1 0.010030498997693276 1 1 0.0138074333123413 1 1 1 1 0.012430289009277522 1 1 1 1 1 1 1 1 1 1 0.010201416016029533 1 1 1 1 1 1 1 1 1 1 1 1 1 1 1 1 1 1 0.011727621678320845 1 1 1 1 1 1 1 1 1 1 1 1 1 1 1 1 0.010203368807746574 1 1 1 1 1 1 1 1 1 1 1 1 1 0.010182893169406789 1 1 1 0.010428763022759491 1 1 1 1 1 1 1 1 1 1 1 1 1 1 0.010752657044113984 1 1 1 0.011236916128257704 1 1 1 1 1 1 1 0.010536200666304086 1 1 0.0094786931871072184 1 1 1 1 1 1 1 1 0.0099809956194958725 1 1 1 1 1 1 1 1 1 1 1 1 1 1 1 1 1 1 1 1 1 1 1 1 1 1 1 1 1 1 0.011647889617927395 1 1 0.01234297740117824 1 1 1 1 1 1 1 1 1 1 1 1 1 0.014021882656680581 1 1 1 1 1 1 1 1 1 1 1 1 1 1 1 1 1 1 1 1 1 1 1 1 1 1 1 1 1 1 1 1 1 0.012414826294054581 1 1 1 1 1 1 1 1 1 0.016423819989521568 1 1 1 1 1 1 1 1 1 1 1 1 1 1 1 1 1 1 1 1 1 1 1 1 1 1 1 1 1 1 1 1 1 1 1 1 1 1 1 0.015053921413425755 1 1 0.012936853483508108 1 1 1 0.013169154820893668 0.015795404512197794 1 1 1 1 1 1 1 1 0.019388295446912965 1 1 0.010894647580837771 1 0.0099122724771902697 1 1 1 0.021152610802893965 1 1 0.012684392194789942 0.010000221426752887 1 0.010646940856321119 1 0.012847970613459167 1 0.011373934543510083 0.014796980002138525 1 1 0.010336574366000516 1 1 1 1 0.0088757885467419927 1 1 1 1 1 1 1 1 0.010899737352190367 1 1 0.011467835690852126 1 0.012197653564680474 1 1 1 1 1 1 1 1 1 1 1 1 1 1 1 1 1 1 1 0.010042091789489126 1 1 1 1 1 1 1 1 1 1 1 1 1 1 1 1 0.013392717201490986 1 1 0.016658269131319535 0.013616488204632127 1 1 1 1 1 1 1 1 0.018542628467503243 0.017449632500261103 1 1 1 0.015154718013934775 1 0.014574772715262894 1 1 1 1 1 0.0092933257763533651 1 1 1 1 1 1 1 1 0.017909802274490287 1 0.014430306891862966 1 1 1 1 1 1 1 1 1 1 1 1 1 0.010167614239636441 1 0.0096848041514441142 1 1 0.010775085089282436 1 1 0.010002204222608972 1 1 1 1 1 0.018004093308337327 1 0.010430294116333758 1 1 1 1 1 1 1 0.0098864753302442231 0.010003954255931355 1 1 0.014132275640723764 1 1 0.010009147471099281 0.020831807602550139 1 1 1 1 1 1 1 1 1 1 1 1 1 1 1 1 0.0080038263850392647 0.0093625191644726401 1 1 1 1 1 1 1 1 1 0.010382228967817939 1 1 1 0.011349518591302572 1 1 1 1 1 1 1 1 1 1 1 1 1 1 1 1 1 1 1 1 1 0.011104099782306968 1 1 1 1 1 1 1 1 1 1 1 1 0.012718447814506718 0.01142977675666868 1 1 0.010082420270838511 0.0098682031578614885 1 1 1 1 0.012888822902902223 1 1 1 0.011758081827826866 1 0.015604856574285718 1 1 0.0094414737381560247 1 1 0.0086340400506426107 1 1 1 0.0095484165416961798 1 1 1 1 0.010545113272345379 1 1 1 1 1 1 1 1 1 1 1 1 1 1 1 1 1 1 1 1 1 1 1 1 1 1 1 1 1 1 1 1 1 1 1 1 1 1 1 1 0.010809998850000266 1 1 1 1 1 0.011792985071654057 1 1 1 1 1 1 1 1 1 1 0.010501137943855618 1 1 1 1 1 1 0.011649663179826915 1 0.0101660686774063 1 1 1 1 0.010666676958173117 1 1 1 1 1 1 1 1 1 1 1 1 1 1 1 1 1 1 1 1 0.014804128538602286 1 1 0.011244826229045792 1 1 1 1 1 1 1 1 1 1 1 0.010862992618713653 1 1 1 1 1 1 1 1 1 1 0.010759032152423013 1 1 1 1 1 1 1 1 1 1 1 1 1 1 1 1 1 1 1 1 1 1 1 1 1 1 1 1 1 1 0.0097277121986852691 1 1 1 1 1 1 1 0.013265449053978072 1 1 1 1 0.01603090470374785 1 0.011086865519574383 1 1 1 1 0.015990110061622077 1 1 0.010094377157197439 1 1 1 1 1 1 1 0.011203953803179487 1 1 0.010312011984208195 1 0.015618129056114406 1 1 1 1 0.011850940670593 0.010030969243177059 1 0.0098643646139842597 1 1 0.011245672963129425 1 0.014373074096294628 1 1 1 0.012813993601059752 1 0.011221322685366244 0.010367129109139228 1 1 0.010658372116557934 1 1 1 1 1 0.015847706396595107 1 1 1 1 1 0.010223188465177783 1 1 1 1 0.0099627555499524501 1 1 1 1 1 1 1 1 1 1 1 1 1 1 1 0.011074447395178617 1 1 1 1 0.012074872958858921 1 1 1 1 1 1 1 0.0099877728689696538 0.012179802691437987 1 1 1 1 0.013383732343528942 1 0.011261817176085731 1 1 1 1 1 1 1 0.011026368993731704 1 1 1 1 1 0.0092546956859487182 1 1 1 0.011334398780254306 1 1 0.010687831300742296 1 0.010908747092242797 1 1 1 0.0102655206201838 1 1 1 0.011586029790577799 0.010987008709688393 1 1 1 1 1 1 1 1 1 1 1 1 1 1 1 1 1 1 1 1 0.01303100432697977 1 1 1 1 1 1 1 0.010060192712542489 1 1 1 1 1 1 1 1 1 1 1 1 1 1 1 1 1 1 0.013831083173247164 1 1 1 1 1 1 1 1 1 1 1 1 1 1 1 1 1 1 1 1 1 1 1 1 1 1 1 1 1 1 1 0.014619958892356667 1 1 1 1 1 1 1 1 1 1 1 1 1 1 1 1 1 1 1 1 1 1 1 0.010336868117095801 1 1 1 1 0.012380946519969604 1 1 1 1 1 0.010418228184303721 1 1 1 1 1 1 1 1 1 1 1 1 1 1 1 1 1 1 1 0.0101472284827925 1 1 1 0.0084590599192932332 0.010418380279135601 1 1 0.01014608083968397 1 1 0.0099903936499676823 1 1 1 1 0.011900887871077445 1 1 0.010726548055931198 1 0.011968714844786283 1 1 1 1 1 1 1 0.013961032073021976 1 1 1 1 1 0.012837873905642451 1 1 1 1 1 1 1 1 1 0.010049406764732481 1 1 1 1 1 1 1 1 1 1 0.010038901889383656 1 0.0099822213586038856 1 1 0.01008827782384596 1 1 1 1 0.013047371194238759 1 1 1 1 1 0.013017679339873509 1 1 1 1 0.0099907859507935119 1 1 1 1 1 1 1 1 1 0.012859095341587697 1 1 1 1 1 1 1 1 1 1 0.0095030925694935334 1 1 1 1 1 1 1 1 1 0.015234084529474196 1 1 0.0097989248937203448 1 1 0.010752958788220785 1 1 1 0.0087389443957228939 1 1 1 0.007651152303267723 1 0.010042444022719496 0.012167241450188064 1 0.0096497237188911469 1 1 1 1 1 0.020341004354975361 1 0.016472199971442225 1 0.012249271254827382 1 1 1 1 1 1 1 1 0.014617920263452657 1 1 1 1 1 1 1 1 0.014327308203019723 1 0.013281578790856357 1 1 0.011615388173056603 1 1 1 1 1 1 1 1 1 1 1 1 1 1 1 0.012031886969753309 1 1 1 1 1 1 1 0.010490148988136492 1 1 1 1 1 1 1 1 1 1 1 1 1 0.010676184370678412 1 1 1 1 1 1 1 1 1 1 1 1 1 1 1 1 1 1 1 1 1 1 1 0.0092462389115951227 1 1 0.0097155356364676329 1 1 1 1 1 1 0.0089434336537172511 1 1 1 0.0096072364490475612 1 1 1 1 1 1 1 1 1 1 1 1 0.010031980797494469 1 1 1 1 1 0.016505167906462611 1 1 0.016559599257829957 1 1 1 1 1 1 1 1 0.0064467607577468212 0.010108412948571108 1 0.016232300996230718 0.011810910717639376 1 1 0.0085932990995677225 1 1 1 0.012405687736117266 1 1 1 0.0099016086383593941 1 1 1 1 1 1 1 0.010020192435025501 1 1 1 1 1 1 1 1 1 0.011132632835502376 1 1 1 1 1 0.010406428883513896 1 1 1 0.011362520451150437 1 1 1 1 1 1 1 1 0.018029773353380584 1 1 1 1 1 1 1 1 1 1 1 1 1 0.011244176172424007 1 1 1 1 1 0.0093214497170202113 1 1 1 1 1 1 1 1 1 0.011493748865126675 0.016474356759009122 1 1 0.010124111791826448 0.0093274758658002457 1 1 0.011506569479618299 1 1 1 1 1 1 1 1 1 1 0.010623728110852243 1 1 1 1 0.01046494966153943 1 1 0.0094910546341527933 1 1 1 1 0.0084352797644963382 1 1 0.011858264543410039 0.0099238214083366694 1 1 0.010651671172754344 1 0.0098145847631717267 1 0.010422116920823491 0.012570386416424648 1 1 1 0.012203583411277748 1 0.012929100332808884 1 0.015439927079626284 0.011074828544555373 1 1 0.012393337713782213 1 0.0084849294489082062 1 1 1 0.014245046277708014 1 1 1 1 0.012222360638645065 0.010877970538144006 1 1 1 1 1 1 0.0099892604415981103 1 1 1 1 1 1 1 1 1 1 1 1 0.012769747659517897 1 1 0.010086786029643736 1 0.012314055214477895 0.011478956912295951 1 1 0.010181355669617847 0.0099966080838529876 1 1 1 1 0.010014620444271167 1 1 1 1 1 1 1 0.0099916257008378431 1 1 1 1 1 1 1 0.010129767836429465 1 1 1 1 1 1 1 1 1 1 1 1 1 1 1 1 1 1 1 0.019640704423038304 0.010509449451645118 1 1 1 0.010184043945122326 1 1 1 1 1 1 1 1 1 1 1 1 1 1 1 1 1 1 1 0.014530472552124446 1 0.016649314457430488 1 1 1 1 1 0.021278702107934436 1 1 1 1 1 0.010180085265548873 1 1 0.010309686061645458 1 1 1 1 1 1 1 1 1 1 1 1 1 1 1 1 1 1 1 1 1 1 1 1 1 1 0.013771027627460485 1 1 0.016039171000995622 1 1 1 1 1 1 1 1 1 1 1 1 1 1 1 1 1 1 1 1 1 1 1 1 1 1 1 1 1 1 1 1 1 1 1 1 1 1 1 1 1 1 1 1 1 1 1 1 1 1 1 1 1 1 1 1 1 1 0.018052579488854914 1 1 1 1 1 1 1 1 1 1 1 1 1 1 1 1 1 1 1 1 0.010260619985858515 1 1 1 1 1 1 1 1 1 1 1 1 1 1 1 1 1 0.011063430893377432 1 1 0.016387126225909269 1 1 1 1 1 1 1 0.010699536011944172 1 1 1 0.015681481492465822 1 1 1 0.013566234329147726 0.0099530485571796799 1 1 0.0098357980430103849 1 1 0.0095877298048496103 1 1 0.0099324496101155339 1 1 1 0.0098188574166469776 1 1 1 1 0.01307976326337513 1 1 0.0078454005506947422 1 1 1 1 0.010000337368330874 1 1 1 1 1 1 1 0.01719231502391045 1 1 1 1 1 1 1 0.010303547613065886 1 1 1 1 1 1 0.018728522616376177 1 1 1 0.0098946322714648805 1 1 1 1 1 1 1 0.017705708096551993 1 0.0099744336635032294 1 0.010508192371092013 1 1 1 0.0094370005201324034 1 1 0.01270259897671727 1 0.014390622962128277 1 1 1 0.0099983192274496185 0.010904243886898174 1 1 1 1 0.0097247119979085687 0.010587170887001306 1 1 0.010526779167859136 1 0.0099900575064375396 1 1 1 1 1 1 1 1 1 0.010058292318607626 1 1 1 1 1 1 1 1 0.011253600026951107 1 1 1 0.0067684023455078911 1 1 1 1 1 1 1 1 0.010246134489100178 0.0098066856841279131 1 1 1 1 1 1 1 0.0094419318907754575 0.011091154437698644 1 1 1 1 0.014070549837588563 1 1 1 0.01259094338375851 1 1 1 1 1 1 1 1 1 1 1 1 1 0.010747229607103739 1 1 0.012008957257103749 1 1 1 1 1 1 1 0.010388334096354767 1 0.010035738208729966 1 0.012547872609678754 1 1 1 1 1 1 1 1 1 1 1 1 1 1 1 1 1 1 0.013783722082386259 1 1 1 1 1 1 1 1 1 0.010915217292989785 1 1 1 1 1 1 1 1 1 1 1 0.010897872084313134 1 1 1 0.012376657764228857 0.010068899379732141 1 1 1 1 1 1 0.01140173038285206 0.012209174956458223 1 1 1 1 1 1 1 1 1 1 1 1 1 1 1 1 1 1 1 1 0.011722674294611912 0.011346347337086901 1 1 1 1 1 1 1 0.010029995196793295 1 1 1 0.010408870698250226 1 1 0.0096700170591157812 1 1 1 1 1 1 1 1 1 1 1 1 1 1 1 1 1 1 1 1 1 1 0.0089595637170308429 1 0.017688788815296654 1 0.0070474023751457143 1 1 1 1 1 1 1 1 1 1 0.0097089212420546217 1 1 1 1 0.017372016252542692 1 1 0.0093950924274507699 1 1 1 0.010620448061571794 1 1 0.0099232841893269891 1 1 1 1 1 1 1 1 1 1 1 1 1 1 1 1 1 1 1 1 1 1 1 1 1 0.011382612849423638 1 1 1 1 1 0.013443660637197964 1 1 1 1 1 1 1 1 1 1 1 1 1 1 1 1 1 1 1 1 1 1 1 1 1 0.011963398748745985 1 1 1 0.014837614313729553 0.009658292589198798 1 1 1 1 1 1 1 1 1 1 1 1 1 1 1 1 1 1 1 0.010747798498418788 1 1 0.010747108360070368 1 1 1 1 1 1 1 1 1 1 1 0.017144833224038078 1 1 1 1 1 0.0093892568295359576 1 1 0.0097307721141482624 1 1 0.010871761584363144 1 1 1 1 1 1 1 1 1 1 1 1 0.0081072930288107487 0.012757998162574297 0.0069659053251518079 1 1 1 1 1 1 1 1 1 0.0097365850255857478 1 1 1 1 1 1 1 0.016380929102198731 1 1 1 0.0081219266540282255 1 1 0.0093553517713755828 1 1 1 1 1 1 1 1 1 1 0.0095703296235446333 1 1 1 0.010223971045121179 1 1 1 1 0.011088941237342703 1 1 1 1 0.0099257447873647049 1 1 1 1 1 1 1 1 1 1 1 1 1 1 1 1 1 1 1 0.01212213760627937 1 0.011637322701293985 1 1 1 0.010565670864189221 1 1 0.0096075888996494541 1 1 1 0.011255394629196273 1 0.013817637564063666 1 1 1 1 1 1 1 1 0.0099454177026447391 1 1 0.012804774724173578 1 1 1 1 0.0099989773509575608 1 1 1 1 1 1 1 1 1 1 1 1 0.010023724536689597 1 1 1 1 1 1 1 1 0.010160095008187783 1 1 1 1 1 1 1 0.0099788089866289526 1 1 0.010100793904939497 1 1 1 0.010031159712855425 1 1 1 1 1 1 1 1 1 1 1 1 1 1 1 1 1 0.0098031617387796012 1 0.010105920581144155 0.01048951965761412 1 1 1 0.01002902420014342 1 1 0.010492273306996451 1 1 1 0.0097385536291044184 1 1 1 0.010677185004909141 1 1 1 0.0097633894532487414 1 1 1 1 1 1 0.010400713226489559 0.0097021454844917164 1 1 1 0.011305692130726255 1 1 0.0097965185676693635 0.013036556593076599 1 0.010032857070139893 1 1 1 1 1 1 1 0.0090895660879902074 1 1 1 1 0.0095656114217309799 1 1 1 1 1 1 1 0.015464244453459629 1 1 1 0.015766074244807395 0.0089566280709048388 1 1 1 1 0.010047378782385121 1 1 0.010020883156407487 1 0.0096580078932611002 1 1 1 0.01447688422509171 1 1 1 0.0088039935089294277 1 1 1 1 1 1 1 1 1 1 1 1 0.010004620702387664 1 1 1 1 1 1 1 1 1 1 1 1 0.013593339309425564 1 0.0089055809182250409 1 1 1 0.020363749058262957 0.0083985382364835173 1 1 1 1 0.013279931927341882 0.0095364147448654107 1 0.015101104217034698 1 1 0.017347397636216236 1 1 0.010080330391029865 1 1 1 1 1 1 1 1 1 1 1 0.010379702294908923 1 1 0.010346363884055186 0.010910257095923828 1 1 1 1 1 1 1 1 1 1 1 1 1 1 1 1 1 0.011928133910125203 1 1 0.011800238543024184 1 1 0.0079742730015041861 1 0.010004163514799389 1 0.010971971606334834 1 1 0.0074329742589421908 1 1 0.013358403128756687 1 0.010273555754031891 1 1 1 1 0.011887669893437387 1 1 1 1 1 1 1 1 0.0099052785623753112 1 1 1 0.010735116329300697 1 1 1 0.011647532889489177 1 0.011338727097106538 1 1 1 1 0.01059484178000444 1 1 1 1 1 1 1 1 1 1 1 1 1 1 1 0.010253788427117536 0.0097724412351911129 1 1 1 1 1 1 1 1 1 1 1 1 0.011537183012489134 1 0.014166956529225207 1 1 0.0077263670480645866 1 1 1 1 1 1 1 1 0.012024870941306328 1 1 0.0099924687654745787 1 0.0097667808035457222 0.010079138614856827 1 1 1 0.0088637993376974051 1 1 1 0.015028891455756116 1 1 0.010437965024941927 0.014717372013095212 1 1 1 0.01000846371029385 1 1 1 0.010494587690464895 1 1 1 0.0097755343295729217 0.010724144349504878 1 1 1 1 0.0094195847734060596 1 1 1 1 1 1 1 0.0098337445979588805 1 1 1 1 1 1 1 1 1 1 1 1 1 1 1 1 1 1 1 1 1 1 1 1 1 1 1 1 1 1 1 1 1 1 1 1 1 1 1 1 1 1 1 1 1 1 1 1 1 1 1 1 1 1 1 1 1 1 1 1 1 1 1 1 1 1 1 1 1 1 1 1 1 1 1 0.015221940799199689 1 1 1 1 1 1 1 0.014607090950025277 1 1 0.0109517339434514 0.011277685574845535 1 1 0.0069095007508192044 1 1 1 1 0.0089913318864468256 1 1 1 1 1 1 1 1 1 1 1 1 1 1 1 1 1 1 1 1 1 1 1 1 1 1 1 0.0097565868201262493 1 0.0098410076148785445 1 1 1 1 1 1 1 1 1 1 1 1 1 1 1 1 1 1 1 1 1 1 1 1 0.0093494970922019163 1 1 1 0.0092524413491366989 1 1 1 1 1 1 1 1 1 1 0.0096595310770610128 1 1 1 1 1 1 1 1 0.015007413433227578 1 1 1 1 0.010158179799585033 1 1 0.01010368279870119 1 1 1 1 1 1 1 1 1 1 1 1 1 1 1 1 1 1 1 1 0.0096356955616345667 1 1 0.017862682376404079 1 1 1 1 1 0.013295952747311327 1 1 1 1 1 1 0.012473469787859893 1 1 1 1 1 1 1 1 1 1 1 1 1 1 1 1 1 1 1 1 1 1 1 1 1 1 1 1 1 1 1 1 1 1 1 1 1 1 1 1 1 1 1 1 1 1 1 1 1 1 1 1 1 1 1 1 1 1 1 1 1 1 0.013099655791713946 1 1 1 1 1 1 1 1 1 1 1 0.017515243534971154 0.0084532039541601496 1 1 1 1 1 1 1 1 1 1 1 1 1 1 1 0.0094630095438556702 1 1 1 1 1 1 1 1 1 1 1 1 1 1 1 1 1 1 1 1 1 1 1 1 1 1 1 1 0.014004968172406809 1 1 0.010629609904214911 1 1 1 1 1 1 1 0.012302697839109328 1 1 1 0.011531498384546921 1 1 1 1 1 1 1 1 1 1 1 1 1 1 1 1 1 1 1 1 0.014189836563159901 1 1 1 1 0.013802126982076307 1 0.010099876497160544 1 0.009918706310638627 1 1 1 1 1 1 1 1 1 1 1 1 1 1 1 1 1 1 1 1 1 1 1 0.017402112132319257 1 1 0.0098351082553771625 1 0.016761605960962038 1 1 1 1 1 0.015059346095634259 1 1 1 1 1 1 1 1 0.010714482749141959 0.011694474508240536 1 1 1 1 1 1 1 1 1 1 1 1 1 0.011068254761074914 1 1 1 1 1 1 1 1 1 1 1 0.014181206089632324 1 1 1 1 1 1 1 1 1 1 1 1 1 1 1 1 1 1 1 0.010252856669523611 1 1 1 0.019065097686328292 1 0.0097495944586880115 1 0.0083527333151450934 1 1 1 0.009635949700572178 1 1 1 0.01142360455137208 1 1 1 1 1 1 1 1 1 1 1 1 1 0.011396928228278929 1 1 1 0.010508248344260875 1 1 1 0.0080050694271886248 0.017390256181320243 1 1 1 1 1 1 1 1 1 1 1 1 1 1 1 1 1 1 1 1 1 1 1 1 1 1 1 0.01818785196164778 1 1 1 1 1 0.01524782273605909 1 1 1 1 1 1 1 1 1 1 1 1 1 1 1 1 0.013186040569890293 1 1 1 1 0.011394764564865024 1 1 1 0.010000018378119535 1 1 1 1 1 0.010544817096968178 1 1 1 0.012053984743193042 1 1 1 1 1 1 1 1 1 1 1 1 1 1 1 1 1 1 1 0.018801946903866829 1 1 1 1 1 1 1 1 1 1 1 1 1 1 0.011465362333791288 1 1 0.014169150960802915 1 1 1 0.012195651835077675 1 1 1 1 1 1 0.022982340088993584 1 1 1 1 1 1 1 0.0095960148826811295 1 1 1 1 1 1 1 1 1 1 1 1 0.017181657548042802 1 1 0.017174088546917925 1 1 1 1 1 0.012073384343830545 1 1 1 1 1 1 1 1 1 1 0.015388066734988362 1 1 1 1 1 1 1 1 1 1 1 1 1 1 0.015252229064728701 1 1 1 1 1 1 1 1 1 1 1 1 1 1 1 1 1 1 1 1 1 1 1 1 1 1 1 1 1 1 1 0.0096791680124991564 1 1 0.010004354639415769 1 1 1 1 1 1 0.014790774175825801 1 1 1 1 1 1 1 1 1 1 1 1 1 1 1 1 1 1 1 1 1 1 1 1 1 1 1 1 1 1 1 1 1 1 1 1 1 1 1 1 1 1 1 0.0085804536242745193 1 1 0.019212319806592007 1 1 0.014060225697374914 1 1 1 1 1 1 1 1 1 1 1 1 0.010656137309244286 1 1 1 1 1 1 1 1 1 1 1 1 1 1 1 1 1 1 1 1 1 1 1 1 1 1 1 1 1 1 1 1 1 1 1 1 1 1 1 0.010248276670281208 1 1 1 1 1 1 1 1 1 1 1 1 1 1 1 1 1 1 1 1 1 1 1 0.014132536631479297 1 1 1 1 1 1 1 1 1 1 1 1 1 1 1 1 1 1 1 1 1 1 1 1 1 1 1 1 1 1 1 1 1 0.01011079190632154 1 1 1 0.019005525298404675 1 1 1 0.015358473366206171 1 1 1 1 1 1 0.010460912337130757 1 1 0.010007580143027958 1 1 0.01016622449385784 1 1 0.010330151178292255 1 0.010669178396237638 1 1 0.010182173807352236 1 1 1 1 0.014483309583347356 1 1 1 1 1 1 1 1 1 1 1 1 0.016391665140887742 0.0112812719935803 1 0.011420332275269465 1 1 1 0.011623455415106423 0.011574717648395046 1 1 0.010486371153659767 1 1 1 1 0.009808773501597633 1 0.01232062223642981 1 1 1 1 1 1 1 1 1 0.012205323569320846 1 1 1 0.010947346361596007 1 1 1 1 1 1 1 1 1 1 1 0.010511002223769817 1 1 1 1 1 1 1 1 1 1 0.011007412865990284 1 0.012550856163858507 1 1 1 1 1 1 1 1 1 1 1 1 1 0.0099819357342634338 1 1 1 1 1 1 1 1 1 1 1 1 1 1 1 1 1 1 1 1 1 1 1 1 0.015438942699665737 0.0070609409251190195 1 1 0.010721513207678671 0.01371653937622334 1 1 1 1 0.012043189462235902 1 1 1 1 1 0.0075776638341876548 1 1 1 1 1 1 1 1 1 0.01067832016486011 1 1 1 1 1 0.011616727061913976 1 1 1 1 0.012218690888663748 1 1 1 1 1 0.013136500085801325 1 1 1 1 1 1 0.012731588519149748 1 1 1 1 0.009991945609481372 1 1 1 1 1 1 0.010110583418493605 1 1 1 1 1 1 1 1 1 1 0.013161751286344919 1 1 1 1 1 1 1 0.011078328117225231 1 0.011118105920681283 1 1 1 1 0.013370220515369874 1 1 0.010779506547593706 1 1 0.0082857953882376802 1 1 0.018825776002897483 1 1 1 1 1 1 1 1 1 1 1 1 1 1 1 1 1 1 1 1 1 1 1 1 0.010285113506799096 1 1 1 1 1 1 1 1 1 1 1 1 1 1 1 1 1 1 1 1 1 1 1 1 1 0.0099903017221182298 1 1 1 1 1 1 1 1 1 1 1 1 1 1 0.011634087007486102 1 1 1 1 1 0.01462021090495485 1 1 1 0.0091037201555884684 1 1 0.010231733648325367 1 1 1 0.010424373004198597 1 1 1 1 0.0165353875945854 1 1 1 1 1 0.01802586633353882 1 1 1 1 1 0.0095075365279368284 1 1 1 1 1 1 1 1 1 1 1 1 1 1 1 1 1 1 1 1 1 1 1 1 1 1 1 1 1 1 1 1 1 1 1 1 1 1 1 1 1 1 1 1 1 1 1 1 1 1 1 1 1 1 1 1 1 1 1 1 1 1 1 1 1 1 1 1 1 1 0.010082058507826962 1 1 1 0.010114101010604441 1 1 1 1 1 1 1 1 1 1 1 1 1 0.0099702575899071125 0.0098388890222944753 1 1 1 1 1 1 1 1 0.011375054890713079 0.01400628624933418 1 1 1 1 1 1 1 1 1 1 1 1 1 1 1 1 1 0.016334377850294769 1 1 1 1 1 0.010210505022748397 1 1 0.0099867259204201048 1 1 0.010650064059266412 0.0085787967342418562 1 1 1 0.012245367074664112 0.012623614922076911 1 1 1 1 1 1 1 1 0.013473746301923157 1 1 1 1 1 1 1 1 1 1 1 1 1 1 1 1 1 1 1 1 1 1 1 1 1 1 1 0.010725242878098458 1 1 1 1 1 1 0.01002719744813025 1 1 1 1 1 1 1 1 1 0.010097017949405809 0.011663694901436072 1 1 1 1 0.010329011061833426 1 1 0.010258793569312856 1 1 0.013239513566967571 1 1 1 1 1 1 1 1 1 1 1 1 1 1 1 1 1 1 1 0.0098798330736442792 0.015592961705876037 1 0.0096132306447767133 1 0.016340413160769722 1 0.010946978351796515 1 1 1 1 1 1 1 0.0098406874374941059 1 1 1 1 1 1 1 1 1 1 1 1 1 1 1 1 1 1 1 1 1 1 1 1 1 1 1 1 1 1 1 1 1 0.0094837166167654804 1 1 1 1 0.0090897055448248935 0.010103995221302285 1 1 0.009805784589851551 0.010144674537495034 1 1 1 1 1 1 1 1 1 1 1 1 0.014883303450105849 1 0.010046531440937001 1 1 1 0.01026157039727695 1 0.013680138098551767 1 0.010500754543448173 0.010007210597846629 1 1 1 1 1 1 1 1 1 1 1 1 0.014251479776860951 1 1 1 1 1 1 0.010392862762071724 1 1 1 1 0.010063571133696141 1 1 0.013411221043698147 0.0096577930199543971 1 1 1 0.012878751156999648 1 1 1 1 1 0.0099951402818990245 1 1 0.0099617931940587049 1 1 1 1 1 1 0.012576521288337909 1 1 0.012247195898704257 1 0.011799796228052797 1 1 1 0.011041280287355347 1 1 0.012136801502300862 1 1 1 0.012058611594976001 0.010007805470813647 1 0.011179043028091314 1 1 1 1 1 1 0.01131557273493089 1 1 1 1 0.0096236338077606877 1 1 1 1 1 1 1 1 1 1 1 1 1 1 1 1 1 1 1 0.0080685827142118229 1 1 1 1 1 1 1 0.0088603678144829785 1 1 1 0.012488511234628751 0.010159347330032556 1 1 1 1 1 1 1 1 1 1 1 1 0.011579434866591166 0.0099663529432956165 1 1 1 1 0.010863092848034729 1 0.010907241918136485 0.012502307564750105 1 1 1 0.011364361667433686 0.0099938938002611423 0.014831893478372035 1 0.0099822471296269477 1 1 0.010166066808686152 0.012238005460160354 1 0.011897653927054587 0.012888021441467364 1 1 1 0.0099221352590249841 1 1 0.01286661342423991 1 1 1 1 1 1 1 1 1 1 1 1 1 0.010034634284542708 1 1 1 1 1 1 1 1 0.010092398005404762 1 1 1 1 1 1 1 1 1 1 1 1 1 1 1 1 1 1 1 1 0.0099055584853869946 1 1 1 1 1 1 0.010026082485130162 1 0.015687172586412133 1 1 1 1 1 0.014613321432880652 1 1 1 1 0.0099125335764745741 1 1 0.012701802515448831 1 1 0.012954172043495167 1 1 0.012236294056170691 0.010188911767498938 1 1 1 1 1 1 1 1 1 0.0104824678180915 1 1 0.010012430030635282 1 1 1 1 0.011329597559962315 1 1 0.013886444053004217 1 1 0.0098736364013852686 1 1 1 1 0.010121728506842169 1 1 1 1 1 1 1 1 1 1 1 1 1 1 1 1 1 1 1 1 1 1 1 1 1 1 1 0.011354456721062542 1 1 1 1 1 1 1 1 1 1 1 0.0099265652073619176 1 1 1 1 1 1 0.010058988188677309 1 1 1 1 1 1 1 1 0.0085882364844603598 0.010042373139761369 1 1 0.0095610489434513231 1 1 1 1 1 1 1 1 1 1 1 1 1 1 1 1 1 1 0.010470904750028867 0.013882377138347071 1 1 0.010117048488201792 1 1 1 0.014747218729066211 1 1 1 1 0.0088869924744068296 1 1 1 1 1 1 1 1 1 0.014906047496888619 1 1 1 1 1 1 1 1 1 1 0.010327194790270777 1 0.015204343207766475 1 1 1 1 1 1 1 1 1 1 1 1 0.013907710989969102 1 1 1 1 1 1 1 1 1 1 0.01019634986256818 1 0.0084790288686217453 1 1 1 1 1 0.0099593966687158142 1 1 1 1 1 1 1 1 0.013541368969919939 1 1 1 1 1 1 1 1 1 1 1 0.009381561610432897 1 1 1 1 1 0.010634479172243284 1 1 1 1 1 1 1 0.008555885865307606 1 0.011907318312222699 1 1 1 1 1 1 1 0.010736028707417994 1 1 0.0091049342725902892 1 1 1 1 1 0.0097045032957114689 1 1 1 1 1 1 1 1 1 1 1 1 1 1 1 1 1 1 1 1 1 0.010785286114888343 1 1 1 1 0.010959765264026072 1 0.010984626027881823 1 1 1 0.010447110106006262 1 1 1 1 1 1 1 1 1 1 1 1 1 1 1 1 1 1 1 1 1 1 1 1 1 1 1 1 1 1 1 1 0.010005509056174445 1 1 1 1 1 1 1 1 0.010026307006881615 0.0099890658548709467 1 1 1 1 1 1 1 1 1 1 1 1 1 1 0.0099211713476616056 1 1 1 1 1 1 1 1 1 1 1 1 1 1 1 1 1 1 1 1 1 1 1 1 1 1 1 1 1 1 0.010255447421114455 0.0091659778143713903 1 1 0.011112456283512545 1 1 0.01005695050074621 1 1 0.011634078627534027 1 1 1 1 0.010699210316823051 1 1 0.0098190247883259175 0.010828991450727476 0.010086991759839153 1 1 1 0.0093994953219910006 1 0.010827231311292439 1 1 0.010488888518008672 1 0.010820089831154194 1 0.011251999765375309 0.010816378477626877 0.010135695375473392 1 1 1 1 1 1 1 1 1 1 1 1 1 1 1 1 1 0.016968181183068979 1 1 0.018887657491435304 1 1 1 1 0.019667242233553067 1 1 1 0.01427999882401049 1 1 1 1 1 1 1 0.019813459977050273 1 0.011438616792327813 1 1 1 1 1 1 1 1 1 1 1 1 1 1 0.017743426388142802 1 1 1 1 1 1 1 1 1 1 1 1 1 1 1 1 1 1 1 1 1 1 1 1 1 1 1 1 1 1 1 1 1 1 1 1 1 1 1 1 1 1 1 0.016727683374756511 1 1 1 0.016586210403134256 1 1 1 1 1 1 1 1 1 1 1 0.016351850236270313 1 1 1 1 0.015988122108711575 1 1 1 1 0.010778304572990408 1 0.012000478951363164 1 1 0.0093685838357697691 0.010016833720702072 1 1 0.010976330841051596 1 1 1 0.011329127127393661 1 1 1 1 0.010593998766239799 1 1 1 1 1 1 1 0.011306382028388351 1 1 0.010930096415003919 1 1 1 1 1 1 1 1 1 0.011133318757452331 0.010835277525054345 1 0.011635503782647666 1 1 0.010782904008559399 1 1 1 1 1 1 1 1 1 1 0.011140042885915259 1 1 1 0.010956201905857024 1 1 1 1 1 1 1 1 1 1 1 1 1 1 1 1 1 1 0.011561414654446217 1 1 1 1 1 1 1 1 0.013957065339665906 1 1 1 1 1 1 1 1 1 0.0094000427874130505 1 1 1 1 1 1 1 1 0.0086956343549146886 1 1 1 1 1 1 1 1 1 1 1 1 1 1 1 1 1 1 1 1 1 1 1 1 1 1 1 1 1 1 1 1 1 1 1 1 1 1 1 1 1 1 1 1 1 1 1 1 1 1 1 1 1 1 1 1 1 1 1 1 1 1 0.0096428722329637458 0.0091137515231093959 1 1 1 0.01042274683398197 1 1 1 1 0.0090436563956415167 1 1 1 1 1 1 0.0095727771054958666 1 1 1 1 1 0.0099102170842944801 1 1 1 1 1 0.018912936869260797 1 1 1 1 1 1 1 0.0070145107102418738 1 1 1 1 1 1 1 0.010207347919491096 1 1 1 1 1 1 0.0098520291665417474 0.017239948402294716 1 1 1 1 0.0099452909565568466 1 0.0097848609394912203 1 1 0.011234626021386687 1 1 1 0.011538816868459697 1 1 1 1 1 1 1 1 1 1 1 0.016192627946925758 0.0097063564455388794 1 1 1 1 1 1 1 1 1 1 1 1 1 1 1 1 1 1 1 1 1 1 1 1 1 1 1 1 1 0.0092755459399324284 1 1 1 1 1 1 1 1 0.010735406716939153 1 0.011461599510650547 1 1 1 0.012025193050141873 1 0.0088137729706370283 1 1 0.011750387179892862 1 0.010151071157759308 1 0.010430232668193613 1 1 1 0.011725991057822505 1 1 1 1 1 1 1 1 1 1 1 1 1 1 1 1 1 1 1 0.010341136857550946 1 1 1 1 0.012650395327821574 1 1 1 1 1 0.01225683654087536 1 0.0099917430863416604 1 1 1 1 1 0.014375220042897631 1 1 1 1 1 1 1 1 1 1 1 1 1 1 0.012193912021886813 1 1 0.011757625640023136 1 1 1 1 1 0.0095306426740198284 1 1 1 1 0.0097915931086306977 1 1 1 1 1 1 1 1 1 0.009955588213535857 1 1 1 1 1 1 1 1 1 1 1 1 1 1 0.010373046257949655 1 1 1 0.010936088126129121 1 1 0.011331295331714307 1 1 1 1 1 1 0.01024106773944587 1 1 1 0.011054470465881937 0.0089254270195776985 1 1 1 1 0.010700378984935602 1 1 1 1 1 0.009795417001861071 1 1 1 1 0.010382507216685691 1 1 1 1 1 1 1 1 1 0.010727602609823743 1 1 0.011962862426631121 1 1 1 1 1 1 0.0093470813064552467 0.010037361677004655 1 1 1 1 1 1 1 0.013104688612089844 1 1 0.010791464606763038 1 1 1 1 1 0.010450327749212096 1 1 1 1 1 1 1 1 1 1 1 1 1 1 1 1 1 1 0.014179861361540987 1 0.01202625972785387 1 1 1 1 1 1 1 1 1 1 1 1 1 1 1 1 1 1 0.0099149763394528034 1 1 1 1 1 1 1 1 1 1 1 1 1 1 1 1 1 1 1 1 1 1 1 1 1 1 1 1 1 1 1 1 1 1 1 1 1 1 0.012277989384794548 1 1 1 1 1 1 1 1 1 1 1 1 1 1 1 1 1 1 1 1 1 1 1 1 1 1 1 1 1 1 1 1 1 1 0.012052536575819056 1 1 1 1 1 1 1 1 1 1 1 1 0.01136444201546148 1 1 1 1 1 1 0.011361014573889581 1 1 1 1 0.012153601633687113 1 1 1 1 1 1 1 1 1 1 1 1 1 1 1 1 1 1 1 1 1 1 0.010296039575891071 1 0.010078448378863595 1 1 1 1 1 1 1 1 1 0.0098589465501926245 1 1 1 1 0.010039696152525129 1 1 0.011143329287617604 0.012161627164503383 0.011348064660378545 1 0.014070923331356587 1 1 0.010004620458167902 0.019868254589641206 1 0.0091053249008891616 1 0.0074695560213289131 1 1 1 1 1 1 0.011505385555359175 1 0.010512781807328751 1 1 0.010575458408671003 1 1 1 1 1 1 1 1 1 1 1 1 0.0091727996178802128 1 1 1 1 1 1 1 1 0.020375617793202329 1 1 1 1 1 0.010066236671807983 1 1 1 1 1 1 1 1 1 1 1 1 1 1 1 1 1 1 1 1 1 1 1 1 0.015230195234383851 1 1 0.0099628917907433907 1 1 1 1 1 1 0.011732203587587656 1 0.013290175270966636 1 1 1 1 1 1 1 1 1 1 1 1 1 1 1 0.011751397677387348 1 1 1 1 1 1 1 0.010713211970419786 1 1 1 1 1 1 0.010009410056301651 1 0.020413009924900125 1 1 0.013375715841227202 1 0.012581150290468114 1 1 1 1 1 1 1 1 1 0.0061323046533988089 1 1 1 0.01143842854545625 1 1 0.0099707809447476294 1 0.011885425776447821 1 0.010882545292781699 1 1 1 0.01206026297599011 1 1 1 1 1 0.011758276834955486 1 1 1 1 1 1 1 1 1 1 0.010002518992071618 1 1 0.013009453134081366 1 1 1 1 1 1 1 0.011067757190524205 1 0.011630855301477235 0.011182056663390044 1 1 0.010059129218320979 1 1 1 1 1 0.01396677023337704 1 1 1 1 1 1 1 1 1 1 1 1 1 1 0.014349464570027495 1 1 1 0.014616604425685104 1 0.015260078247032117 1 1 1 1 1 1 1 1 1 1 1 1 1 1 1 1 1 1 1 1 1 1 0.01475671989374569 1 1 1 1 1 1 0.012842962217070234 1 1 1 1 1 1 1 1 1 1 1 1 1 1 1 1 1 0.012411631701576123 1 0.010001485984170404 1 1 1 1 1 1 1 1 1 1 1 1 1 1 1 0.018686944536508175 0.020714628039323616 1 1 0.0099098320121548296 1 0.019989396967954862 1 1 1 1 1 1 0.01072721822564569 1 1 1 1 1 1 1 1 1 1 1 1 1 1 0.012434991493928689 1 1 1 1 0.014421043933968836 1 1 1 1 1 1 1 0.010047806055023331 1 1 1 1 1 1 1 1 1 0.0096436985104188678 1 1 1 1 0.008904310303051579 1 0.0099425278438185268 1 1 0.0093695467183614288 1 0.0085007556476526577 0.012311827103770878 1 0.0099281530350871002 1 1 1 0.014396922164323145 1 1 1 0.0091011024600514846 1 1 1 0.0099614654347162622 1 1 0.0099820752958099251 1 1 1 1 1 1 1 1 1 1 1 1 1 1 1 1 0.0097413837672910945 1 1 1 1 1 1 1 1 0.010716275105073315 1 0.011788322267322078 1 1 1 1 1 1 1 1 1 1 1 1 1 1 1 0.010133258615940582 1 1 1 1 1 1 0.0096096515908088743 1 1 1 0.011807460890015586 1 1 1 0.011612270358537971 1 1 1 1 1 0.0098970706002248065 1 1 1 0.011282527201436722 1 0.010077707899466548 0.010452471648958982 1 1 0.010784770738717198 1 1 0.010023513989613073 1 1 1 1 1 1 0.010023118832777483 1 1 1 1 1 0.016174241967464975 0.01716582147495492 0.0097888205823261788 1 1 1 1 1 1 1 1 0.019640272615086159 1 0.010724287767885166 1 0.013196578060840344 1 1 1 1 1 1 0.01135598902423984 1 1 1 0.01140537989334924 1 1 0.014592068405365618 1 1 1 1 0.016631015816132206 1 1 1 1 0.01080117537885018 1 1 1 1 1 1 1 1 1 1 1 1 1 0.012168196934497503 1 0.010064397383012827 1 1 1 1 1 0.010430598395846889 1 0.011096436145576054 1 1 1 1 1 0.012997924144251584 1 1 1 1 1 0.0079285622714583212 1 1 1 1 1 1 1 1 1 1 0.02056746962486624 1 1 1 1 1 1 1 1 0.021683920132597512 1 1 1 1 1 1 1 1 1 0.010292985617046634 1 1 1 1 1 1 1 1 0.01879833780172184 1 1 1 1 1 1 0.015995300563052484 0.01689532095675448 1 1 1 0.0099996610686575102 1 1 0.013285677901320115 1 0.011216659279672959 1 1 1 1 1 1 1 1 1 1 1 0.014383287241014066 1 0.0096518077312346875 1 1 1 1 1 1 1 1 1 1 0.010757416265067703 1 1 1 1 1 0.010658218270803359 1 1 1 1 1 1 1 1 1 1 1 1 1 1 1 1 1 1 1 1 0.012337051948348585 1 0.010750860204127723 1 1 1 1 1 1 1 1 1 1 1 1 1 1 1 1 1 1 1 1 0.011616936412778965 1 1 1 1 1 0.010702835139766116 1 1 1 1 1 1 1 1 1 1 1 1 1 1 1 0.011257159730569438 1 1 1 1 1 1 1 1 1 1 1 1 1 0.017885424399311102 1 1 0.0099983506696709502 1 0.0097598037337302823 0.0084015591976822988 1 1 1 0.0099056595072838163 1 1 1 1 1 0.0094314938125749943 1 1 1 1 1 1 1 1 1 1 0.018065631803268416 1 1 1 0.010003231648416711 1 1 1 1 1 0.01747531497160346 0.012070087900978852 1 0.017411952841654033 1 0.011755543211331853 1 1 1 0.014155987873171327 1 0.014163871226414115 0.0056171024926285236 0.011143454164822479 1 1 1 0.01412637307413489 0.0098203229372233556 1 1 1 0.016421518764665341 1 1 0.012612190503246714 0.011403743198127349 1 1 1 0.014436553262468111 0.014683971382072853 0.010221164777184176 0.011279144786685583 0.010146059365875235 1 1 0.010845074301360348 0.018879319293397794 1 1 1 1 1 0.010064946989028208 1 1 1 1 1 1 1 1 1 1 1 1 0.018104583823006101 1 1 1 1 1 0.010545423373842825 1 0.023609215432476613 1 1 1 0.019040357883605641 1 1 1 0.010006618600060581 0.01340873807825263 1 0.0095871762430196107 1 1 0.011267096811240414 1 0.016656117812282885 1 1 1 1 1 1 1 1 1 0.0094844635001664727 1 1 0.012811002645345206 1 1 0.010156286832859599 1 1 1 0.011007077347848723 1 1 1 1 1 1 1 1 1 1 1 1 1 1 1 1 1 1 0.0095092686283840544 1 1 1 1 1 1 1 1 1 1 1 1 1 1 0.010451362705226097 1 1 1 0.014076697600778142 1 1 1 0.011513538937093556 1 1 1 0.022421360872475052 1 1 0.025496729726230086 1 1 0.027286257169264319 1 1 1 1 1 1 1 0.01008071719182066 1 1 0.01060096054863123 1 1 1 1 0.014245224429001564 1 1 1 1 1 1 1 0.010173118860201009 1 1 1 1 1 1 1 1 1 1 1 1 0.0091618948944543945 1 1 1 1 1 1 1 1 1 1 1 1 1 1 1 1 0.014159956659396051 1 1 1 0.011448463111739547 1 1 1 1 0.014023352774344484 1 1 0.011789675432698399 0.010002882754659952 1 1 1 1 0.010389551660273133 1 1 1 0.010233146518917199 1 1 1 0.01046506556574763 1 1 1 1 1 1 1 1 1 1 1 1 1 1 1 1 1 1 1 1 1 1 1 1 1 1 1 1 1 1 1 1 1 1 1 1 1 1 1 1 1 1 1 1 0.010699369510601457 1 1 1 1 1 1 1 1 0.010230124405555568 1 1 1 1 1 1 1 1 1 1 1 1 1 1 1 1 0.010280818598502956 1 0.011000580933293438 1 1 1 1 1 1 1 0.010458090692317703 1 1 1 0.010149377738019189 1 1 1 1 1 1 1 1 1 1 1 1 1 1 1 1 1 1 1 1 1 1 0.010371401363130264 0.01055327804916404 1 1 1 1 0.010342346532669883 1 0.012082937392940089 1 0.010120008650549447 1 1 1 1 1 1 0.011592583762468481 1 0.011261285128847907 1 0.0099997843846646641 1 1 0.010043890409366742 1 1 0.0099973939616030821 0.012100079694810702 1 0.010301691472515494 1 1 1 1 1 0.010213375202936454 1 1 0.010599106655698486 1 1 1 1 1 1 1 1 1 0.010115143600913527 1 1 1 0.010131476636495423 1 1 1 1 1 1 0.011791341764549837 0.010174489172644179 1 1 1 1 1 0.011641874671006719 1 1 0.0099725770331488914 1 1 1 0.010057333865943593 1 1 1 1 1 1 1 1 1 1 1 1 1 1 1 1 1 1 1 1 1 1 1 1 1 0.010561513123703126 1 1 1 1 1 1 1 0.011281340992950632 1 1 1 0.011281338421950726 1 1 1 1 1 1 1 1 1 1 1 1 1 1 1 1 0.010561510552703206 1 1 1 1 1 1 1 1 1 1 1 1 1 1 1 1 0.011067420085833141 1 1 1 1 1 1 0.010460936965658883 1 1 1 1 1 1 1 1 1 1 0.010343007583710553 1 1 1 1 1 1 1 0.010903605682621186 1 1 1 1 1 1 1 1 1 1 1 0.011053832574332192 1 1 1 1 1 0.010018954461088385 1 1 1 1 1 1 1 1 1 1 1 0.010688781942979697 1 1 1 1 1 1 1 1 1 1 1 1 1 1 1 1 0.0099859883106182303 1 1 1 1 1 0.009999477697838214 1 1 1 1 0.0099929258975141808 1 1 1 1 1 0.011246322539305374 1 1 1 0.0099792104735708671 1 1 0.010030294292680902 1 1 1 1 1 0.010766122845806508 1 1 1 1 1 1 0.010752053837198175 1 1 1 1 1 1 1 0.010035926340962537 1 1 1 1 1 1 1 1 1 1 1 1 1 1 1 1 1 1 1 1 1 1 1 1 1 0.01002766549865325 1 1 1 1 1 1 1 1 1 1 0.010447349454157921 1 1 1 1 0.010030457512617465 1 1 1 1 1 1 1 1 1 1 1 1 1 1 1 1 1 1 0.011582882412694187 1 1 1 1 1 1 1 1 1 1 1 1 1 1 1 1 1 0.010344251610838989 1 1 1 1 1 1 1 1 0.010002792013964231 1 1 1 1 1 1 1 1 1 1 1 1 1 0.010868426825065197 1 1 1 0.0099921515140679214 1 1 1 1 1 1 1 1 1 1 1 1 1 0.013662919995904407 1 1 1 1 1 1 0.014184609707308792 1 1 1 1 0.014366789850905124 1 1 1 1 1 1 0.010469343609851463 1 1 1 1 1 1 1 0.011267815153925463 1 1 0.014696767238785317 1 1 1 1 1 1 0.013322993906880234 0.0099724034217266513 1 1 0.012955386845181929 1 1 1 1 1 1 1 1 1 1 1 1 1 1 1 1 1 1 1 0.0098019209878058289 1 1 1 0.0094191458838179618 1 1 1 0.013270684920864313 1 0.016355481131864063 1 1 1 1 1 1 1 1 0.011628925581440953 1 0.01188974643307769 1 1 1 1 1 0.010530706525904529 1 1 1 1 1 1 1 1 1 1 1 1 0.0098545267333352386 1 1 1 0.0099549435931914933 0.015585141828266737 1 1 1 1 1 1 1 1 1 1 0.013557623880561233 1 1 1 1 1 0.010668781139681324 1 1 1 0.012360135186828936 1 1 1 1 1 1 1 1 1 1 1 1 1 1 0.010825241074895053 1 1 1 1 1 1 1 1 0.011873382022944062 1 1 1 0.011760684609159536 1 1 0.010935443534264485 1 1 1 1 1 1 1 1 0.01572969303794924 1 1 1 0.012308589330113688 1 1 1 0.018186924916252185 1 1 1 1 1 1 1 1 0.017919938998527125 1 1 0.010589298226692195 1 1 1 0.011880945014439379 1 1 1 1 1 1 1 1 1 1 1 1 1 1 1 1 1 1 1 1 1 1 1 1 1 1 1 1 1 1 1 1 1 1 1 1 1 1 1 1 1 1 1 1 1 0.011526446504949514 1 1 1 1 1 1 0.011879134439530356 0.012783378414893003 0.013583085068235278 1 1 0.010029274927015695 1 1 0.012566528023350503 1 1 0.012479906715904878 1 1 1 1 1 1 1 1 1 1 0.01094267546027167 1 0.010158646493196605 1 1 1 0.016808286376503168 1 0.0097420724778335202 1 1 1 1 1 1 1 0.012627645649638777 1 1 0.0095155014595087479 1 1 1 0.010247838697689084 1 1 1 1 1 1 1 1 1 1 1 1 1 1 1 1 0.010052534144526271 1 1 1 1 1 1 1 1 1 1 1 0.010265449304649895 0.018927788807352828 1 1 1 1 1 1 1 1 1 1 1 1 1 1 1 1 1 1 1 0.013778029816501237 1 1 1 1 1 1 1 1 0.018164160586684727 1 1 1 1 1 1 1 0.010912758270655548 1 1 0.0099760406617782921 1 1 1 1 1 1 1 1 1 1 1 1 1 0.011745062156905468 1 0.011740586726595007 1 1 0.0099881972127476952 0.011463056643692557 0.011783709733090193 1 1 1 1 1 1 1 1 1 1 1 0.010472638852945 1 1 1 1 1 1 1 1 1 0.009866839673050451 0.0098876413205611809 1 1 1 1 1 1 1 1 1 1 1 1 1 1 1 1 1 1 1 1 1 1 1 1 1 1 1 1 0.010001741562969983 0.010002294404994269 1 1 0.010759449080446015 1 0.010430532423079668 1 1 0.0099371752860294219 1 0.011816054310945113 1 1 1 1 0.01010749960023424 1 1 1 1 1 0.010603349114472319 1 1 0.011487277385000272 0.011408441646954308 1 1 0.010042483285425457 1 0.012164753399597661 1 1 1 1 1 0.010037738737955788 1 1 1 0.0099510015902055157 0.010123472710512909 1 0.010050580052575428 1 0.010304697311965249 1 1 0.010590376215859551 1 1 0.010012737131763271 0.0099985090341268602 1 0.010070378070071348 1 1 1 1 0.0099986630109244901 1 1 0.010272300753330629 1 0.0097536737935525041 0.0099186093333790779 1 1 1 1 1 1 1 1 1 1 1 1 1 1 1 1 1 1 0.010177723708719775 1 1 1 1 1 1 1 1 1 1 1 1 1 1 1 1 1 1 1 0.011909775364463894 1 0.010793679235615819 1 1 1 1 1 1 1 1 1 1 0.012109362685756027 1 1 1 1 1 1 1 1 0.010256294391683308 1 1 1 1 1 1 1 1 1 1 1 1 1 1 1 0.011052582103652207 1 1 1 0.010993266556907973 1 1 1 0.011801785804705797 1 1 1 1 1 1 1 1 1 1 1 1 1 1 1 1 1 1 1 1 1 1 1 1 1 1 1 1 1 1 1 0.012425007693808512 1 1 1 1 1 0.011419687522956089 1 1 1 1 1 1 1 1 1 1 1 1 1 1 1 1 1 1 1 1 1 1 1 1 1 1 1 0.010033723297169731 1 1 0.010592935184270676 1 1 0.011209164552259607 1 0.0097009502960280301 1 1 1 1 1 1 0.0099880164304467188 1 0.010203514954080881 1 1 1 1 0.0088122099273812982 1 1 1 1 1 0.0093734673141974336 1 1 1 1 1 0.0098482037775755836 1 1 1 1 1 1 1 1 1 1 1 1 1 1 1 1 1 1 1 1 1 1 1 1 1 1 1 1 1 1 1 1 1 1 1 1 1 1 1 1 1 1 1 1 1 0.0080242589678990017 1 1 1 1 1 1 1 0.0099010653159463686 1 1 1 1 1 1 1 1 1 0.0094720627204002948 1 1 1 1 1 1 0.0085800386830268988 1 1 1 1 0.0097350771497493743 1 1 0.0099639567873218669 1 1 0.010919859509861726 1 1 1 1 1 0.010385979996273087 1 1 1 1 0.011508625451119843 0.009292996784479245 1 1 1 0.012726691359490044 1 1 1 1 1 1 1 1 1 1 1 0.011365390272111463 1 1 1 1 0.010446932568173889 1 1 0.010892100652217535 1 0.013249507296901782 1 1 1 1 0.014080177767257465 0.010689318969207402 1 1 1 0.014534426364797405 1 1 1 0.016419441495516648 0.0094734626856348113 1 1 0.010006644107661569 0.010452823763049028 1 0.016356707745717177 1 0.0092025788858102822 1 1 1 1 1 0.011732942308075747 0.011865541065455202 1 1 1 1 1 1 1 1 1 1 1 1 1 1 1 1 1 0.008037759365077491 1 1 0.01188599389644843 1 1 1 0.0105848739968683 1 1 1 1 1 0.018063698580372982 0.016534606635841352 1 1 1 0.0099997156498919625 0.0097177023591329369 1 1 1 1 0.0060623213070896374 1 1 0.0072257864598995183 0.017270701707385497 1 1 1 1 0.0088719816713262924 1 1 1 0.014130071033712492 1 1 0.010016550153665597 0.017778081497440548 1 1 1 1 0.014172975946540177 0.013692209641695065 1 1 1 1 1 1 1 1 1 1 1 1 0.013835633982191571 1 1 0.0098187977365570313 1 1 1 1 1 1 1 1 1 1 1 1 1 1 1 1 1 1 1 1 1 1 1 1 1 1 1 1 1 1 1 1 0.011174422934146777 1 1 1 1 1 0.012705611415638432 1 1 1 1 0.011533795284990787 1 1 1 1 0.010854919694128677 1 1 1 1 1 1 1 1 1 1 1 1 1 1 1 1 0.01331129281197933 1 1 1 1 1 1 1 1 1 1 1 1 1 1 1 0.013759939451729476 1 1 1 0.0095456122469030069 1 1 1 1 1 1 1 1 1 1 1 1 1 1 1 1 1 1 1 1 0.0098420145565196147 0.021387954782495527 0.019189827190309545 1 1 1 1 1 1 1 1 1 1 1 1 1 1 1 1 1 1 1 1 1 0.010059355701019295 0.020873529950139025 1 1 0.02107378309679158 1 1 1 1 0.019208033708031844 1 1 1 1 1 0.010296231965815562 1 1 1 1 1 1 0.010560029028744859 1 1 1 1 1 1 1 1 1 1 1 1 1 0.010263797062929288 1 1 1 1 0.010082321535533224 1 1 1 1 0.010223744700679075 1 1 1 1 1 1 1 1 1 1 1 1 1 1 1 1 1 1 1 1 1 1 1 1 1 1 1 1 1 1 1 1 1 1 1 1 0.016490020145375761 0.014288249323731569 1 1 1 1 1 0.010033539385890314 1 0.0099820989458949804 1 1 1 1 1 1 1 1 1 0.0073013082342778257 0.0096250415118705399 1 1 0.013894426030026092 1 1 0.010611773000069049 0.01010794469532513 1 1 0.012681741857861868 1 0.019725308247013584 1 1 1 1 1 1 1 1 1 1 1 1 1 1 1 1 1 1 1 1 1 1 1 1 1 1 1 1 1 1 1 1 0.010912639504974987 1 1 1 1 1 1 1 1 1 1 1 1 1 1 1 1 1 1 1 1 1 1 0.022478969390710719 1 1 1 1 1 1 1 1 1 1 1 1 1 0.022070619126504792 1 1 0.012902925525413493 1 1 1 1 1 1 1 1 1 1 1 1 1 1 1 1 1 0.01008041500103259 0.010343344328476773 1 1 1 1 1 1 1 1 1 0.010065959423737251 1 1 1 1 0.013599667685234219 1 1 0.0097455212795219664 1 1 1 1 1 1 1 1 1 1 1 1 1 1 1 1 1 1 1 1 1 1 1 0.010247180975052577 1 1 0.010105757809906732 1 1 1 1 1 1 1 0.015625005242232447 1 1 1 0.016490873927723863 1 1 1 0.010005312986866962 0.0099661191155768682 1 1 1 1 1 1 1 1 1 1 1 1 1 1 1 1 0.012509191387293308 1 1 1 1 1 1 1 0.010057281084306976 1 1 1 1 1 1 1 1 1 1 1 1 1 1 1 1 1 1 1 1 1 1 0.011190906436993209 1 1 1 1 1 1 1 1 1 1 1 1 1 1 1 0.012628246678502989 1 1 0.015958732811053315 1 1 1 1 1 1 0.016397154293829853 1 1 1 1 1 1 1 1 1 1 0.011190732414574493 1 1 1 1 0.012978206311212702 1 1 1 1 0.010194045368656457 1 1 1 1 1 1 1 1 1 1 0.017137579845508517 0.01592118465475487 0.01872665128636939 1 1 1 1 1 1 1 1 1 1 1 1 1 1 1 1 1 1 1 1 1 0.013299094897209689 1 1 0.010144682483100135 1 0.012101696520792696 1 1 0.0099349336076659384 1 1 1 1 1 1 1 1 1 0.011662496014747042 1 1 0.01346514132708373 1 1 1 1 1 1 1 0.010778042524570687 1 1 1 1 1 1 1 1 1 1 1 1 1 1 1 1 1 1 1 1 1 0.0082637636210832529 1 1 1 1 1 1 1 1 1 1 1 1 0.0098699955904267781 0.0088143870908510488 1 1 1 1 1 1 1 1 1 1 1 1 1 1 1 1 1 1 1 1 1 1 1 1 1 0.010624748924765223 1 1 1 1 1 1 1 1 1 1 1 1 1 1 1 1 1 1 1 1 1 1 1 1 1 1 1 1 1 1 1 1 1 1 1 1 1 1 1 1 1 1 1 1 1 1 0.010666818635847857 1 0.011330531470910468 1 1 1 1 1 1 0.0113618738693596 1 1 1 1 1 1 1 0.019221519336568606 1 1 1 1 1 0.017334246230342375 0.0097059178561371192 0.015260100056763901 0.016689359076282662 1 0.010032906276704029 1 0.014673436512946385 0.01220846654052872 1 1 0.010080415637722013 1 1 1 1 1 1 1 1 1 1 1 1 1 1 1 1 1 1 1 1 1 0.0084154963442622608 1 1 1 1 1 1 1 1 0.011560252461186778 1 1 1 1 1 1 1 0.012827058348543505 0.0095859674134574288 1 1 1 1 1 1 0.01450601126817903 1 1 1 1 0.011674571818681534 1 1 1 1 0.01067096241550548 1 1 1 1 1 1 1 1 1 0.0096723981254288726 1 0.009607923034477335 1 1 1 1 1 1 1 1 1 1 1 1 1 1 1 1 1 1 0.0065079594488153631 1 1 1 1 1 1 1 1 1 1 1 1 1 1 1 0.0094746154356903645 0.0098020804895887874 1 1 1 1 1 1 1 0.0093510739537158924 1 1 1 1 1 0.0097342349276413054 1 1 1 1 1 0.0092426721209258357 1 1 0.01022911191096592 0.010185444580018162 1 1 1 1 1 1 1 1 1 0.010051930795302734 1 1 1 0.0094171202937583173 1 1 1 1 0.0095166563874268147 1 1 1 1 1 1 1 1 1 1 1 0.0085499396751645002 1 0.010933603241246958 1 0.010090145791699371 1 1 1 1 1 1 1 1 1 1 1 0.01149174199910998 1 1 1 1 1 1 1 1 1 1 0.00763330732225903 1 1 1 1 1 1 0.011877477043415496 1 0.016480545428933593 1 1 1 1 0.0096794157141911839 0.010272204548911666 1 1 1 1 1 1 1 1 1 1 1 1 0.016012913389196512 0.0099784108660324784 1 1 1 0.014737295708335079 1 1 1 1 1 0.013162381848154825 1 1 1 1 1 1 1 1 1 1 0.0089444526202281209 1 1 1 1 1 1 1 1 1 1 1 1 1 0.011163609661027189 1 1 1 1 1 1 1 1 1 1 1 1 1 1 1 1 0.010450132738721155 1 1 1 1 1 1 1 1 1 1 1 1 1 1 1 1 1 1 1 1 1 1 1 1 1 1 1 1 1 1 1 1 1 1 1 1 1 1 1 1 1 1 1 1 1 1 1 0.0097835216808918359 1 1 0.0093639898382525677 1 1 1 1 1 1 1 1 1 1 1 1 1 1 1 1 1 1 1 1 1 1 1 1 1 0.010039103309166061 1 1 1 1 1 1 1 1 1 1 0.0098269160782118968 1 1 1 1 1 0.010517978368377867 1 1 1 1 0.010304453546037338 0.0099731593191727391 1 1 1 1 1 0.011563568496773532 1 1 1 0.010804947356160626 1 1 1 1 1 1 1 1 1 1 1 1 1 1 0.0098466937445238281 1 1 1 1 0.009494250643791266 1 1 0.012058073011916545 1 1 1 1 1 1 1 1 1 1 1 1 1 1 1 1 1 1 1 1 1 1 1 1 1 1 1 1 1 1 0.011119512856492902 0.0096349536883798791 1 1 1 0.012178667701091887 1 1 0.0099907029150749869 0.012515978936197929 0.010278425427017554 1 0.016873909002437099 1 1 1 1 1 1 1 0.017339634732518077 1 1 1 1 1 1 0.010023370482653894 1 0.017243261736481351 1 1 1 0.012295032611563676 1 1 1 1 1 1 1 1 1 1 1 1 0.010069302801945698 1 1 1 1 1 1 1 1 1 1 1 0.0099772445817389605 1 0.023645998972667951 1 1 1 1 1 1 1 1 1 1 1 1 1 1 1 1 1 1 1 1 1 1 1 1 1 0.014126856801233018 1 1 0.010872048305547494 1 1 1 1 1 1 1 1 1 1 1 1 1 0.020191425385002175 1 0.015676025152339634 0.0099943952920805452 0.010186431675227307 0.010053156029142862 1 1 1 1 1 1 1 1 1 1 0.013970170265451028 1 1 1 1 1 1 1 1 1 1 1 1 0.011453254334410131 1 1 1 1 1 1 1 1 1 1 1 1 1 1 1 1 1 1 1 1 1 1 1 1 1 1 1 1 1 1 1 1 1 1 1 1 1 1 1 1 1 1 1 1 1 0.017496611131693117 0.017433930372900072 0.0094758177325340743 1 0.015914118385170792 0.01466031375946958 1 1 1 1 1 0.014971856882672656 1 1 1 1 1 1 1 1 1 1 1 0.014104364216449531 1 1 1 0.01028202849584914 1 1 1 1 1 1 1 1 1 0.010776635125677687 0.013358281114024501 1 1 0.0086355436731663064 1 1 1 1 1 1 0.010210931683785444 1 1 1 1 1 1 0.014766177787257501 1 1 1 1 1 1 0.01399683476366914 1 0.011539246306525322 1 1 1 1 1 1 1 1 1 1 0.018053556349838566 1 1 1 1 1 1 1 0.020924596632117327 1 1 1 1 1 1 1 1 1 0.0096785390076143153 1 1 1 1 1 0.011774609282221319 1 1 1 0.0095558448716316496 0.0098803701373706889 0.011406278142642695 0.010268718728306606 1 1 1 1 1 1 1 1 0.011198804635724247 1 1 1 1 1 1 1 1 0.012003146358548355 1 1 1 1 1 1 0.010399564463187605 1 1 1 0.013172950944318629 1 1 1 1 1 0.0098404495537491397 1 1 1 1 1 1 1 
</DataArray>
</CellData>
</Piece>
</UnstructuredGrid>
</VTKFile>
