<?xml version="1.0"?>
<VTKFile type="UnstructuredGrid" version="0.1" byte_order="LittleEndian">
<UnstructuredGrid>
<Piece NumberOfPoints="31898" NumberOfCells="11152">
<Points>
<DataArray type="Float64" NumberOfComponents="3" format="ascii">
-0.5 -0.5 0 -0.47620991077874902 -0.44978878706170539 0 -0.49999999999999473 -0.42132396840504388 0 -0.5 -0.5 0 -0.47160970827802529 -0.4793630013852106 0 -0.47620991077874902 -0.44978878706170539 0 -0.5 -0.5 0 -0.47160970827802529 -0.4793630013852106 0 -0.44860394795025399 -0.5 0 -0.47160970827802529 -0.4793630013852106 0 -0.44860394795025399 -0.5 0 -0.4490820238307246 -0.45820516232899983 0 -0.44860394795025399 -0.5 0 -0.4490820238307246 -0.45820516232899983 0 -0.42881687682924802 -0.47781464288736519 0 -0.4490820238307246 -0.45820516232899983 0 -0.45555437223955858 -0.42914059360647611 0 -0.4490820238307246 -0.45820516232899983 0 -0.45555437223955858 -0.42914059360647611 0 -0.43867285131603428 -0.4271457417558665 0 -0.4490820238307246 -0.45820516232899983 0 -0.43867285131603428 -0.4271457417558665 0 -0.4263356171060747 -0.44269880333887462 0 -0.47160970827802529 -0.4793630013852106 0 -0.4490820238307246 -0.45820516232899983 0 -0.47620991077874902 -0.44978878706170539 0 -0.4490820238307246 -0.45820516232899983 0 -0.47620991077874902 -0.44978878706170539 0 -0.45555437223955858 -0.42914059360647611 0 -0.47620991077874902 -0.44978878706170539 0 -0.48101336032419229 -0.41069999664450008 0 -0.45555437223955858 -0.42914059360647611 0 -0.47620991077874902 -0.44978878706170539 0 -0.49999999999999473 -0.42132396840504388 0 -0.48101336032419229 -0.41069999664450008 0 -0.49999999999999473 -0.42132396840504388 0 -0.48101336032419229 -0.41069999664450008 0 -0.5 -0.393886241813306 0 -0.49999999999999473 -0.42132396840504388 0 -0.48101336032419229 -0.41069999664450008 0 -0.5 -0.393886241813306 0 -0.47854472220918332 -0.38978458738689759 0 -0.48422759779560409 -0.37130120630367158 0 -0.5 -0.393886241813306 0 -0.5 -0.36644851522156802 0 -0.48422759779560409 -0.37130120630367158 0 -0.48101336032419229 -0.41069999664450008 0 -0.5 -0.393886241813306 0 -0.47854472220918332 -0.38978458738689759 0 -0.48101336032419229 -0.41069999664450008 0 -0.47854472220918332 -0.38978458738689759 0 -0.46202672064839212 -0.40007602488395211 0 -0.48101336032419229 -0.41069999664450008 0 -0.46202672064839212 -0.40007602488395211 0 -0.47854472220918332 -0.38978458738689759 0 -0.46725442735267431 -0.37660061361585562 0 -0.46202672064839212 -0.40007602488395211 0 -0.47854472220918332 -0.38978458738689759 0 -0.46725442735267431 -0.37660061361585562 0 -0.48422759779560409 -0.37130120630367158 0 -0.46725442735267431 -0.37660061361585562 0 -0.46202672064839212 -0.40007602488395211 0 -0.46725442735267431 -0.37660061361585562 0 -0.45645674801697989 -0.38644133236760531 0 -0.46202672064839212 -0.40007602488395211 0 -0.46725442735267431 -0.37660061361585562 0 -0.45645674801697989 -0.38644133236760531 0 -0.4540003998136638 -0.37455519391687309 0 -0.45645674801697989 -0.38644133236760531 0 -0.46202672064839212 -0.40007602488395211 0 -0.44257020456291563 -0.38918913383950271 0 -0.46202672064839212 -0.40007602488395211 0 -0.44257020456291563 -0.38918913383950271 0 -0.44727608925983742 -0.41095911152778891 0 -0.46202672064839212 -0.40007602488395211 0 -0.44257020456291563 -0.38918913383950271 0 -0.44257020456291563 -0.38918913383950271 0 -0.44727608925983742 -0.41095911152778891 0 -0.43479358559901082 -0.4041454901736512 0 -0.44257020456291563 -0.38918913383950271 0 -0.4540003998136638 -0.37455519391687309 0 -0.44172858264042247 -0.37082207246888088 0 -0.45645674801697989 -0.38644133236760531 0 -0.44257020456291563 -0.38918913383950271 0 -0.4540003998136638 -0.37455519391687309 0 -0.46202672064839212 -0.40007602488395211 0 -0.45555437223955858 -0.42914059360647611 0 -0.44727608925983742 -0.41095911152778891 0 -0.46202672064839212 -0.40007602488395211 0 -0.45555437223955858 -0.42914059360647611 0 -0.48101336032419229 -0.41069999664450008 0 -0.46202672064839212 -0.40007602488395211 0 -0.45555437223955858 -0.42914059360647611 0 -0.44727608925983742 -0.41095911152778891 0 -0.43867285131603428 -0.4271457417558665 0 -0.43676601469929588 -0.41441201227470881 0 -0.44727608925983742 -0.41095911152778891 0 -0.43676601469929588 -0.41441201227470881 0 -0.43479358559901082 -0.4041454901736512 0 -0.45555437223955858 -0.42914059360647611 0 -0.44727608925983742 -0.41095911152778891 0 -0.43867285131603428 -0.4271457417558665 0 -0.43867285131603428 -0.4271457417558665 0 -0.42681803064840879 -0.42717069814352421 0 -0.4263356171060747 -0.44269880333887462 0 -0.42681803064840879 -0.42717069814352421 0 -0.41531815884496182 -0.42985383783075998 0 -0.4263356171060747 -0.44269880333887462 0 -0.42681803064840879 -0.42717069814352421 0 -0.42624289495594048 -0.42089725947505818 0 -0.42083332353326591 -0.42146747131641099 0 -0.42681803064840879 -0.42717069814352421 0 -0.43096994786351572 -0.41951492446283251 0 -0.42624289495594048 -0.42089725947505818 0 -0.43867285131603428 -0.4271457417558665 0 -0.42681803064840879 -0.42717069814352421 0 -0.43096994786351572 -0.41951492446283251 0 -0.43867285131603428 -0.4271457417558665 0 -0.43676601469929588 -0.41441201227470881 0 -0.43096994786351572 -0.41951492446283251 0 -0.43676601469929588 -0.41441201227470881 0 -0.43096994786351572 -0.41951492446283251 0 -0.42907264086257813 -0.41311715872526122 0 -0.43676601469929588 -0.41441201227470881 0 -0.42907264086257813 -0.41311715872526122 0 -0.43479358559901082 -0.4041454901736512 0 -0.42907264086257813 -0.41311715872526122 0 -0.43479358559901082 -0.4041454901736512 0 -0.42460885511582858 -0.40417321677700252 0 -0.42907264086257813 -0.41311715872526122 0 -0.41997834854398469 -0.41180534796019508 0 -0.42907264086257813 -0.41311715872526122 0 -0.42635027777857132 -0.41543594397746519 0 -0.41997834854398469 -0.41180534796019508 0 -0.42907264086257813 -0.41311715872526122 0 -0.41997834854398469 -0.41180534796019508 0 -0.42460885511582858 -0.40417321677700252 0 -0.42635027777857132 -0.41543594397746519 0 -0.41997834854398469 -0.41180534796019508 0 -0.42635027777857132 -0.41543594397746519 0 -0.42083332353326591 -0.42146747131641099 0 -0.41997834854398469 -0.41180534796019508 0 -0.43096994786351572 -0.41951492446283251 0 -0.42624289495594048 -0.42089725947505818 0 -0.42635027777857132 -0.41543594397746519 0 -0.43096994786351572 -0.41951492446283251 0 -0.42907264086257813 -0.41311715872526122 0 -0.42635027777857132 -0.41543594397746519 0 -0.42624289495594048 -0.42089725947505818 0 -0.42635027777857132 -0.41543594397746519 0 -0.42083332353326591 -0.42146747131641099 0 -0.42083332353326591 -0.42146747131641099 0 -0.41997834854398469 -0.41180534796019508 0 -0.40992282953163789 -0.42011435591993562 0 -0.41997834854398469 -0.41180534796019508 0 -0.39756877647335259 -0.40857286797681719 0 -0.41997834854398469 -0.41180534796019508 0 -0.40992282953163789 -0.42011435591993562 0 -0.39756877647335259 -0.40857286797681719 0 -0.40992282953163789 -0.42011435591993562 0 -0.41531815884496182 -0.42985383783075998 0 -0.39591554026262499 -0.42887225451549271 0 -0.41531815884496182 -0.42985383783075998 0 -0.39591554026262499 -0.42887225451549271 0 -0.41160927495564159 -0.44339431233754628 0 -0.42083332353326591 -0.42146747131641099 0 -0.40992282953163789 -0.42011435591993562 0 -0.41531815884496182 -0.42985383783075998 0 -0.42681803064840879 -0.42717069814352421 0 -0.42083332353326591 -0.42146747131641099 0 -0.41531815884496182 -0.42985383783075998 0 -0.44257020456291563 -0.38918913383950271 0 -0.42311368847744002 -0.37830224279505142 0 -0.42594061475171041 -0.39368797999533162 0 -0.44257020456291563 -0.38918913383950271 0 -0.42311368847744002 -0.37830224279505142 0 -0.44172858264042247 -0.37082207246888088 0 -0.44257020456291563 -0.38918913383950271 0 -0.42311368847744002 -0.37830224279505142 0 -0.42311368847744002 -0.37830224279505142 0 -0.42594061475171041 -0.39368797999533162 0 -0.416587075656149 -0.38785930376960043 0 -0.44257020456291563 -0.38918913383950271 0 -0.42594061475171041 -0.39368797999533162 0 -0.43479358559901082 -0.4041454901736512 0 -0.42594061475171041 -0.39368797999533162 0 -0.43479358559901082 -0.4041454901736512 0 -0.42460885511582858 -0.40417321677700252 0 -0.41997834854398469 -0.41180534796019508 0 -0.41325908582185972 -0.39811010703057192 0 -0.39770572831670092 -0.39911486077581648 0 -0.41997834854398469 -0.41180534796019508 0 -0.39770572831670092 -0.39911486077581648 0 -0.42594061475171041 -0.39368797999533162 0 -0.42460885511582858 -0.40417321677700252 0 -0.41325908582185972 -0.39811010703057192 0 -0.41997834854398469 -0.41180534796019508 0 -0.42460885511582858 -0.40417321677700252 0 -0.41325908582185972 -0.39811010703057192 0 -0.42594061475171041 -0.39368797999533162 0 -0.41325908582185972 -0.39811010703057192 0 -0.416587075656149 -0.38785930376960043 0 -0.41325908582185972 -0.39811010703057192 0 -0.416587075656149 -0.38785930376960043 0 -0.40403491357358612 -0.38133688525744702 0 -0.42311368847744002 -0.37830224279505142 0 -0.40403491357358612 -0.38133688525744702 0 -0.40365717239196519 -0.36741535175059892 0 -0.42311368847744002 -0.37830224279505142 0 -0.416587075656149 -0.38785930376960043 0 -0.40403491357358612 -0.38133688525744702 0 -0.40403491357358612 -0.38133688525744702 0 -0.39190790742475001 -0.38540387676521748 0 -0.39770572831670092 -0.39911486077581648 0 -0.40403491357358612 -0.38133688525744702 0 -0.39190790742475001 -0.38540387676521748 0 -0.3904578797192948 -0.37473938743617019 0 -0.41325908582185972 -0.39811010703057192 0 -0.40403491357358612 -0.38133688525744702 0 -0.39770572831670092 -0.39911486077581648 0 -0.39770572831670092 -0.39911486077581648 0 -0.37543310808941849 -0.38642437359143528 0 -0.39770572831670092 -0.39911486077581648 0 -0.37515920440272033 -0.40534038799344108 0 -0.37543310808941849 -0.38642437359143528 0 -0.39770572831670092 -0.39911486077581648 0 -0.37515920440272033 -0.40534038799344108 0 -0.39756877647335259 -0.40857286797681719 0 -0.37515920440272033 -0.40534038799344108 0 -0.37543310808941849 -0.38642437359143528 0 -0.37543310808941849 -0.38642437359143528 0 -0.3904578797192948 -0.37473938743617019 0 -0.37568304780698558 -0.36916333065311507 0 -0.39190790742475001 -0.38540387676521748 0 -0.37543310808941849 -0.38642437359143528 0 -0.3904578797192948 -0.37473938743617019 0 -0.37543310808941849 -0.38642437359143528 0 -0.37568304780698558 -0.36916333065311507 0 -0.39190790742475001 -0.38540387676521748 0 -0.39770572831670092 -0.39911486077581648 0 -0.37543310808941849 -0.38642437359143528 0 -0.41997834854398469 -0.41180534796019508 0 -0.39770572831670092 -0.39911486077581648 0 -0.39756877647335259 -0.40857286797681719 0 -0.40992282953163789 -0.42011435591993562 0 -0.39591554026262499 -0.42887225451549271 0 -0.39756877647335259 -0.40857286797681719 0 -0.37515920440272033 -0.40534038799344108 0 -0.39591554026262499 -0.42887225451549271 0 -0.39756877647335259 -0.40857286797681719 0 -0.37515920440272033 -0.40534038799344108 0 -0.39756877647335259 -0.40857286797681719 0 -0.37515920440272033 -0.40534038799344108 0 -0.39591554026262499 -0.42887225451549271 0 -0.37472313619600889 -0.43545561783144832 0 -0.39591554026262499 -0.42887225451549271 0 -0.39301703415267508 -0.44654444244683272 0 -0.37472313619600889 -0.43545561783144832 0 -0.39301703415267508 -0.44654444244683272 0 -0.37428706798929601 -0.46557084766945539 0 -0.37472313619600889 -0.43545561783144832 0 -0.39591554026262499 -0.42887225451549271 0 -0.39301703415267508 -0.44654444244683272 0 -0.41160927495564159 -0.44339431233754628 0 -0.39301703415267508 -0.44654444244683272 0 -0.40396056051613372 -0.45751466911048011 0 -0.41160927495564159 -0.44339431233754628 0 -0.40396056051613372 -0.45751466911048011 0 -0.39245383412573559 -0.47875733455523922 0 -0.41207507163844148 -0.46917161410542801 0 -0.40396056051613372 -0.45751466911048011 0 -0.38912381425271458 -0.46154275838996711 0 -0.39245383412573559 -0.47875733455523922 0 -0.40396056051613372 -0.45751466911048011 0 -0.39245383412573559 -0.47875733455523922 0 -0.40396056051613372 -0.45751466911048011 0 -0.40649676728151513 -0.45682610390212369 0 -0.40396056051613372 -0.45751466911048011 0 -0.38912381425271458 -0.46154275838996711 0 -0.39301703415267508 -0.44654444244683272 0 -0.40396056051613372 -0.45751466911048011 0 -0.38912381425271458 -0.46154275838996711 0 -0.39301703415267508 -0.44654444244683272 0 -0.38912381425271458 -0.46154275838996711 0 -0.37428706798929601 -0.46557084766945539 0 -0.38912381425271458 -0.46154275838996711 0 -0.37428706798929601 -0.46557084766945539 0 -0.38912381425271458 -0.46154275838996711 0 -0.38378714202547332 -0.47159002408209011 0 -0.37428706798929601 -0.46557084766945539 0 -0.38378714202547332 -0.47159002408209011 0 -0.39245383412573559 -0.47875733455523922 0 -0.37411677223754131 -0.47733161267270968 0 -0.39245383412573559 -0.47875733455523922 0 -0.37240076261097882 -0.48974555046165519 0 -0.37411677223754131 -0.47733161267270968 0 -0.38378714202547332 -0.47159002408209011 0 -0.37411677223754131 -0.47733161267270968 0 -0.37428706798929601 -0.46557084766945539 0 -0.38912381425271458 -0.46154275838996711 0 -0.38378714202547332 -0.47159002408209011 0 -0.39245383412573559 -0.47875733455523922 0 -0.38094710773533791 -0.49999999999999839 0 -0.39245383412573559 -0.47875733455523922 0 -0.38094710773533791 -0.49999999999999839 0 -0.39245383412573559 -0.47875733455523922 0 -0.37240076261097882 -0.48974555046165519 0 -0.38094710773533791 -0.49999999999999839 0 -0.39245383412573559 -0.47875733455523922 0 -0.40997732063196057 -0.5 0 -0.39245383412573559 -0.47875733455523922 0 -0.41207507163844148 -0.46917161410542801 0 -0.40997732063196057 -0.5 0 -0.41207507163844148 -0.46917161410542801 0 -0.40997732063196057 -0.5 0 -0.42881687682924802 -0.47781464288736519 0 -0.44860394795025399 -0.5 0 -0.40997732063196057 -0.5 0 -0.42881687682924802 -0.47781464288736519 0 -0.41207507163844148 -0.46917161410542801 0 -0.42881687682924802 -0.47781464288736519 0 -0.42627766738448791 -0.46032764904509182 0 -0.4490820238307246 -0.45820516232899983 0 -0.42881687682924802 -0.47781464288736519 0 -0.42627766738448791 -0.46032764904509182 0 -0.4490820238307246 -0.45820516232899983 0 -0.42627766738448791 -0.46032764904509182 0 -0.4263356171060747 -0.44269880333887462 0 -0.42627766738448791 -0.46032764904509182 0 -0.4263356171060747 -0.44269880333887462 0 -0.41655419253802572 -0.45404861160063659 0 -0.4263356171060747 -0.44269880333887462 0 -0.41160927495564159 -0.44339431233754628 0 -0.41655419253802572 -0.45404861160063659 0 -0.41531815884496182 -0.42985383783075998 0 -0.4263356171060747 -0.44269880333887462 0 -0.41160927495564159 -0.44339431233754628 0 -0.40396056051613372 -0.45751466911048011 0 -0.41160927495564159 -0.44339431233754628 0 -0.40649676728151513 -0.45682610390212369 0 -0.41160927495564159 -0.44339431233754628 0 -0.40649676728151513 -0.45682610390212369 0 -0.41655419253802572 -0.45404861160063659 0 -0.40396056051613372 -0.45751466911048011 0 -0.41160927495564159 -0.44339431233754628 0 -0.41207507163844148 -0.46917161410542801 0 -0.40649676728151513 -0.45682610390212369 0 -0.41655419253802572 -0.45404861160063659 0 -0.40396056051613372 -0.45751466911048011 0 -0.41207507163844148 -0.46917161410542801 0 -0.40649676728151513 -0.45682610390212369 0 -0.41207507163844148 -0.46917161410542801 0 -0.42627766738448791 -0.46032764904509182 0 -0.41655419253802572 -0.45404861160063659 0 -0.45662330498375908 -0.25656877445722759 0 -0.43445882011373449 -0.25478651907497341 0 -0.45662330498375908 -0.25656877445722759 0 -0.43445882011373449 -0.25478651907497341 0 -0.45034617445999431 -0.24335722649563979 0 -0.44999384684511368 -0.2755750489792308 0 -0.45662330498375908 -0.25656877445722759 0 -0.43445882011373449 -0.25478651907497341 0 -0.44999384684511368 -0.2755750489792308 0 -0.43077531442077321 -0.27459050524281542 0 -0.43445882011373449 -0.25478651907497341 0 -0.44999384684511368 -0.2755750489792308 0 -0.441361257405879 -0.29303276451920029 0 -0.43077531442077321 -0.27459050524281542 0 -0.44999384684511368 -0.2755750489792308 0 -0.4670541169931961 -0.26846056693166809 0 -0.46910519348062618 -0.28320526693770848 0 -0.44999384684511368 -0.2755750489792308 0 -0.4670541169931961 -0.26846056693166809 0 -0.45662330498375908 -0.25656877445722759 0 -0.45662330498375908 -0.25656877445722759 0 -0.47878778985378329 -0.25835102983948688 0 -0.4670541169931961 -0.26846056693166809 0 -0.45662330498375908 -0.25656877445722759 0 -0.47878778985378329 -0.25835102983948688 0 -0.45662330498375908 -0.25656877445722759 0 -0.47878778985378329 -0.25835102983948688 0 -0.47142395938804471 -0.23802335247430181 0 -0.47878778985378329 -0.25835102983948688 0 -0.5 -0.25669760885461612 0 -0.48361763707807442 -0.27426406281091331 0 -0.47878778985378329 -0.25835102983948688 0 -0.5 -0.25669760885461612 0 -0.4875835208682564 -0.24248539692068891 0 -0.5 -0.25669760885461612 0 -0.48361763707807442 -0.27426406281091331 0 -0.5 -0.28413533544635422 0 -0.4670541169931961 -0.26846056693166809 0 -0.47878778985378329 -0.25835102983948688 0 -0.48361763707807442 -0.27426406281091331 0 -0.4670541169931961 -0.26846056693166809 0 -0.48361763707807442 -0.27426406281091331 0 -0.46910519348062618 -0.28320526693770848 0 -0.46910519348062618 -0.28320526693770848 0 -0.48580896399913942 -0.29193665231809679 0 -0.47164434439118558 -0.29859902487093259 0 -0.48361763707807442 -0.27426406281091331 0 -0.46910519348062618 -0.28320526693770848 0 -0.48580896399913942 -0.29193665231809679 0 -0.5 -0.28413533544635422 0 -0.48580896399913942 -0.29193665231809679 0 -0.5 -0.3115730620380921 0 -0.48361763707807442 -0.27426406281091331 0 -0.5 -0.28413533544635422 0 -0.48580896399913942 -0.29193665231809679 0 -0.48580896399913942 -0.29193665231809679 0 -0.5 -0.3115730620380921 0 -0.48293754746551898 -0.30617437981156609 0 -0.48293754746551898 -0.30617437981156609 0 -0.47164434439118558 -0.29859902487093259 0 -0.47203566342767839 -0.31514771464943409 0 -0.48580896399913942 -0.29193665231809679 0 -0.48293754746551898 -0.30617437981156609 0 -0.47164434439118558 -0.29859902487093259 0 -0.47164434439118558 -0.29859902487093259 0 -0.46096111539772322 -0.3069557537098867 0 -0.47203566342767839 -0.31514771464943409 0 -0.46096111539772322 -0.3069557537098867 0 -0.44739706002137658 -0.30395698434733032 0 -0.45229582611609759 -0.31444164243390338 0 -0.46096111539772322 -0.3069557537098867 0 -0.45682111422556548 -0.29317658806621089 0 -0.44739706002137658 -0.30395698434733032 0 -0.47164434439118558 -0.29859902487093259 0 -0.46096111539772322 -0.3069557537098867 0 -0.45682111422556548 -0.29317658806621089 0 -0.44999384684511368 -0.2755750489792308 0 -0.46910519348062618 -0.28320526693770848 0 -0.45682111422556548 -0.29317658806621089 0 -0.46910519348062618 -0.28320526693770848 0 -0.47164434439118558 -0.29859902487093259 0 -0.45682111422556548 -0.29317658806621089 0 -0.44999384684511368 -0.2755750489792308 0 -0.45682111422556548 -0.29317658806621089 0 -0.441361257405879 -0.29303276451920029 0 -0.45682111422556548 -0.29317658806621089 0 -0.441361257405879 -0.29303276451920029 0 -0.44739706002137658 -0.30395698434733032 0 -0.441361257405879 -0.29303276451920029 0 -0.44739706002137658 -0.30395698434733032 0 -0.43527018611072049 -0.30465000121327751 0 -0.44739706002137658 -0.30395698434733032 0 -0.44024276041750632 -0.31887045497680111 0 -0.43527018611072049 -0.30465000121327751 0 -0.44739706002137658 -0.30395698434733032 0 -0.45229582611609759 -0.31444164243390338 0 -0.44024276041750632 -0.31887045497680111 0 -0.44024276041750632 -0.31887045497680111 0 -0.45653421084860168 -0.32646185290925811 0 -0.44024276041750632 -0.31887045497680111 0 -0.43930980958642257 -0.33554338078202212 0 -0.45653421084860168 -0.32646185290925811 0 -0.45229582611609759 -0.31444164243390338 0 -0.44024276041750632 -0.31887045497680111 0 -0.45653421084860168 -0.32646185290925811 0 -0.43930980958642257 -0.33554338078202212 0 -0.44966367396753332 -0.33841986907325933 0 -0.46855294336124231 -0.32873531729210143 0 -0.43930980958642257 -0.33554338078202212 0 -0.4507851133594416 -0.34910720111649318 0 -0.43930980958642257 -0.33554338078202212 0 -0.44966367396753332 -0.33841986907325933 0 -0.4507851133594416 -0.34910720111649318 0 -0.44966367396753332 -0.33841986907325933 0 -0.46855294336124231 -0.32873531729210143 0 -0.46386644800117471 -0.33586508895417932 0 -0.43930980958642257 -0.33554338078202212 0 -0.46855294336124231 -0.32873531729210143 0 -0.43930980958642257 -0.33554338078202212 0 -0.46855294336124231 -0.32873531729210143 0 -0.45653421084860168 -0.32646185290925811 0 -0.44966367396753332 -0.33841986907325933 0 -0.4586808436472537 -0.3401528003513713 0 -0.45711636988675219 -0.34547487934353349 0 -0.44966367396753332 -0.33841986907325933 0 -0.4586808436472537 -0.3401528003513713 0 -0.46386644800117471 -0.33586508895417932 0 -0.4586808436472537 -0.3401528003513713 0 -0.46472493826860672 -0.34236766697450172 0 -0.45711636988675219 -0.34547487934353349 0 -0.4586808436472537 -0.3401528003513713 0 -0.46472493826860672 -0.34236766697450172 0 -0.46386644800117471 -0.33586508895417932 0 -0.46855294336124231 -0.32873531729210143 0 -0.46207595183026873 -0.31834845619891672 0 -0.47203566342767839 -0.31514771464943409 0 -0.46855294336124231 -0.32873531729210143 0 -0.45653421084860168 -0.32646185290925811 0 -0.46207595183026873 -0.31834845619891672 0 -0.46096111539772322 -0.3069557537098867 0 -0.45229582611609759 -0.31444164243390338 0 -0.46207595183026873 -0.31834845619891672 0 -0.45229582611609759 -0.31444164243390338 0 -0.45653421084860168 -0.32646185290925811 0 -0.46207595183026873 -0.31834845619891672 0 -0.46096111539772322 -0.3069557537098867 0 -0.46207595183026873 -0.31834845619891672 0 -0.47203566342767839 -0.31514771464943409 0 -0.48293754746551898 -0.30617437981156609 0 -0.47203566342767839 -0.31514771464943409 0 -0.47770984076123751 -0.32964979107966252 0 -0.48293754746551898 -0.30617437981156609 0 -0.47770984076123751 -0.32964979107966252 0 -0.48293754746551898 -0.30617437981156609 0 -0.48763303240419292 -0.31981883507337211 0 -0.47770984076123751 -0.32964979107966252 0 -0.46855294336124231 -0.32873531729210143 0 -0.47203566342767839 -0.31514771464943409 0 -0.47770984076123751 -0.32964979107966252 0 -0.5 -0.3115730620380921 0 -0.5 -0.33901078862982997 0 -0.49048543526404831 -0.32960291085151988 0 -0.5 -0.3115730620380921 0 -0.48763303240419292 -0.31981883507337211 0 -0.49048543526404831 -0.32960291085151988 0 -0.5 -0.3115730620380921 0 -0.48293754746551898 -0.30617437981156609 0 -0.48763303240419292 -0.31981883507337211 0 -0.48763303240419292 -0.31981883507337211 0 -0.49048543526404831 -0.32960291085151988 0 -0.47770984076123751 -0.32964979107966252 0 -0.49048543526404831 -0.32960291085151988 0 -0.47770984076123751 -0.32964979107966252 0 -0.48708430315481122 -0.3479620774366432 0 -0.5 -0.33901078862982997 0 -0.49048543526404831 -0.32960291085151988 0 -0.48708430315481122 -0.3479620774366432 0 -0.47770984076123751 -0.32964979107966252 0 -0.47248213405695583 -0.35312520234775913 0 -0.47770984076123751 -0.32964979107966252 0 -0.47248213405695583 -0.35312520234775913 0 -0.48708430315481122 -0.3479620774366432 0 -0.46472493826860672 -0.34236766697450172 0 -0.47770984076123751 -0.32964979107966252 0 -0.47248213405695583 -0.35312520234775913 0 -0.46855294336124231 -0.32873531729210143 0 -0.46386644800117471 -0.33586508895417932 0 -0.47770984076123751 -0.32964979107966252 0 -0.46472493826860672 -0.34236766697450172 0 -0.46386644800117471 -0.33586508895417932 0 -0.47770984076123751 -0.32964979107966252 0 -0.47248213405695583 -0.35312520234775913 0 -0.48708430315481122 -0.3479620774366432 0 -0.48422759779560409 -0.37130120630367158 0 -0.5 -0.33901078862982997 0 -0.48708430315481122 -0.3479620774366432 0 -0.5 -0.36644851522156802 0 -0.48708430315481122 -0.3479620774366432 0 -0.5 -0.36644851522156802 0 -0.48422759779560409 -0.37130120630367158 0 -0.46725442735267431 -0.37660061361585562 0 -0.47248213405695583 -0.35312520234775913 0 -0.48422759779560409 -0.37130120630367158 0 -0.46725442735267431 -0.37660061361585562 0 -0.47248213405695583 -0.35312520234775913 0 -0.46725442735267431 -0.37660061361585562 0 -0.4540003998136638 -0.37455519391687309 0 -0.46226041713245919 -0.36267102145096558 0 -0.46725442735267431 -0.37660061361585562 0 -0.47248213405695583 -0.35312520234775913 0 -0.46226041713245919 -0.36267102145096558 0 -0.4540003998136638 -0.37455519391687309 0 -0.46226041713245919 -0.36267102145096558 0 -0.45167034254705118 -0.36337553476545958 0 -0.47248213405695583 -0.35312520234775913 0 -0.46226041713245919 -0.36267102145096558 0 -0.46130034509645268 -0.35111989715704561 0 -0.46472493826860672 -0.34236766697450172 0 -0.47248213405695583 -0.35312520234775913 0 -0.46130034509645268 -0.35111989715704561 0 -0.46472493826860672 -0.34236766697450172 0 -0.46130034509645268 -0.35111989715704561 0 -0.45711636988675219 -0.34547487934353349 0 -0.46130034509645268 -0.35111989715704561 0 -0.45711636988675219 -0.34547487934353349 0 -0.4507851133594416 -0.34910720111649318 0 -0.46226041713245919 -0.36267102145096558 0 -0.4507851133594416 -0.34910720111649318 0 -0.45167034254705118 -0.36337553476545958 0 -0.46226041713245919 -0.36267102145096558 0 -0.46130034509645268 -0.35111989715704561 0 -0.4507851133594416 -0.34910720111649318 0 -0.46226041713245919 -0.36267102145096558 0 -0.4507851133594416 -0.34910720111649318 0 -0.4507851133594416 -0.34910720111649318 0 -0.44504098357239391 -0.35771747353496869 0 -0.45167034254705118 -0.36337553476545958 0 -0.44966367396753332 -0.33841986907325933 0 -0.45711636988675219 -0.34547487934353349 0 -0.4507851133594416 -0.34910720111649318 0 -0.4507851133594416 -0.34910720111649318 0 -0.44408457896710762 -0.34741130507322732 0 -0.44504098357239391 -0.35771747353496869 0 -0.43930980958642257 -0.33554338078202212 0 -0.4507851133594416 -0.34910720111649318 0 -0.44408457896710762 -0.34741130507322732 0 -0.44408457896710762 -0.34741130507322732 0 -0.43834809566141358 -0.35386966642967582 0 -0.4310745521241639 -0.35060051531725012 0 -0.44408457896710762 -0.34741130507322732 0 -0.43834809566141358 -0.35386966642967582 0 -0.44504098357239391 -0.35771747353496869 0 -0.43834809566141358 -0.35386966642967582 0 -0.44504098357239391 -0.35771747353496869 0 -0.43256408976529492 -0.36260533289695268 0 -0.44504098357239391 -0.35771747353496869 0 -0.44172858264042247 -0.37082207246888088 0 -0.43256408976529492 -0.36260533289695268 0 -0.4540003998136638 -0.37455519391687309 0 -0.44172858264042247 -0.37082207246888088 0 -0.45167034254705118 -0.36337553476545958 0 -0.44504098357239391 -0.35771747353496869 0 -0.44172858264042247 -0.37082207246888088 0 -0.45167034254705118 -0.36337553476545958 0 -0.42311368847744002 -0.37830224279505142 0 -0.44172858264042247 -0.37082207246888088 0 -0.43256408976529492 -0.36260533289695268 0 -0.42311368847744002 -0.37830224279505142 0 -0.43256408976529492 -0.36260533289695268 0 -0.41867380740831611 -0.36398836527224071 0 -0.43256408976529492 -0.36260533289695268 0 -0.42210656065146929 -0.35476551363046099 0 -0.41867380740831611 -0.36398836527224071 0 -0.44408457896710762 -0.34741130507322732 0 -0.4310745521241639 -0.35060051531725012 0 -0.42443636388738298 -0.3390060521705498 0 -0.43834809566141358 -0.35386966642967582 0 -0.43256408976529492 -0.36260533289695268 0 -0.4310745521241639 -0.35060051531725012 0 -0.4310745521241639 -0.35060051531725012 0 -0.42266042161335821 -0.34652378860874011 0 -0.42210656065146929 -0.35476551363046099 0 -0.4310745521241639 -0.35060051531725012 0 -0.42266042161335821 -0.34652378860874011 0 -0.42443636388738298 -0.3390060521705498 0 -0.43256408976529492 -0.36260533289695268 0 -0.4310745521241639 -0.35060051531725012 0 -0.42210656065146929 -0.35476551363046099 0 -0.42210656065146929 -0.35476551363046099 0 -0.41243440171204931 -0.35621682403100541 0 -0.41867380740831611 -0.36398836527224071 0 -0.41243440171204931 -0.35621682403100541 0 -0.40365717239196519 -0.36741535175059892 0 -0.40302160193259851 -0.3439916005776541 0 -0.42210656065146929 -0.35476551363046099 0 -0.41714587076776338 -0.34786779488983011 0 -0.41243440171204931 -0.35621682403100541 0 -0.42266042161335821 -0.34652378860874011 0 -0.42210656065146929 -0.35476551363046099 0 -0.41714587076776338 -0.34786779488983011 0 -0.42266042161335821 -0.34652378860874011 0 -0.41714587076776338 -0.34786779488983011 0 -0.41853876063601031 -0.34037906703560689 0 -0.41714587076776338 -0.34786779488983011 0 -0.41853876063601031 -0.34037906703560689 0 -0.41714587076776338 -0.34786779488983011 0 -0.41243440171204931 -0.35621682403100541 0 -0.40302160193259851 -0.3439916005776541 0 -0.41714587076776338 -0.34786779488983011 0 -0.40302160193259851 -0.3439916005776541 0 -0.41853876063601031 -0.34037906703560689 0 -0.42311368847744002 -0.37830224279505142 0 -0.41867380740831611 -0.36398836527224071 0 -0.40365717239196519 -0.36741535175059892 0 -0.42311368847744002 -0.37830224279505142 0 -0.40365717239196519 -0.36741535175059892 0 -0.41243440171204931 -0.35621682403100541 0 -0.41867380740831611 -0.36398836527224071 0 -0.40365717239196519 -0.36741535175059892 0 -0.40403491357358612 -0.38133688525744702 0 -0.40365717239196519 -0.36741535175059892 0 -0.40403491357358612 -0.38133688525744702 0 -0.40365717239196519 -0.36741535175059892 0 -0.3904578797192948 -0.37473938743617019 0 -0.40365717239196519 -0.36741535175059892 0 -0.38979507995825918 -0.35965881973269581 0 -0.40365717239196519 -0.36741535175059892 0 -0.3904578797192948 -0.37473938743617019 0 -0.38979507995825918 -0.35965881973269581 0 -0.3904578797192948 -0.37473938743617019 0 -0.38979507995825918 -0.35965881973269581 0 -0.37568304780698558 -0.36916333065311507 0 -0.37568304780698558 -0.36916333065311507 0 -0.37593298752455201 -0.35190228771479481 0 -0.38979507995825918 -0.35965881973269581 0 -0.37568304780698558 -0.36916333065311507 0 -0.37593298752455201 -0.35190228771479481 0 -0.38979507995825918 -0.35965881973269581 0 -0.37595629511297179 -0.35029264644438168 0 -0.40302160193259851 -0.3439916005776541 0 -0.37595629511297179 -0.35029264644438168 0 -0.40302160193259851 -0.3439916005776541 0 -0.38842354837557669 -0.33756560667471242 0 -0.37595629511297179 -0.35029264644438168 0 -0.40302160193259851 -0.3439916005776541 0 -0.37595629511297179 -0.35029264644438168 0 -0.37607676276689278 -0.3419730509543204 0 -0.37390838074359528 -0.35076941925389299 0 -0.37595629511297179 -0.35029264644438168 0 -0.37607676276689278 -0.3419730509543204 0 -0.37595629511297179 -0.35029264644438168 0 -0.37593298752455201 -0.35190228771479481 0 -0.37390838074359528 -0.35076941925389299 0 -0.37595629511297179 -0.35029264644438168 0 -0.37593298752455201 -0.35190228771479481 0 -0.38979507995825918 -0.35965881973269581 0 -0.37595629511297179 -0.35029264644438168 0 -0.37593298752455201 -0.35190228771479481 0 -0.38979507995825918 -0.35965881973269581 0 -0.37593298752455201 -0.35190228771479481 0 -0.40365717239196519 -0.36741535175059892 0 -0.40302160193259851 -0.3439916005776541 0 -0.40365717239196519 -0.36741535175059892 0 -0.38979507995825918 -0.35965881973269581 0 -0.40302160193259851 -0.3439916005776541 0 -0.40302160193259851 -0.3439916005776541 0 -0.40263324863316441 -0.32967896077653092 0 -0.40263324863316441 -0.32967896077653092 0 -0.38842354837557669 -0.33756560667471242 0 -0.38442983343225828 -0.32189177462067481 0 -0.40302160193259851 -0.3439916005776541 0 -0.40263324863316441 -0.32967896077653092 0 -0.38842354837557669 -0.33756560667471242 0 -0.37607676276689278 -0.3419730509543204 0 -0.37641717267996733 -0.3184640617331177 0 -0.38842354837557669 -0.33756560667471242 0 -0.37607676276689278 -0.3419730509543204 0 -0.38442983343225828 -0.32189177462067481 0 -0.37607676276689278 -0.3419730509543204 0 -0.38442983343225828 -0.32189177462067481 0 -0.37595629511297179 -0.35029264644438168 0 -0.38842354837557669 -0.33756560667471242 0 -0.37607676276689278 -0.3419730509543204 0 -0.37607676276689278 -0.3419730509543204 0 -0.37641717267996733 -0.3184640617331177 0 -0.38442983343225828 -0.32189177462067481 0 -0.37641717267996733 -0.3184640617331177 0 -0.38442983343225828 -0.32189177462067481 0 -0.3841914044669909 -0.30132118344037401 0 -0.37641717267996733 -0.3184640617331177 0 -0.38442983343225828 -0.32189177462067481 0 -0.40263324863316441 -0.32967896077653092 0 -0.38442983343225828 -0.32189177462067481 0 -0.40185461233875269 -0.30098256284660307 0 -0.40263324863316441 -0.32967896077653092 0 -0.38442983343225828 -0.32189177462067481 0 -0.40263324863316441 -0.32967896077653092 0 -0.40185461233875269 -0.30098256284660307 0 -0.40263324863316441 -0.32967896077653092 0 -0.41242695344044827 -0.31820451366256841 0 -0.40185461233875269 -0.30098256284660307 0 -0.41242695344044827 -0.31820451366256841 0 -0.41920998916455232 -0.33677027649670849 0 -0.42301959421646518 -0.31628833020920039 0 -0.41920998916455232 -0.33677027649670849 0 -0.42301959421646518 -0.31628833020920039 0 -0.41242695344044827 -0.31820451366256841 0 -0.42301959421646518 -0.31628833020920039 0 -0.41541732284930832 -0.30730243798379953 0 -0.40302160193259851 -0.3439916005776541 0 -0.41920998916455232 -0.33677027649670849 0 -0.41853876063601031 -0.34037906703560689 0 -0.40302160193259851 -0.3439916005776541 0 -0.40263324863316441 -0.32967896077653092 0 -0.41920998916455232 -0.33677027649670849 0 -0.40263324863316441 -0.32967896077653092 0 -0.41920998916455232 -0.33677027649670849 0 -0.40263324863316441 -0.32967896077653092 0 -0.41242695344044827 -0.31820451366256841 0 -0.41920998916455232 -0.33677027649670849 0 -0.40302160193259851 -0.3439916005776541 0 -0.41853876063601031 -0.34037906703560689 0 -0.41853876063601031 -0.34037906703560689 0 -0.42443636388738298 -0.3390060521705498 0 -0.41920998916455232 -0.33677027649670849 0 -0.42443636388738298 -0.3390060521705498 0 -0.41920998916455232 -0.33677027649670849 0 -0.41853876063601031 -0.34037906703560689 0 -0.42443636388738298 -0.3390060521705498 0 -0.41920998916455232 -0.33677027649670849 0 -0.41853876063601031 -0.34037906703560689 0 -0.43930980958642257 -0.33554338078202212 0 -0.44408457896710762 -0.34741130507322732 0 -0.42443636388738298 -0.3390060521705498 0 -0.43930980958642257 -0.33554338078202212 0 -0.42443636388738298 -0.3390060521705498 0 -0.42301959421646518 -0.31628833020920039 0 -0.41920998916455232 -0.33677027649670849 0 -0.42443636388738298 -0.3390060521705498 0 -0.42301959421646518 -0.31628833020920039 0 -0.44408457896710762 -0.34741130507322732 0 -0.42443636388738298 -0.3390060521705498 0 -0.42266042161335821 -0.34652378860874011 0 -0.41853876063601031 -0.34037906703560689 0 -0.42443636388738298 -0.3390060521705498 0 -0.43930980958642257 -0.33554338078202212 0 -0.42443636388738298 -0.3390060521705498 0 -0.43930980958642257 -0.33554338078202212 0 -0.42301959421646518 -0.31628833020920039 0 -0.44024276041750632 -0.31887045497680111 0 -0.42395130998641067 -0.31127905704434472 0 -0.44024276041750632 -0.31887045497680111 0 -0.43930980958642257 -0.33554338078202212 0 -0.42301959421646518 -0.31628833020920039 0 -0.44024276041750632 -0.31887045497680111 0 -0.42301959421646518 -0.31628833020920039 0 -0.42395130998641067 -0.31127905704434472 0 -0.42301959421646518 -0.31628833020920039 0 -0.42395130998641067 -0.31127905704434472 0 -0.42395130998641067 -0.31127905704434472 0 -0.42709180872781188 -0.29439449141065738 0 -0.44024276041750632 -0.31887045497680111 0 -0.42395130998641067 -0.31127905704434472 0 -0.43527018611072049 -0.30465000121327751 0 -0.42395130998641067 -0.31127905704434472 0 -0.42709180872781188 -0.29439449141065738 0 -0.41541732284930832 -0.30730243798379953 0 -0.42395130998641067 -0.31127905704434472 0 -0.43527018611072049 -0.30465000121327751 0 -0.42709180872781188 -0.29439449141065738 0 -0.441361257405879 -0.29303276451920029 0 -0.43527018611072049 -0.30465000121327751 0 -0.42709180872781188 -0.29439449141065738 0 -0.42709180872781188 -0.29439449141065738 0 -0.43077531442077321 -0.27459050524281542 0 -0.42709180872781188 -0.29439449141065738 0 -0.41684225135067149 -0.28376244362903152 0 -0.43077531442077321 -0.27459050524281542 0 -0.441361257405879 -0.29303276451920029 0 -0.42709180872781188 -0.29439449141065738 0 -0.441361257405879 -0.29303276451920029 0 -0.42709180872781188 -0.29439449141065738 0 -0.43077531442077321 -0.27459050524281542 0 -0.42709180872781188 -0.29439449141065738 0 -0.41684225135067149 -0.28376244362903152 0 -0.40618483967714292 -0.29638963380315841 0 -0.42709180872781188 -0.29439449141065738 0 -0.40618483967714292 -0.29638963380315841 0 -0.41684225135067149 -0.28376244362903152 0 -0.40690107601488551 -0.28490397733270861 0 -0.40618483967714292 -0.29638963380315841 0 -0.41541732284930832 -0.30730243798379953 0 -0.40185461233875269 -0.30098256284660307 0 -0.40618483967714292 -0.29638963380315841 0 -0.42709180872781188 -0.29439449141065738 0 -0.41541732284930832 -0.30730243798379953 0 -0.40618483967714292 -0.29638963380315841 0 -0.41541732284930832 -0.30730243798379953 0 -0.40618483967714292 -0.29638963380315841 0 -0.41242695344044827 -0.31820451366256841 0 -0.41541732284930832 -0.30730243798379953 0 -0.40185461233875269 -0.30098256284660307 0 -0.41541732284930832 -0.30730243798379953 0 -0.40185461233875269 -0.30098256284660307 0 -0.42301959421646518 -0.31628833020920039 0 -0.41541732284930832 -0.30730243798379953 0 -0.42395130998641067 -0.31127905704434472 0 -0.41541732284930832 -0.30730243798379953 0 -0.42301959421646518 -0.31628833020920039 0 -0.42395130998641067 -0.31127905704434472 0 -0.41541732284930832 -0.30730243798379953 0 -0.38442983343225828 -0.32189177462067481 0 -0.40185461233875269 -0.30098256284660307 0 -0.39448508010510541 -0.297525044214214 0 -0.40185461233875269 -0.30098256284660307 0 -0.40174149504185092 -0.29681366012781812 0 -0.40618483967714292 -0.29638963380315841 0 -0.40185461233875269 -0.30098256284660307 0 -0.40174149504185092 -0.29681366012781812 0 -0.40185461233875269 -0.30098256284660307 0 -0.39448508010510541 -0.297525044214214 0 -0.40174149504185092 -0.29681366012781812 0 -0.40185461233875269 -0.30098256284660307 0 -0.39448508010510541 -0.297525044214214 0 -0.39448508010510541 -0.297525044214214 0 -0.40174149504185092 -0.29681366012781812 0 -0.37641717267996733 -0.3184640617331177 0 -0.37669606201677502 -0.29920373422444158 0 -0.38442983343225828 -0.32189177462067481 0 -0.39448508010510541 -0.297525044214214 0 -0.38442983343225828 -0.32189177462067481 0 -0.39448508010510541 -0.297525044214214 0 -0.3841914044669909 -0.30132118344037401 0 -0.37641717267996733 -0.3184640617331177 0 -0.3841914044669909 -0.30132118344037401 0 -0.37669606201677502 -0.29920373422444158 0 -0.39448508010510541 -0.297525044214214 0 -0.3841914044669909 -0.30132118344037401 0 -0.37928718982873688 -0.29895646409505849 0 -0.39448508010510541 -0.297525044214214 0 -0.37928718982873688 -0.29895646409505849 0 -0.3841914044669909 -0.30132118344037401 0 -0.37928718982873688 -0.29895646409505849 0 -0.3841914044669909 -0.30132118344037401 0 -0.37928718982873688 -0.29895646409505849 0 -0.37669606201677502 -0.29920373422444158 0 -0.37928718982873688 -0.29895646409505849 0 -0.37669606201677502 -0.29920373422444158 0 -0.37671758341694961 -0.29771744858697219 0 -0.37928718982873688 -0.29895646409505849 0 -0.37671758341694961 -0.29771744858697219 0 -0.37928718982873688 -0.29895646409505849 0 -0.37669606201677502 -0.29920373422444158 0 -0.37669606201677502 -0.29920373422444158 0 -0.37671758341694961 -0.29771744858697219 0 -0.37671758341694961 -0.29771744858697219 0 -0.38607699004493318 -0.28757386461908069 0 -0.38483052758877101 -0.28123782127595193 0 -0.37671758341694961 -0.29771744858697219 0 -0.3770412393053626 -0.27536550612006683 0 -0.37671758341694961 -0.29771744858697219 0 -0.38483052758877101 -0.28123782127595193 0 -0.3770412393053626 -0.27536550612006683 0 -0.37928718982873688 -0.29895646409505849 0 -0.37671758341694961 -0.29771744858697219 0 -0.38467000758835601 -0.29297497791584359 0 -0.37671758341694961 -0.29771744858697219 0 -0.38467000758835601 -0.29297497791584359 0 -0.38607699004493318 -0.28757386461908069 0 -0.39448508010510541 -0.297525044214214 0 -0.37928718982873688 -0.29895646409505849 0 -0.38467000758835601 -0.29297497791584359 0 -0.39448508010510541 -0.297525044214214 0 -0.38467000758835601 -0.29297497791584359 0 -0.39448508010510541 -0.297525044214214 0 -0.38467000758835601 -0.29297497791584359 0 -0.39217701296355612 -0.28987936211692023 0 -0.38467000758835601 -0.29297497791584359 0 -0.38607699004493318 -0.28757386461908069 0 -0.39217701296355612 -0.28987936211692023 0 -0.38607699004493318 -0.28757386461908069 0 -0.39049541959166939 -0.28414526237041138 0 -0.39217701296355612 -0.28987936211692023 0 -0.39049541959166939 -0.28414526237041138 0 -0.39420405367365152 -0.27853706101481662 0 -0.38483052758877101 -0.28123782127595193 0 -0.38607699004493318 -0.28757386461908069 0 -0.39049541959166939 -0.28414526237041138 0 -0.38483052758877101 -0.28123782127595193 0 -0.39597078832761667 -0.28551153658085893 0 -0.40174149504185092 -0.29681366012781812 0 -0.40123596036735593 -0.27818233727432817 0 -0.39049541959166939 -0.28414526237041138 0 -0.39597078832761667 -0.28551153658085893 0 -0.39420405367365152 -0.27853706101481662 0 -0.40174149504185092 -0.29681366012781812 0 -0.40123596036735593 -0.27818233727432817 0 -0.40174149504185092 -0.29681366012781812 0 -0.40322207619149192 -0.29288764445213411 0 -0.40123596036735593 -0.27818233727432817 0 -0.39049541959166939 -0.28414526237041138 0 -0.39597078832761667 -0.28551153658085893 0 -0.39217701296355612 -0.28987936211692023 0 -0.39597078832761667 -0.28551153658085893 0 -0.39217701296355612 -0.28987936211692023 0 -0.40174149504185092 -0.29681366012781812 0 -0.39448508010510541 -0.297525044214214 0 -0.39217701296355612 -0.28987936211692023 0 -0.40174149504185092 -0.29681366012781812 0 -0.40690107601488551 -0.28490397733270861 0 -0.40322207619149192 -0.29288764445213411 0 -0.40618483967714292 -0.29638963380315841 0 -0.40174149504185092 -0.29681366012781812 0 -0.40322207619149192 -0.29288764445213411 0 -0.40618483967714292 -0.29638963380315841 0 -0.40174149504185092 -0.29681366012781812 0 -0.40618483967714292 -0.29638963380315841 0 -0.40322207619149192 -0.29288764445213411 0 -0.40618483967714292 -0.29638963380315841 0 -0.40690107601488551 -0.28490397733270861 0 -0.40322207619149192 -0.29288764445213411 0 -0.40123596036735593 -0.27818233727432817 0 -0.39420405367365152 -0.27853706101481662 0 -0.37710287173325818 -0.2711091198417086 0 -0.40073042569286338 -0.25955101442083811 0 -0.40123596036735593 -0.27818233727432817 0 -0.39420405367365152 -0.27853706101481662 0 -0.40073042569286338 -0.25955101442083811 0 -0.40123596036735593 -0.27818233727432817 0 -0.40073042569286338 -0.25955101442083811 0 -0.40123596036735593 -0.27818233727432817 0 -0.40073042569286338 -0.25955101442083811 0 -0.41341650638623911 -0.27076301679274262 0 -0.39597078832761667 -0.28551153658085893 0 -0.40123596036735593 -0.27818233727432817 0 -0.39420405367365152 -0.27853706101481662 0 -0.39420405367365152 -0.27853706101481662 0 -0.37710287173325818 -0.2711091198417086 0 -0.3770412393053626 -0.27536550612006683 0 -0.39420405367365152 -0.27853706101481662 0 -0.3770412393053626 -0.27536550612006683 0 -0.39420405367365152 -0.27853706101481662 0 -0.38483052758877101 -0.28123782127595193 0 -0.3770412393053626 -0.27536550612006683 0 -0.37710287173325818 -0.2711091198417086 0 -0.3770412393053626 -0.27536550612006683 0 -0.37710287173325818 -0.2711091198417086 0 -0.38543722149146659 -0.25821727905458303 0 -0.40073042569286338 -0.25955101442083811 0 -0.37710287173325818 -0.2711091198417086 0 -0.37747963509906429 -0.24508953120583671 0 -0.37710287173325818 -0.2711091198417086 0 -0.40073042569286338 -0.25955101442083811 0 -0.37710287173325818 -0.2711091198417086 0 -0.38543722149146659 -0.25821727905458303 0 -0.37747963509906429 -0.24508953120583671 0 -0.38543722149146659 -0.25821727905458303 0 -0.3938256931015453 -0.25037754026629511 0 -0.37747963509906429 -0.24508953120583671 0 -0.38543722149146659 -0.25821727905458303 0 -0.3938256931015453 -0.25037754026629511 0 -0.40073042569286338 -0.25955101442083811 0 -0.40073042569286338 -0.25955101442083811 0 -0.40282532782868952 -0.25224285689579767 0 -0.40022281387448849 -0.24084313907701979 0 -0.40073042569286338 -0.25955101442083811 0 -0.40022281387448849 -0.24084313907701979 0 -0.3938256931015453 -0.25037754026629511 0 -0.40073042569286338 -0.25955101442083811 0 -0.40022281387448849 -0.24084313907701979 0 -0.40073042569286338 -0.25955101442083811 0 -0.40282532782868952 -0.25224285689579767 0 -0.41385673751816382 -0.25312989710486528 0 -0.40073042569286338 -0.25955101442083811 0 -0.41385673751816382 -0.25312989710486528 0 -0.40073042569286338 -0.25955101442083811 0 -0.41385673751816382 -0.25312989710486528 0 -0.41341650638623911 -0.27076301679274262 0 -0.41385673751816382 -0.25312989710486528 0 -0.41341650638623911 -0.27076301679274262 0 -0.42312684460972783 -0.26331748455384929 0 -0.41385673751816382 -0.25312989710486528 0 -0.41679144862722167 -0.25169429778568547 0 -0.43445882011373449 -0.25478651907497341 0 -0.40282532782868952 -0.25224285689579767 0 -0.41385673751816382 -0.25312989710486528 0 -0.4086566941719203 -0.24778871483445111 0 -0.40282532782868952 -0.25224285689579767 0 -0.41385673751816382 -0.25312989710486528 0 -0.41385673751816382 -0.25312989710486528 0 -0.41679144862722167 -0.25169429778568547 0 -0.41627810448972868 -0.24641300060905449 0 -0.41385673751816382 -0.25312989710486528 0 -0.41679144862722167 -0.25169429778568547 0 -0.41684225135067149 -0.28376244362903152 0 -0.41341650638623911 -0.27076301679274262 0 -0.43077531442077321 -0.27459050524281542 0 -0.40690107601488551 -0.28490397733270861 0 -0.40123596036735593 -0.27818233727432817 0 -0.41341650638623911 -0.27076301679274262 0 -0.41684225135067149 -0.28376244362903152 0 -0.40690107601488551 -0.28490397733270861 0 -0.41341650638623911 -0.27076301679274262 0 -0.41341650638623911 -0.27076301679274262 0 -0.43077531442077321 -0.27459050524281542 0 -0.42312684460972783 -0.26331748455384929 0 -0.43077531442077321 -0.27459050524281542 0 -0.42312684460972783 -0.26331748455384929 0 -0.43445882011373449 -0.25478651907497341 0 -0.41385673751816382 -0.25312989710486528 0 -0.43445882011373449 -0.25478651907497341 0 -0.43077531442077321 -0.27459050524281542 0 -0.43445882011373449 -0.25478651907497341 0 -0.41385673751816382 -0.25312989710486528 0 -0.42312684460972783 -0.26331748455384929 0 -0.43445882011373449 -0.25478651907497341 0 -0.41679144862722167 -0.25169429778568547 0 -0.43445882011373449 -0.25478651907497341 0 -0.42335340856967768 -0.24893549408922019 0 -0.32580796388430833 -0.26195871891040218 0 -0.34139866608006603 -0.2687790352098644 0 -0.31202674084989918 -0.26335133138269068 0 -0.32580796388430833 -0.26195871891040218 0 -0.33345250408021371 -0.25331871279766999 0 -0.32023222063025569 -0.2489608815952247 0 -0.32580796388430833 -0.26195871891040218 0 -0.31664960680882542 -0.25714232151458272 0 -0.32023222063025569 -0.2489608815952247 0 -0.31664960680882542 -0.25714232151458272 0 -0.30853150187083839 -0.25429835417001312 0 -0.32023222063025569 -0.2489608815952247 0 -0.32580796388430833 -0.26195871891040218 0 -0.31664960680882542 -0.25714232151458272 0 -0.31202674084989918 -0.26335133138269068 0 -0.33223611708196649 -0.27626932861073827 0 -0.31972670239926188 -0.28454160199560091 0 -0.31187737399160442 -0.27618124236115132 0 -0.34139866608006603 -0.2687790352098644 0 -0.31202674084989918 -0.26335133138269068 0 -0.33223611708196649 -0.27626932861073827 0 -0.31202674084989918 -0.26335133138269068 0 -0.3062135479255173 -0.26372173898871692 0 -0.33223611708196649 -0.27626932861073827 0 -0.31187737399160442 -0.27618124236115132 0 -0.3062135479255173 -0.26372173898871692 0 -0.33260241140844943 -0.2743168067351805 0 -0.33223611708196649 -0.27626932861073827 0 -0.31202674084989918 -0.26335133138269068 0 -0.33223611708196649 -0.27626932861073827 0 -0.3062135479255173 -0.26372173898871692 0 -0.33260241140844943 -0.2743168067351805 0 -0.34139866608006603 -0.2687790352098644 0 -0.31202674084989918 -0.26335133138269068 0 -0.33223611708196649 -0.27626932861073827 0 -0.34139866608006603 -0.2687790352098644 0 -0.34951875912658742 -0.28460269103381453 0 -0.33223611708196649 -0.27626932861073827 0 -0.34951875912658742 -0.28460269103381453 0 -0.33260241140844943 -0.2743168067351805 0 -0.33223611708196649 -0.27626932861073827 0 -0.34139866608006603 -0.2687790352098644 0 -0.33260241140844943 -0.2743168067351805 0 -0.33223611708196649 -0.27626932861073827 0 -0.34139866608006603 -0.2687790352098644 0 -0.3363084638556994 -0.26041051377605268 0 -0.34457472137820933 -0.25758558818627408 0 -0.32580796388430833 -0.26195871891040218 0 -0.34139866608006603 -0.2687790352098644 0 -0.3363084638556994 -0.26041051377605268 0 -0.32580796388430833 -0.26195871891040218 0 -0.3363084638556994 -0.26041051377605268 0 -0.33345250408021371 -0.25331871279766999 0 -0.3363084638556994 -0.26041051377605268 0 -0.33345250408021371 -0.25331871279766999 0 -0.34457472137820933 -0.25758558818627408 0 -0.33345250408021371 -0.25331871279766999 0 -0.34457472137820933 -0.25758558818627408 0 -0.34395992200845399 -0.24382677409400949 0 -0.34139866608006603 -0.2687790352098644 0 -0.34457472137820933 -0.25758558818627408 0 -0.35733732661955131 -0.26288598862094092 0 -0.34457472137820933 -0.25758558818627408 0 -0.35872453044413888 -0.25078889886649508 0 -0.34395992200845399 -0.24382677409400949 0 -0.34457472137820933 -0.25758558818627408 0 -0.35733732661955131 -0.26288598862094092 0 -0.35872453044413888 -0.25078889886649508 0 -0.37710287173325818 -0.2711091198417086 0 -0.36828299104124951 -0.26081605551440462 0 -0.37747963509906429 -0.24508953120583671 0 -0.35872453044413888 -0.25078889886649508 0 -0.36828299104124951 -0.26081605551440462 0 -0.37747963509906429 -0.24508953120583671 0 -0.35733732661955131 -0.26288598862094092 0 -0.35872453044413888 -0.25078889886649508 0 -0.36828299104124951 -0.26081605551440462 0 -0.37077059131023282 -0.27420673903703829 0 -0.34951875912658742 -0.28460269103381453 0 -0.37710287173325818 -0.2711091198417086 0 -0.3770412393053626 -0.27536550612006683 0 -0.37077059131023282 -0.27420673903703829 0 -0.3770412393053626 -0.27536550612006683 0 -0.37077059131023282 -0.27420673903703829 0 -0.37710287173325818 -0.2711091198417086 0 -0.36828299104124951 -0.26081605551440462 0 -0.37077059131023282 -0.27420673903703829 0 -0.37710287173325818 -0.2711091198417086 0 -0.37077059131023282 -0.27420673903703829 0 -0.35733732661955131 -0.26288598862094092 0 -0.36828299104124951 -0.26081605551440462 0 -0.37077059131023282 -0.27420673903703829 0 -0.34139866608006603 -0.2687790352098644 0 -0.35733732661955131 -0.26288598862094092 0 -0.37077059131023282 -0.27420673903703829 0 -0.34139866608006603 -0.2687790352098644 0 -0.37077059131023282 -0.27420673903703829 0 -0.34951875912658742 -0.28460269103381453 0 -0.34139866608006603 -0.2687790352098644 0 -0.37077059131023282 -0.27420673903703829 0 -0.34951875912658742 -0.28460269103381453 0 -0.3581763596052473 -0.30097106086504849 0 -0.34010739644885768 -0.2892065328944351 0 -0.34951875912658742 -0.28460269103381453 0 -0.34010739644885768 -0.2892065328944351 0 -0.37671758341694961 -0.29771744858697219 0 -0.37077059131023282 -0.27420673903703829 0 -0.34951875912658742 -0.28460269103381453 0 -0.37671758341694961 -0.29771744858697219 0 -0.34951875912658742 -0.28460269103381453 0 -0.37671758341694961 -0.29771744858697219 0 -0.3770412393053626 -0.27536550612006683 0 -0.37077059131023282 -0.27420673903703829 0 -0.37671758341694961 -0.29771744858697219 0 -0.34951875912658742 -0.28460269103381453 0 -0.3581763596052473 -0.30097106086504849 0 -0.37669606201677502 -0.29920373422444158 0 -0.37671758341694961 -0.29771744858697219 0 -0.3581763596052473 -0.30097106086504849 0 -0.37641717267996733 -0.3184640617331177 0 -0.37669606201677502 -0.29920373422444158 0 -0.36799370156123501 -0.30592930732763762 0 -0.37641717267996733 -0.3184640617331177 0 -0.36799370156123501 -0.30592930732763762 0 -0.35803691493684492 -0.31060122461938489 0 -0.37669606201677502 -0.29920373422444158 0 -0.36799370156123501 -0.30592930732763762 0 -0.3581763596052473 -0.30097106086504849 0 -0.37669606201677502 -0.29920373422444158 0 -0.3581763596052473 -0.30097106086504849 0 -0.36799370156123501 -0.30592930732763762 0 -0.35803691493684492 -0.31060122461938489 0 -0.3581763596052473 -0.30097106086504849 0 -0.35803691493684492 -0.31060122461938489 0 -0.33965665719371979 -0.30273838750565862 0 -0.35803691493684492 -0.31060122461938489 0 -0.33965665719371979 -0.30273838750565862 0 -0.34514704515453298 -0.31300544250539297 0 -0.3581763596052473 -0.30097106086504849 0 -0.33965665719371979 -0.30273838750565862 0 -0.34010739644885768 -0.2892065328944351 0 -0.35803691493684492 -0.31060122461938489 0 -0.3581763596052473 -0.30097106086504849 0 -0.33965665719371979 -0.30273838750565862 0 -0.3581763596052473 -0.30097106086504849 0 -0.33965665719371979 -0.30273838750565862 0 -0.33676996251121621 -0.31158184422573892 0 -0.33965665719371979 -0.30273838750565862 0 -0.34514704515453298 -0.31300544250539297 0 -0.33676996251121621 -0.31158184422573892 0 -0.33965665719371979 -0.30273838750565862 0 -0.32704471803945162 -0.30394193902942662 0 -0.33676996251121621 -0.31158184422573892 0 -0.32594772137393307 -0.30978944971135602 0 -0.32704471803945162 -0.30394193902942662 0 -0.33965665719371979 -0.30273838750565862 0 -0.32704471803945162 -0.30394193902942662 0 -0.32819068517220462 -0.29783339261299951 0 -0.33965665719371979 -0.30273838750565862 0 -0.32704471803945162 -0.30394193902942662 0 -0.32819068517220462 -0.29783339261299951 0 -0.33965665719371979 -0.30273838750565862 0 -0.33223611708196649 -0.27626932861073827 0 -0.32819068517220462 -0.29783339261299951 0 -0.33223611708196649 -0.27626932861073827 0 -0.32819068517220462 -0.29783339261299951 0 -0.34010739644885768 -0.2892065328944351 0 -0.33223611708196649 -0.27626932861073827 0 -0.34951875912658742 -0.28460269103381453 0 -0.34010739644885768 -0.2892065328944351 0 -0.32819068517220462 -0.29783339261299951 0 -0.33965665719371979 -0.30273838750565862 0 -0.34010739644885768 -0.2892065328944351 0 -0.32819068517220462 -0.29783339261299951 0 -0.31972670239926188 -0.28454160199560091 0 -0.31332574866090718 -0.291474364566292 0 -0.32819068517220462 -0.29783339261299951 0 -0.31332574866090718 -0.291474364566292 0 -0.33223611708196649 -0.27626932861073827 0 -0.32819068517220462 -0.29783339261299951 0 -0.31972670239926188 -0.28454160199560091 0 -0.31972670239926188 -0.28454160199560091 0 -0.31332574866090718 -0.291474364566292 0 -0.30937392239009109 -0.28339120160471948 0 -0.31972670239926188 -0.28454160199560091 0 -0.30937392239009109 -0.28339120160471948 0 -0.31187737399160442 -0.27618124236115132 0 -0.31992409361072222 -0.30462145692723192 0 -0.32594772137393307 -0.30978944971135602 0 -0.31307430431717392 -0.31869978567557272 0 -0.31992409361072222 -0.30462145692723192 0 -0.32594772137393307 -0.30978944971135602 0 -0.32594772137393307 -0.30978944971135602 0 -0.32704471803945162 -0.30394193902942662 0 -0.31992409361072222 -0.30462145692723192 0 -0.32594772137393307 -0.30978944971135602 0 -0.32704471803945162 -0.30394193902942662 0 -0.32819068517220462 -0.29783339261299951 0 -0.31332574866090718 -0.291474364566292 0 -0.31992409361072222 -0.30462145692723192 0 -0.32819068517220462 -0.29783339261299951 0 -0.32704471803945162 -0.30394193902942662 0 -0.32819068517220462 -0.29783339261299951 0 -0.31992409361072222 -0.30462145692723192 0 -0.32704471803945162 -0.30394193902942662 0 -0.31992409361072222 -0.30462145692723192 0 -0.32704471803945162 -0.30394193902942662 0 -0.32594772137393307 -0.30978944971135602 0 -0.31307430431717392 -0.31869978567557272 0 -0.32184288384298337 -0.33167017375041419 0 -0.32594772137393307 -0.30978944971135602 0 -0.32184288384298337 -0.33167017375041419 0 -0.32184288384298337 -0.33167017375041419 0 -0.31773804631203251 -0.35355089778947202 0 -0.32184288384298337 -0.33167017375041419 0 -0.34475024534571441 -0.34586667392980902 0 -0.31773804631203251 -0.35355089778947202 0 -0.32184288384298337 -0.33167017375041419 0 -0.34612464597635118 -0.32710031367078812 0 -0.34475024534571441 -0.34586667392980902 0 -0.33676996251121621 -0.31158184422573892 0 -0.32594772137393307 -0.30978944971135602 0 -0.34612464597635118 -0.32710031367078812 0 -0.32594772137393307 -0.30978944971135602 0 -0.34612464597635118 -0.32710031367078812 0 -0.32594772137393307 -0.30978944971135602 0 -0.32184288384298337 -0.33167017375041419 0 -0.34612464597635118 -0.32710031367078812 0 -0.33676996251121621 -0.31158184422573892 0 -0.34514704515453298 -0.31300544250539297 0 -0.34612464597635118 -0.32710031367078812 0 -0.35803691493684492 -0.31060122461938489 0 -0.34514704515453298 -0.31300544250539297 0 -0.34612464597635118 -0.32710031367078812 0 -0.35803691493684492 -0.31060122461938489 0 -0.34612464597635118 -0.32710031367078812 0 -0.35600230731325749 -0.33324145173106873 0 -0.37641717267996733 -0.3184640617331177 0 -0.35803691493684492 -0.31060122461938489 0 -0.37641717267996733 -0.3184640617331177 0 -0.35803691493684492 -0.31060122461938489 0 -0.36719759625642318 -0.33008752154143739 0 -0.35803691493684492 -0.31060122461938489 0 -0.36719759625642318 -0.33008752154143739 0 -0.35600230731325749 -0.33324145173106873 0 -0.37607676276689278 -0.3419730509543204 0 -0.37641717267996733 -0.3184640617331177 0 -0.36719759625642318 -0.33008752154143739 0 -0.37607676276689278 -0.3419730509543204 0 -0.3688763256213185 -0.34309961767568647 0 -0.36719759625642318 -0.33008752154143739 0 -0.36719759625642318 -0.33008752154143739 0 -0.36118874601324108 -0.3436521492952741 0 -0.35600230731325749 -0.33324145173106873 0 -0.3688763256213185 -0.34309961767568647 0 -0.36719759625642318 -0.33008752154143739 0 -0.36118874601324108 -0.3436521492952741 0 -0.34612464597635118 -0.32710031367078812 0 -0.35600230731325749 -0.33324145173106873 0 -0.34475024534571441 -0.34586667392980902 0 -0.36118874601324108 -0.3436521492952741 0 -0.35600230731325749 -0.33324145173106873 0 -0.34475024534571441 -0.34586667392980902 0 -0.36118874601324108 -0.3436521492952741 0 -0.34475024534571441 -0.34586667392980902 0 -0.35925477447714671 -0.35134479444962452 0 -0.34475024534571441 -0.34586667392980902 0 -0.35480891830463612 -0.3592101017575729 0 -0.33937201587241012 -0.36587749477948078 0 -0.34475024534571441 -0.34586667392980902 0 -0.35480891830463612 -0.3592101017575729 0 -0.35925477447714671 -0.35134479444962452 0 -0.36118874601324108 -0.3436521492952741 0 -0.37225797237559449 -0.35115364910559932 0 -0.36118874601324108 -0.3436521492952741 0 -0.35925477447714671 -0.35134479444962452 0 -0.36985982957495511 -0.35171195823109852 0 -0.37568304780698558 -0.36916333065311507 0 -0.37593298752455201 -0.35190228771479481 0 -0.37225797237559449 -0.35115364910559932 0 -0.35480891830463612 -0.3592101017575729 0 -0.35925477447714671 -0.35134479444962452 0 -0.36985982957495511 -0.35171195823109852 0 -0.37607676276689278 -0.3419730509543204 0 -0.3688763256213185 -0.34309961767568647 0 -0.37225797237559449 -0.35115364910559932 0 -0.37607676276689278 -0.3419730509543204 0 -0.37225797237559449 -0.35115364910559932 0 -0.37607676276689278 -0.3419730509543204 0 -0.37390838074359528 -0.35076941925389299 0 -0.37225797237559449 -0.35115364910559932 0 -0.37593298752455201 -0.35190228771479481 0 -0.37390838074359528 -0.35076941925389299 0 -0.37225797237559449 -0.35115364910559932 0 -0.3688763256213185 -0.34309961767568647 0 -0.36118874601324108 -0.3436521492952741 0 -0.37225797237559449 -0.35115364910559932 0 -0.37593298752455201 -0.35190228771479481 0 -0.37390838074359528 -0.35076941925389299 0 -0.36118874601324108 -0.3436521492952741 0 -0.36985982957495511 -0.35171195823109852 0 -0.37225797237559449 -0.35115364910559932 0 -0.37595629511297179 -0.35029264644438168 0 -0.37390838074359528 -0.35076941925389299 0 -0.37390838074359528 -0.35076941925389299 0 -0.37225797237559449 -0.35115364910559932 0 -0.36985982957495511 -0.35171195823109852 0 -0.37225797237559449 -0.35115364910559932 0 -0.37568304780698558 -0.36916333065311507 0 -0.37225797237559449 -0.35115364910559932 0 -0.36100598543278789 -0.37820409176948921 0 -0.35480891830463612 -0.3592101017575729 0 -0.36985982957495511 -0.35171195823109852 0 -0.36100598543278789 -0.37820409176948921 0 -0.36985982957495511 -0.35171195823109852 0 -0.37225797237559449 -0.35115364910559932 0 -0.36100598543278789 -0.37820409176948921 0 -0.37225797237559449 -0.35115364910559932 0 -0.36100598543278789 -0.37820409176948921 0 -0.33937201587241012 -0.36587749477948078 0 -0.36100598543278789 -0.37820409176948921 0 -0.35480891830463612 -0.3592101017575729 0 -0.33937201587241012 -0.36587749477948078 0 -0.36100598543278789 -0.37820409176948921 0 -0.33937201587241012 -0.36587749477948078 0 -0.31773804631203251 -0.35355089778947202 0 -0.33937201587241012 -0.36587749477948078 0 -0.31773804631203251 -0.35355089778947202 0 -0.32803705280137402 -0.37447550275240871 0 -0.34475024534571441 -0.34586667392980902 0 -0.33937201587241012 -0.36587749477948078 0 -0.31773804631203251 -0.35355089778947202 0 -0.31773804631203251 -0.35355089778947202 0 -0.31381007312398762 -0.37448885129246268 0 -0.31773804631203251 -0.35355089778947202 0 -0.31381007312398762 -0.37448885129246268 0 -0.32803705280137402 -0.37447550275240871 0 -0.31381007312398762 -0.37448885129246268 0 -0.29871455833571747 -0.36148408621311728 0 -0.29196992941862432 -0.3825632544476108 0 -0.31773804631203251 -0.35355089778947202 0 -0.31381007312398762 -0.37448885129246268 0 -0.29871455833571747 -0.36148408621311728 0 -0.31773804631203251 -0.35355089778947202 0 -0.29871455833571747 -0.36148408621311728 0 -0.29282778547957722 -0.33935753649529382 0 -0.31773804631203251 -0.35355089778947202 0 -0.29282778547957722 -0.33935753649529382 0 -0.29871455833571747 -0.36148408621311728 0 -0.27675503022224163 -0.36681377825091099 0 -0.29282778547957722 -0.33935753649529382 0 -0.29871455833571747 -0.36148408621311728 0 -0.27675503022224163 -0.36681377825091099 0 -0.29196992941862432 -0.3825632544476108 0 -0.27675503022224163 -0.36681377825091099 0 -0.25757508569408222 -0.36424633604315798 0 -0.26546808025963542 -0.34847395767735678 0 -0.27675503022224163 -0.36681377825091099 0 -0.25757508569408222 -0.36424633604315798 0 -0.25812358553267323 -0.37605355791306738 0 -0.25757508569408222 -0.36424633604315798 0 -0.24839247009954951 -0.37292447016044328 0 -0.24532753696728959 -0.36501789644951049 0 -0.25757508569408222 -0.36424633604315798 0 -0.25812358553267323 -0.37605355791306738 0 -0.24839247009954951 -0.37292447016044328 0 -0.25757508569408222 -0.36424633604315798 0 -0.26546808025963542 -0.34847395767735678 0 -0.24650166737573331 -0.3569693529562265 0 -0.26546808025963542 -0.34847395767735678 0 -0.24650166737573331 -0.3569693529562265 0 -0.24881121389389799 -0.33838995723746451 0 -0.27675503022224163 -0.36681377825091099 0 -0.26546808025963542 -0.34847395767735678 0 -0.29282778547957722 -0.33935753649529382 0 -0.26791752464712137 -0.32516417520111718 0 -0.27544300416693679 -0.31995488319631832 0 -0.29282778547957722 -0.33935753649529382 0 -0.26546808025963542 -0.34847395767735678 0 -0.26791752464712137 -0.32516417520111718 0 -0.29282778547957722 -0.33935753649529382 0 -0.26791752464712137 -0.32516417520111718 0 -0.29282778547957722 -0.33935753649529382 0 -0.26791752464712137 -0.32516417520111718 0 -0.24881121389389799 -0.33838995723746451 0 -0.26546808025963542 -0.34847395767735678 0 -0.26791752464712137 -0.32516417520111718 0 -0.24881121389389799 -0.33838995723746451 0 -0.26791752464712137 -0.32516417520111718 0 -0.24881121389389799 -0.33838995723746451 0 -0.2441082332202735 -0.32380704628422963 0 -0.26791752464712137 -0.32516417520111718 0 -0.2444966906846206 -0.31181945912301329 0 -0.26791752464712137 -0.32516417520111718 0 -0.26963915832665503 -0.30942012505775762 0 -0.2444966906846206 -0.31181945912301329 0 -0.26791752464712137 -0.32516417520111718 0 -0.2441082332202735 -0.32380704628422963 0 -0.2444966906846206 -0.31181945912301329 0 -0.26791752464712137 -0.32516417520111718 0 -0.27544300416693679 -0.31995488319631832 0 -0.26963915832665503 -0.30942012505775762 0 -0.26791752464712137 -0.32516417520111718 0 -0.27544300416693679 -0.31995488319631832 0 -0.27544300416693679 -0.31995488319631832 0 -0.29403167998309421 -0.32125824908992018 0 -0.29478162596868879 -0.30702079099249591 0 -0.27544300416693679 -0.31995488319631832 0 -0.29403167998309421 -0.32125824908992018 0 -0.29282778547957722 -0.33935753649529382 0 -0.31307430431717392 -0.31869978567557272 0 -0.32184288384298337 -0.33167017375041419 0 -0.29282778547957722 -0.33935753649529382 0 -0.32184288384298337 -0.33167017375041419 0 -0.31773804631203251 -0.35355089778947202 0 -0.29282778547957722 -0.33935753649529382 0 -0.31307430431717392 -0.31869978567557272 0 -0.29403167998309421 -0.32125824908992018 0 -0.29282778547957722 -0.33935753649529382 0 -0.31307430431717392 -0.31869978567557272 0 -0.29403167998309421 -0.32125824908992018 0 -0.29478162596868879 -0.30702079099249591 0 -0.31992409361072222 -0.30462145692723192 0 -0.29478162596868879 -0.30702079099249591 0 -0.31992409361072222 -0.30462145692723192 0 -0.31307430431717392 -0.31869978567557272 0 -0.29478162596868879 -0.30702079099249591 0 -0.31992409361072222 -0.30462145692723192 0 -0.30687808727867438 -0.29770175581860719 0 -0.29478162596868879 -0.30702079099249591 0 -0.30687808727867438 -0.29770175581860719 0 -0.29813438661480679 -0.29530641477552327 0 -0.29478162596868879 -0.30702079099249591 0 -0.31992409361072222 -0.30462145692723192 0 -0.2984608121496099 -0.28511533651958437 0 -0.31992409361072222 -0.30462145692723192 0 -0.30687808727867438 -0.29770175581860719 0 -0.2984608121496099 -0.28511533651958437 0 -0.31332574866090718 -0.291474364566292 0 -0.31992409361072222 -0.30462145692723192 0 -0.2984608121496099 -0.28511533651958437 0 -0.31332574866090718 -0.291474364566292 0 -0.30937392239009109 -0.28339120160471948 0 -0.2984608121496099 -0.28511533651958437 0 -0.31332574866090718 -0.291474364566292 0 -0.2984608121496099 -0.28511533651958437 0 -0.30937392239009109 -0.28339120160471948 0 -0.2984608121496099 -0.28511533651958437 0 -0.30347897474907187 -0.279643462580969 0 -0.30687808727867438 -0.29770175581860719 0 -0.29951482580247829 -0.29240083595456018 0 -0.29813438661480679 -0.29530641477552327 0 -0.30687808727867438 -0.29770175581860719 0 -0.2984608121496099 -0.28511533651958437 0 -0.29951482580247829 -0.29240083595456018 0 -0.29951482580247829 -0.29240083595456018 0 -0.29813438661480679 -0.29530641477552327 0 -0.29499124589990039 -0.29073588210889412 0 -0.2984608121496099 -0.28511533651958437 0 -0.29951482580247829 -0.29240083595456018 0 -0.29499124589990039 -0.29073588210889412 0 -0.29499124589990039 -0.29073588210889412 0 -0.29148170063899659 -0.29460773718781319 0 -0.28586576089235322 -0.28577101837165192 0 -0.29813438661480679 -0.29530641477552327 0 -0.29499124589990039 -0.29073588210889412 0 -0.29148170063899659 -0.29460773718781319 0 -0.2984608121496099 -0.28511533651958437 0 -0.29499124589990039 -0.29073588210889412 0 -0.28586576089235322 -0.28577101837165192 0 -0.29148170063899659 -0.29460773718781319 0 -0.28586576089235322 -0.28577101837165192 0 -0.2798353156189245 -0.29508903771003908 0 -0.29148170063899659 -0.29460773718781319 0 -0.29478162596868879 -0.30702079099249591 0 -0.2798353156189245 -0.29508903771003908 0 -0.29478162596868879 -0.30702079099249591 0 -0.26963915832665503 -0.30942012505775762 0 -0.2798353156189245 -0.29508903771003908 0 -0.29478162596868879 -0.30702079099249591 0 -0.26963915832665503 -0.30942012505775762 0 -0.29813438661480679 -0.29530641477552327 0 -0.29148170063899659 -0.29460773718781319 0 -0.29478162596868879 -0.30702079099249591 0 -0.27544300416693679 -0.31995488319631832 0 -0.29478162596868879 -0.30702079099249591 0 -0.26963915832665503 -0.30942012505775762 0 -0.26963915832665503 -0.30942012505775762 0 -0.26057201890547982 -0.29344093798311832 0 -0.2798353156189245 -0.29508903771003908 0 -0.26963915832665503 -0.30942012505775762 0 -0.2444966906846206 -0.31181945912301329 0 -0.26963915832665503 -0.30942012505775762 0 -0.26057201890547982 -0.29344093798311832 0 -0.2444966906846206 -0.31181945912301329 0 -0.26057201890547982 -0.29344093798311832 0 -0.27108878797196961 -0.28331686931735522 0 -0.25298377122075039 -0.27518622721876451 0 -0.26057201890547982 -0.29344093798311832 0 -0.25298377122075039 -0.27518622721876451 0 -0.2435111179254994 -0.29490773243705071 0 -0.26057201890547982 -0.29344093798311832 0 -0.27108878797196961 -0.28331686931735522 0 -0.2798353156189245 -0.29508903771003908 0 -0.28586576089235322 -0.28577101837165192 0 -0.27108878797196961 -0.28331686931735522 0 -0.2798353156189245 -0.29508903771003908 0 -0.27108878797196961 -0.28331686931735522 0 -0.27618707322233982 -0.26709712530320262 0 -0.25298377122075039 -0.27518622721876451 0 -0.28586576089235322 -0.28577101837165192 0 -0.27108878797196961 -0.28331686931735522 0 -0.27618707322233982 -0.26709712530320262 0 -0.27618707322233982 -0.26709712530320262 0 -0.25431856302814809 -0.24833495949118861 0 -0.27618707322233982 -0.26709712530320262 0 -0.25298377122075039 -0.27518622721876451 0 -0.25431856302814809 -0.24833495949118861 0 -0.27618707322233982 -0.26709712530320262 0 -0.27309361240676189 -0.24179026653703889 0 -0.25431856302814809 -0.24833495949118861 0 -0.27618707322233982 -0.26709712530320262 0 -0.2907170577323625 -0.25177677077710309 0 -0.27309361240676189 -0.24179026653703889 0 -0.27618707322233982 -0.26709712530320262 0 -0.2907170577323625 -0.25177677077710309 0 -0.29477899871119112 -0.26293378760569941 0 -0.2984608121496099 -0.28511533651958437 0 -0.28586576089235322 -0.28577101837165192 0 -0.27618707322233982 -0.26709712530320262 0 -0.2984608121496099 -0.28511533651958437 0 -0.27618707322233982 -0.26709712530320262 0 -0.27618707322233982 -0.26709712530320262 0 -0.29477899871119112 -0.26293378760569941 0 -0.29948479845841441 -0.27338487519771032 0 -0.2984608121496099 -0.28511533651958437 0 -0.27618707322233982 -0.26709712530320262 0 -0.29948479845841441 -0.27338487519771032 0 -0.29477899871119112 -0.26293378760569941 0 -0.29948479845841441 -0.27338487519771032 0 -0.30156079933714469 -0.26765617134954151 0 -0.30156079933714469 -0.26765617134954151 0 -0.30403476516136241 -0.27459464834518948 0 -0.30588444940973558 -0.27063474712059482 0 -0.29948479845841441 -0.27338487519771032 0 -0.30156079933714469 -0.26765617134954151 0 -0.30403476516136241 -0.27459464834518948 0 -0.30156079933714469 -0.26765617134954151 0 -0.30588444940973558 -0.27063474712059482 0 -0.3062135479255173 -0.26372173898871692 0 -0.2984608121496099 -0.28511533651958437 0 -0.29948479845841441 -0.27338487519771032 0 -0.30347897474907187 -0.279643462580969 0 -0.29948479845841441 -0.27338487519771032 0 -0.30403476516136241 -0.27459464834518948 0 -0.30347897474907187 -0.279643462580969 0 -0.30937392239009109 -0.28339120160471948 0 -0.30347897474907187 -0.279643462580969 0 -0.31187737399160442 -0.27618124236115132 0 -0.30403476516136241 -0.27459464834518948 0 -0.30347897474907187 -0.279643462580969 0 -0.31187737399160442 -0.27618124236115132 0 -0.30403476516136241 -0.27459464834518948 0 -0.31187737399160442 -0.27618124236115132 0 -0.30588444940973558 -0.27063474712059482 0 -0.31187737399160442 -0.27618124236115132 0 -0.30588444940973558 -0.27063474712059482 0 -0.3062135479255173 -0.26372173898871692 0 -0.31664960680882542 -0.25714232151458272 0 -0.31202674084989918 -0.26335133138269068 0 -0.30853150187083839 -0.25429835417001312 0 -0.2907170577323625 -0.25177677077710309 0 -0.29477899871119112 -0.26293378760569941 0 -0.30853150187083839 -0.25429835417001312 0 -0.31202674084989918 -0.26335133138269068 0 -0.3062135479255173 -0.26372173898871692 0 -0.30853150187083839 -0.25429835417001312 0 -0.29477899871119112 -0.26293378760569941 0 -0.30156079933714469 -0.26765617134954151 0 -0.3062135479255173 -0.26372173898871692 0 -0.29477899871119112 -0.26293378760569941 0 -0.3062135479255173 -0.26372173898871692 0 -0.30853150187083839 -0.25429835417001312 0 -0.33709504481289931 -0.46474263175187808 0 -0.33075086723682939 -0.45093918684289991 0 -0.35302422329502631 -0.44785824460859458 0 -0.33709504481289931 -0.46474263175187808 0 -0.33075086723682939 -0.45093918684289991 0 -0.32054712240525829 -0.47546959342145068 0 -0.33075086723682939 -0.45093918684289991 0 -0.34095461206840061 -0.42640878026434909 0 -0.33075086723682939 -0.45093918684289991 0 -0.35302422329502631 -0.44785824460859458 0 -0.34095461206840061 -0.42640878026434909 0 -0.33075086723682939 -0.45093918684289991 0 -0.32054706720266329 -0.44859283512714471 0 -0.3206124180200437 -0.43193612962395289 0 -0.33075086723682939 -0.45093918684289991 0 -0.32054706720266329 -0.44859283512714471 0 -0.31571728338184601 -0.45752087103574601 0 -0.32054706720266329 -0.44859283512714471 0 -0.31571728338184601 -0.45752087103574601 0 -0.30706080135445341 -0.45057148265483188 0 -0.33075086723682939 -0.45093918684289991 0 -0.32054712240525829 -0.47546959342145068 0 -0.33075086723682939 -0.45093918684289991 0 -0.31571728338184601 -0.45752087103574601 0 -0.32054712240525829 -0.47546959342145068 0 -0.32054712240525829 -0.47546959342145068 0 -0.32750579650535672 -0.48798687004089669 0 -0.32933965142182292 -0.47777380670114528 0 -0.32054712240525829 -0.47546959342145068 0 -0.31034337757368669 -0.50000000000000133 0 -0.32750579650535672 -0.48798687004089669 0 -0.33387795429423722 -0.5 0 -0.31034337757368669 -0.50000000000000133 0 -0.32054712240525829 -0.47546959342145068 0 -0.32750579650535672 -0.48798687004089669 0 -0.31034337757368669 -0.50000000000000133 0 -0.32750579650535672 -0.48798687004089669 0 -0.34342087683177741 -0.48669095008188618 0 -0.33387795429423722 -0.5 0 -0.33709504481289931 -0.46474263175187808 0 -0.32933965142182292 -0.47777380670114528 0 -0.35181335970555933 -0.47167232718529989 0 -0.34342087683177741 -0.48669095008188618 0 -0.32933965142182292 -0.47777380670114528 0 -0.35181335970555933 -0.47167232718529989 0 -0.32750579650535672 -0.48798687004089669 0 -0.34342087683177741 -0.48669095008188618 0 -0.32933965142182292 -0.47777380670114528 0 -0.33709504481289931 -0.46474263175187808 0 -0.32054712240525829 -0.47546959342145068 0 -0.32933965142182292 -0.47777380670114528 0 -0.32933965142182292 -0.47777380670114528 0 -0.35181335970555933 -0.47167232718529989 0 -0.34342087683177741 -0.48669095008188618 0 -0.35181335970555933 -0.47167232718529989 0 -0.35979455825166368 -0.48519290092039941 0 -0.34342087683177741 -0.48669095008188618 0 -0.35741253101478748 -0.5 0 -0.35979455825166368 -0.48519290092039941 0 -0.34342087683177741 -0.48669095008188618 0 -0.33387795429423722 -0.5 0 -0.35741253101478748 -0.5 0 -0.38094710773533791 -0.49999999999999839 0 -0.35741253101478748 -0.5 0 -0.37240076261097882 -0.48974555046165519 0 -0.35741253101478748 -0.5 0 -0.35979455825166368 -0.48519290092039941 0 -0.37240076261097882 -0.48974555046165519 0 -0.35181335970555933 -0.47167232718529989 0 -0.35979455825166368 -0.48519290092039941 0 -0.37411677223754131 -0.47733161267270968 0 -0.35181335970555933 -0.47167232718529989 0 -0.37411677223754131 -0.47733161267270968 0 -0.37428706798929601 -0.46557084766945539 0 -0.35979455825166368 -0.48519290092039941 0 -0.37240076261097882 -0.48974555046165519 0 -0.37411677223754131 -0.47733161267270968 0 -0.37411677223754131 -0.47733161267270968 0 -0.37428706798929601 -0.46557084766945539 0 -0.35181335970555933 -0.47167232718529989 0 -0.37428706798929601 -0.46557084766945539 0 -0.35302422329502631 -0.44785824460859458 0 -0.35181335970555933 -0.47167232718529989 0 -0.37428706798929601 -0.46557084766945539 0 -0.33709504481289931 -0.46474263175187808 0 -0.35181335970555933 -0.47167232718529989 0 -0.35302422329502631 -0.44785824460859458 0 -0.37428706798929601 -0.46557084766945539 0 -0.35302422329502631 -0.44785824460859458 0 -0.37472313619600889 -0.43545561783144832 0 -0.37428706798929601 -0.46557084766945539 0 -0.37472313619600889 -0.43545561783144832 0 -0.35302422329502631 -0.44785824460859458 0 -0.37472313619600889 -0.43545561783144832 0 -0.36076670325611282 -0.42019275678090617 0 -0.37515920440272033 -0.40534038799344108 0 -0.37472313619600889 -0.43545561783144832 0 -0.36076670325611282 -0.42019275678090617 0 -0.37515920440272033 -0.40534038799344108 0 -0.36076670325611282 -0.42019275678090617 0 -0.35115835689997099 -0.40187837368579798 0 -0.37515920440272033 -0.40534038799344108 0 -0.37472313619600889 -0.43545561783144832 0 -0.36076670325611282 -0.42019275678090617 0 -0.35115835689997099 -0.40187837368579798 0 -0.34095461206840061 -0.42640878026434909 0 -0.34815033243380111 -0.40144447968524521 0 -0.35115835689997099 -0.40187837368579798 0 -0.34095461206840061 -0.42640878026434909 0 -0.35115835689997099 -0.40187837368579798 0 -0.34095461206840061 -0.42640878026434909 0 -0.35302422329502631 -0.44785824460859458 0 -0.36076670325611282 -0.42019275678090617 0 -0.34095461206840061 -0.42640878026434909 0 -0.37543310808941849 -0.38642437359143528 0 -0.36100598543278789 -0.37820409176948921 0 -0.35115835689997099 -0.40187837368579798 0 -0.37543310808941849 -0.38642437359143528 0 -0.37568304780698558 -0.36916333065311507 0 -0.36100598543278789 -0.37820409176948921 0 -0.37543310808941849 -0.38642437359143528 0 -0.36100598543278789 -0.37820409176948921 0 -0.37515920440272033 -0.40534038799344108 0 -0.37543310808941849 -0.38642437359143528 0 -0.35115835689997099 -0.40187837368579798 0 -0.37515920440272033 -0.40534038799344108 0 -0.35115835689997099 -0.40187837368579798 0 -0.35115835689997099 -0.40187837368579798 0 -0.34646966066369161 -0.38533898881774881 0 -0.34316085436749 -0.39382471367395527 0 -0.34815033243380111 -0.40144447968524521 0 -0.35115835689997099 -0.40187837368579798 0 -0.34316085436749 -0.39382471367395527 0 -0.34815033243380111 -0.40144447968524521 0 -0.35115835689997099 -0.40187837368579798 0 -0.33937201587241012 -0.36587749477948078 0 -0.36100598543278789 -0.37820409176948921 0 -0.34646966066369161 -0.38533898881774881 0 -0.36100598543278789 -0.37820409176948921 0 -0.35115835689997099 -0.40187837368579798 0 -0.36100598543278789 -0.37820409176948921 0 -0.35115835689997099 -0.40187837368579798 0 -0.34646966066369161 -0.38533898881774881 0 -0.33937201587241012 -0.36587749477948078 0 -0.32803705280137402 -0.37447550275240871 0 -0.34646966066369161 -0.38533898881774881 0 -0.32803705280137402 -0.37447550275240871 0 -0.34646966066369161 -0.38533898881774881 0 -0.32931529664348408 -0.38869437358142001 0 -0.34646966066369161 -0.38533898881774881 0 -0.32931529664348408 -0.38869437358142001 0 -0.34316085436749 -0.39382471367395527 0 -0.34815033243380111 -0.40144447968524521 0 -0.33486919938690762 -0.39884665705885908 0 -0.32944617452305069 -0.41182817437998842 0 -0.32931529664348408 -0.38869437358142001 0 -0.34316085436749 -0.39382471367395527 0 -0.33486919938690762 -0.39884665705885908 0 -0.32931529664348408 -0.38869437358142001 0 -0.33486919938690762 -0.39884665705885908 0 -0.32365381597648563 -0.39942827076698811 0 -0.34815033243380111 -0.40144447968524521 0 -0.34316085436749 -0.39382471367395527 0 -0.33486919938690762 -0.39884665705885908 0 -0.33486919938690762 -0.39884665705885908 0 -0.32365381597648563 -0.39942827076698811 0 -0.32944617452305069 -0.41182817437998842 0 -0.32931529664348408 -0.38869437358142001 0 -0.32365381597648563 -0.39942827076698811 0 -0.30988209993594379 -0.39542680479545339 0 -0.32365381597648563 -0.39942827076698811 0 -0.30595412674790001 -0.41636475829844438 0 -0.30988209993594379 -0.39542680479545339 0 -0.31381007312398762 -0.37448885129246268 0 -0.32931529664348408 -0.38869437358142001 0 -0.30988209993594379 -0.39542680479545339 0 -0.31381007312398762 -0.37448885129246268 0 -0.32803705280137402 -0.37447550275240871 0 -0.32931529664348408 -0.38869437358142001 0 -0.34095461206840061 -0.42640878026434909 0 -0.32944617452305069 -0.41182817437998842 0 -0.3206124180200437 -0.43193612962395289 0 -0.33075086723682939 -0.45093918684289991 0 -0.34095461206840061 -0.42640878026434909 0 -0.3206124180200437 -0.43193612962395289 0 -0.34815033243380111 -0.40144447968524521 0 -0.34095461206840061 -0.42640878026434909 0 -0.32944617452305069 -0.41182817437998842 0 -0.32944617452305069 -0.41182817437998842 0 -0.3206124180200437 -0.43193612962395289 0 -0.30595412674790001 -0.41636475829844438 0 -0.32365381597648563 -0.39942827076698811 0 -0.32944617452305069 -0.41182817437998842 0 -0.30595412674790001 -0.41636475829844438 0 -0.3206124180200437 -0.43193612962395289 0 -0.30595412674790001 -0.41636475829844438 0 -0.29602166034141808 -0.43748304283089118 0 -0.30595412674790001 -0.41636475829844438 0 -0.28680587137917263 -0.41476105187328532 0 -0.29502227998321778 -0.40112933436643161 0 -0.30595412674790001 -0.41636475829844438 0 -0.28680587137917263 -0.41476105187328532 0 -0.29602166034141808 -0.43748304283089118 0 -0.28680587137917263 -0.41476105187328532 0 -0.29602166034141808 -0.43748304283089118 0 -0.27149625348017281 -0.42637325053463759 0 -0.29602166034141808 -0.43748304283089118 0 -0.27149625348017281 -0.42637325053463759 0 -0.29602166034141808 -0.43748304283089118 0 -0.27149625348017281 -0.42637325053463759 0 -0.27906578537949278 -0.44687665772048962 0 -0.31381007312398762 -0.37448885129246268 0 -0.30988209993594379 -0.39542680479545339 0 -0.31381007312398762 -0.37448885129246268 0 -0.30988209993594379 -0.39542680479545339 0 -0.29196992941862432 -0.3825632544476108 0 -0.30595412674790001 -0.41636475829844438 0 -0.30988209993594379 -0.39542680479545339 0 -0.30595412674790001 -0.41636475829844438 0 -0.30988209993594379 -0.39542680479545339 0 -0.29502227998321778 -0.40112933436643161 0 -0.30988209993594379 -0.39542680479545339 0 -0.29502227998321778 -0.40112933436643161 0 -0.29196992941862432 -0.3825632544476108 0 -0.28680587137917263 -0.41476105187328532 0 -0.29502227998321778 -0.40112933436643161 0 -0.2806661672136338 -0.39648987600255969 0 -0.29502227998321778 -0.40112933436643161 0 -0.29196992941862432 -0.3825632544476108 0 -0.2806661672136338 -0.39648987600255969 0 -0.27675503022224163 -0.36681377825091099 0 -0.29196992941862432 -0.3825632544476108 0 -0.26924588117792803 -0.38334910629271668 0 -0.29196992941862432 -0.3825632544476108 0 -0.26924588117792803 -0.38334910629271668 0 -0.2806661672136338 -0.39648987600255969 0 -0.27675503022224163 -0.36681377825091099 0 -0.26924588117792803 -0.38334910629271668 0 -0.25812358553267323 -0.37605355791306738 0 -0.28680587137917263 -0.41476105187328532 0 -0.2806661672136338 -0.39648987600255969 0 -0.26326431180229581 -0.40282557300305732 0 -0.26924588117792803 -0.38334910629271668 0 -0.2806661672136338 -0.39648987600255969 0 -0.26326431180229581 -0.40282557300305732 0 -0.26326431180229581 -0.40282557300305732 0 -0.2504897110532438 -0.38524934403489181 0 -0.24394706363899241 -0.39877073912243299 0 -0.26326431180229581 -0.40282557300305732 0 -0.24697084661892749 -0.41526345823838401 0 -0.24394706363899241 -0.39877073912243299 0 -0.26924588117792803 -0.38334910629271668 0 -0.26326431180229581 -0.40282557300305732 0 -0.2504897110532438 -0.38524934403489181 0 -0.26924588117792803 -0.38334910629271668 0 -0.2504897110532438 -0.38524934403489181 0 -0.25812358553267323 -0.37605355791306738 0 -0.2504897110532438 -0.38524934403489181 0 -0.25812358553267323 -0.37605355791306738 0 -0.24839247009954951 -0.37292447016044328 0 -0.28680587137917263 -0.41476105187328532 0 -0.26326431180229581 -0.40282557300305732 0 -0.27149625348017281 -0.42637325053463759 0 -0.27149625348017281 -0.42637325053463759 0 -0.24697084661892749 -0.41526345823838401 0 -0.26326431180229581 -0.40282557300305732 0 -0.27149625348017281 -0.42637325053463759 0 -0.24697084661892749 -0.41526345823838401 0 -0.27149625348017281 -0.42637325053463759 0 -0.25687425522332558 -0.44642006451091643 0 -0.24697084661892749 -0.41526345823838401 0 -0.25687425522332558 -0.44642006451091643 0 -0.27607931301277078 -0.46657199895299017 0 -0.25409384940020791 -0.47271975939701871 0 -0.25687425522332558 -0.44642006451091643 0 -0.27607931301277078 -0.46657199895299017 0 -0.27906578537949278 -0.44687665772048962 0 -0.27149625348017281 -0.42637325053463759 0 -0.25687425522332558 -0.44642006451091643 0 -0.27906578537949278 -0.44687665772048962 0 -0.29602166034141808 -0.43748304283089118 0 -0.27906578537949278 -0.44687665772048962 0 -0.29968055871002541 -0.46203125713240301 0 -0.27607931301277078 -0.46657199895299017 0 -0.27906578537949278 -0.44687665772048962 0 -0.29968055871002541 -0.46203125713240301 0 -0.31571728338184601 -0.45752087103574601 0 -0.29968055871002541 -0.46203125713240301 0 -0.30706080135445341 -0.45057148265483188 0 -0.31571728338184601 -0.45752087103574601 0 -0.32054712240525829 -0.47546959342145068 0 -0.29968055871002541 -0.46203125713240301 0 -0.32054706720266329 -0.44859283512714471 0 -0.29602166034141808 -0.43748304283089118 0 -0.32054706720266329 -0.44859283512714471 0 -0.3206124180200437 -0.43193612962395289 0 -0.29602166034141808 -0.43748304283089118 0 -0.32054706720266329 -0.44859283512714471 0 -0.29602166034141808 -0.43748304283089118 0 -0.30706080135445341 -0.45057148265483188 0 -0.29602166034141808 -0.43748304283089118 0 -0.29968055871002541 -0.46203125713240301 0 -0.30706080135445341 -0.45057148265483188 0 -0.32054712240525829 -0.47546959342145068 0 -0.31034337757368669 -0.50000000000000133 0 -0.2941570887960146 -0.48201569375099518 0 -0.32054712240525829 -0.47546959342145068 0 -0.29968055871002541 -0.46203125713240301 0 -0.2941570887960146 -0.48201569375099518 0 -0.27607931301277078 -0.46657199895299017 0 -0.29968055871002541 -0.46203125713240301 0 -0.2941570887960146 -0.48201569375099518 0 -0.2941570887960146 -0.48201569375099518 0 -0.28248249767631262 -0.5 0 -0.27039562620846602 -0.48462576079096858 0 -0.31034337757368669 -0.50000000000000133 0 -0.2941570887960146 -0.48201569375099518 0 -0.28248249767631262 -0.5 0 -0.28248249767631262 -0.5 0 -0.27039562620846602 -0.48462576079096858 0 -0.25462161777893849 -0.5 0 -0.27607931301277078 -0.46657199895299017 0 -0.2941570887960146 -0.48201569375099518 0 -0.27039562620846602 -0.48462576079096858 0 -0.27607931301277078 -0.46657199895299017 0 -0.27039562620846602 -0.48462576079096858 0 -0.25409384940020791 -0.47271975939701871 0 -0.27039562620846602 -0.48462576079096858 0 -0.25409384940020791 -0.47271975939701871 0 -0.25462161777893849 -0.5 0 -0.25462161777893849 -0.5 0 -0.23155232774708009 -0.47932355884050398 0 -0.22676073788156451 -0.5 0 -0.25409384940020791 -0.47271975939701871 0 -0.25462161777893849 -0.5 0 -0.23155232774708009 -0.47932355884050398 0 -0.25409384940020791 -0.47271975939701871 0 -0.23155232774708009 -0.47932355884050398 0 -0.2350399564306665 -0.45937717328673289 0 -0.23155232774708009 -0.47932355884050398 0 -0.2350399564306665 -0.45937717328673289 0 -0.2080224731694312 -0.47403962225972662 0 -0.23155232774708009 -0.47932355884050398 0 -0.22676073788156451 -0.5 0 -0.2080224731694312 -0.47403962225972662 0 -0.25687425522332558 -0.44642006451091643 0 -0.2350399564306665 -0.45937717328673289 0 -0.23180750449586429 -0.4343742486430574 0 -0.25687425522332558 -0.44642006451091643 0 -0.25409384940020791 -0.47271975939701871 0 -0.2350399564306665 -0.45937717328673289 0 -0.2350399564306665 -0.45937717328673289 0 -0.21590660946663959 -0.44883644739355771 0 -0.2080224731694312 -0.47403962225972662 0 -0.2350399564306665 -0.45937717328673289 0 -0.21590660946663959 -0.44883644739355771 0 -0.23180750449586429 -0.4343742486430574 0 -0.21590660946663959 -0.44883644739355771 0 -0.1943898331460783 -0.4473597119794826 0 -0.20910912931781811 -0.42543372189632289 0 -0.21590660946663959 -0.44883644739355771 0 -0.1943898331460783 -0.4473597119794826 0 -0.2080224731694312 -0.47403962225972662 0 -0.1943898331460783 -0.4473597119794826 0 -0.2080224731694312 -0.47403962225972662 0 -0.17967053697433849 -0.46928570206264231 0 -0.22676073788156451 -0.5 0 -0.2080224731694312 -0.47403962225972662 0 -0.19889985798419041 -0.5 0 -0.2080224731694312 -0.47403962225972662 0 -0.1821948971586228 -0.48648437486529872 0 -0.17967053697433849 -0.46928570206264231 0 -0.2080224731694312 -0.47403962225972662 0 -0.19889985798419041 -0.5 0 -0.1821948971586228 -0.48648437486529872 0 -0.19889985798419041 -0.5 0 -0.1821948971586228 -0.48648437486529872 0 -0.17103897808681609 -0.49999999999999778 0 -0.1821948971586228 -0.48648437486529872 0 -0.17103897808681609 -0.49999999999999778 0 -0.16495124080259491 -0.49121169214579941 0 -0.17103897808681609 -0.49999999999999778 0 -0.16495124080259491 -0.49121169214579941 0 -0.17103897808681609 -0.49999999999999778 0 -0.16495124080259491 -0.49121169214579941 0 -0.15905149781887321 -0.49999999999999961 0 -0.16495124080259491 -0.49121169214579941 0 -0.15905149781887321 -0.49999999999999961 0 -0.1545750311736096 -0.49062041690426861 0 -0.16495124080259491 -0.49121169214579941 0 -0.15905149781887321 -0.49999999999999961 0 -0.16495124080259491 -0.49121169214579941 0 -0.16530166315622061 -0.47155300009798301 0 -0.17967053697433849 -0.46928570206264231 0 -0.16495124080259491 -0.49121169214579941 0 -0.16530166315622061 -0.47155300009798301 0 -0.15083103946930049 -0.47082765280793248 0 -0.16495124080259491 -0.49121169214579941 0 -0.1545750311736096 -0.49062041690426861 0 -0.15083103946930049 -0.47082765280793248 0 -0.16495124080259491 -0.49121169214579941 0 -0.15083103946930049 -0.47082765280793248 0 -0.16495124080259491 -0.49121169214579941 0 -0.17967053697433849 -0.46928570206264231 0 -0.1821948971586228 -0.48648437486529872 0 -0.16495124080259491 -0.49121169214579941 0 -0.17967053697433849 -0.46928570206264231 0 -0.1943898331460783 -0.4473597119794826 0 -0.17967053697433849 -0.46928570206264231 0 -0.1943898331460783 -0.4473597119794826 0 -0.17967053697433849 -0.46928570206264231 0 -0.1657538353786501 -0.45488695337555668 0 -0.1943898331460783 -0.4473597119794826 0 -0.1657538353786501 -0.45488695337555668 0 -0.1755027511393909 -0.43471579892562301 0 -0.1657538353786501 -0.45488695337555668 0 -0.15761868306950341 -0.43586407366366631 0 -0.1755027511393909 -0.43471579892562301 0 -0.16530166315622061 -0.47155300009798301 0 -0.1657538353786501 -0.45488695337555668 0 -0.15083103946930049 -0.47082765280793248 0 -0.16530166315622061 -0.47155300009798301 0 -0.17967053697433849 -0.46928570206264231 0 -0.1657538353786501 -0.45488695337555668 0 -0.13671083813600751 -0.45044361347006462 0 -0.15083103946930049 -0.47082765280793248 0 -0.13671083813600751 -0.45044361347006462 0 -0.13441782301728619 -0.47175980973682791 0 -0.15083103946930049 -0.47082765280793248 0 -0.1657538353786501 -0.45488695337555668 0 -0.13671083813600751 -0.45044361347006462 0 -0.15083103946930049 -0.47082765280793248 0 -0.13671083813600751 -0.45044361347006462 0 -0.13816776916695811 -0.432543871779144 0 -0.15761868306950341 -0.43586407366366631 0 -0.1657538353786501 -0.45488695337555668 0 -0.13671083813600751 -0.45044361347006462 0 -0.15761868306950341 -0.43586407366366631 0 -0.13671083813600751 -0.45044361347006462 0 -0.13816776916695811 -0.432543871779144 0 -0.1225906368027144 -0.43005957413219659 0 -0.13671083813600751 -0.45044361347006462 0 -0.1225906368027144 -0.43005957413219659 0 -0.13671083813600751 -0.45044361347006462 0 -0.13441782301728619 -0.47175980973682791 0 -0.1201929706126502 -0.46127799294672761 0 -0.13441782301728619 -0.47175980973682791 0 -0.12605423818426559 -0.48707922202292669 0 -0.14429533434837091 -0.48908967660720287 0 -0.13441782301728619 -0.47175980973682791 0 -0.12605423818426559 -0.48707922202292669 0 -0.1201929706126502 -0.46127799294672761 0 -0.1295391708778694 -0.5 0 -0.12605423818426559 -0.48707922202292669 0 -0.14429533434837091 -0.48908967660720287 0 -0.15905149781887321 -0.49999999999999961 0 -0.1295391708778694 -0.5 0 -0.14429533434837091 -0.48908967660720287 0 -0.15905149781887321 -0.49999999999999961 0 -0.14429533434837091 -0.48908967660720287 0 -0.1545750311736096 -0.49062041690426861 0 -0.14429533434837091 -0.48908967660720287 0 -0.1545750311736096 -0.49062041690426861 0 -0.15083103946930049 -0.47082765280793248 0 -0.13441782301728619 -0.47175980973682791 0 -0.14429533434837091 -0.48908967660720287 0 -0.15083103946930049 -0.47082765280793248 0 -0.15345949684661231 -0.4053237642064671 0 -0.15136585988972451 -0.39002590355483568 0 -0.13982663417143551 -0.39933000433158738 0 -0.15136585988972451 -0.39002590355483568 0 -0.1368738238800834 -0.3880397179408614 0 -0.13982663417143551 -0.39933000433158738 0 -0.15345949684661231 -0.4053237642064671 0 -0.13982663417143551 -0.39933000433158738 0 -0.1398029654186671 -0.41064466143528439 0 -0.15136585988972451 -0.39002590355483568 0 -0.1368738238800834 -0.3880397179408614 0 -0.13959568407155781 -0.37291875636350952 0 -0.15136585988972451 -0.39002590355483568 0 -0.15951650330528561 -0.37856285477961621 0 -0.13959568407155781 -0.37291875636350952 0 -0.1368738238800834 -0.3880397179408614 0 -0.12625141541498519 -0.38197991289387551 0 -0.13959568407155781 -0.37291875636350952 0 -0.1368738238800834 -0.3880397179408614 0 -0.12625141541498519 -0.38197991289387551 0 -0.1273295258527142 -0.39594401256049883 0 -0.1368738238800834 -0.3880397179408614 0 -0.1273295258527142 -0.39594401256049883 0 -0.13982663417143551 -0.39933000433158738 0 -0.13982663417143551 -0.39933000433158738 0 -0.1295768038857959 -0.40463739140698729 0 -0.1398029654186671 -0.41064466143528439 0 -0.1273295258527142 -0.39594401256049883 0 -0.13982663417143551 -0.39933000433158738 0 -0.1295768038857959 -0.40463739140698729 0 -0.1273295258527142 -0.39594401256049883 0 -0.1295768038857959 -0.40463739140698729 0 -0.1219584454402414 -0.40406961642135292 0 -0.1295768038857959 -0.40463739140698729 0 -0.1296119374269841 -0.41417592727859581 0 -0.1225700411049412 -0.40994677461386392 0 -0.1296119374269841 -0.41417592727859581 0 -0.12315425937001 -0.41747458531602638 0 -0.1225700411049412 -0.40994677461386392 0 -0.1296119374269841 -0.41417592727859581 0 -0.13713184062407599 -0.42036644340313623 0 -0.12908399078123631 -0.42243277819987513 0 -0.1296119374269841 -0.41417592727859581 0 -0.12908399078123631 -0.42243277819987513 0 -0.12315425937001 -0.41747458531602638 0 -0.1296119374269841 -0.41417592727859581 0 -0.13713184062407599 -0.42036644340313623 0 -0.1398029654186671 -0.41064466143528439 0 -0.1295768038857959 -0.40463739140698729 0 -0.1296119374269841 -0.41417592727859581 0 -0.1398029654186671 -0.41064466143528439 0 -0.12908399078123631 -0.42243277819987513 0 -0.13816776916695811 -0.432543871779144 0 -0.1225906368027144 -0.43005957413219659 0 -0.13713184062407599 -0.42036644340313623 0 -0.12908399078123631 -0.42243277819987513 0 -0.13816776916695811 -0.432543871779144 0 -0.13816776916695811 -0.432543871779144 0 -0.14921107955709881 -0.42003443798493328 0 -0.15761868306950341 -0.43586407366366631 0 -0.13713184062407599 -0.42036644340313623 0 -0.13816776916695811 -0.432543871779144 0 -0.14921107955709881 -0.42003443798493328 0 -0.15345949684661231 -0.4053237642064671 0 -0.1398029654186671 -0.41064466143528439 0 -0.14921107955709881 -0.42003443798493328 0 -0.13713184062407599 -0.42036644340313623 0 -0.1398029654186671 -0.41064466143528439 0 -0.14921107955709881 -0.42003443798493328 0 -0.15345949684661231 -0.4053237642064671 0 -0.14921107955709881 -0.42003443798493328 0 -0.17009787391258249 -0.41611158199907422 0 -0.14921107955709881 -0.42003443798493328 0 -0.17009787391258249 -0.41611158199907422 0 -0.15761868306950341 -0.43586407366366631 0 -0.17009787391258249 -0.41611158199907422 0 -0.15761868306950341 -0.43586407366366631 0 -0.1755027511393909 -0.43471579892562301 0 -0.1943898331460783 -0.4473597119794826 0 -0.1755027511393909 -0.43471579892562301 0 -0.18951413900105801 -0.42212105940109063 0 -0.17009787391258249 -0.41611158199907422 0 -0.1755027511393909 -0.43471579892562301 0 -0.18951413900105801 -0.42212105940109063 0 -0.17009787391258249 -0.41611158199907422 0 -0.18562609472684241 -0.40161550393767448 0 -0.18951413900105801 -0.42212105940109063 0 -0.18562609472684241 -0.40161550393767448 0 -0.16863204450281991 -0.39380366607865908 0 -0.18254917963999329 -0.38971973427100182 0 -0.17009787391258249 -0.41611158199907422 0 -0.18562609472684241 -0.40161550393767448 0 -0.16863204450281991 -0.39380366607865908 0 -0.18562609472684241 -0.40161550393767448 0 -0.18254917963999329 -0.38971973427100182 0 -0.19364364155811911 -0.391297223908462 0 -0.15345949684661231 -0.4053237642064671 0 -0.17009787391258249 -0.41611158199907422 0 -0.16863204450281991 -0.39380366607865908 0 -0.15345949684661231 -0.4053237642064671 0 -0.15136585988972451 -0.39002590355483568 0 -0.16863204450281991 -0.39380366607865908 0 -0.15951650330528561 -0.37856285477961621 0 -0.17625218554490921 -0.38180729220612769 0 -0.1663610822414904 -0.3702523776444529 0 -0.16863204450281991 -0.39380366607865908 0 -0.15951650330528561 -0.37856285477961621 0 -0.17625218554490921 -0.38180729220612769 0 -0.15136585988972451 -0.39002590355483568 0 -0.16863204450281991 -0.39380366607865908 0 -0.15951650330528561 -0.37856285477961621 0 -0.17625218554490921 -0.38180729220612769 0 -0.1663610822414904 -0.3702523776444529 0 -0.18579747934449059 -0.37379744869579251 0 -0.16863204450281991 -0.39380366607865908 0 -0.17625218554490921 -0.38180729220612769 0 -0.18254917963999329 -0.38971973427100182 0 -0.17625218554490921 -0.38180729220612769 0 -0.18254917963999329 -0.38971973427100182 0 -0.18859193186727599 -0.38007498522408562 0 -0.17625218554490921 -0.38180729220612769 0 -0.18859193186727599 -0.38007498522408562 0 -0.18579747934449059 -0.37379744869579251 0 -0.18859193186727599 -0.38007498522408562 0 -0.2014200033848125 -0.37119512976538899 0 -0.18859193186727599 -0.38007498522408562 0 -0.2014200033848125 -0.37119512976538899 0 -0.18579747934449059 -0.37379744869579251 0 -0.18859193186727599 -0.38007498522408562 0 -0.1989719328316337 -0.38216032023399737 0 -0.2014200033848125 -0.37119512976538899 0 -0.1989719328316337 -0.38216032023399737 0 -0.20694960464083431 -0.38128159833907621 0 -0.2014200033848125 -0.37119512976538899 0 -0.1989719328316337 -0.38216032023399737 0 -0.19364364155811911 -0.391297223908462 0 -0.20620014074293039 -0.39180645285032889 0 -0.18859193186727599 -0.38007498522408562 0 -0.1989719328316337 -0.38216032023399737 0 -0.19364364155811911 -0.391297223908462 0 -0.18254917963999329 -0.38971973427100182 0 -0.18859193186727599 -0.38007498522408562 0 -0.19364364155811911 -0.391297223908462 0 -0.18562609472684241 -0.40161550393767448 0 -0.19364364155811911 -0.391297223908462 0 -0.20208872018367391 -0.4070926974887904 0 -0.19364364155811911 -0.391297223908462 0 -0.20620014074293039 -0.39180645285032889 0 -0.20208872018367391 -0.4070926974887904 0 -0.20620014074293039 -0.39180645285032889 0 -0.21479853281951461 -0.38638530273916921 0 -0.22382842548955789 -0.4035077318131633 0 -0.20620014074293039 -0.39180645285032889 0 -0.20208872018367391 -0.4070926974887904 0 -0.22382842548955789 -0.4035077318131633 0 -0.21479853281951461 -0.38638530273916921 0 -0.20694960464083431 -0.38128159833907621 0 -0.21335741342528061 -0.3748607861064962 0 -0.21479853281951461 -0.38638530273916921 0 -0.22412886374227589 -0.38235217247817599 0 -0.21335741342528061 -0.3748607861064962 0 -0.20694960464083431 -0.38128159833907621 0 -0.2014200033848125 -0.37119512976538899 0 -0.21335741342528061 -0.3748607861064962 0 -0.20620014074293039 -0.39180645285032889 0 -0.21479853281951461 -0.38638530273916921 0 -0.20694960464083431 -0.38128159833907621 0 -0.1989719328316337 -0.38216032023399737 0 -0.20620014074293039 -0.39180645285032889 0 -0.20694960464083431 -0.38128159833907621 0 -0.1943898331460783 -0.4473597119794826 0 -0.20910912931781811 -0.42543372189632289 0 -0.1943898331460783 -0.4473597119794826 0 -0.18951413900105801 -0.42212105940109063 0 -0.20910912931781811 -0.42543372189632289 0 -0.18951413900105801 -0.42212105940109063 0 -0.20208872018367391 -0.4070926974887904 0 -0.20910912931781811 -0.42543372189632289 0 -0.18562609472684241 -0.40161550393767448 0 -0.18951413900105801 -0.42212105940109063 0 -0.20208872018367391 -0.4070926974887904 0 -0.20208872018367391 -0.4070926974887904 0 -0.20910912931781811 -0.42543372189632289 0 -0.22382842548955789 -0.4035077318131633 0 -0.20910912931781811 -0.42543372189632289 0 -0.22382842548955789 -0.4035077318131633 0 -0.21590660946663959 -0.44883644739355771 0 -0.20910912931781811 -0.42543372189632289 0 -0.23180750449586429 -0.4343742486430574 0 -0.20910912931781811 -0.42543372189632289 0 -0.23180750449586429 -0.4343742486430574 0 -0.22382842548955789 -0.4035077318131633 0 -0.23180750449586429 -0.4343742486430574 0 -0.24697084661892749 -0.41526345823838401 0 -0.22382842548955789 -0.4035077318131633 0 -0.25687425522332558 -0.44642006451091643 0 -0.23180750449586429 -0.4343742486430574 0 -0.24697084661892749 -0.41526345823838401 0 -0.22412886374227589 -0.38235217247817599 0 -0.2351820232309369 -0.38700758852266848 0 -0.22952037500089251 -0.37311519752493849 0 -0.22412886374227589 -0.38235217247817599 0 -0.22186900287429051 -0.37074082218821958 0 -0.21335741342528061 -0.3748607861064962 0 -0.22412886374227589 -0.38235217247817599 0 -0.22952037500089251 -0.37311519752493849 0 -0.22186900287429051 -0.37074082218821958 0 -0.22382842548955789 -0.4035077318131633 0 -0.24394706363899241 -0.39877073912243299 0 -0.2351820232309369 -0.38700758852266848 0 -0.21479853281951461 -0.38638530273916921 0 -0.22412886374227589 -0.38235217247817599 0 -0.22382842548955789 -0.4035077318131633 0 -0.22412886374227589 -0.38235217247817599 0 -0.22382842548955789 -0.4035077318131633 0 -0.2351820232309369 -0.38700758852266848 0 -0.24697084661892749 -0.41526345823838401 0 -0.22382842548955789 -0.4035077318131633 0 -0.24394706363899241 -0.39877073912243299 0 -0.2504897110532438 -0.38524934403489181 0 -0.24394706363899241 -0.39877073912243299 0 -0.2351820232309369 -0.38700758852266848 0 -0.2504897110532438 -0.38524934403489181 0 -0.2351820232309369 -0.38700758852266848 0 -0.24036284435674521 -0.37772398595485779 0 -0.2351820232309369 -0.38700758852266848 0 -0.24036284435674521 -0.37772398595485779 0 -0.22952037500089251 -0.37311519752493849 0 -0.2504897110532438 -0.38524934403489181 0 -0.24036284435674521 -0.37772398595485779 0 -0.24839247009954951 -0.37292447016044328 0 -0.24839247009954951 -0.37292447016044328 0 -0.24532753696728959 -0.36501789644951049 0 -0.23861636880082099 -0.36955921174380651 0 -0.24036284435674521 -0.37772398595485779 0 -0.24839247009954951 -0.37292447016044328 0 -0.23861636880082099 -0.36955921174380651 0 -0.25757508569408222 -0.36424633604315798 0 -0.24532753696728959 -0.36501789644951049 0 -0.24650166737573331 -0.3569693529562265 0 -0.24532753696728959 -0.36501789644951049 0 -0.24234943749700691 -0.36154613291017651 0 -0.24650166737573331 -0.3569693529562265 0 -0.24532753696728959 -0.36501789644951049 0 -0.24234943749700691 -0.36154613291017651 0 -0.23928568589256061 -0.36455139619594779 0 -0.24234943749700691 -0.36154613291017651 0 -0.23928568589256061 -0.36455139619594779 0 -0.23696933381926599 -0.3585493042599866 0 -0.24532753696728959 -0.36501789644951049 0 -0.23928568589256061 -0.36455139619594779 0 -0.23861636880082099 -0.36955921174380651 0 -0.23928568589256061 -0.36455139619594779 0 -0.23861636880082099 -0.36955921174380651 0 -0.23345080570298909 -0.36409891217005902 0 -0.23928568589256061 -0.36455139619594779 0 -0.23345080570298909 -0.36409891217005902 0 -0.23696933381926599 -0.3585493042599866 0 -0.24036284435674521 -0.37772398595485779 0 -0.23861636880082099 -0.36955921174380651 0 -0.22952037500089251 -0.37311519752493849 0 -0.23345080570298909 -0.36409891217005902 0 -0.22186900287429051 -0.37074082218821958 0 -0.21424807490234879 -0.36231527430669241 0 -0.22952037500089251 -0.37311519752493849 0 -0.23345080570298909 -0.36409891217005902 0 -0.22186900287429051 -0.37074082218821958 0 -0.23696933381926599 -0.3585493042599866 0 -0.21424807490234879 -0.36231527430669241 0 -0.23861636880082099 -0.36955921174380651 0 -0.22952037500089251 -0.37311519752493849 0 -0.23345080570298909 -0.36409891217005902 0 -0.23345080570298909 -0.36409891217005902 0 -0.23696933381926599 -0.3585493042599866 0 -0.21424807490234879 -0.36231527430669241 0 -0.22913587473404851 -0.35200963246311751 0 -0.2097464541822805 -0.33582260124732738 0 -0.22913587473404851 -0.35200963246311751 0 -0.23696933381926599 -0.3585493042599866 0 -0.21424807490234879 -0.36231527430669241 0 -0.22913587473404851 -0.35200963246311751 0 -0.21998707993494029 -0.33959044394559312 0 -0.22913587473404851 -0.35200963246311751 0 -0.21424807490234879 -0.36231527430669241 0 -0.22913587473404851 -0.35200963246311751 0 -0.23696933381926599 -0.3585493042599866 0 -0.22913587473404851 -0.35200963246311751 0 -0.24881121389389799 -0.33838995723746451 0 -0.22913587473404851 -0.35200963246311751 0 -0.23696933381926599 -0.3585493042599866 0 -0.24650166737573331 -0.3569693529562265 0 -0.22913587473404851 -0.35200963246311751 0 -0.24650166737573331 -0.3569693529562265 0 -0.24881121389389799 -0.33838995723746451 0 -0.23696933381926599 -0.3585493042599866 0 -0.24650166737573331 -0.3569693529562265 0 -0.24234943749700691 -0.36154613291017651 0 -0.23696933381926599 -0.3585493042599866 0 -0.24650166737573331 -0.3569693529562265 0 -0.22913587473404851 -0.35200963246311751 0 -0.24881121389389799 -0.33838995723746451 0 -0.2325545649384867 -0.33453283978227571 0 -0.24881121389389799 -0.33838995723746451 0 -0.2441082332202735 -0.32380704628422963 0 -0.2325545649384867 -0.33453283978227571 0 -0.23613058105125781 -0.31890710479075163 0 -0.2279063026952847 -0.3135077128279592 0 -0.2444966906846206 -0.31181945912301329 0 -0.2441082332202735 -0.32380704628422963 0 -0.23498207165859719 -0.32537142019391418 0 -0.23613058105125781 -0.31890710479075163 0 -0.2441082332202735 -0.32380704628422963 0 -0.23498207165859719 -0.32537142019391418 0 -0.2325545649384867 -0.33453283978227571 0 -0.2441082332202735 -0.32380704628422963 0 -0.23613058105125781 -0.31890710479075163 0 -0.2444966906846206 -0.31181945912301329 0 -0.2279063026952847 -0.3135077128279592 0 -0.2193464910840433 -0.31976030368968739 0 -0.21134622408423179 -0.310554889255794 0 -0.23613058105125781 -0.31890710479075163 0 -0.2279063026952847 -0.3135077128279592 0 -0.22829430606921119 -0.32293804105388452 0 -0.23498207165859719 -0.32537142019391418 0 -0.22829430606921119 -0.32293804105388452 0 -0.2325545649384867 -0.33453283978227571 0 -0.23498207165859719 -0.32537142019391418 0 -0.23613058105125781 -0.31890710479075163 0 -0.22829430606921119 -0.32293804105388452 0 -0.22829430606921119 -0.32293804105388452 0 -0.2193464910840433 -0.31976030368968739 0 -0.22209033975117781 -0.32887735541776358 0 -0.2279063026952847 -0.3135077128279592 0 -0.22829430606921119 -0.32293804105388452 0 -0.2193464910840433 -0.31976030368968739 0 -0.22913587473404851 -0.35200963246311751 0 -0.2325545649384867 -0.33453283978227571 0 -0.21998707993494029 -0.33959044394559312 0 -0.22913587473404851 -0.35200963246311751 0 -0.21998707993494029 -0.33959044394559312 0 -0.2097464541822805 -0.33582260124732738 0 -0.22829430606921119 -0.32293804105388452 0 -0.2325545649384867 -0.33453283978227571 0 -0.22209033975117781 -0.32887735541776358 0 -0.2325545649384867 -0.33453283978227571 0 -0.22209033975117781 -0.32887735541776358 0 -0.21998707993494029 -0.33959044394559312 0 -0.21998707993494029 -0.33959044394559312 0 -0.21026925672920721 -0.32756514861737779 0 -0.22209033975117781 -0.32887735541776358 0 -0.21998707993494029 -0.33959044394559312 0 -0.21026925672920721 -0.32756514861737779 0 -0.21998707993494029 -0.33959044394559312 0 -0.2097464541822805 -0.33582260124732738 0 -0.21026925672920721 -0.32756514861737779 0 -0.2097464541822805 -0.33582260124732738 0 -0.21026925672920721 -0.32756514861737779 0 -0.21026925672920721 -0.32756514861737779 0 -0.21134622408423179 -0.310554889255794 0 -0.19267178705524021 -0.30578920503631912 0 -0.21026925672920721 -0.32756514861737779 0 -0.21134622408423179 -0.310554889255794 0 -0.2097464541822805 -0.33582260124732738 0 -0.21026925672920721 -0.32756514861737779 0 -0.19254159852174429 -0.31996122112867409 0 -0.2193464910840433 -0.31976030368968739 0 -0.21026925672920721 -0.32756514861737779 0 -0.21134622408423179 -0.310554889255794 0 -0.2193464910840433 -0.31976030368968739 0 -0.22209033975117781 -0.32887735541776358 0 -0.21026925672920721 -0.32756514861737779 0 -0.2097464541822805 -0.33582260124732738 0 -0.1943588054861482 -0.32297640251143073 0 -0.19254159852174429 -0.31996122112867409 0 -0.21026925672920721 -0.32756514861737779 0 -0.19267178705524021 -0.30578920503631912 0 -0.21026925672920721 -0.32756514861737779 0 -0.19254159852174429 -0.31996122112867409 0 -0.19267178705524021 -0.30578920503631912 0 -0.2097464541822805 -0.33582260124732738 0 -0.19254159852174429 -0.31996122112867409 0 -0.1943588054861482 -0.32297640251143073 0 -0.18737083868624629 -0.33075534874643497 0 -0.18479650728396149 -0.32227615663527998 0 -0.1943588054861482 -0.32297640251143073 0 -0.19254159852174429 -0.31996122112867409 0 -0.1789711567900161 -0.3101302037755338 0 -0.2097464541822805 -0.33582260124732738 0 -0.19466829689393059 -0.33824472710720138 0 -0.19565175395430129 -0.3512554891803924 0 -0.2097464541822805 -0.33582260124732738 0 -0.1943588054861482 -0.32297640251143073 0 -0.19466829689393059 -0.33824472710720138 0 -0.2097464541822805 -0.33582260124732738 0 -0.1943588054861482 -0.32297640251143073 0 -0.1943588054861482 -0.32297640251143073 0 -0.19466829689393059 -0.33824472710720138 0 -0.18737083868624629 -0.33075534874643497 0 -0.19466829689393059 -0.33824472710720138 0 -0.18164424501215659 -0.34621916084723381 0 -0.18737083868624629 -0.33075534874643497 0 -0.19466829689393059 -0.33824472710720138 0 -0.19565175395430129 -0.3512554891803924 0 -0.18164424501215659 -0.34621916084723381 0 -0.20800359978069241 -0.36335027445133922 0 -0.18480326185087809 -0.36719565018674682 0 -0.19565175395430129 -0.3512554891803924 0 -0.20800359978069241 -0.36335027445133922 0 -0.18480326185087809 -0.36719565018674682 0 -0.2014200033848125 -0.37119512976538899 0 -0.18480326185087809 -0.36719565018674682 0 -0.18579747934449059 -0.37379744869579251 0 -0.2014200033848125 -0.37119512976538899 0 -0.20800359978069241 -0.36335027445133922 0 -0.18480326185087809 -0.36719565018674682 0 -0.2014200033848125 -0.37119512976538899 0 -0.20800359978069241 -0.36335027445133922 0 -0.20803809997708481 -0.36661394692190907 0 -0.20800359978069241 -0.36335027445133922 0 -0.20803809997708481 -0.36661394692190907 0 -0.21424807490234879 -0.36231527430669241 0 -0.20800359978069241 -0.36335027445133922 0 -0.20803809997708481 -0.36661394692190907 0 -0.2014200033848125 -0.37119512976538899 0 -0.20803809997708481 -0.36661394692190907 0 -0.21335741342528061 -0.3748607861064962 0 -0.2014200033848125 -0.37119512976538899 0 -0.20803809997708481 -0.36661394692190907 0 -0.20803809997708481 -0.36661394692190907 0 -0.21335741342528061 -0.3748607861064962 0 -0.21424807490234879 -0.36231527430669241 0 -0.22186900287429051 -0.37074082218821958 0 -0.21335741342528061 -0.3748607861064962 0 -0.21424807490234879 -0.36231527430669241 0 -0.20800359978069241 -0.36335027445133922 0 -0.21424807490234879 -0.36231527430669241 0 -0.20803809997708481 -0.36661394692190907 0 -0.21424807490234879 -0.36231527430669241 0 -0.2097464541822805 -0.33582260124732738 0 -0.19565175395430129 -0.3512554891803924 0 -0.20800359978069241 -0.36335027445133922 0 -0.2097464541822805 -0.33582260124732738 0 -0.20800359978069241 -0.36335027445133922 0 -0.2097464541822805 -0.33582260124732738 0 -0.20800359978069241 -0.36335027445133922 0 -0.21424807490234879 -0.36231527430669241 0 -0.22913587473404851 -0.35200963246311751 0 -0.2097464541822805 -0.33582260124732738 0 -0.21424807490234879 -0.36231527430669241 0 -0.2335542019388327 -0.26090262277066528 0 -0.21472073189145299 -0.25725591714607071 0 -0.22837296648480071 -0.23789375384220129 0 -0.2335542019388327 -0.26090262277066528 0 -0.21357196166535461 -0.27540027352014051 0 -0.21472073189145299 -0.25725591714607071 0 -0.25298377122075039 -0.27518622721876451 0 -0.2335542019388327 -0.26090262277066528 0 -0.25431856302814809 -0.24833495949118861 0 -0.25298377122075039 -0.27518622721876451 0 -0.2335542019388327 -0.26090262277066528 0 -0.23093648268818689 -0.28342115129973 0 -0.2335542019388327 -0.26090262277066528 0 -0.23093648268818689 -0.28342115129973 0 -0.21357196166535461 -0.27540027352014051 0 -0.23093648268818689 -0.28342115129973 0 -0.21242319143925911 -0.29354462989421048 0 -0.21357196166535461 -0.27540027352014051 0 -0.23093648268818689 -0.28342115129973 0 -0.2435111179254994 -0.29490773243705071 0 -0.2284599410619414 -0.30268204450860919 0 -0.23093648268818689 -0.28342115129973 0 -0.2284599410619414 -0.30268204450860919 0 -0.21242319143925911 -0.29354462989421048 0 -0.25298377122075039 -0.27518622721876451 0 -0.23093648268818689 -0.28342115129973 0 -0.2435111179254994 -0.29490773243705071 0 -0.2444966906846206 -0.31181945912301329 0 -0.2284599410619414 -0.30268204450860919 0 -0.2435111179254994 -0.29490773243705071 0 -0.2444966906846206 -0.31181945912301329 0 -0.2284599410619414 -0.30268204450860919 0 -0.26057201890547982 -0.29344093798311832 0 -0.2435111179254994 -0.29490773243705071 0 -0.2444966906846206 -0.31181945912301329 0 -0.2279063026952847 -0.3135077128279592 0 -0.2444966906846206 -0.31181945912301329 0 -0.2284599410619414 -0.30268204450860919 0 -0.2284599410619414 -0.30268204450860919 0 -0.21242319143925911 -0.29354462989421048 0 -0.2279063026952847 -0.3135077128279592 0 -0.2284599410619414 -0.30268204450860919 0 -0.21134622408423179 -0.310554889255794 0 -0.2284599410619414 -0.30268204450860919 0 -0.21134622408423179 -0.310554889255794 0 -0.21242319143925911 -0.29354462989421048 0 -0.21134622408423179 -0.310554889255794 0 -0.19267178705524021 -0.30578920503631912 0 -0.21242319143925911 -0.29354462989421048 0 -0.21134622408423179 -0.310554889255794 0 -0.21242319143925911 -0.29354462989421048 0 -0.19267178705524021 -0.30578920503631912 0 -0.19410774352861071 -0.2831088592208712 0 -0.21242319143925911 -0.29354462989421048 0 -0.19410774352861071 -0.2831088592208712 0 -0.21242319143925911 -0.29354462989421048 0 -0.21357196166535461 -0.27540027352014051 0 -0.19410774352861071 -0.2831088592208712 0 -0.21242319143925911 -0.29354462989421048 0 -0.21242319143925911 -0.29354462989421048 0 -0.21357196166535461 -0.27540027352014051 0 -0.21357196166535461 -0.27540027352014051 0 -0.21472073189145299 -0.25725591714607071 0 -0.19410774352861071 -0.2831088592208712 0 -0.21357196166535461 -0.27540027352014051 0 -0.1965391795889786 -0.26204425282134669 0 -0.19410774352861071 -0.2831088592208712 0 -0.1965391795889786 -0.26204425282134669 0 -0.17579229561796161 -0.27267308854753308 0 -0.1965391795889786 -0.26204425282134669 0 -0.20565562739327201 -0.24334207984173631 0 -0.18863044441395099 -0.24733650333174401 0 -0.1965391795889786 -0.26204425282134669 0 -0.18340152769721799 -0.25642831405215172 0 -0.18863044441395099 -0.24733650333174401 0 -0.1965391795889786 -0.26204425282134669 0 -0.21472073189145299 -0.25725591714607071 0 -0.20565562739327201 -0.24334207984173631 0 -0.21357196166535461 -0.27540027352014051 0 -0.1965391795889786 -0.26204425282134669 0 -0.21472073189145299 -0.25725591714607071 0 -0.15747684770731041 -0.26223731787419863 0 -0.16344648285301799 -0.25937253054906129 0 -0.17579229561796161 -0.27267308854753308 0 -0.1593809120407062 -0.25278805690175971 0 -0.16344648285301799 -0.25937253054906129 0 -0.1534429259631987 -0.25724555178864622 0 -0.1593809120407062 -0.25278805690175971 0 -0.16344648285301799 -0.25937253054906129 0 -0.16709258238786229 -0.25188408856254202 0 -0.1593809120407062 -0.25278805690175971 0 -0.16709258238786229 -0.25188408856254202 0 -0.1601832428566283 -0.24550858739866141 0 -0.15747684770731041 -0.26223731787419863 0 -0.16344648285301799 -0.25937253054906129 0 -0.1534429259631987 -0.25724555178864622 0 -0.16344648285301799 -0.25937253054906129 0 -0.1534429259631987 -0.25724555178864622 0 -0.16344648285301799 -0.25937253054906129 0 -0.17379217291466831 -0.25992581321180469 0 -0.17579229561796161 -0.27267308854753308 0 -0.16344648285301799 -0.25937253054906129 0 -0.16709258238786229 -0.25188408856254202 0 -0.17379217291466831 -0.25992581321180469 0 -0.16709258238786229 -0.25188408856254202 0 -0.17679077873490559 -0.25046109420941731 0 -0.17379217291466831 -0.25992581321180469 0 -0.1965391795889786 -0.26204425282134669 0 -0.18340152769721799 -0.25642831405215172 0 -0.17579229561796161 -0.27267308854753308 0 -0.17679077873490559 -0.25046109420941731 0 -0.18340152769721799 -0.25642831405215172 0 -0.17379217291466831 -0.25992581321180469 0 -0.18340152769721799 -0.25642831405215172 0 -0.17379217291466831 -0.25992581321180469 0 -0.17579229561796161 -0.27267308854753308 0 -0.17679077873490559 -0.25046109420941731 0 -0.18340152769721799 -0.25642831405215172 0 -0.18863044441395099 -0.24733650333174401 0 -0.19410774352861071 -0.2831088592208712 0 -0.17579229561796161 -0.27267308854753308 0 -0.17507431738127369 -0.28401326145526029 0 -0.19410774352861071 -0.2831088592208712 0 -0.17579229561796161 -0.27267308854753308 0 -0.15747684770731041 -0.26223731787419863 0 -0.17507431738127369 -0.28401326145526029 0 -0.15747684770731041 -0.26223731787419863 0 -0.17579229561796161 -0.27267308854753308 0 -0.15747684770731041 -0.26223731787419863 0 -0.17579229561796161 -0.27267308854753308 0 -0.17507431738127369 -0.28401326145526029 0 -0.15747684770731041 -0.26223731787419863 0 -0.1596399504195592 -0.27820623095404468 0 -0.17507431738127369 -0.28401326145526029 0 -0.1596399504195592 -0.27820623095404468 0 -0.1624028041075358 -0.29248408411088062 0 -0.1494793968803598 -0.28070198605355251 0 -0.1624028041075358 -0.29248408411088062 0 -0.15973767967650701 -0.30493196891575292 0 -0.15108397830665751 -0.29236825921418419 0 -0.1624028041075358 -0.29248408411088062 0 -0.17507431738127369 -0.28401326145526029 0 -0.17391538329452061 -0.29489800819007239 0 -0.1596399504195592 -0.27820623095404468 0 -0.1624028041075358 -0.29248408411088062 0 -0.17507431738127369 -0.28401326145526029 0 -0.19267178705524021 -0.30578920503631912 0 -0.19410774352861071 -0.2831088592208712 0 -0.17507431738127369 -0.28401326145526029 0 -0.19267178705524021 -0.30578920503631912 0 -0.17507431738127369 -0.28401326145526029 0 -0.17391538329452061 -0.29489800819007239 0 -0.19267178705524021 -0.30578920503631912 0 -0.17507431738127369 -0.28401326145526029 0 -0.17391538329452061 -0.29489800819007239 0 -0.17532621133471249 -0.30426618216820789 0 -0.19254159852174429 -0.31996122112867409 0 -0.19267178705524021 -0.30578920503631912 0 -0.17532621133471249 -0.30426618216820789 0 -0.19267178705524021 -0.30578920503631912 0 -0.17391538329452061 -0.29489800819007239 0 -0.17532621133471249 -0.30426618216820789 0 -0.19254159852174429 -0.31996122112867409 0 -0.17532621133471249 -0.30426618216820789 0 -0.1789711567900161 -0.3101302037755338 0 -0.19254159852174429 -0.31996122112867409 0 -0.17532621133471249 -0.30426618216820789 0 -0.17532621133471249 -0.30426618216820789 0 -0.15973767967650701 -0.30493196891575292 0 -0.16582550601247259 -0.31644195918285489 0 -0.1624028041075358 -0.29248408411088062 0 -0.17532621133471249 -0.30426618216820789 0 -0.15973767967650701 -0.30493196891575292 0 -0.1624028041075358 -0.29248408411088062 0 -0.17532621133471249 -0.30426618216820789 0 -0.1624028041075358 -0.29248408411088062 0 -0.17391538329452061 -0.29489800819007239 0 -0.17532621133471249 -0.30426618216820789 0 -0.144593184228827 -0.30237793828586917 0 -0.15261731536399281 -0.31699983390472031 0 -0.1327552185807534 -0.31482398186879779 0 -0.15973767967650701 -0.30493196891575292 0 -0.144593184228827 -0.30237793828586917 0 -0.15261731536399281 -0.31699983390472031 0 -0.15973767967650701 -0.30493196891575292 0 -0.144593184228827 -0.30237793828586917 0 -0.15108397830665751 -0.29236825921418419 0 -0.144593184228827 -0.30237793828586917 0 -0.1304175251842298 -0.30012492429455973 0 -0.1327552185807534 -0.31482398186879779 0 -0.1304175251842298 -0.30012492429455973 0 -0.1327552185807534 -0.31482398186879779 0 -0.11567190875339491 -0.3081878681979589 0 -0.1304175251842298 -0.30012492429455973 0 -0.13697378053928061 -0.28594316463020741 0 -0.11725087491461519 -0.29108504565108578 0 -0.144593184228827 -0.30237793828586917 0 -0.1304175251842298 -0.30012492429455973 0 -0.13697378053928061 -0.28594316463020741 0 -0.13697378053928061 -0.28594316463020741 0 -0.15108397830665751 -0.29236825921418419 0 -0.1494793968803598 -0.28070198605355251 0 -0.144593184228827 -0.30237793828586917 0 -0.13697378053928061 -0.28594316463020741 0 -0.15108397830665751 -0.29236825921418419 0 -0.1624028041075358 -0.29248408411088062 0 -0.15108397830665751 -0.29236825921418419 0 -0.1494793968803598 -0.28070198605355251 0 -0.1624028041075358 -0.29248408411088062 0 -0.1494793968803598 -0.28070198605355251 0 -0.15747684770731041 -0.26223731787419863 0 -0.1596399504195592 -0.27820623095404468 0 -0.1503927610565664 -0.27179087804580171 0 -0.1596399504195592 -0.27820623095404468 0 -0.1494793968803598 -0.28070198605355251 0 -0.1503927610565664 -0.27179087804580171 0 -0.15747684770731041 -0.26223731787419863 0 -0.1503927610565664 -0.27179087804580171 0 -0.1469785187108 -0.2635474229235048 0 -0.1503927610565664 -0.27179087804580171 0 -0.13966748117377659 -0.26847157538705668 0 -0.1469785187108 -0.2635474229235048 0 -0.1503927610565664 -0.27179087804580171 0 -0.14153524490660671 -0.2763029116229278 0 -0.13966748117377659 -0.26847157538705668 0 -0.1494793968803598 -0.28070198605355251 0 -0.1503927610565664 -0.27179087804580171 0 -0.14153524490660671 -0.2763029116229278 0 -0.13697378053928061 -0.28594316463020741 0 -0.1494793968803598 -0.28070198605355251 0 -0.14153524490660671 -0.2763029116229278 0 -0.13697378053928061 -0.28594316463020741 0 -0.14153524490660671 -0.2763029116229278 0 -0.13219795163187159 -0.27110871778552531 0 -0.13697378053928061 -0.28594316463020741 0 -0.1173011125765811 -0.2721428964285707 0 -0.13697378053928061 -0.28594316463020741 0 -0.13219795163187159 -0.27110871778552531 0 -0.1173011125765811 -0.2721428964285707 0 -0.13219795163187159 -0.27110871778552531 0 -0.1333337708168415 -0.26377523499205202 0 -0.12600056203783161 -0.26301541000095829 0 -0.13219795163187159 -0.27110871778552531 0 -0.12600056203783161 -0.26301541000095829 0 -0.1173011125765811 -0.2721428964285707 0 -0.13219795163187159 -0.27110871778552531 0 -0.13966748117377659 -0.26847157538705668 0 -0.1333337708168415 -0.26377523499205202 0 -0.14153524490660671 -0.2763029116229278 0 -0.13219795163187159 -0.27110871778552531 0 -0.13966748117377659 -0.26847157538705668 0 -0.13966748117377659 -0.26847157538705668 0 -0.13807993829988649 -0.25979154560904222 0 -0.1333337708168415 -0.26377523499205202 0 -0.13807993829988649 -0.25979154560904222 0 -0.1333337708168415 -0.26377523499205202 0 -0.13072292094084129 -0.25648892617767749 0 -0.12600056203783161 -0.26301541000095829 0 -0.13072292094084129 -0.25648892617767749 0 -0.1187556211832122 -0.25814451816493872 0 -0.1333337708168415 -0.26377523499205202 0 -0.12600056203783161 -0.26301541000095829 0 -0.13072292094084129 -0.25648892617767749 0 -0.13072292094084129 -0.25648892617767749 0 -0.13218950310710981 -0.25272660122947088 0 -0.1187556211832122 -0.25814451816493872 0 -0.13072292094084129 -0.25648892617767749 0 -0.13218950310710981 -0.25272660122947088 0 -0.13218950310710981 -0.25272660122947088 0 -0.1459019403517107 -0.25564217047089421 0 -0.13375162957080131 -0.24871916986845621 0 -0.13218950310710981 -0.25272660122947088 0 -0.1459019403517107 -0.25564217047089421 0 -0.13218950310710981 -0.25272660122947088 0 -0.13375162957080131 -0.24871916986845621 0 -0.1459019403517107 -0.25564217047089421 0 -0.13375162957080131 -0.24871916986845621 0 -0.13807993829988649 -0.25979154560904222 0 -0.13218950310710981 -0.25272660122947088 0 -0.1459019403517107 -0.25564217047089421 0 -0.13807993829988649 -0.25979154560904222 0 -0.13072292094084129 -0.25648892617767749 0 -0.13218950310710981 -0.25272660122947088 0 -0.1459019403517107 -0.25564217047089421 0 -0.1534429259631987 -0.25724555178864622 0 -0.1378886282313006 -0.2381062402767252 0 -0.13966748117377659 -0.26847157538705668 0 -0.13807993829988649 -0.25979154560904222 0 -0.1469785187108 -0.2635474229235048 0 -0.13807993829988649 -0.25979154560904222 0 -0.1459019403517107 -0.25564217047089421 0 -0.1469785187108 -0.2635474229235048 0 -0.15747684770731041 -0.26223731787419863 0 -0.1459019403517107 -0.25564217047089421 0 -0.1534429259631987 -0.25724555178864622 0 -0.15747684770731041 -0.26223731787419863 0 -0.1459019403517107 -0.25564217047089421 0 -0.1469785187108 -0.2635474229235048 0 -0.15747684770731041 -0.26223731787419863 0 -0.1459019403517107 -0.25564217047089421 0 -0.15747684770731041 -0.26223731787419863 0 -0.1534429259631987 -0.25724555178864622 0 -0.1593809120407062 -0.25278805690175971 0 -0.1534429259631987 -0.25724555178864622 0 -0.15289321433053751 -0.246830478479277 0 -0.1459019403517107 -0.25564217047089421 0 -0.1534429259631987 -0.25724555178864622 0 -0.17143624801538501 -0.35840063883308271 0 -0.1580141783998408 -0.34710035810185619 0 -0.15489216358121211 -0.36256913283011211 0 -0.17143624801538501 -0.35840063883308271 0 -0.1580141783998408 -0.34710035810185619 0 -0.18164424501215659 -0.34621916084723381 0 -0.17143624801538501 -0.35840063883308271 0 -0.1663610822414904 -0.3702523776444529 0 -0.15489216358121211 -0.36256913283011211 0 -0.15951650330528561 -0.37856285477961621 0 -0.1663610822414904 -0.3702523776444529 0 -0.15489216358121211 -0.36256913283011211 0 -0.17143624801538501 -0.35840063883308271 0 -0.1663610822414904 -0.3702523776444529 0 -0.18480326185087809 -0.36719565018674682 0 -0.1663610822414904 -0.3702523776444529 0 -0.18480326185087809 -0.36719565018674682 0 -0.1663610822414904 -0.3702523776444529 0 -0.18480326185087809 -0.36719565018674682 0 -0.18579747934449059 -0.37379744869579251 0 -0.18480326185087809 -0.36719565018674682 0 -0.18579747934449059 -0.37379744869579251 0 -0.18480326185087809 -0.36719565018674682 0 -0.18164424501215659 -0.34621916084723381 0 -0.19565175395430129 -0.3512554891803924 0 -0.18480326185087809 -0.36719565018674682 0 -0.18164424501215659 -0.34621916084723381 0 -0.17143624801538501 -0.35840063883308271 0 -0.18480326185087809 -0.36719565018674682 0 -0.18164424501215659 -0.34621916084723381 0 -0.18164424501215659 -0.34621916084723381 0 -0.17848522817343529 -0.32524267150772068 0 -0.1629610955137164 -0.33076913941787212 0 -0.18164424501215659 -0.34621916084723381 0 -0.17848522817343529 -0.32524267150772068 0 -0.18164424501215659 -0.34621916084723381 0 -0.18737083868624629 -0.33075534874643497 0 -0.17848522817343529 -0.32524267150772068 0 -0.17532621133471249 -0.30426618216820789 0 -0.17848522817343529 -0.32524267150772068 0 -0.17532621133471249 -0.30426618216820789 0 -0.1789711567900161 -0.3101302037755338 0 -0.17848522817343529 -0.32524267150772068 0 -0.17532621133471249 -0.30426618216820789 0 -0.17848522817343529 -0.32524267150772068 0 -0.16582550601247259 -0.31644195918285489 0 -0.1943588054861482 -0.32297640251143073 0 -0.1789711567900161 -0.3101302037755338 0 -0.18479650728396149 -0.32227615663527998 0 -0.1789711567900161 -0.3101302037755338 0 -0.18479650728396149 -0.32227615663527998 0 -0.17848522817343529 -0.32524267150772068 0 -0.1943588054861482 -0.32297640251143073 0 -0.1789711567900161 -0.3101302037755338 0 -0.18737083868624629 -0.33075534874643497 0 -0.18479650728396149 -0.32227615663527998 0 -0.17848522817343529 -0.32524267150772068 0 -0.17848522817343529 -0.32524267150772068 0 -0.16582550601247259 -0.31644195918285489 0 -0.1629610955137164 -0.33076913941787212 0 -0.16582550601247259 -0.31644195918285489 0 -0.1629610955137164 -0.33076913941787212 0 -0.15261731536399281 -0.31699983390472031 0 -0.15973767967650701 -0.30493196891575292 0 -0.16582550601247259 -0.31644195918285489 0 -0.15261731536399281 -0.31699983390472031 0 -0.1580141783998408 -0.34710035810185619 0 -0.18164424501215659 -0.34621916084723381 0 -0.1629610955137164 -0.33076913941787212 0 -0.1580141783998408 -0.34710035810185619 0 -0.1629610955137164 -0.33076913941787212 0 -0.14559484309128301 -0.3331209990743299 0 -0.14559484309128301 -0.3331209990743299 0 -0.15261731536399281 -0.31699983390472031 0 -0.1327552185807534 -0.31482398186879779 0 -0.1629610955137164 -0.33076913941787212 0 -0.14559484309128301 -0.3331209990743299 0 -0.15261731536399281 -0.31699983390472031 0 -0.14559484309128301 -0.3331209990743299 0 -0.1327552185807534 -0.31482398186879779 0 -0.12678352480283511 -0.3369129194106073 0 -0.14559484309128301 -0.3331209990743299 0 -0.12678352480283511 -0.3369129194106073 0 -0.14043772588655989 -0.35211976174212622 0 -0.12678352480283511 -0.3369129194106073 0 -0.14043772588655989 -0.35211976174212622 0 -0.1203130985899742 -0.35955571918490481 0 -0.1580141783998408 -0.34710035810185619 0 -0.14043772588655989 -0.35211976174212622 0 -0.15489216358121211 -0.36256913283011211 0 -0.1580141783998408 -0.34710035810185619 0 -0.14559484309128301 -0.3331209990743299 0 -0.14043772588655989 -0.35211976174212622 0 -0.14043772588655989 -0.35211976174212622 0 -0.15489216358121211 -0.36256913283011211 0 -0.13959568407155781 -0.37291875636350952 0 -0.15951650330528561 -0.37856285477961621 0 -0.15489216358121211 -0.36256913283011211 0 -0.13959568407155781 -0.37291875636350952 0 -0.12625141541498519 -0.38197991289387551 0 -0.13959568407155781 -0.37291875636350952 0 -0.1203130985899742 -0.35955571918490481 0 -0.14043772588655989 -0.35211976174212622 0 -0.13959568407155781 -0.37291875636350952 0 -0.1203130985899742 -0.35955571918490481 0 -0.1203130985899742 -0.35955571918490481 0 -0.11384267237711319 -0.38219851895920232 0 -0.1203130985899742 -0.35955571918490481 0 -0.10849363524981311 -0.36442991456039969 0 -0.11384267237711319 -0.38219851895920232 0 -0.12625141541498519 -0.38197991289387551 0 -0.1203130985899742 -0.35955571918490481 0 -0.11384267237711319 -0.38219851895920232 0 -0.10849363524981311 -0.36442991456039969 0 -0.096157591159299352 -0.35547454281719221 0 -0.10176491866177829 -0.38015793077534599 0 -0.096157591159299352 -0.35547454281719221 0 -0.10176491866177829 -0.38015793077534599 0 -0.096157591159299352 -0.35547454281719221 0 -0.10176491866177829 -0.38015793077534599 0 -0.085276019388031976 -0.37619188405436782 0 -0.096157591159299352 -0.35547454281719221 0 -0.10964553082547281 -0.34513317088572909 0 -0.090550263656820479 -0.33079115485903843 0 -0.10849363524981311 -0.36442991456039969 0 -0.096157591159299352 -0.35547454281719221 0 -0.10964553082547281 -0.34513317088572909 0 -0.1203130985899742 -0.35955571918490481 0 -0.10849363524981311 -0.36442991456039969 0 -0.10964553082547281 -0.34513317088572909 0 -0.12678352480283511 -0.3369129194106073 0 -0.1203130985899742 -0.35955571918490481 0 -0.10964553082547281 -0.34513317088572909 0 -0.12678352480283511 -0.3369129194106073 0 -0.1203130985899742 -0.35955571918490481 0 -0.12678352480283511 -0.3369129194106073 0 -0.10964553082547281 -0.34513317088572909 0 -0.1112875311940303 -0.32576775904759792 0 -0.1327552185807534 -0.31482398186879779 0 -0.12678352480283511 -0.3369129194106073 0 -0.1112875311940303 -0.32576775904759792 0 -0.1327552185807534 -0.31482398186879779 0 -0.1112875311940303 -0.32576775904759792 0 -0.11567190875339491 -0.3081878681979589 0 -0.1112875311940303 -0.32576775904759792 0 -0.1011365257202933 -0.31403431577096802 0 -0.11567190875339491 -0.3081878681979589 0 -0.1112875311940303 -0.32576775904759792 0 -0.1011365257202933 -0.31403431577096802 0 -0.090550263656820479 -0.33079115485903843 0 -0.10964553082547281 -0.34513317088572909 0 -0.1112875311940303 -0.32576775904759792 0 -0.090550263656820479 -0.33079115485903843 0 -0.096157591159299352 -0.35547454281719221 0 -0.090550263656820479 -0.33079115485903843 0 -0.096157591159299352 -0.35547454281719221 0 -0.090550263656820479 -0.33079115485903843 0 -0.073144777225565616 -0.33606175945158517 0 -0.090550263656820479 -0.33079115485903843 0 -0.084942936154341619 -0.30610776690088481 0 -0.090550263656820479 -0.33079115485903843 0 -0.073144777225565616 -0.33606175945158517 0 -0.084942936154341619 -0.30610776690088481 0 -0.1011365257202933 -0.31403431577096802 0 -0.090550263656820479 -0.33079115485903843 0 -0.084942936154341619 -0.30610776690088481 0 -0.073144777225565616 -0.33606175945158517 0 -0.084942936154341619 -0.30610776690088481 0 -0.060613113796085999 -0.32288269869712272 0 -0.073144777225565616 -0.33606175945158517 0 -0.076755031766953086 -0.35884624094615858 0 -0.063306301319701316 -0.35299520754669739 0 -0.076755031766953086 -0.35884624094615858 0 -0.063306301319701316 -0.35299520754669739 0 -0.065890469742167113 -0.37350781086095058 0 -0.076755031766953086 -0.35884624094615858 0 -0.065890469742167113 -0.37350781086095058 0 -0.085276019388031976 -0.37619188405436782 0 -0.096157591159299352 -0.35547454281719221 0 -0.076755031766953086 -0.35884624094615858 0 -0.085276019388031976 -0.37619188405436782 0 -0.096157591159299352 -0.35547454281719221 0 -0.073144777225565616 -0.33606175945158517 0 -0.076755031766953086 -0.35884624094615858 0 -0.097628444613881649 -0.25834262822693399 0 -0.1173011125765811 -0.2721428964285707 0 -0.097628444613881649 -0.25834262822693399 0 -0.1187556211832122 -0.25814451816493872 0 -0.1098930818979398 -0.24798588601512411 0 -0.13218950310710981 -0.25272660122947088 0 -0.1187556211832122 -0.25814451816493872 0 -0.1098930818979398 -0.24798588601512411 0 -0.097628444613881649 -0.25834262822693399 0 -0.1187556211832122 -0.25814451816493872 0 -0.1173011125765811 -0.2721428964285707 0 -0.13218950310710981 -0.25272660122947088 0 -0.1098930818979398 -0.24798588601512411 0 -0.12600056203783161 -0.26301541000095829 0 -0.1187556211832122 -0.25814451816493872 0 -0.1173011125765811 -0.2721428964285707 0 -0.097628444613881649 -0.25834262822693399 0 -0.1173011125765811 -0.2721428964285707 0 -0.090762408808148426 -0.27102181932101072 0 -0.1173011125765811 -0.2721428964285707 0 -0.096655829275762523 -0.28444542957314378 0 -0.090762408808148426 -0.27102181932101072 0 -0.096655829275762523 -0.28444542957314378 0 -0.10322998884287909 -0.29931702984935987 0 -0.084942936154341619 -0.30610776690088481 0 -0.096655829275762523 -0.28444542957314378 0 -0.11725087491461519 -0.29108504565108578 0 -0.10322998884287909 -0.29931702984935987 0 -0.13697378053928061 -0.28594316463020741 0 -0.1173011125765811 -0.2721428964285707 0 -0.11725087491461519 -0.29108504565108578 0 -0.1173011125765811 -0.2721428964285707 0 -0.096655829275762523 -0.28444542957314378 0 -0.11725087491461519 -0.29108504565108578 0 -0.11725087491461519 -0.29108504565108578 0 -0.11567190875339491 -0.3081878681979589 0 -0.10322998884287909 -0.29931702984935987 0 -0.1304175251842298 -0.30012492429455973 0 -0.11725087491461519 -0.29108504565108578 0 -0.11567190875339491 -0.3081878681979589 0 -0.1011365257202933 -0.31403431577096802 0 -0.10322998884287909 -0.29931702984935987 0 -0.084942936154341619 -0.30610776690088481 0 -0.1011365257202933 -0.31403431577096802 0 -0.11567190875339491 -0.3081878681979589 0 -0.10322998884287909 -0.29931702984935987 0 -0.084942936154341619 -0.30610776690088481 0 -0.066237696895848033 -0.30175990202967712 0 -0.078368201618682937 -0.28822753231137022 0 -0.084942936154341619 -0.30610776690088481 0 -0.066237696895848033 -0.30175990202967712 0 -0.060613113796085999 -0.32288269869712272 0 -0.066237696895848033 -0.30175990202967712 0 -0.078368201618682937 -0.28822753231137022 0 -0.057136779716869042 -0.28712205926022771 0 -0.078368201618682937 -0.28822753231137022 0 -0.072744725061100565 -0.27289296274949931 0 -0.057136779716869042 -0.28712205926022771 0 -0.096655829275762523 -0.28444542957314378 0 -0.084942936154341619 -0.30610776690088481 0 -0.078368201618682937 -0.28822753231137022 0 -0.096655829275762523 -0.28444542957314378 0 -0.078368201618682937 -0.28822753231137022 0 -0.090762408808148426 -0.27102181932101072 0 -0.078368201618682937 -0.28822753231137022 0 -0.090762408808148426 -0.27102181932101072 0 -0.072744725061100565 -0.27289296274949931 0 -0.090762408808148426 -0.27102181932101072 0 -0.072744725061100565 -0.27289296274949931 0 -0.081281336266817772 -0.26097832242812891 0 -0.072744725061100565 -0.27289296274949931 0 -0.067161912638977472 -0.25903173736147111 0 -0.055745381016590281 -0.2682223094504298 0 -0.072744725061100565 -0.27289296274949931 0 -0.067161912638977472 -0.25903173736147111 0 -0.081281336266817772 -0.26097832242812891 0 -0.067161912638977472 -0.25903173736147111 0 -0.081281336266817772 -0.26097832242812891 0 -0.077955776651182085 -0.24454236002529731 0 -0.067161912638977472 -0.25903173736147111 0 -0.056939497423126581 -0.24878681181634871 0 -0.077955776651182085 -0.24454236002529731 0 -0.097628444613881649 -0.25834262822693399 0 -0.081281336266817772 -0.26097832242812891 0 -0.077955776651182085 -0.24454236002529731 0 -0.097628444613881649 -0.25834262822693399 0 -0.090762408808148426 -0.27102181932101072 0 -0.081281336266817772 -0.26097832242812891 0 -0.097628444613881649 -0.25834262822693399 0 -0.077955776651182085 -0.24454236002529731 0 -0.025857267464119819 -0.25506418495113531 0 -0.050191684441297867 -0.2485850187836515 0 -0.034199021844566052 -0.25740496373097072 0 -0.056939497423126581 -0.24878681181634871 0 -0.034199021844566052 -0.25740496373097072 0 -0.041398382443623198 -0.25192549838374201 0 -0.056939497423126581 -0.24878681181634871 0 -0.041398382443623198 -0.25192549838374201 0 -0.025857267464119819 -0.25506418495113531 0 -0.050191684441297867 -0.2485850187836515 0 -0.034199021844566052 -0.25740496373097072 0 -0.048255079716108998 -0.25800015923011232 0 -0.056939497423126581 -0.24878681181634871 0 -0.034199021844566052 -0.25740496373097072 0 -0.041398382443623198 -0.25192549838374201 0 -0.025857267464119819 -0.25506418495113531 0 -0.041398382443623198 -0.25192549838374201 0 -0.025857267464119819 -0.25506418495113531 0 -0.034199021844566052 -0.25740496373097072 0 -0.037307574571523318 -0.26201401924185519 0 -0.024854767991187229 -0.26705994663832661 0 -0.037307574571523318 -0.26201401924185519 0 -0.048255079716108998 -0.25800015923011232 0 -0.046606779304586107 -0.26584835010199509 0 -0.034199021844566052 -0.25740496373097072 0 -0.037307574571523318 -0.26201401924185519 0 -0.048255079716108998 -0.25800015923011232 0 -0.05702546769870083 -0.25851025446459042 0 -0.048255079716108998 -0.25800015923011232 0 -0.056939497423126581 -0.24878681181634871 0 -0.041398382443623198 -0.25192549838374201 0 -0.056939497423126581 -0.24878681181634871 0 -0.067161912638977472 -0.25903173736147111 0 -0.05702546769870083 -0.25851025446459042 0 -0.056939497423126581 -0.24878681181634871 0 -0.067161912638977472 -0.25903173736147111 0 -0.05702546769870083 -0.25851025446459042 0 -0.055745381016590281 -0.2682223094504298 0 -0.05702546769870083 -0.25851025446459042 0 -0.048255079716108998 -0.25800015923011232 0 -0.055745381016590281 -0.2682223094504298 0 -0.048255079716108998 -0.25800015923011232 0 -0.055745381016590281 -0.2682223094504298 0 -0.046606779304586107 -0.26584835010199509 0 -0.055745381016590281 -0.2682223094504298 0 -0.045119081914121867 -0.27515691248558288 0 -0.046606779304586107 -0.26584835010199509 0 -0.055745381016590281 -0.2682223094504298 0 -0.045119081914121867 -0.27515691248558288 0 -0.057136779716869042 -0.28712205926022771 0 -0.072744725061100565 -0.27289296274949931 0 -0.055745381016590281 -0.2682223094504298 0 -0.057136779716869042 -0.28712205926022771 0 -0.037307574571523318 -0.26201401924185519 0 -0.034478529498429812 -0.28951379058442123 0 -0.037307574571523318 -0.26201401924185519 0 -0.034478529498429812 -0.28951379058442123 0 -0.024854767991187229 -0.26705994663832661 0 -0.037307574571523318 -0.26201401924185519 0 -0.045119081914121867 -0.27515691248558288 0 -0.034478529498429812 -0.28951379058442123 0 -0.037307574571523318 -0.26201401924185519 0 -0.045119081914121867 -0.27515691248558288 0 -0.046606779304586107 -0.26584835010199509 0 -0.045119081914121867 -0.27515691248558288 0 -0.034478529498429812 -0.28951379058442123 0 -0.057136779716869042 -0.28712205926022771 0 -0.034478529498429812 -0.28951379058442123 0 -0.057136779716869042 -0.28712205926022771 0 -0.05012745319326059 -0.30445945297878008 0 -0.066237696895848033 -0.30175990202967712 0 -0.05012745319326059 -0.30445945297878008 0 -0.060613113796085999 -0.32288269869712272 0 -0.066237696895848033 -0.30175990202967712 0 -0.057136779716869042 -0.28712205926022771 0 -0.05012745319326059 -0.30445945297878008 0 -0.034478529498429812 -0.28951379058442123 0 -0.05012745319326059 -0.30445945297878008 0 -0.031649484425336299 -0.31701356192698721 0 -0.034478529498429812 -0.28951379058442123 0 -0.031649484425336299 -0.31701356192698721 0 -0.034478529498429812 -0.28951379058442123 0 -0.020284114256294641 -0.29759304008048471 0 -0.031649484425336299 -0.31701356192698721 0 -0.020284114256294641 -0.29759304008048471 0 -0.01007927323019326 -0.3103345258507364 0 -0.031649484425336299 -0.31701356192698721 0 -0.020284114256294641 -0.29759304008048471 0 -0.01007927323019326 -0.3103345258507364 0 -0.0080748459131490501 -0.2914060437848453 0 -0.01007927323019326 -0.3103345258507364 0 -0.0080748459131490501 -0.2914060437848453 0 0.0017563221397047381 -0.2997067901486577 0 -0.020284114256294641 -0.29759304008048471 0 -0.0080748459131490501 -0.2914060437848453 0 -0.017138438214364771 -0.27969727825543328 0 -0.0080748459131490501 -0.2914060437848453 0 -0.002848760243290064 -0.27761611820401882 0 0.0066437179820165657 -0.2861171845936395 0 -0.0080748459131490501 -0.2914060437848453 0 -0.017138438214364771 -0.27969727825543328 0 -0.002848760243290064 -0.27761611820401882 0 -0.034478529498429812 -0.28951379058442123 0 -0.020284114256294641 -0.29759304008048471 0 -0.017138438214364771 -0.27969727825543328 0 -0.034478529498429812 -0.28951379058442123 0 -0.024854767991187229 -0.26705994663832661 0 -0.017138438214364771 -0.27969727825543328 0 -0.024854767991187229 -0.26705994663832661 0 -0.01588915841142927 -0.27169793716392882 0 -0.01145854626600548 -0.26602311564559261 0 -0.024854767991187229 -0.26705994663832661 0 -0.01588915841142927 -0.27169793716392882 0 -0.017138438214364771 -0.27969727825543328 0 -0.017138438214364771 -0.27969727825543328 0 -0.011833725783772399 -0.27375861231724341 0 -0.002848760243290064 -0.27761611820401882 0 -0.01145854626600548 -0.26602311564559261 0 0.01128192931255503 -0.27464126756021451 0 -0.002848760243290064 -0.27761611820401882 0 -0.01145854626600548 -0.26602311564559261 0 0.01128192931255503 -0.27464126756021451 0 -0.01588915841142927 -0.27169793716392882 0 -0.017138438214364771 -0.27969727825543328 0 -0.011833725783772399 -0.27375861231724341 0 -0.011833725783772399 -0.27375861231724341 0 -0.002848760243290064 -0.27761611820401882 0 -0.01145854626600548 -0.26602311564559261 0 -0.01588915841142927 -0.27169793716392882 0 -0.011833725783772399 -0.27375861231724341 0 -0.01145854626600548 -0.26602311564559261 0 -0.01269776775011346 -0.25850600500130039 0 -0.0051360078472848583 -0.25701396995817721 0 0.0057158633005241696 -0.26337829885565528 0 -0.01145854626600548 -0.26602311564559261 0 -0.01269776775011346 -0.25850600500130039 0 0.0057158633005241696 -0.26337829885565528 0 -0.01269776775011346 -0.25850600500130039 0 0.0057158633005241696 -0.26337829885565528 0 -0.0009620894167222515 -0.25496392916579452 0 -0.0051360078472848583 -0.25701396995817721 0 0.0057158633005241696 -0.26337829885565528 0 -0.0071971320314794382 -0.2528457057960789 0 -0.01082738352359053 -0.24876902592697839 0 -0.0029313858115674811 -0.24854412401401971 0 -0.0009620894167222515 -0.25496392916579452 0 -0.0071971320314794382 -0.2528457057960789 0 -0.0029313858115674811 -0.24854412401401971 0 -0.0009620894167222515 -0.25496392916579452 0 -0.0051360078472848583 -0.25701396995817721 0 -0.0071971320314794382 -0.2528457057960789 0 -0.0051360078472848583 -0.25701396995817721 0 -0.0071971320314794382 -0.2528457057960789 0 -0.0094143843739788544 -0.25459574361389747 0 -0.0071971320314794382 -0.2528457057960789 0 -0.0094143843739788544 -0.25459574361389747 0 -0.01082738352359053 -0.24876902592697839 0 -0.01269776775011346 -0.25850600500130039 0 -0.0094143843739788544 -0.25459574361389747 0 -0.01082738352359053 -0.24876902592697839 0 -0.01269776775011346 -0.25850600500130039 0 -0.0051360078472848583 -0.25701396995817721 0 -0.0094143843739788544 -0.25459574361389747 0 -0.01269776775011346 -0.25850600500130039 0 -0.025857267464119819 -0.25506418495113531 0 -0.034199021844566052 -0.25740496373097072 0 -0.01145854626600548 -0.26602311564559261 0 -0.025857267464119819 -0.25506418495113531 0 -0.01269776775011346 -0.25850600500130039 0 -0.025857267464119819 -0.25506418495113531 0 -0.02368513365757598 -0.23851275990414511 0 -0.034199021844566052 -0.25740496373097072 0 -0.024854767991187229 -0.26705994663832661 0 -0.01145854626600548 -0.26602311564559261 0 -0.034199021844566052 -0.25740496373097072 0 -0.01145854626600548 -0.26602311564559261 0 -0.01145854626600548 -0.26602311564559261 0 -0.01269776775011346 -0.25850600500130039 0 -0.025857267464119819 -0.25506418495113531 0 -0.046940286889098168 -0.35955036210978841 0 -0.050269733973634309 -0.3392354021108881 0 -0.02882043935224279 -0.34451333326955308 0 -0.046940286889098168 -0.35955036210978841 0 -0.02882043935224279 -0.34451333326955308 0 -0.026419717968229769 -0.36867473508972981 0 -0.046940286889098168 -0.35955036210978841 0 -0.026419717968229769 -0.36867473508972981 0 -0.046935058978613817 -0.3783756837809118 0 -0.065890469742167113 -0.37350781086095058 0 -0.046940286889098168 -0.35955036210978841 0 -0.046935058978613817 -0.3783756837809118 0 -0.063306301319701316 -0.35299520754669739 0 -0.065890469742167113 -0.37350781086095058 0 -0.046940286889098168 -0.35955036210978841 0 -0.063306301319701316 -0.35299520754669739 0 -0.046940286889098168 -0.35955036210978841 0 -0.050269733973634309 -0.3392354021108881 0 -0.073144777225565616 -0.33606175945158517 0 -0.063306301319701316 -0.35299520754669739 0 -0.050269733973634309 -0.3392354021108881 0 -0.073144777225565616 -0.33606175945158517 0 -0.050269733973634309 -0.3392354021108881 0 -0.060613113796085999 -0.32288269869712272 0 -0.050269733973634309 -0.3392354021108881 0 -0.060613113796085999 -0.32288269869712272 0 -0.031649484425336299 -0.31701356192698721 0 -0.05012745319326059 -0.30445945297878008 0 -0.060613113796085999 -0.32288269869712272 0 -0.031649484425336299 -0.31701356192698721 0 -0.050269733973634309 -0.3392354021108881 0 -0.031649484425336299 -0.31701356192698721 0 -0.02882043935224279 -0.34451333326955308 0 -0.031649484425336299 -0.31701356192698721 0 -0.02882043935224279 -0.34451333326955308 0 -0.031649484425336299 -0.31701356192698721 0 -0.0038616663111063101 -0.33241552487502413 0 -0.02882043935224279 -0.34451333326955308 0 -0.01007927323019326 -0.3103345258507364 0 -0.031649484425336299 -0.31701356192698721 0 -0.0038616663111063101 -0.33241552487502413 0 -0.01007927323019326 -0.3103345258507364 0 -0.0038616663111063101 -0.33241552487502413 0 0.0094652366165251054 -0.31053241408104548 0 -0.0038616663111063101 -0.33241552487502413 0 -0.0043130761299947744 -0.35643483176966217 0 -0.02882043935224279 -0.34451333326955308 0 -0.0043130761299947744 -0.35643483176966217 0 -0.02882043935224279 -0.34451333326955308 0 -0.026419717968229769 -0.36867473508972981 0 -0.0043130761299947744 -0.35643483176966217 0 -0.026419717968229769 -0.36867473508972981 0 -0.0064694903547723136 -0.38059021958606692 0 -0.0064694903547723136 -0.38059021958606692 0 -0.0080625817845775948 -0.40608726553411861 0 -0.026496984295852101 -0.39226102623928111 0 -0.0064694903547723136 -0.38059021958606692 0 -0.0080625817845775948 -0.40608726553411861 0 0.009690974369139977 -0.39295199195252922 0 -0.0080625817845775948 -0.40608726553411861 0 -0.026496984295852101 -0.39226102623928111 0 -0.029852467816379728 -0.41236872525256307 0 -0.026419717968229769 -0.36867473508972981 0 -0.0064694903547723136 -0.38059021958606692 0 -0.026496984295852101 -0.39226102623928111 0 -0.026496984295852101 -0.39226102623928111 0 -0.048213792324517578 -0.39768762776665978 0 -0.046935058978613817 -0.3783756837809118 0 -0.026419717968229769 -0.36867473508972981 0 -0.026496984295852101 -0.39226102623928111 0 -0.046935058978613817 -0.3783756837809118 0 -0.026496984295852101 -0.39226102623928111 0 -0.048213792324517578 -0.39768762776665978 0 -0.029852467816379728 -0.41236872525256307 0 -0.048213792324517578 -0.39768762776665978 0 -0.065379196062645584 -0.39052657147488062 0 -0.06528413140028641 -0.40548789039177052 0 -0.048213792324517578 -0.39768762776665978 0 -0.046935058978613817 -0.3783756837809118 0 -0.065379196062645584 -0.39052657147488062 0 -0.065890469742167113 -0.37350781086095058 0 -0.046935058978613817 -0.3783756837809118 0 -0.065379196062645584 -0.39052657147488062 0 -0.052630130657334448 -0.42871109396582502 0 -0.036803499053157718 -0.43392585985635063 0 -0.055908543568221357 -0.44353945242809251 0 -0.052630130657334448 -0.42871109396582502 0 -0.048282499091199083 -0.41684649723306111 0 -0.065713266975248902 -0.42040157794015642 0 -0.052630130657334448 -0.42871109396582502 0 -0.055908543568221357 -0.44353945242809251 0 -0.077753046024815156 -0.43509142098737241 0 -0.048282499091199083 -0.41684649723306111 0 -0.06528413140028641 -0.40548789039177052 0 -0.065713266975248902 -0.42040157794015642 0 -0.048213792324517578 -0.39768762776665978 0 -0.048282499091199083 -0.41684649723306111 0 -0.06528413140028641 -0.40548789039177052 0 -0.048213792324517578 -0.39768762776665978 0 -0.048282499091199083 -0.41684649723306111 0 -0.029852467816379728 -0.41236872525256307 0 -0.048282499091199083 -0.41684649723306111 0 -0.036803499053157718 -0.43392585985635063 0 -0.029852467816379728 -0.41236872525256307 0 -0.052630130657334448 -0.42871109396582502 0 -0.048282499091199083 -0.41684649723306111 0 -0.036803499053157718 -0.43392585985635063 0 -0.036803499053157718 -0.43392585985635063 0 -0.01686747062211669 -0.42668809062348251 0 -0.022482277956740859 -0.44034230556013138 0 -0.036803499053157718 -0.43392585985635063 0 -0.01686747062211669 -0.42668809062348251 0 -0.029852467816379728 -0.41236872525256307 0 -0.0080625817845775948 -0.40608726553411861 0 -0.01686747062211669 -0.42668809062348251 0 -0.029852467816379728 -0.41236872525256307 0 -0.0080625817845775948 -0.40608726553411861 0 -0.01686747062211669 -0.42668809062348251 0 0.01224976062295041 -0.42183763890738629 0 -0.01686747062211669 -0.42668809062348251 0 -0.008216644178786571 -0.4466179140804285 0 0.01224976062295041 -0.42183763890738629 0 -0.008216644178786571 -0.4466179140804285 0 -0.0021957942935651631 -0.46571035637089769 0 -0.016151777162071251 -0.46269316979172348 0 -0.0021957942935651631 -0.46571035637089769 0 -0.016151777162071251 -0.46269316979172348 0 -0.01292321871024151 -0.47600360382280887 0 -0.008216644178786571 -0.4466179140804285 0 -0.016151777162071251 -0.46269316979172348 0 -0.028753682251359231 -0.45370767630375852 0 -0.016151777162071251 -0.46269316979172348 0 -0.030722049445265721 -0.46513815794063051 0 -0.025757536927686689 -0.47561542944709773 0 -0.016151777162071251 -0.46269316979172348 0 -0.030722049445265721 -0.46513815794063051 0 -0.028753682251359231 -0.45370767630375852 0 -0.036803499053157718 -0.43392585985635063 0 -0.028753682251359231 -0.45370767630375852 0 -0.022482277956740859 -0.44034230556013138 0 -0.01686747062211669 -0.42668809062348251 0 -0.008216644178786571 -0.4466179140804285 0 -0.022482277956740859 -0.44034230556013138 0 -0.008216644178786571 -0.4466179140804285 0 -0.028753682251359231 -0.45370767630375852 0 -0.022482277956740859 -0.44034230556013138 0 -0.011489863113854141 -0.5 0 -0.010144146689038991 -0.48941639725935437 0 0.012735562036971701 -0.48508522326900949 0 -0.010144146689038991 -0.48941639725935437 0 -0.00065605929082254884 -0.47874224407546379 0 -0.01292321871024151 -0.47600360382280887 0 -0.010144146689038991 -0.48941639725935437 0 -0.01292321871024151 -0.47600360382280887 0 -0.022633997898264431 -0.48384402599231691 0 -0.0021957942935651631 -0.46571035637089769 0 -0.00065605929082254884 -0.47874224407546379 0 -0.01292321871024151 -0.47600360382280887 0 -0.016151777162071251 -0.46269316979172348 0 -0.01292321871024151 -0.47600360382280887 0 -0.025757536927686689 -0.47561542944709773 0 -0.025757536927686689 -0.47561542944709773 0 -0.022633997898264431 -0.48384402599231691 0 -0.032724513000240443 -0.48384135401243772 0 -0.01292321871024151 -0.47600360382280887 0 -0.025757536927686689 -0.47561542944709773 0 -0.022633997898264431 -0.48384402599231691 0 -0.011489863113854141 -0.5 0 -0.010144146689038991 -0.48941639725935437 0 -0.033023855415049652 -0.49374757124969931 0 -0.010144146689038991 -0.48941639725935437 0 -0.022633997898264431 -0.48384402599231691 0 -0.033023855415049652 -0.49374757124969931 0 -0.011489863113854141 -0.5 0 -0.041002190054857779 -0.5 0 -0.033023855415049652 -0.49374757124969931 0 -0.010144146689038991 -0.48941639725935437 0 -0.033023855415049652 -0.49374757124969931 0 -0.022633997898264431 -0.48384402599231691 0 -0.033023855415049652 -0.49374757124969931 0 -0.032724513000240443 -0.48384135401243772 0 -0.041002190054857779 -0.5 0 -0.040644419244316249 -0.48874723383863622 0 -0.055758353525359711 -0.48944453406372251 0 -0.041002190054857779 -0.5 0 -0.033023855415049652 -0.49374757124969931 0 -0.040644419244316249 -0.48874723383863622 0 -0.033023855415049652 -0.49374757124969931 0 -0.040644419244316249 -0.48874723383863622 0 -0.032724513000240443 -0.48384135401243772 0 -0.040644419244316249 -0.48874723383863622 0 -0.040713184226073652 -0.47670270986732172 0 -0.055758353525359711 -0.48944453406372251 0 -0.040644419244316249 -0.48874723383863622 0 -0.040713184226073652 -0.47670270986732172 0 -0.032724513000240443 -0.48384135401243772 0 -0.025757536927686689 -0.47561542944709773 0 -0.040713184226073652 -0.47670270986732172 0 -0.032724513000240443 -0.48384135401243772 0 -0.030722049445265721 -0.46513815794063051 0 -0.025757536927686689 -0.47561542944709773 0 -0.040713184226073652 -0.47670270986732172 0 -0.040713184226073652 -0.47670270986732172 0 -0.05604151524233808 -0.47085547185542692 0 -0.042137987481662489 -0.46199998676314519 0 -0.040713184226073652 -0.47670270986732172 0 -0.05604151524233808 -0.47085547185542692 0 -0.055758353525359711 -0.48944453406372251 0 -0.05604151524233808 -0.47085547185542692 0 -0.055758353525359711 -0.48944453406372251 0 -0.068357021366280857 -0.47830767763467641 0 -0.041002190054857779 -0.5 0 -0.055758353525359711 -0.48944453406372251 0 -0.070514516995861642 -0.5 0 -0.036803499053157718 -0.43392585985635063 0 -0.028753682251359231 -0.45370767630375852 0 -0.042591220718736618 -0.44931976272637059 0 -0.036803499053157718 -0.43392585985635063 0 -0.042591220718736618 -0.44931976272637059 0 -0.055908543568221357 -0.44353945242809251 0 -0.028753682251359231 -0.45370767630375852 0 -0.042591220718736618 -0.44931976272637059 0 -0.042137987481662489 -0.46199998676314519 0 -0.030722049445265721 -0.46513815794063051 0 -0.028753682251359231 -0.45370767630375852 0 -0.042137987481662489 -0.46199998676314519 0 -0.030722049445265721 -0.46513815794063051 0 -0.040713184226073652 -0.47670270986732172 0 -0.042137987481662489 -0.46199998676314519 0 -0.042591220718736618 -0.44931976272637059 0 -0.042137987481662489 -0.46199998676314519 0 -0.054601469153056192 -0.45704509188174619 0 -0.05604151524233808 -0.47085547185542692 0 -0.054601469153056192 -0.45704509188174619 0 -0.071896784036839162 -0.45711427830285839 0 -0.05604151524233808 -0.47085547185542692 0 -0.042137987481662489 -0.46199998676314519 0 -0.054601469153056192 -0.45704509188174619 0 -0.054601469153056192 -0.45704509188174619 0 -0.055908543568221357 -0.44353945242809251 0 -0.071896784036839162 -0.45711427830285839 0 -0.042591220718736618 -0.44931976272637059 0 -0.054601469153056192 -0.45704509188174619 0 -0.055908543568221357 -0.44353945242809251 0 -0.055908543568221357 -0.44353945242809251 0 -0.071896784036839162 -0.45711427830285839 0 -0.077753046024815156 -0.43509142098737241 0 -0.071896784036839162 -0.45711427830285839 0 -0.087573937031005744 -0.47412410395137422 0 -0.093954286744555499 -0.45179652052777369 0 -0.087573937031005744 -0.47412410395137422 0 -0.093954286744555499 -0.45179652052777369 0 -0.071896784036839162 -0.45711427830285839 0 -0.093954286744555499 -0.45179652052777369 0 -0.077753046024815156 -0.43509142098737241 0 -0.093954286744555499 -0.45179652052777369 0 -0.10033463645810529 -0.42946893710417328 0 -0.077753046024815156 -0.43509142098737241 0 -0.055758353525359711 -0.48944453406372251 0 -0.070514516995861642 -0.5 0 -0.068357021366280857 -0.47830767763467641 0 -0.05604151524233808 -0.47085547185542692 0 -0.071896784036839162 -0.45711427830285839 0 -0.068357021366280857 -0.47830767763467641 0 -0.071896784036839162 -0.45711427830285839 0 -0.068357021366280857 -0.47830767763467641 0 -0.087573937031005744 -0.47412410395137422 0 -0.070514516995861642 -0.5 0 -0.068357021366280857 -0.47830767763467641 0 -0.087573937031005744 -0.47412410395137422 0 -0.070514516995861642 -0.5 0 -0.087573937031005744 -0.47412410395137422 0 -0.10002684393686551 -0.5 0 -0.087573937031005744 -0.47412410395137422 0 -0.10002684393686551 -0.5 0 -0.10780494223314389 -0.47765854937150709 0 -0.087573937031005744 -0.47412410395137422 0 -0.10780494223314389 -0.47765854937150709 0 -0.1029954147344513 -0.46359439800738522 0 -0.12605423818426559 -0.48707922202292669 0 -0.10780494223314389 -0.47765854937150709 0 -0.1201929706126502 -0.46127799294672761 0 -0.12605423818426559 -0.48707922202292669 0 -0.1201929706126502 -0.46127799294672761 0 -0.12605423818426559 -0.48707922202292669 0 -0.10002684393686551 -0.5 0 -0.10780494223314389 -0.47765854937150709 0 -0.1295391708778694 -0.5 0 -0.12605423818426559 -0.48707922202292669 0 -0.10002684393686551 -0.5 0 -0.093954286744555499 -0.45179652052777369 0 -0.10033463645810529 -0.42946893710417328 0 -0.10636180231815941 -0.44832292249131772 0 -0.11433170304103479 -0.43547676387052858 0 -0.10033463645810529 -0.42946893710417328 0 -0.10636180231815941 -0.44832292249131772 0 -0.093954286744555499 -0.45179652052777369 0 -0.10033463645810529 -0.42946893710417328 0 -0.087573937031005744 -0.47412410395137422 0 -0.093954286744555499 -0.45179652052777369 0 -0.1029954147344513 -0.46359439800738522 0 -0.10636180231815941 -0.44832292249131772 0 -0.093954286744555499 -0.45179652052777369 0 -0.1029954147344513 -0.46359439800738522 0 -0.10780494223314389 -0.47765854937150709 0 -0.1029954147344513 -0.46359439800738522 0 -0.1201929706126502 -0.46127799294672761 0 -0.10636180231815941 -0.44832292249131772 0 -0.1029954147344513 -0.46359439800738522 0 -0.1201929706126502 -0.46127799294672761 0 -0.13671083813600751 -0.45044361347006462 0 -0.1201929706126502 -0.46127799294672761 0 -0.11433170304103479 -0.43547676387052858 0 -0.10636180231815941 -0.44832292249131772 0 -0.1201929706126502 -0.46127799294672761 0 -0.11433170304103479 -0.43547676387052858 0 -0.13671083813600751 -0.45044361347006462 0 -0.1225906368027144 -0.43005957413219659 0 -0.11433170304103479 -0.43547676387052858 0 -0.1201929706126502 -0.46127799294672761 0 -0.11433170304103479 -0.43547676387052858 0 -0.1225906368027144 -0.43005957413219659 0 -0.11433170304103479 -0.43547676387052858 0 -0.10847043546942051 -0.40967553479432928 0 -0.11433170304103479 -0.43547676387052858 0 -0.10847043546942051 -0.40967553479432928 0 -0.12908399078123631 -0.42243277819987513 0 -0.1225906368027144 -0.43005957413219659 0 -0.12315425937001 -0.41747458531602638 0 -0.11433170304103479 -0.43547676387052858 0 -0.10033463645810529 -0.42946893710417328 0 -0.10847043546942051 -0.40967553479432928 0 -0.10033463645810529 -0.42946893710417328 0 -0.094107383989168333 -0.41562629379671062 0 -0.1067149861716557 -0.40714135368057303 0 -0.10033463645810529 -0.42946893710417328 0 -0.1067149861716557 -0.40714135368057303 0 -0.10847043546942051 -0.40967553479432928 0 -0.10033463645810529 -0.42946893710417328 0 -0.1067149861716557 -0.40714135368057303 0 -0.094107383989168333 -0.41562629379671062 0 -0.1067149861716557 -0.40714135368057303 0 -0.093615658715422545 -0.40476526464288082 0 -0.10847043546942051 -0.40967553479432928 0 -0.1105756132387118 -0.40676785322215941 0 -0.1073722461642546 -0.40484131873350049 0 -0.10847043546942051 -0.40967553479432928 0 -0.1073722461642546 -0.40484131873350049 0 -0.1067149861716557 -0.40714135368057303 0 -0.10847043546942051 -0.40967553479432928 0 -0.1073722461642546 -0.40484131873350049 0 -0.1067149861716557 -0.40714135368057303 0 -0.10847043546942051 -0.40967553479432928 0 -0.1225906368027144 -0.43005957413219659 0 -0.1163272184937543 -0.41351727508190028 0 -0.12315425937001 -0.41747458531602638 0 -0.10847043546942051 -0.40967553479432928 0 -0.1125412123036873 -0.40894162881917728 0 -0.1163272184937543 -0.41351727508190028 0 -0.1125412123036873 -0.40894162881917728 0 -0.1105756132387118 -0.40676785322215941 0 -0.1147915820128618 -0.40580585217832088 0 -0.1225906368027144 -0.43005957413219659 0 -0.10847043546942051 -0.40967553479432928 0 -0.1163272184937543 -0.41351727508190028 0 -0.10847043546942051 -0.40967553479432928 0 -0.1125412123036873 -0.40894162881917728 0 -0.1105756132387118 -0.40676785322215941 0 -0.1225906368027144 -0.43005957413219659 0 -0.10847043546942051 -0.40967553479432928 0 -0.1125412123036873 -0.40894162881917728 0 -0.1163272184937543 -0.41351727508190028 0 -0.1147915820128618 -0.40580585217832088 0 -0.1225700411049412 -0.40994677461386392 0 -0.1219584454402414 -0.40406961642135292 0 -0.1147915820128618 -0.40580585217832088 0 -0.1163272184937543 -0.41351727508190028 0 -0.1225700411049412 -0.40994677461386392 0 -0.1147915820128618 -0.40580585217832088 0 -0.1163272184937543 -0.41351727508190028 0 -0.12315425937001 -0.41747458531602638 0 -0.1225700411049412 -0.40994677461386392 0 -0.1273295258527142 -0.39594401256049883 0 -0.1219584454402414 -0.40406961642135292 0 -0.1190781430676657 -0.39944145851713192 0 -0.11305295545189779 -0.39895005080087959 0 -0.11384267237711319 -0.38219851895920232 0 -0.1073722461642546 -0.40484131873350049 0 -0.1295768038857959 -0.40463739140698729 0 -0.1225700411049412 -0.40994677461386392 0 -0.1219584454402414 -0.40406961642135292 0 -0.1182582065806136 -0.392437760624607 0 -0.11305295545189779 -0.39895005080087959 0 -0.11384267237711319 -0.38219851895920232 0 -0.11384267237711319 -0.38219851895920232 0 -0.1073722461642546 -0.40484131873350049 0 -0.1219584454402414 -0.40406961642135292 0 -0.1190781430676657 -0.39944145851713192 0 -0.1147915820128618 -0.40580585217832088 0 -0.1273295258527142 -0.39594401256049883 0 -0.1190781430676657 -0.39944145851713192 0 -0.1182582065806136 -0.392437760624607 0 -0.1190781430676657 -0.39944145851713192 0 -0.1182582065806136 -0.392437760624607 0 -0.11305295545189779 -0.39895005080087959 0 -0.1105756132387118 -0.40676785322215941 0 -0.1114480992169309 -0.40409126873371493 0 -0.1073722461642546 -0.40484131873350049 0 -0.1105756132387118 -0.40676785322215941 0 -0.1114480992169309 -0.40409126873371493 0 -0.1147915820128618 -0.40580585217832088 0 -0.11305295545189779 -0.39895005080087959 0 -0.1114480992169309 -0.40409126873371493 0 -0.1147915820128618 -0.40580585217832088 0 -0.11305295545189779 -0.39895005080087959 0 -0.1114480992169309 -0.40409126873371493 0 -0.1073722461642546 -0.40484131873350049 0 -0.1190781430676657 -0.39944145851713192 0 -0.11305295545189779 -0.39895005080087959 0 -0.1147915820128618 -0.40580585217832088 0 -0.12625141541498519 -0.38197991289387551 0 -0.1182582065806136 -0.392437760624607 0 -0.11384267237711319 -0.38219851895920232 0 -0.12625141541498519 -0.38197991289387551 0 -0.1273295258527142 -0.39594401256049883 0 -0.1182582065806136 -0.392437760624607 0 -0.11384267237711319 -0.38219851895920232 0 -0.10176491866177829 -0.38015793077534599 0 -0.1073722461642546 -0.40484131873350049 0 -0.10176491866177829 -0.38015793077534599 0 -0.095995502779844255 -0.39166661886747001 0 -0.085276019388031976 -0.37619188405436782 0 -0.10849363524981311 -0.36442991456039969 0 -0.11384267237711319 -0.38219851895920232 0 -0.10176491866177829 -0.38015793077534599 0 -0.10176491866177829 -0.38015793077534599 0 -0.1073722461642546 -0.40484131873350049 0 -0.095995502779844255 -0.39166661886747001 0 -0.10176491866177829 -0.38015793077534599 0 -0.1073722461642546 -0.40484131873350049 0 -0.1067149861716557 -0.40714135368057303 0 -0.1073722461642546 -0.40484131873350049 0 -0.095995502779844255 -0.39166661886747001 0 -0.1067149861716557 -0.40714135368057303 0 -0.1073722461642546 -0.40484131873350049 0 -0.1067149861716557 -0.40714135368057303 0 -0.095995502779844255 -0.39166661886747001 0 -0.1067149861716557 -0.40714135368057303 0 -0.095995502779844255 -0.39166661886747001 0 -0.093615658715422545 -0.40476526464288082 0 -0.093615658715422545 -0.40476526464288082 0 -0.081664681120336771 -0.39582842074610342 0 -0.082451352827770552 -0.41163664718976212 0 -0.095995502779844255 -0.39166661886747001 0 -0.093615658715422545 -0.40476526464288082 0 -0.081664681120336771 -0.39582842074610342 0 -0.095995502779844255 -0.39166661886747001 0 -0.081664681120336771 -0.39582842074610342 0 -0.085276019388031976 -0.37619188405436782 0 -0.081664681120336771 -0.39582842074610342 0 -0.085276019388031976 -0.37619188405436782 0 -0.074552591578295357 -0.38401367178407558 0 -0.095995502779844255 -0.39166661886747001 0 -0.085276019388031976 -0.37619188405436782 0 -0.081664681120336771 -0.39582842074610342 0 -0.065379196062645584 -0.39052657147488062 0 -0.074552591578295357 -0.38401367178407558 0 -0.065890469742167113 -0.37350781086095058 0 -0.085276019388031976 -0.37619188405436782 0 -0.074552591578295357 -0.38401367178407558 0 -0.065890469742167113 -0.37350781086095058 0 -0.065379196062645584 -0.39052657147488062 0 -0.074552591578295357 -0.38401367178407558 0 -0.081664681120336771 -0.39582842074610342 0 -0.06528413140028641 -0.40548789039177052 0 -0.082451352827770552 -0.41163664718976212 0 -0.081664681120336771 -0.39582842074610342 0 -0.065379196062645584 -0.39052657147488062 0 -0.06528413140028641 -0.40548789039177052 0 -0.065713266975248902 -0.42040157794015642 0 -0.085028608260126398 -0.42320905853578622 0 -0.082451352827770552 -0.41163664718976212 0 -0.06528413140028641 -0.40548789039177052 0 -0.065713266975248902 -0.42040157794015642 0 -0.082451352827770552 -0.41163664718976212 0 -0.065713266975248902 -0.42040157794015642 0 -0.077753046024815156 -0.43509142098737241 0 -0.085028608260126398 -0.42320905853578622 0 -0.052630130657334448 -0.42871109396582502 0 -0.065713266975248902 -0.42040157794015642 0 -0.077753046024815156 -0.43509142098737241 0 -0.10033463645810529 -0.42946893710417328 0 -0.077753046024815156 -0.43509142098737241 0 -0.085028608260126398 -0.42320905853578622 0 -0.10033463645810529 -0.42946893710417328 0 -0.094107383989168333 -0.41562629379671062 0 -0.085028608260126398 -0.42320905853578622 0 -0.094107383989168333 -0.41562629379671062 0 -0.085028608260126398 -0.42320905853578622 0 -0.082451352827770552 -0.41163664718976212 0 -0.094107383989168333 -0.41562629379671062 0 -0.093615658715422545 -0.40476526464288082 0 -0.082451352827770552 -0.41163664718976212 0 -0.080832567710134945 -0.085265223789800185 0 -0.09573268077664969 -0.090624673380050064 0 -0.094924188455715333 -0.074372309221374736 0 -0.080832567710134945 -0.085265223789800185 0 -0.0944050220014645 -0.1050702242089397 0 -0.09573268077664969 -0.090624673380050064 0 -0.094924188455715333 -0.074372309221374736 0 -0.077079431972146645 -0.050953682142663811 0 -0.080832567710134945 -0.085265223789800185 0 -0.077460787511610923 -0.070469280456870842 0 -0.094924188455715333 -0.074372309221374736 0 -0.077460787511610923 -0.070469280456870842 0 -0.094924188455715333 -0.074372309221374736 0 -0.078535685693175539 -0.061573663464548622 0 -0.080832567710134945 -0.085265223789800185 0 -0.072736864716213656 -0.076885636419884412 0 -0.077460787511610923 -0.070469280456870842 0 -0.072736864716213656 -0.076885636419884412 0 -0.077460787511610923 -0.070469280456870842 0 -0.067174029152377468 -0.071022972744677337 0 -0.077460787511610923 -0.070469280456870842 0 -0.067174029152377468 -0.071022972744677337 0 -0.070308423821052124 -0.061023041189074957 0 -0.077460787511610923 -0.070469280456870842 0 -0.078535685693175539 -0.061573663464548622 0 -0.070308423821052124 -0.061023041189074957 0 -0.067174029152377468 -0.071022972744677337 0 -0.070308423821052124 -0.061023041189074957 0 -0.060830035872249492 -0.064558057335980773 0 -0.072736864716213656 -0.076885636419884412 0 -0.067174029152377468 -0.071022972744677337 0 -0.063732237529271596 -0.080733089011810297 0 -0.067174029152377468 -0.071022972744677337 0 -0.063732237529271596 -0.080733089011810297 0 -0.058000192015007383 -0.073011667883306972 0 -0.080832567710134945 -0.085265223789800185 0 -0.063732237529271596 -0.080733089011810297 0 -0.066023591375222151 -0.09957098179305135 0 -0.080832567710134945 -0.085265223789800185 0 -0.072736864716213656 -0.076885636419884412 0 -0.063732237529271596 -0.080733089011810297 0 -0.066023591375222151 -0.09957098179305135 0 -0.069466171350113709 -0.1135628440840601 0 -0.0944050220014645 -0.1050702242089397 0 -0.066023591375222151 -0.09957098179305135 0 -0.069466171350113709 -0.1135628440840601 0 -0.054384952187449757 -0.110609208962567 0 -0.077516787342341589 -0.1242022911324857 0 -0.069466171350113709 -0.1135628440840601 0 -0.059238207921678762 -0.13024384051707169 0 -0.077516787342341589 -0.1242022911324857 0 -0.093262550211769629 -0.1231040070079162 0 -0.0944050220014645 -0.1050702242089397 0 -0.077516787342341589 -0.1242022911324857 0 -0.069466171350113709 -0.1135628440840601 0 -0.0944050220014645 -0.1050702242089397 0 -0.066023591375222151 -0.09957098179305135 0 -0.0944050220014645 -0.1050702242089397 0 -0.080832567710134945 -0.085265223789800185 0 -0.066023591375222151 -0.09957098179305135 0 -0.0944050220014645 -0.1050702242089397 0 -0.0944050220014645 -0.1050702242089397 0 -0.1071147179002416 -0.1244919901550422 0 -0.11276894493928399 -0.097790936300085646 0 -0.0944050220014645 -0.1050702242089397 0 -0.11276894493928399 -0.097790936300085646 0 -0.09573268077664969 -0.090624673380050064 0 -0.093262550211769629 -0.1231040070079162 0 -0.0944050220014645 -0.1050702242089397 0 -0.1071147179002416 -0.1244919901550422 0 -0.1071147179002416 -0.1244919901550422 0 -0.11276894493928399 -0.097790936300085646 0 -0.1306137014228527 -0.1212095633787966 0 -0.11276894493928399 -0.097790936300085646 0 -0.1306137014228527 -0.1212095633787966 0 -0.112702195828283 -0.076339248342475546 0 -0.13438499311011279 -0.096174695905308166 0 -0.11276894493928399 -0.097790936300085646 0 -0.112702195828283 -0.076339248342475546 0 -0.13438499311011279 -0.096174695905308166 0 -0.11276894493928399 -0.097790936300085646 0 -0.094924188455715333 -0.074372309221374736 0 -0.112702195828283 -0.076339248342475546 0 -0.11276894493928399 -0.097790936300085646 0 -0.094924188455715333 -0.074372309221374736 0 -0.11276894493928399 -0.097790936300085646 0 -0.09573268077664969 -0.090624673380050064 0 -0.094924188455715333 -0.074372309221374736 0 -0.094924188455715333 -0.074372309221374736 0 -0.1026030192468113 -0.064894788769428779 0 -0.112702195828283 -0.076339248342475546 0 -0.094924188455715333 -0.074372309221374736 0 -0.1026030192468113 -0.064894788769428779 0 -0.090333769324138391 -0.059362086744932152 0 -0.1026030192468113 -0.064894788769428779 0 -0.112702195828283 -0.076339248342475546 0 -0.1158705629695205 -0.060236298698018297 0 -0.112702195828283 -0.076339248342475546 0 -0.1158705629695205 -0.060236298698018297 0 -0.13497135686491851 -0.078315161523928284 0 -0.1158705629695205 -0.060236298698018297 0 -0.1150956899200111 -0.045830426672337207 0 -0.1070798181065768 -0.041876824406217303 0 -0.1158705629695205 -0.060236298698018297 0 -0.1150956899200111 -0.045830426672337207 0 -0.12809376798702951 -0.047905065599393698 0 -0.1163329610324388 -0.034474533447810513 0 -0.12530131535501859 -0.034952786400489197 0 -0.12809376798702951 -0.047905065599393698 0 -0.11023593420079281 -0.033339602888773932 0 -0.1150956899200111 -0.045830426672337207 0 -0.12809376798702951 -0.047905065599393698 0 -0.11023593420079281 -0.033339602888773932 0 -0.1163329610324388 -0.034474533447810513 0 -0.12809376798702951 -0.047905065599393698 0 -0.11023593420079281 -0.033339602888773932 0 -0.12809376798702951 -0.047905065599393698 0 -0.1163329610324388 -0.034474533447810513 0 -0.1221370268088495 -0.025998648103035 0 -0.12530131535501859 -0.034952786400489197 0 -0.11023593420079281 -0.033339602888773932 0 -0.1150956899200111 -0.045830426672337207 0 -0.1070798181065768 -0.041876824406217303 0 -0.11023593420079281 -0.033339602888773932 0 -0.1163329610324388 -0.034474533447810513 0 -0.097427134368436918 -0.027820357899848831 0 -0.11023593420079281 -0.033339602888773932 0 -0.1070798181065768 -0.041876824406217303 0 -0.097427134368436918 -0.027820357899848831 0 -0.1070798181065768 -0.041876824406217303 0 -0.096769769074122519 -0.04215743587210824 0 -0.097427134368436918 -0.027820357899848831 0 -0.1158705629695205 -0.060236298698018297 0 -0.1070798181065768 -0.041876824406217303 0 -0.096769769074122519 -0.04215743587210824 0 -0.1026030192468113 -0.064894788769428779 0 -0.1158705629695205 -0.060236298698018297 0 -0.099264754381345577 -0.055060356505970513 0 -0.1158705629695205 -0.060236298698018297 0 -0.096769769074122519 -0.04215743587210824 0 -0.099264754381345577 -0.055060356505970513 0 -0.096769769074122519 -0.04215743587210824 0 -0.099264754381345577 -0.055060356505970513 0 -0.090746651292135133 -0.048651172445365112 0 -0.1158705629695205 -0.060236298698018297 0 -0.096769769074122519 -0.04215743587210824 0 -0.1026030192468113 -0.064894788769428779 0 -0.099264754381345577 -0.055060356505970513 0 -0.090333769324138391 -0.059362086744932152 0 -0.1029392013539359 -0.0085751277431150782 0 -0.12735709500343681 0.004015926865657337 0 -0.1236693299605585 -0.0137973575501921 0 -0.1110604598185659 -0.0207882196779367 0 -0.1029392013539359 -0.0085751277431150782 0 -0.1236693299605585 -0.0137973575501921 0 -0.1029392013539359 -0.0085751277431150782 0 -0.12735709500343681 0.004015926865657337 0 -0.1236693299605585 -0.0137973575501921 0 -0.1110604598185659 -0.0207882196779367 0 -0.1221370268088495 -0.025998648103035 0 -0.1163329610324388 -0.034474533447810513 0 -0.1221370268088495 -0.025998648103035 0 -0.11173939550707281 -0.027270439782157759 0 -0.1110604598185659 -0.0207882196779367 0 -0.1221370268088495 -0.025998648103035 0 -0.11173939550707281 -0.027270439782157759 0 -0.1163329610324388 -0.034474533447810513 0 -0.097427134368436918 -0.027820357899848831 0 -0.1110604598185659 -0.0207882196779367 0 -0.097427134368436918 -0.027820357899848831 0 -0.1029392013539359 -0.0085751277431150782 0 -0.1163329610324388 -0.034474533447810513 0 -0.11173939550707281 -0.027270439782157759 0 -0.097427134368436918 -0.027820357899848831 0 -0.1110604598185659 -0.0207882196779367 0 -0.11173939550707281 -0.027270439782157759 0 -0.097427134368436918 -0.027820357899848831 0 -0.1029392013539359 -0.0085751277431150782 0 -0.086097875964997059 -0.0058870606910941042 0 -0.078521307704434995 -0.021166182351887271 0 -0.1029392013539359 -0.0085751277431150782 0 -0.078521307704434995 -0.021166182351887271 0 -0.1029392013539359 -0.0085751277431150782 0 -0.086097875964997059 -0.0058870606910941042 0 -0.091682611010439896 0.0063963380850077774 0 -0.086097875964997059 -0.0058870606910941042 0 -0.073830544796709738 -0.0078542708917730738 0 -0.078933949510919491 0.00072378658541613432 0 -0.086097875964997059 -0.0058870606910941042 0 -0.078521307704434995 -0.021166182351887271 0 -0.073830544796709738 -0.0078542708917730738 0 -0.097427134368436918 -0.027820357899848831 0 -0.078521307704434995 -0.021166182351887271 0 -0.097427134368436918 -0.027820357899848831 0 -0.078521307704434995 -0.021166182351887271 0 -0.077668975178724509 -0.024078573046198169 0 -0.097427134368436918 -0.027820357899848831 0 -0.1029392013539359 -0.0085751277431150782 0 -0.078521307704434995 -0.021166182351887271 0 -0.078521307704434995 -0.021166182351887271 0 -0.055132092173872667 -0.033226800447327051 0 -0.05822397002114936 -0.01402224463886402 0 -0.078521307704434995 -0.021166182351887271 0 -0.055132092173872667 -0.033226800447327051 0 -0.077668975178724509 -0.024078573046198169 0 -0.075465350998538308 -0.032772608828030472 0 -0.055132092173872667 -0.033226800447327051 0 -0.078521307704434995 -0.021166182351887271 0 -0.077668975178724509 -0.024078573046198169 0 -0.055132092173872667 -0.033226800447327051 0 -0.078521307704434995 -0.021166182351887271 0 -0.05822397002114936 -0.01402224463886402 0 -0.078521307704434995 -0.021166182351887271 0 -0.073830544796709738 -0.0078542708917730738 0 -0.05822397002114936 -0.01402224463886402 0 -0.073830544796709738 -0.0078542708917730738 0 -0.05822397002114936 -0.01402224463886402 0 -0.068462160169621672 0.0025537029525893409 0 -0.073830544796709738 -0.0078542708917730738 0 -0.078933949510919491 0.00072378658541613432 0 -0.068462160169621672 0.0025537029525893409 0 -0.094924188455715333 -0.074372309221374736 0 -0.090333769324138391 -0.059362086744932152 0 -0.077079431972146645 -0.050953682142663811 0 -0.094924188455715333 -0.074372309221374736 0 -0.078535685693175539 -0.061573663464548622 0 -0.077079431972146645 -0.050953682142663811 0 -0.084868245962835154 -0.053326759561897898 0 -0.090333769324138391 -0.059362086744932152 0 -0.077079431972146645 -0.050953682142663811 0 -0.084868245962835154 -0.053326759561897898 0 -0.080876314157704687 -0.04955372347343575 0 -0.082849096915408454 -0.045583035938281863 0 -0.080876314157704687 -0.04955372347343575 0 -0.078708481780428496 -0.048351416250899462 0 -0.082849096915408454 -0.045583035938281863 0 -0.080876314157704687 -0.04955372347343575 0 -0.078708481780428496 -0.048351416250899462 0 -0.077079431972146645 -0.050953682142663811 0 -0.084868245962835154 -0.053326759561897898 0 -0.080876314157704687 -0.04955372347343575 0 -0.077079431972146645 -0.050953682142663811 0 -0.084868245962835154 -0.053326759561897898 0 -0.090746651292135133 -0.048651172445365112 0 -0.082849096915408454 -0.045583035938281863 0 -0.084868245962835154 -0.053326759561897898 0 -0.090333769324138391 -0.059362086744932152 0 -0.090746651292135133 -0.048651172445365112 0 -0.099264754381345577 -0.055060356505970513 0 -0.090333769324138391 -0.059362086744932152 0 -0.090746651292135133 -0.048651172445365112 0 -0.096769769074122519 -0.04215743587210824 0 -0.088481073739883592 -0.043344290748051233 0 -0.083558777677868248 -0.036985518736449702 0 -0.096769769074122519 -0.04215743587210824 0 -0.097427134368436918 -0.027820357899848831 0 -0.077668975178724509 -0.024078573046198169 0 -0.096769769074122519 -0.04215743587210824 0 -0.077668975178724509 -0.024078573046198169 0 -0.083558777677868248 -0.036985518736449702 0 -0.096769769074122519 -0.04215743587210824 0 -0.077668975178724509 -0.024078573046198169 0 -0.090746651292135133 -0.048651172445365112 0 -0.088481073739883592 -0.043344290748051233 0 -0.082849096915408454 -0.045583035938281863 0 -0.096769769074122519 -0.04215743587210824 0 -0.090746651292135133 -0.048651172445365112 0 -0.088481073739883592 -0.043344290748051233 0 -0.077668975178724509 -0.024078573046198169 0 -0.083558777677868248 -0.036985518736449702 0 -0.075465350998538308 -0.032772608828030472 0 -0.083558777677868248 -0.036985518736449702 0 -0.082849096915408454 -0.045583035938281863 0 -0.075062618692292638 -0.040325846155841297 0 -0.088481073739883592 -0.043344290748051233 0 -0.083558777677868248 -0.036985518736449702 0 -0.082849096915408454 -0.045583035938281863 0 -0.082849096915408454 -0.045583035938281863 0 -0.078067002861142085 -0.04575568247049161 0 -0.075062618692292638 -0.040325846155841297 0 -0.078708481780428496 -0.048351416250899462 0 -0.082849096915408454 -0.045583035938281863 0 -0.078067002861142085 -0.04575568247049161 0 -0.075647814056438792 -0.048762431536943832 0 -0.055132092173872667 -0.033226800447327051 0 -0.078067002861142085 -0.04575568247049161 0 -0.075062618692292638 -0.040325846155841297 0 -0.075647814056438792 -0.048762431536943832 0 -0.075062618692292638 -0.040325846155841297 0 -0.075465350998538308 -0.032772608828030472 0 -0.055132092173872667 -0.033226800447327051 0 -0.075647814056438792 -0.048762431536943832 0 -0.061428605263776047 -0.046553119166432878 0 -0.055132092173872667 -0.033226800447327051 0 -0.075062618692292638 -0.040325846155841297 0 -0.075647814056438792 -0.048762431536943832 0 -0.055132092173872667 -0.033226800447327051 0 -0.083558777677868248 -0.036985518736449702 0 -0.075062618692292638 -0.040325846155841297 0 -0.075465350998538308 -0.032772608828030472 0 -0.065722760200719738 -0.052253177456942877 0 -0.075647814056438792 -0.048762431536943832 0 -0.061428605263776047 -0.046553119166432878 0 -0.065722760200719738 -0.052253177456942877 0 -0.07269306068786438 -0.052406879740114577 0 -0.069833853901725543 -0.055329661047837618 0 -0.065722760200719738 -0.052253177456942877 0 -0.07269306068786438 -0.052406879740114577 0 -0.075647814056438792 -0.048762431536943832 0 -0.07269306068786438 -0.052406879740114577 0 -0.073703714626092445 -0.056102563442451223 0 -0.069833853901725543 -0.055329661047837618 0 -0.07269306068786438 -0.052406879740114577 0 -0.077079431972146645 -0.050953682142663811 0 -0.073703714626092445 -0.056102563442451223 0 -0.078708481780428496 -0.048351416250899462 0 -0.077079431972146645 -0.050953682142663811 0 -0.075647814056438792 -0.048762431536943832 0 -0.07269306068786438 -0.052406879740114577 0 -0.077079431972146645 -0.050953682142663811 0 -0.075647814056438792 -0.048762431536943832 0 -0.078708481780428496 -0.048351416250899462 0 -0.078067002861142085 -0.04575568247049161 0 -0.075647814056438792 -0.048762431536943832 0 -0.078535685693175539 -0.061573663464548622 0 -0.073703714626092445 -0.056102563442451223 0 -0.070308423821052124 -0.061023041189074957 0 -0.078535685693175539 -0.061573663464548622 0 -0.077079431972146645 -0.050953682142663811 0 -0.073703714626092445 -0.056102563442451223 0 -0.073703714626092445 -0.056102563442451223 0 -0.070308423821052124 -0.061023041189074957 0 -0.069833853901725543 -0.055329661047837618 0 -0.070308423821052124 -0.061023041189074957 0 -0.064391701294429504 -0.057679717025484439 0 -0.060830035872249492 -0.064558057335980773 0 -0.070308423821052124 -0.061023041189074957 0 -0.069833853901725543 -0.055329661047837618 0 -0.064391701294429504 -0.057679717025484439 0 -0.065722760200719738 -0.052253177456942877 0 -0.069833853901725543 -0.055329661047837618 0 -0.064391701294429504 -0.057679717025484439 0 -0.064391701294429504 -0.057679717025484439 0 -0.055978059279945473 -0.056388284161067823 0 -0.060830035872249492 -0.064558057335980773 0 -0.065722760200719738 -0.052253177456942877 0 -0.064391701294429504 -0.057679717025484439 0 -0.055978059279945473 -0.056388284161067823 0 -0.055978059279945473 -0.056388284161067823 0 -0.041230103293456458 -0.058058117591144771 0 -0.049479852383656611 -0.067543566470139038 0 -0.055978059279945473 -0.056388284161067823 0 -0.049741921456861897 -0.048697412542500033 0 -0.041230103293456458 -0.058058117591144771 0 -0.055978059279945473 -0.056388284161067823 0 -0.049741921456861897 -0.048697412542500033 0 -0.061428605263776047 -0.046553119166432878 0 -0.065722760200719738 -0.052253177456942877 0 -0.055978059279945473 -0.056388284161067823 0 -0.061428605263776047 -0.046553119166432878 0 -0.049741921456861897 -0.048697412542500033 0 -0.061428605263776047 -0.046553119166432878 0 -0.055132092173872667 -0.033226800447327051 0 -0.049741921456861897 -0.048697412542500033 0 -0.055132092173872667 -0.033226800447327051 0 -0.032367863380537598 -0.044965144957206583 0 -0.055132092173872667 -0.033226800447327051 0 -0.032367863380537598 -0.044965144957206583 0 -0.055132092173872667 -0.033226800447327051 0 -0.032367863380537598 -0.044965144957206583 0 -0.031233838643279398 -0.031193199633022049 0 -0.049741921456861897 -0.048697412542500033 0 -0.032367863380537598 -0.044965144957206583 0 -0.041230103293456458 -0.058058117591144771 0 -0.032367863380537598 -0.044965144957206583 0 -0.041230103293456458 -0.058058117591144771 0 -0.026902341230915561 -0.060374551747501753 0 -0.05822397002114936 -0.01402224463886402 0 -0.057836245250817257 0.0062936453779614283 0 -0.044352522143416888 0.0050416822031405977 0 -0.05822397002114936 -0.01402224463886402 0 -0.037926632337863607 -0.0068783069258408786 0 -0.05822397002114936 -0.01402224463886402 0 -0.068462160169621672 0.0025537029525893409 0 -0.057836245250817257 0.0062936453779614283 0 -0.055132092173872667 -0.033226800447327051 0 -0.05822397002114936 -0.01402224463886402 0 -0.036243114184870161 -0.018923029155399909 0 -0.055132092173872667 -0.033226800447327051 0 -0.036243114184870161 -0.018923029155399909 0 -0.031233838643279398 -0.031193199633022049 0 -0.055132092173872667 -0.033226800447327051 0 -0.036243114184870161 -0.018923029155399909 0 -0.05822397002114936 -0.01402224463886402 0 -0.036243114184870161 -0.018923029155399909 0 -0.037926632337863607 -0.0068783069258408786 0 -0.05822397002114936 -0.01402224463886402 0 -0.037926632337863607 -0.0068783069258408786 0 -0.044352522143416888 0.0050416822031405977 0 -0.036243114184870161 -0.018923029155399909 0 -0.037926632337863607 -0.0068783069258408786 0 -0.029121832422534862 -0.0067169982391169078 0 -0.037926632337863607 -0.0068783069258408786 0 -0.029539197120254941 -0.00051038393964639519 0 -0.029121832422534862 -0.0067169982391169078 0 -0.037926632337863607 -0.0068783069258408786 0 -0.029539197120254941 -0.00051038393964639519 0 -0.03614709390981162 0.0015378833132510439 0 -0.037926632337863607 -0.0068783069258408786 0 -0.03614709390981162 0.0015378833132510439 0 -0.044352522143416888 0.0050416822031405977 0 -0.036243114184870161 -0.018923029155399909 0 -0.017354136195868258 -0.0046192578634720229 0 -0.01819617019275287 -0.0061732580868559192 0 -0.036243114184870161 -0.018923029155399909 0 -0.017354136195868258 -0.0046192578634720229 0 -0.029121832422534862 -0.0067169982391169078 0 -0.036243114184870161 -0.018923029155399909 0 -0.01819617019275287 -0.0061732580868559192 0 -0.019637671972121611 -0.02148729346067638 0 -0.036243114184870161 -0.018923029155399909 0 -0.017354136195868258 -0.0046192578634720229 0 -0.017354136195868258 -0.0046192578634720229 0 -0.01819617019275287 -0.0061732580868559192 0 -0.013500839782477779 -0.0058155532537883976 0 -0.017354136195868258 -0.0046192578634720229 0 -0.01819617019275287 -0.0061732580868559192 0 -0.017354136195868258 -0.0046192578634720229 0 -0.024546082273817361 -0.00265401331122534 0 -0.02112675760807068 0.0030512678310729521 0 -0.024546082273817361 -0.00265401331122534 0 -0.029539197120254941 -0.00051038393964639519 0 -0.02112675760807068 0.0030512678310729521 0 -0.017354136195868258 -0.0046192578634720229 0 -0.024546082273817361 -0.00265401331122534 0 -0.029121832422534862 -0.0067169982391169078 0 -0.024546082273817361 -0.00265401331122534 0 -0.029539197120254941 -0.00051038393964639519 0 -0.029121832422534862 -0.0067169982391169078 0 -0.01819617019275287 -0.0061732580868559192 0 -0.019637671972121611 -0.02148729346067638 0 -0.011008321991883009 -0.01057962122923565 0 -0.036243114184870161 -0.018923029155399909 0 -0.019637671972121611 -0.02148729346067638 0 -0.031233838643279398 -0.031193199633022049 0 -0.019637671972121611 -0.02148729346067638 0 -0.031233838643279398 -0.031193199633022049 0 -0.016064986363794779 -0.036441041599790329 0 -0.0077215053668332834 -0.022860670268973711 0 -0.00118246574067416 -0.01324232368796026 0 0.0015263381015913891 -0.033415212413580753 0 -0.0077215053668332834 -0.022860670268973711 0 -0.016064986363794779 -0.036441041599790329 0 0.0015263381015913891 -0.033415212413580753 0 -0.019637671972121611 -0.02148729346067638 0 -0.0077215053668332834 -0.022860670268973711 0 -0.016064986363794779 -0.036441041599790329 0 -0.019637671972121611 -0.02148729346067638 0 -0.0077215053668332834 -0.022860670268973711 0 -0.011008321991883009 -0.01057962122923565 0 -0.011008321991883009 -0.01057962122923565 0 -0.00118246574067416 -0.01324232368796026 0 -0.0072764121498596901 -0.0036325873431357339 0 -0.0077215053668332834 -0.022860670268973711 0 -0.011008321991883009 -0.01057962122923565 0 -0.00118246574067416 -0.01324232368796026 0 -0.00118246574067416 -0.01324232368796026 0 -0.0072764121498596901 -0.0036325873431357339 0 0.0012074066645448821 -0.00065723147797176382 0 -0.0072764121498596901 -0.0036325873431357339 0 -0.013500839782477779 -0.0058155532537883976 0 -0.013607688627124061 -0.00178224205395049 0 -0.011008321991883009 -0.01057962122923565 0 -0.0072764121498596901 -0.0036325873431357339 0 -0.013500839782477779 -0.0058155532537883976 0 -0.01819617019275287 -0.0061732580868559192 0 -0.011008321991883009 -0.01057962122923565 0 -0.013500839782477779 -0.0058155532537883976 0 -0.017354136195868258 -0.0046192578634720229 0 -0.013500839782477779 -0.0058155532537883976 0 -0.013607688627124061 -0.00178224205395049 0 -0.017354136195868258 -0.0046192578634720229 0 -0.013607688627124061 -0.00178224205395049 0 -0.032367863380537598 -0.044965144957206583 0 -0.0096036345872028556 -0.056703489467087059 0 -0.032367863380537598 -0.044965144957206583 0 -0.026902341230915561 -0.060374551747501753 0 -0.0096036345872028556 -0.056703489467087059 0 -0.032367863380537598 -0.044965144957206583 0 -0.031233838643279398 -0.031193199633022049 0 -0.016064986363794779 -0.036441041599790329 0 -0.032367863380537598 -0.044965144957206583 0 -0.016064986363794779 -0.036441041599790329 0 -0.0096036345872028556 -0.056703489467087059 0 -0.0096036345872028556 -0.056703489467087059 0 0.0015263381015913891 -0.033415212413580753 0 -0.016064986363794779 -0.036441041599790329 0 -0.0096036345872028556 -0.056703489467087059 0 0.0015263381015913891 -0.033415212413580753 0 -0.0096036345872028556 -0.056703489467087059 0 0.0015263381015913891 -0.033415212413580753 0 0.007298405735321048 -0.051477207310420908 0 -0.0096036345872028556 -0.056703489467087059 0 0.0052181775422467033 -0.064346337314722044 0 -0.0096036345872028556 -0.056703489467087059 0 -0.0043762627118289626 -0.071729097412358583 0 0.0052181775422467033 -0.064346337314722044 0 -0.0043762627118289626 -0.071729097412358583 0 -0.0092607301227374331 -0.088572496961274561 0 -0.01646375475339092 -0.071057556949349329 0 -0.0096036345872028556 -0.056703489467087059 0 -0.01646375475339092 -0.071057556949349329 0 -0.0096036345872028556 -0.056703489467087059 0 -0.0043762627118289626 -0.071729097412358583 0 -0.01646375475339092 -0.071057556949349329 0 -0.0092607301227374331 -0.088572496961274561 0 -0.00044729776891663488 -0.1011528385718463 0 0.0042106568376920582 -0.081118225430045127 0 -0.0043762627118289626 -0.071729097412358583 0 -0.0092607301227374331 -0.088572496961274561 0 0.0042106568376920582 -0.081118225430045127 0 -0.0092607301227374331 -0.088572496961274561 0 -0.037642160748979789 -0.094071739377162955 0 -0.0092607301227374331 -0.088572496961274561 0 -0.023323874919582349 -0.085411624431610003 0 -0.01646375475339092 -0.071057556949349329 0 -0.0092607301227374331 -0.088572496961274561 0 -0.023323874919582349 -0.085411624431610003 0 -0.037642160748979789 -0.094071739377162955 0 -0.023323874919582349 -0.085411624431610003 0 -0.01646375475339092 -0.071057556949349329 0 -0.023323874919582349 -0.085411624431610003 0 -0.01646375475339092 -0.071057556949349329 0 -0.034846350139989962 -0.07108844977272101 0 -0.026902341230915561 -0.060374551747501753 0 -0.01646375475339092 -0.071057556949349329 0 -0.034846350139989962 -0.07108844977272101 0 -0.026902341230915561 -0.060374551747501753 0 -0.0096036345872028556 -0.056703489467087059 0 -0.01646375475339092 -0.071057556949349329 0 -0.041230103293456458 -0.058058117591144771 0 -0.026902341230915561 -0.060374551747501753 0 -0.034846350139989962 -0.07108844977272101 0 -0.041230103293456458 -0.058058117591144771 0 -0.034846350139989962 -0.07108844977272101 0 -0.049479852383656611 -0.067543566470139038 0 -0.034846350139989962 -0.07108844977272101 0 -0.048784805137481749 -0.081200653853927454 0 -0.049479852383656611 -0.067543566470139038 0 -0.023323874919582349 -0.085411624431610003 0 -0.034846350139989962 -0.07108844977272101 0 -0.036149297736508462 -0.082943116858855345 0 -0.023323874919582349 -0.085411624431610003 0 -0.036149297736508462 -0.082943116858855345 0 -0.037642160748979789 -0.094071739377162955 0 -0.036149297736508462 -0.082943116858855345 0 -0.048784805137481749 -0.081200653853927454 0 -0.037642160748979789 -0.094071739377162955 0 -0.034846350139989962 -0.07108844977272101 0 -0.036149297736508462 -0.082943116858855345 0 -0.048784805137481749 -0.081200653853927454 0 -0.063732237529271596 -0.080733089011810297 0 -0.066023591375222151 -0.09957098179305135 0 -0.048784805137481749 -0.081200653853927454 0 -0.066023591375222151 -0.09957098179305135 0 -0.048784805137481749 -0.081200653853927454 0 -0.037642160748979789 -0.094071739377162955 0 -0.063732237529271596 -0.080733089011810297 0 -0.048784805137481749 -0.081200653853927454 0 -0.058000192015007383 -0.073011667883306972 0 -0.055978059279945473 -0.056388284161067823 0 -0.060830035872249492 -0.064558057335980773 0 -0.049479852383656611 -0.067543566470139038 0 -0.058000192015007383 -0.073011667883306972 0 -0.060830035872249492 -0.064558057335980773 0 -0.049479852383656611 -0.067543566470139038 0 -0.067174029152377468 -0.071022972744677337 0 -0.058000192015007383 -0.073011667883306972 0 -0.060830035872249492 -0.064558057335980773 0 -0.048784805137481749 -0.081200653853927454 0 -0.058000192015007383 -0.073011667883306972 0 -0.049479852383656611 -0.067543566470139038 0 -0.069466171350113709 -0.1135628440840601 0 -0.054384952187449757 -0.110609208962567 0 -0.059238207921678762 -0.13024384051707169 0 -0.054384952187449757 -0.110609208962567 0 -0.059238207921678762 -0.13024384051707169 0 -0.032945469352336033 -0.1293562392835419 0 -0.066023591375222151 -0.09957098179305135 0 -0.054384952187449757 -0.110609208962567 0 -0.037642160748979789 -0.094071739377162955 0 -0.066023591375222151 -0.09957098179305135 0 -0.037642160748979789 -0.094071739377162955 0 -0.054384952187449757 -0.110609208962567 0 -0.037642160748979789 -0.094071739377162955 0 -0.035661083064217503 -0.11124856921529409 0 -0.054384952187449757 -0.110609208962567 0 -0.032945469352336033 -0.1293562392835419 0 -0.054384952187449757 -0.110609208962567 0 -0.035661083064217503 -0.11124856921529409 0 -0.032945469352336033 -0.1293562392835419 0 -0.01767174996810443 -0.1109570892379047 0 -0.012892303975098539 -0.12786221844410239 0 -0.032945469352336033 -0.1293562392835419 0 -0.035661083064217503 -0.11124856921529409 0 -0.01767174996810443 -0.1109570892379047 0 -0.032945469352336033 -0.1293562392835419 0 -0.0092607301227374331 -0.088572496961274561 0 -0.037642160748979789 -0.094071739377162955 0 -0.01767174996810443 -0.1109570892379047 0 -0.037642160748979789 -0.094071739377162955 0 -0.035661083064217503 -0.11124856921529409 0 -0.01767174996810443 -0.1109570892379047 0 -0.01767174996810443 -0.1109570892379047 0 -0.00044729776891663488 -0.1011528385718463 0 0.005085065621477718 -0.1151057880332567 0 -0.0092607301227374331 -0.088572496961274561 0 -0.01767174996810443 -0.1109570892379047 0 -0.00044729776891663488 -0.1011528385718463 0 -0.01767174996810443 -0.1109570892379047 0 -0.012892303975098539 -0.12786221844410239 0 0.005085065621477718 -0.1151057880332567 0 -0.012892303975098539 -0.12786221844410239 0 0.0027021066240326768 -0.1317064378292063 0 0.005085065621477718 -0.1151057880332567 0 -0.011505986517222349 -0.14810326960451681 0 -0.033736789854580403 -0.16402697950055581 0 -0.032945469352336033 -0.1293562392835419 0 -0.012892303975098539 -0.12786221844410239 0 -0.011505986517222349 -0.14810326960451681 0 0.0027021066240326768 -0.1317064378292063 0 -0.011505986517222349 -0.14810326960451681 0 -0.032945469352336033 -0.1293562392835419 0 -0.012892303975098539 -0.12786221844410239 0 -0.011505986517222349 -0.14810326960451681 0 -0.032945469352336033 -0.1293562392835419 0 -0.011505986517222349 -0.14810326960451681 0 0.009933496317892726 -0.16685029992549011 0 -0.011505986517222349 -0.14810326960451681 0 -0.0085976242789068957 -0.177408956520272 0 0.009933496317892726 -0.16685029992549011 0 -0.0085976242789068957 -0.177408956520272 0 -0.003739977245034012 -0.19168309442994089 0 -0.02712874487570623 -0.18796761311505439 0 -0.0085976242789068957 -0.177408956520272 0 -0.003739977245034012 -0.19168309442994089 0 0.0034571977838801569 -0.17702496179755631 0 -0.0085976242789068957 -0.177408956520272 0 -0.02712874487570623 -0.18796761311505439 0 -0.0085976242789068957 -0.177408956520272 0 -0.033736789854580403 -0.16402697950055581 0 -0.02712874487570623 -0.18796761311505439 0 -0.011505986517222349 -0.14810326960451681 0 -0.0085976242789068957 -0.177408956520272 0 -0.033736789854580403 -0.16402697950055581 0 -0.033736789854580403 -0.16402697950055581 0 -0.041678182321736049 -0.18065303021324261 0 -0.02712874487570623 -0.18796761311505439 0 -0.033736789854580403 -0.16402697950055581 0 -0.041678182321736049 -0.18065303021324261 0 -0.060187329084152079 -0.17209125852752319 0 -0.041678182321736049 -0.18065303021324261 0 -0.060187329084152079 -0.17209125852752319 0 -0.045659865472505487 -0.198526269709837 0 -0.060187329084152079 -0.17209125852752319 0 -0.045659865472505487 -0.198526269709837 0 -0.033736789854580403 -0.16402697950055581 0 -0.060187329084152079 -0.17209125852752319 0 -0.051699405537506939 -0.14899167338562519 0 -0.060187329084152079 -0.17209125852752319 0 -0.051699405537506939 -0.14899167338562519 0 -0.072389231474787458 -0.1492400490994332 0 -0.051699405537506939 -0.14899167338562519 0 -0.059238207921678762 -0.13024384051707169 0 -0.072389231474787458 -0.1492400490994332 0 -0.033736789854580403 -0.16402697950055581 0 -0.051699405537506939 -0.14899167338562519 0 -0.032945469352336033 -0.1293562392835419 0 -0.051699405537506939 -0.14899167338562519 0 -0.059238207921678762 -0.13024384051707169 0 -0.032945469352336033 -0.1293562392835419 0 -0.025857267464119819 -0.25506418495113531 0 -0.02368513365757598 -0.23851275990414511 0 -0.036167443228362108 -0.24337299090061551 0 -0.01269776775011346 -0.25850600500130039 0 -0.02368513365757598 -0.23851275990414511 0 -0.01269776775011346 -0.25850600500130039 0 -0.02368513365757598 -0.23851275990414511 0 -0.01082738352359053 -0.24876902592697839 0 -0.02368513365757598 -0.23851275990414511 0 -0.0067432183097289999 -0.239968376336817 0 -0.0090267388034834407 -0.23007068799598671 0 -0.02368513365757598 -0.23851275990414511 0 -0.01082738352359053 -0.24876902592697839 0 -0.0067432183097289999 -0.239968376336817 0 -0.01082738352359053 -0.24876902592697839 0 -0.0029313858115674811 -0.24854412401401971 0 -0.0067432183097289999 -0.239968376336817 0 -0.0029313858115674811 -0.24854412401401971 0 -0.0067432183097289999 -0.239968376336817 0 0.0026199421412959989 -0.2430643023623929 0 -0.0067432183097289999 -0.239968376336817 0 0.0026199421412959989 -0.2430643023623929 0 0.0017465435191736189 -0.23378549097037141 0 -0.0067432183097289999 -0.239968376336817 0 -0.0090267388034834407 -0.23007068799598671 0 0.0017465435191736189 -0.23378549097037141 0 -0.0090267388034834407 -0.23007068799598671 0 -0.00080535468136348092 -0.21995366459000901 0 -0.01839049427805331 -0.2195873775130934 0 -0.0090267388034834407 -0.23007068799598671 0 -0.00080535468136348092 -0.21995366459000901 0 0.0017465435191736189 -0.23378549097037141 0 -0.02368513365757598 -0.23851275990414511 0 -0.0090267388034834407 -0.23007068799598671 0 -0.01839049427805331 -0.2195873775130934 0 -0.02368513365757598 -0.23851275990414511 0 -0.01839049427805331 -0.2195873775130934 0 -0.034672499565036527 -0.2185195148069887 0 -0.02368513365757598 -0.23851275990414511 0 -0.034672499565036527 -0.2185195148069887 0 -0.01839049427805331 -0.2195873775130934 0 -0.027127261386640289 -0.20489204062456881 0 -0.034672499565036527 -0.2185195148069887 0 -0.01839049427805331 -0.2195873775130934 0 -0.027127261386640289 -0.20489204062456881 0 -0.01084996336714465 -0.20584666152463099 0 -0.00080535468136348092 -0.21995366459000901 0 -0.01839049427805331 -0.2195873775130934 0 -0.01084996336714465 -0.20584666152463099 0 -0.00080535468136348092 -0.21995366459000901 0 -0.01084996336714465 -0.20584666152463099 0 0.01016515501406726 -0.20926501301563591 0 -0.01084996336714465 -0.20584666152463099 0 -0.003739977245034012 -0.19168309442994089 0 0.01016515501406726 -0.20926501301563591 0 -0.01084996336714465 -0.20584666152463099 0 -0.003739977245034012 -0.19168309442994089 0 -0.02712874487570623 -0.18796761311505439 0 -0.027127261386640289 -0.20489204062456881 0 -0.01084996336714465 -0.20584666152463099 0 -0.02712874487570623 -0.18796761311505439 0 -0.041678182321736049 -0.18065303021324261 0 -0.02712874487570623 -0.18796761311505439 0 -0.045659865472505487 -0.198526269709837 0 -0.02712874487570623 -0.18796761311505439 0 -0.045659865472505487 -0.198526269709837 0 -0.027127261386640289 -0.20489204062456881 0 -0.02712874487570623 -0.18796761311505439 0 -0.045659865472505487 -0.198526269709837 0 -0.045659865472505487 -0.198526269709837 0 -0.067682806497079445 -0.21107449474949169 0 -0.062708331551170268 -0.19442045911658551 0 -0.060187329084152079 -0.17209125852752319 0 -0.045659865472505487 -0.198526269709837 0 -0.062708331551170268 -0.19442045911658551 0 -0.045659865472505487 -0.198526269709837 0 -0.067682806497079445 -0.21107449474949169 0 -0.045659865472505487 -0.198526269709837 0 -0.054546183461555722 -0.22015285450131489 0 -0.067682806497079445 -0.21107449474949169 0 -0.045659865472505487 -0.198526269709837 0 -0.034672499565036527 -0.2185195148069887 0 -0.054546183461555722 -0.22015285450131489 0 -0.045659865472505487 -0.198526269709837 0 -0.034672499565036527 -0.2185195148069887 0 -0.027127261386640289 -0.20489204062456881 0 -0.045659865472505487 -0.198526269709837 0 -0.034672499565036527 -0.2185195148069887 0 -0.034672499565036527 -0.2185195148069887 0 -0.044145410485190079 -0.23242073182379891 0 -0.054546183461555722 -0.22015285450131489 0 -0.02368513365757598 -0.23851275990414511 0 -0.034672499565036527 -0.2185195148069887 0 -0.044145410485190079 -0.23242073182379891 0 -0.044145410485190079 -0.23242073182379891 0 -0.054546183461555722 -0.22015285450131489 0 -0.061280333386656921 -0.23284462843810469 0 -0.061280333386656921 -0.23284462843810469 0 -0.050191684441297867 -0.2485850187836515 0 -0.071591358857016049 -0.2429226102204386 0 -0.050191684441297867 -0.2485850187836515 0 -0.071591358857016049 -0.2429226102204386 0 -0.056939497423126581 -0.24878681181634871 0 -0.050191684441297867 -0.2485850187836515 0 -0.071591358857016049 -0.2429226102204386 0 -0.044145410485190079 -0.23242073182379891 0 -0.061280333386656921 -0.23284462843810469 0 -0.050191684441297867 -0.2485850187836515 0 -0.041398382443623198 -0.25192549838374201 0 -0.056939497423126581 -0.24878681181634871 0 -0.050191684441297867 -0.2485850187836515 0 -0.044145410485190079 -0.23242073182379891 0 -0.050191684441297867 -0.2485850187836515 0 -0.036167443228362108 -0.24337299090061551 0 -0.02368513365757598 -0.23851275990414511 0 -0.044145410485190079 -0.23242073182379891 0 -0.036167443228362108 -0.24337299090061551 0 -0.025857267464119819 -0.25506418495113531 0 -0.050191684441297867 -0.2485850187836515 0 -0.036167443228362108 -0.24337299090061551 0 -0.097628444613881649 -0.25834262822693399 0 -0.087470553331264578 -0.24262075389877999 0 -0.077955776651182085 -0.24454236002529731 0 -0.087470553331264578 -0.24262075389877999 0 -0.087928467376508473 -0.23859976953689591 0 -0.1005617376665941 -0.23997685579502359 0 -0.087928467376508473 -0.23859976953689591 0 -0.07453604668454375 -0.2421434382925548 0 -0.07383618536286593 -0.22753148747966839 0 -0.087928467376508473 -0.23859976953689591 0 -0.07453604668454375 -0.2421434382925548 0 -0.087928467376508473 -0.23859976953689591 0 -0.077955776651182085 -0.24454236002529731 0 -0.07453604668454375 -0.2421434382925548 0 -0.087470553331264578 -0.24262075389877999 0 -0.087928467376508473 -0.23859976953689591 0 -0.077955776651182085 -0.24454236002529731 0 -0.087470553331264578 -0.24262075389877999 0 -0.077955776651182085 -0.24454236002529731 0 -0.056939497423126581 -0.24878681181634871 0 -0.077955776651182085 -0.24454236002529731 0 -0.071591358857016049 -0.2429226102204386 0 -0.056939497423126581 -0.24878681181634871 0 -0.077955776651182085 -0.24454236002529731 0 -0.077955776651182085 -0.24454236002529731 0 -0.071591358857016049 -0.2429226102204386 0 -0.07453604668454375 -0.2421434382925548 0 -0.077955776651182085 -0.24454236002529731 0 -0.07453604668454375 -0.2421434382925548 0 -0.071591358857016049 -0.2429226102204386 0 -0.07453604668454375 -0.2421434382925548 0 -0.056939497423126581 -0.24878681181634871 0 -0.071591358857016049 -0.2429226102204386 0 -0.061280333386656921 -0.23284462843810469 0 -0.071591358857016049 -0.2429226102204386 0 -0.07453604668454375 -0.2421434382925548 0 -0.061280333386656921 -0.23284462843810469 0 -0.07453604668454375 -0.2421434382925548 0 -0.07383618536286593 -0.22753148747966839 0 -0.089705747521653334 -0.22362271978914661 0 -0.067682806497079445 -0.21107449474949169 0 -0.054546183461555722 -0.22015285450131489 0 -0.061280333386656921 -0.23284462843810469 0 -0.07383618536286593 -0.22753148747966839 0 -0.054546183461555722 -0.22015285450131489 0 -0.07383618536286593 -0.22753148747966839 0 -0.067682806497079445 -0.21107449474949169 0 -0.061280333386656921 -0.23284462843810469 0 -0.07453604668454375 -0.2421434382925548 0 -0.07383618536286593 -0.22753148747966839 0 -0.087928467376508473 -0.23859976953689591 0 -0.07383618536286593 -0.22753148747966839 0 -0.089705747521653334 -0.22362271978914661 0 -0.087928467376508473 -0.23859976953689591 0 -0.089705747521653334 -0.22362271978914661 0 -0.1005617376665941 -0.23997685579502359 0 -0.089705747521653334 -0.22362271978914661 0 -0.067682806497079445 -0.21107449474949169 0 -0.089705747521653334 -0.22362271978914661 0 -0.084027466008495671 -0.20735524824550181 0 -0.09921486728828334 -0.20109800384388701 0 -0.089705747521653334 -0.22362271978914661 0 -0.084027466008495671 -0.20735524824550181 0 -0.067682806497079445 -0.21107449474949169 0 -0.084027466008495671 -0.20735524824550181 0 -0.067682806497079445 -0.21107449474949169 0 -0.079506442726966622 -0.19362577459948219 0 -0.067682806497079445 -0.21107449474949169 0 -0.062708331551170268 -0.19442045911658551 0 -0.079506442726966622 -0.19362577459948219 0 -0.079506442726966622 -0.19362577459948219 0 -0.09921486728828334 -0.20109800384388701 0 -0.089369030920126963 -0.1732707743578942 0 -0.084027466008495671 -0.20735524824550181 0 -0.079506442726966622 -0.19362577459948219 0 -0.09921486728828334 -0.20109800384388701 0 -0.09921486728828334 -0.20109800384388701 0 -0.1156293974943295 -0.1822747327150937 0 -0.1210853022939376 -0.205467400633562 0 -0.1156293974943295 -0.1822747327150937 0 -0.13505851963374399 -0.18906788910329131 0 -0.09921486728828334 -0.20109800384388701 0 -0.1210853022939376 -0.205467400633562 0 -0.1156293974943295 -0.1822747327150937 0 -0.1210853022939376 -0.205467400633562 0 -0.10755849924533691 -0.2178899443088799 0 -0.11989889803527461 -0.22145143588075511 0 -0.1210853022939376 -0.205467400633562 0 -0.11989889803527461 -0.22145143588075511 0 -0.13086176299679239 -0.21746526838305219 0 -0.089705747521653334 -0.22362271978914661 0 -0.09921486728828334 -0.20109800384388701 0 -0.10755849924533691 -0.2178899443088799 0 -0.09921486728828334 -0.20109800384388701 0 -0.1210853022939376 -0.205467400633562 0 -0.10755849924533691 -0.2178899443088799 0 -0.089705747521653334 -0.22362271978914661 0 -0.11172868854622731 -0.23617094482880149 0 -0.1005617376665941 -0.23997685579502359 0 -0.089705747521653334 -0.22362271978914661 0 -0.11172868854622731 -0.23617094482880149 0 -0.089705747521653334 -0.22362271978914661 0 -0.10755849924533691 -0.2178899443088799 0 -0.11172868854622731 -0.23617094482880149 0 -0.11989889803527461 -0.22145143588075511 0 -0.11172868854622731 -0.23617094482880149 0 -0.127825895831608 -0.22987551408160201 0 -0.10755849924533691 -0.2178899443088799 0 -0.11989889803527461 -0.22145143588075511 0 -0.11172868854622731 -0.23617094482880149 0 -0.13218950310710981 -0.25272660122947088 0 -0.1218823470606431 -0.24640061544388489 0 -0.1098930818979398 -0.24798588601512411 0 -0.11172868854622731 -0.23617094482880149 0 -0.13375162957080131 -0.24871916986845621 0 -0.11172868854622731 -0.23617094482880149 0 -0.1218823470606431 -0.24640061544388489 0 -0.13375162957080131 -0.24871916986845621 0 -0.11172868854622731 -0.23617094482880149 0 -0.13375162957080131 -0.24871916986845621 0 -0.127825895831608 -0.22987551408160201 0 -0.11172868854622731 -0.23617094482880149 0 -0.1218823470606431 -0.24640061544388489 0 -0.1098930818979398 -0.24798588601512411 0 -0.097628444613881649 -0.25834262822693399 0 -0.087470553331264578 -0.24262075389877999 0 -0.1098930818979398 -0.24798588601512411 0 -0.087470553331264578 -0.24262075389877999 0 -0.1098930818979398 -0.24798588601512411 0 -0.1005617376665941 -0.23997685579502359 0 -0.087470553331264578 -0.24262075389877999 0 -0.1098930818979398 -0.24798588601512411 0 -0.11172868854622731 -0.23617094482880149 0 -0.1098930818979398 -0.24798588601512411 0 -0.1005617376665941 -0.23997685579502359 0 -0.087470553331264578 -0.24262075389877999 0 -0.1005617376665941 -0.23997685579502359 0 -0.072389231474787458 -0.1492400490994332 0 -0.089369030920126963 -0.1732707743578942 0 -0.096011965921864201 -0.14265464397282879 0 -0.077516787342341589 -0.1242022911324857 0 -0.093262550211769629 -0.1231040070079162 0 -0.096011965921864201 -0.14265464397282879 0 -0.077516787342341589 -0.1242022911324857 0 -0.072389231474787458 -0.1492400490994332 0 -0.096011965921864201 -0.14265464397282879 0 -0.077516787342341589 -0.1242022911324857 0 -0.059238207921678762 -0.13024384051707169 0 -0.072389231474787458 -0.1492400490994332 0 -0.060187329084152079 -0.17209125852752319 0 -0.072389231474787458 -0.1492400490994332 0 -0.089369030920126963 -0.1732707743578942 0 -0.060187329084152079 -0.17209125852752319 0 -0.079506442726966622 -0.19362577459948219 0 -0.089369030920126963 -0.1732707743578942 0 -0.060187329084152079 -0.17209125852752319 0 -0.062708331551170268 -0.19442045911658551 0 -0.079506442726966622 -0.19362577459948219 0 -0.089369030920126963 -0.1732707743578942 0 -0.1107512355661594 -0.16096683979900789 0 -0.096011965921864201 -0.14265464397282879 0 -0.09921486728828334 -0.20109800384388701 0 -0.089369030920126963 -0.1732707743578942 0 -0.1156293974943295 -0.1822747327150937 0 -0.089369030920126963 -0.1732707743578942 0 -0.1156293974943295 -0.1822747327150937 0 -0.1107512355661594 -0.16096683979900789 0 -0.1156293974943295 -0.1822747327150937 0 -0.13204392770037571 -0.1634514615863005 0 -0.1156293974943295 -0.1822747327150937 0 -0.1107512355661594 -0.16096683979900789 0 -0.13204392770037571 -0.1634514615863005 0 -0.1107512355661594 -0.16096683979900789 0 -0.12070185579410091 -0.1431825863629223 0 -0.13204392770037571 -0.1634514615863005 0 -0.1107512355661594 -0.16096683979900789 0 -0.12070185579410091 -0.1431825863629223 0 -0.096011965921864201 -0.14265464397282879 0 -0.1071147179002416 -0.1244919901550422 0 -0.12070185579410091 -0.1431825863629223 0 -0.096011965921864201 -0.14265464397282879 0 -0.093262550211769629 -0.1231040070079162 0 -0.1071147179002416 -0.1244919901550422 0 -0.096011965921864201 -0.14265464397282879 0 -0.1071147179002416 -0.1244919901550422 0 -0.12070185579410091 -0.1431825863629223 0 -0.1306137014228527 -0.1212095633787966 0 -0.12070185579410091 -0.1431825863629223 0 -0.14845845790642179 -0.14462819045750719 0 -0.1306137014228527 -0.1212095633787966 0 -0.14845845790642179 -0.14462819045750719 0 -0.1306137014228527 -0.1212095633787966 0 -0.15036797716661271 -0.14243845987679379 0 -0.14845845790642179 -0.14462819045750719 0 -0.1306137014228527 -0.1212095633787966 0 -0.15406265534163929 -0.1294064941378926 0 -0.15036797716661271 -0.14243845987679379 0 -0.1306137014228527 -0.1212095633787966 0 -0.15406265534163929 -0.1294064941378926 0 -0.15036797716661271 -0.14243845987679379 0 -0.1564494690737798 -0.13971242061594299 0 -0.1543278084257422 -0.1453912472931165 0 -0.14845845790642179 -0.14462819045750719 0 -0.15894149653025619 -0.15184230729274609 0 -0.15519343748037609 -0.14309809199123349 0 -0.15036797716661271 -0.14243845987679379 0 -0.1564494690737798 -0.13971242061594299 0 -0.1543278084257422 -0.1453912472931165 0 -0.15519343748037609 -0.14309809199123349 0 -0.15036797716661271 -0.14243845987679379 0 -0.1543278084257422 -0.1453912472931165 0 -0.15036797716661271 -0.14243845987679379 0 -0.14845845790642179 -0.14462819045750719 0 -0.15036797716661271 -0.14243845987679379 0 -0.14845845790642179 -0.14462819045750719 0 -0.12070185579410091 -0.1431825863629223 0 -0.14845845790642179 -0.14462819045750719 0 -0.13204392770037571 -0.1634514615863005 0 -0.14845845790642179 -0.14462819045750719 0 -0.13204392770037571 -0.1634514615863005 0 -0.13204392770037571 -0.1634514615863005 0 -0.1475860696211248 -0.17640031700015249 0 -0.13505851963374399 -0.18906788910329131 0 -0.1156293974943295 -0.1822747327150937 0 -0.13204392770037571 -0.1634514615863005 0 -0.13505851963374399 -0.18906788910329131 0 -0.1475860696211248 -0.17640031700015249 0 -0.1655722477793394 -0.1670875310098065 0 -0.15496537504316019 -0.19429807729602311 0 -0.1475860696211248 -0.17640031700015249 0 -0.13505851963374399 -0.18906788910329131 0 -0.15496537504316019 -0.19429807729602311 0 -0.1475860696211248 -0.17640031700015249 0 -0.14862352044039201 -0.16347018067920821 0 -0.1655722477793394 -0.1670875310098065 0 -0.14845845790642179 -0.14462819045750719 0 -0.13204392770037571 -0.1634514615863005 0 -0.14862352044039201 -0.16347018067920821 0 -0.14845845790642179 -0.14462819045750719 0 -0.14862352044039201 -0.16347018067920821 0 -0.1655722477793394 -0.1670875310098065 0 -0.13204392770037571 -0.1634514615863005 0 -0.1475860696211248 -0.17640031700015249 0 -0.14862352044039201 -0.16347018067920821 0 -0.1655722477793394 -0.1670875310098065 0 -0.1716614177265566 -0.15146656102038991 0 -0.1655722477793394 -0.1670875310098065 0 -0.15894149653025619 -0.15184230729274609 0 -0.1716614177265566 -0.15146656102038991 0 -0.1655722477793394 -0.1670875310098065 0 -0.17557921295501691 -0.18022020591375351 0 -0.1689483943248192 -0.19264195369377959 0 -0.1655722477793394 -0.1670875310098065 0 -0.15496537504316019 -0.19429807729602311 0 -0.1689483943248192 -0.19264195369377959 0 -0.1655722477793394 -0.1670875310098065 0 -0.15496537504316019 -0.19429807729602311 0 -0.1655722477793394 -0.1670875310098065 0 -0.17557921295501691 -0.18022020591375351 0 -0.17557921295501691 -0.18022020591375351 0 -0.18239484980351819 -0.16464781923938721 0 -0.1907059301477185 -0.18468107337543721 0 -0.1655722477793394 -0.1670875310098065 0 -0.17557921295501691 -0.18022020591375351 0 -0.18239484980351819 -0.16464781923938721 0 -0.1655722477793394 -0.1670875310098065 0 -0.18239484980351819 -0.16464781923938721 0 -0.1716614177265566 -0.15146656102038991 0 -0.18239484980351819 -0.16464781923938721 0 -0.1716614177265566 -0.15146656102038991 0 -0.1894311146879058 -0.1465309504005988 0 -0.17775058767377289 -0.13584559103097291 0 -0.1716614177265566 -0.15146656102038991 0 -0.1894311146879058 -0.1465309504005988 0 -0.17775058767377289 -0.13584559103097291 0 -0.1716614177265566 -0.15146656102038991 0 -0.17775058767377289 -0.13584559103097291 0 -0.1894311146879058 -0.1465309504005988 0 -0.17775058767377289 -0.13584559103097291 0 -0.19823449762692411 -0.13229999761030051 0 -0.18534812722118199 -0.1163550958908785 0 -0.17775058767377289 -0.13584559103097291 0 -0.18534812722118199 -0.1163550958908785 0 -0.15406265534163929 -0.1294064941378926 0 -0.16394560233522651 -0.1386698702264933 0 -0.15606779039194271 -0.1160101434681408 0 -0.17775058767377289 -0.13584559103097291 0 -0.16394560233522651 -0.1386698702264933 0 -0.15606779039194271 -0.1160101434681408 0 -0.17775058767377289 -0.13584559103097291 0 -0.15606779039194271 -0.1160101434681408 0 -0.15406265534163929 -0.1294064941378926 0 -0.16394560233522651 -0.1386698702264933 0 -0.1564494690737798 -0.13971242061594299 0 -0.16394560233522651 -0.1386698702264933 0 -0.1564494690737798 -0.13971242061594299 0 -0.15962849525536979 -0.1448502401790808 0 -0.14845845790642179 -0.14462819045750719 0 -0.1655722477793394 -0.1670875310098065 0 -0.14845845790642179 -0.14462819045750719 0 -0.1655722477793394 -0.1670875310098065 0 -0.15894149653025619 -0.15184230729274609 0 -0.15519343748037609 -0.14309809199123349 0 -0.1564494690737798 -0.13971242061594299 0 -0.15962849525536979 -0.1448502401790808 0 -0.1543278084257422 -0.1453912472931165 0 -0.15519343748037609 -0.14309809199123349 0 -0.15962849525536979 -0.1448502401790808 0 -0.1543278084257422 -0.1453912472931165 0 -0.15962849525536979 -0.1448502401790808 0 -0.15894149653025619 -0.15184230729274609 0 -0.15962849525536979 -0.1448502401790808 0 -0.15894149653025619 -0.15184230729274609 0 -0.1716614177265566 -0.15146656102038991 0 -0.17775058767377289 -0.13584559103097291 0 -0.16394560233522651 -0.1386698702264933 0 -0.1716614177265566 -0.15146656102038991 0 -0.16394560233522651 -0.1386698702264933 0 -0.15962849525536979 -0.1448502401790808 0 -0.1716614177265566 -0.15146656102038991 0 -0.1534429259631987 -0.25724555178864622 0 -0.15289321433053751 -0.246830478479277 0 -0.1378886282313006 -0.2381062402767252 0 -0.1534429259631987 -0.25724555178864622 0 -0.1378886282313006 -0.2381062402767252 0 -0.15348527020851541 -0.23913552791147211 0 -0.1378886282313006 -0.2381062402767252 0 -0.15430752157141919 -0.22794821467022949 0 -0.15289321433053751 -0.246830478479277 0 -0.15348527020851541 -0.23913552791147211 0 -0.1601832428566283 -0.24550858739866141 0 -0.15289321433053751 -0.246830478479277 0 -0.15348527020851541 -0.23913552791147211 0 -0.1378886282313006 -0.2381062402767252 0 -0.1459019403517107 -0.25564217047089421 0 -0.13375162957080131 -0.24871916986845621 0 -0.1378886282313006 -0.2381062402767252 0 -0.13375162957080131 -0.24871916986845621 0 -0.1378886282313006 -0.2381062402767252 0 -0.127825895831608 -0.22987551408160201 0 -0.13375162957080131 -0.24871916986845621 0 -0.1378886282313006 -0.2381062402767252 0 -0.13218950310710981 -0.25272660122947088 0 -0.1218823470606431 -0.24640061544388489 0 -0.13375162957080131 -0.24871916986845621 0 -0.127825895831608 -0.22987551408160201 0 -0.14435850230698141 -0.22150862358223991 0 -0.13086176299679239 -0.21746526838305219 0 -0.1378886282313006 -0.2381062402767252 0 -0.127825895831608 -0.22987551408160201 0 -0.14435850230698141 -0.22150862358223991 0 -0.11989889803527461 -0.22145143588075511 0 -0.127825895831608 -0.22987551408160201 0 -0.13086176299679239 -0.21746526838305219 0 -0.1378886282313006 -0.2381062402767252 0 -0.14435850230698141 -0.22150862358223991 0 -0.14435850230698141 -0.22150862358223991 0 -0.15430752157141919 -0.22794821467022949 0 -0.16410544360365359 -0.21493654602220469 0 -0.1378886282313006 -0.2381062402767252 0 -0.14435850230698141 -0.22150862358223991 0 -0.15430752157141919 -0.22794821467022949 0 -0.14435850230698141 -0.22150862358223991 0 -0.15496537504316019 -0.19429807729602311 0 -0.14435850230698141 -0.22150862358223991 0 -0.1373527607074172 -0.20563907323320921 0 -0.15496537504316019 -0.19429807729602311 0 -0.14435850230698141 -0.22150862358223991 0 -0.15496537504316019 -0.19429807729602311 0 -0.16410544360365359 -0.21493654602220469 0 -0.14435850230698141 -0.22150862358223991 0 -0.1373527607074172 -0.20563907323320921 0 -0.13086176299679239 -0.21746526838305219 0 -0.1210853022939376 -0.205467400633562 0 -0.1373527607074172 -0.20563907323320921 0 -0.13086176299679239 -0.21746526838305219 0 -0.1210853022939376 -0.205467400633562 0 -0.1373527607074172 -0.20563907323320921 0 -0.13505851963374399 -0.18906788910329131 0 -0.1373527607074172 -0.20563907323320921 0 -0.13505851963374399 -0.18906788910329131 0 -0.15496537504316019 -0.19429807729602311 0 -0.1689483943248192 -0.19264195369377959 0 -0.17994482166635981 -0.2014366202218163 0 -0.16410544360365359 -0.21493654602220469 0 -0.15496537504316019 -0.19429807729602311 0 -0.1689483943248192 -0.19264195369377959 0 -0.16410544360365359 -0.21493654602220469 0 -0.17557921295501691 -0.18022020591375351 0 -0.1689483943248192 -0.19264195369377959 0 -0.17994482166635981 -0.2014366202218163 0 -0.17557921295501691 -0.18022020591375351 0 -0.17994482166635981 -0.2014366202218163 0 -0.1907059301477185 -0.18468107337543721 0 -0.17994482166635981 -0.2014366202218163 0 -0.1784102433228649 -0.21681777692650089 0 -0.16410544360365359 -0.21493654602220469 0 -0.17994482166635981 -0.2014366202218163 0 -0.18904495760185211 -0.20873870471059999 0 -0.19252771524915421 -0.19930647688205899 0 -0.17994482166635981 -0.2014366202218163 0 -0.1784102433228649 -0.21681777692650089 0 -0.18904495760185211 -0.20873870471059999 0 -0.1784102433228649 -0.21681777692650089 0 -0.19175951728552271 -0.21959172261586679 0 -0.18904495760185211 -0.20873870471059999 0 -0.15430752157141919 -0.22794821467022949 0 -0.16410544360365359 -0.21493654602220469 0 -0.16877954452522659 -0.2255120540677526 0 -0.15430752157141919 -0.22794821467022949 0 -0.16877954452522659 -0.2255120540677526 0 -0.16324537569009509 -0.2357306359809743 0 -0.15348527020851541 -0.23913552791147211 0 -0.15430752157141919 -0.22794821467022949 0 -0.16324537569009509 -0.2357306359809743 0 -0.16877954452522659 -0.2255120540677526 0 -0.17781387366555559 -0.23090770197000129 0 -0.16324537569009509 -0.2357306359809743 0 -0.1784102433228649 -0.21681777692650089 0 -0.16410544360365359 -0.21493654602220469 0 -0.16877954452522659 -0.2255120540677526 0 -0.1784102433228649 -0.21681777692650089 0 -0.16877954452522659 -0.2255120540677526 0 -0.17781387366555559 -0.23090770197000129 0 -0.1784102433228649 -0.21681777692650089 0 -0.17781387366555559 -0.23090770197000129 0 -0.19175951728552271 -0.21959172261586679 0 -0.17781387366555559 -0.23090770197000129 0 -0.1805311654956796 -0.2411950136452527 0 -0.19410287643929239 -0.23312434657521411 0 -0.17781387366555559 -0.23090770197000129 0 -0.1805311654956796 -0.2411950136452527 0 -0.16955513552828311 -0.24305067226283769 0 -0.17679077873490559 -0.25046109420941731 0 -0.1805311654956796 -0.2411950136452527 0 -0.18863044441395099 -0.24733650333174401 0 -0.17679077873490559 -0.25046109420941731 0 -0.1805311654956796 -0.2411950136452527 0 -0.16955513552828311 -0.24305067226283769 0 -0.16709258238786229 -0.25188408856254202 0 -0.17679077873490559 -0.25046109420941731 0 -0.16955513552828311 -0.24305067226283769 0 -0.16709258238786229 -0.25188408856254202 0 -0.16955513552828311 -0.24305067226283769 0 -0.1601832428566283 -0.24550858739866141 0 -0.17781387366555559 -0.23090770197000129 0 -0.16955513552828311 -0.24305067226283769 0 -0.16324537569009509 -0.2357306359809743 0 -0.16955513552828311 -0.24305067226283769 0 -0.16324537569009509 -0.2357306359809743 0 -0.1601832428566283 -0.24550858739866141 0 -0.15348527020851541 -0.23913552791147211 0 -0.16324537569009509 -0.2357306359809743 0 -0.1601832428566283 -0.24550858739866141 0 -0.1593809120407062 -0.25278805690175971 0 -0.15289321433053751 -0.246830478479277 0 -0.1601832428566283 -0.24550858739866141 0 -0.20565562739327201 -0.24334207984173631 0 -0.19410287643929239 -0.23312434657521411 0 -0.21201774175915139 -0.2290986139018284 0 -0.21472073189145299 -0.25725591714607071 0 -0.20565562739327201 -0.24334207984173631 0 -0.22837296648480071 -0.23789375384220129 0 -0.20565562739327201 -0.24334207984173631 0 -0.21201774175915139 -0.2290986139018284 0 -0.22837296648480071 -0.23789375384220129 0 -0.20565562739327201 -0.24334207984173631 0 -0.18863044441395099 -0.24733650333174401 0 -0.19410287643929239 -0.23312434657521411 0 -0.1805311654956796 -0.2411950136452527 0 -0.18863044441395099 -0.24733650333174401 0 -0.19410287643929239 -0.23312434657521411 0 -0.17781387366555559 -0.23090770197000129 0 -0.19410287643929239 -0.23312434657521411 0 -0.19175951728552271 -0.21959172261586679 0 -0.19410287643929239 -0.23312434657521411 0 -0.19175951728552271 -0.21959172261586679 0 -0.20443040571370949 -0.21985141578154491 0 -0.21201774175915139 -0.2290986139018284 0 -0.20443040571370949 -0.21985141578154491 0 -0.22630383013383959 -0.21240708539258099 0 -0.19410287643929239 -0.23312434657521411 0 -0.21201774175915139 -0.2290986139018284 0 -0.20443040571370949 -0.21985141578154491 0 -0.20157622681128409 -0.2075672839719423 0 -0.21557055542943429 -0.1904257004922347 0 -0.22630383013383959 -0.21240708539258099 0 -0.20157622681128409 -0.2075672839719423 0 -0.22630383013383959 -0.21240708539258099 0 -0.20443040571370949 -0.21985141578154491 0 -0.20157622681128409 -0.2075672839719423 0 -0.22630383013383959 -0.21240708539258099 0 -0.19175951728552271 -0.21959172261586679 0 -0.20443040571370949 -0.21985141578154491 0 -0.20157622681128409 -0.2075672839719423 0 -0.19175951728552271 -0.21959172261586679 0 -0.20157622681128409 -0.2075672839719423 0 -0.19175951728552271 -0.21959172261586679 0 -0.18904495760185211 -0.20873870471059999 0 -0.20157622681128409 -0.2075672839719423 0 -0.18904495760185211 -0.20873870471059999 0 -0.20157622681128409 -0.2075672839719423 0 -0.19252771524915421 -0.19930647688205899 0 -0.17994482166635981 -0.2014366202218163 0 -0.19252771524915421 -0.19930647688205899 0 -0.1907059301477185 -0.18468107337543721 0 -0.20157622681128409 -0.2075672839719423 0 -0.19252771524915421 -0.19930647688205899 0 -0.20187756758401409 -0.19506767240709361 0 -0.19252771524915421 -0.19930647688205899 0 -0.20187756758401409 -0.19506767240709361 0 -0.1907059301477185 -0.18468107337543721 0 -0.20157622681128409 -0.2075672839719423 0 -0.21557055542943429 -0.1904257004922347 0 -0.20187756758401409 -0.19506767240709361 0 -0.21557055542943429 -0.1904257004922347 0 -0.2038146335316797 -0.1820121315948606 0 -0.20157622681128409 -0.2075672839719423 0 -0.20187756758401409 -0.19506767240709361 0 -0.21557055542943429 -0.1904257004922347 0 -0.21557055542943429 -0.1904257004922347 0 -0.23533053747689989 -0.1962925907305976 0 -0.22630383013383959 -0.21240708539258099 0 -0.23533053747689989 -0.1962925907305976 0 -0.25103143345639523 -0.21724688681321891 0 -0.25418198431724581 -0.18809916394242601 0 -0.22630383013383959 -0.21240708539258099 0 -0.25103143345639523 -0.21724688681321891 0 -0.23533053747689989 -0.1962925907305976 0 -0.22630383013383959 -0.21240708539258099 0 -0.25103143345639523 -0.21724688681321891 0 -0.21201774175915139 -0.2290986139018284 0 -0.22630383013383959 -0.21240708539258099 0 -0.22837296648480071 -0.23789375384220129 0 -0.22630383013383959 -0.21240708539258099 0 -0.22837296648480071 -0.23789375384220129 0 -0.25103143345639523 -0.21724688681321891 0 -0.22837296648480071 -0.23789375384220129 0 -0.25431856302814809 -0.24833495949118861 0 -0.25103143345639523 -0.21724688681321891 0 -0.2335542019388327 -0.26090262277066528 0 -0.22837296648480071 -0.23789375384220129 0 -0.25431856302814809 -0.24833495949118861 0 -0.20708483324238849 -0.15128624944667929 0 -0.22647357207813959 -0.15205360930679629 0 -0.2195633859389316 -0.1340578990397249 0 -0.20708483324238849 -0.15128624944667929 0 -0.19823449762692411 -0.13229999761030051 0 -0.2195633859389316 -0.1340578990397249 0 -0.19823449762692411 -0.13229999761030051 0 -0.2195633859389316 -0.1340578990397249 0 -0.21022893699736381 -0.1097241998529486 0 -0.17775058767377289 -0.13584559103097291 0 -0.19823449762692411 -0.13229999761030051 0 -0.1894311146879058 -0.1465309504005988 0 -0.20708483324238849 -0.15128624944667929 0 -0.1894311146879058 -0.1465309504005988 0 -0.19351686899232889 -0.15854259719770419 0 -0.20708483324238849 -0.15128624944667929 0 -0.19823449762692411 -0.13229999761030051 0 -0.1894311146879058 -0.1465309504005988 0 -0.20708483324238849 -0.15128624944667929 0 -0.19351686899232889 -0.15854259719770419 0 -0.19880271024428661 -0.17007658736909009 0 -0.18239484980351819 -0.16464781923938721 0 -0.1894311146879058 -0.1465309504005988 0 -0.19351686899232889 -0.15854259719770419 0 -0.18239484980351819 -0.16464781923938721 0 -0.19351686899232889 -0.15854259719770419 0 -0.19880271024428661 -0.17007658736909009 0 -0.18239484980351819 -0.16464781923938721 0 -0.19880271024428661 -0.17007658736909009 0 -0.1907059301477185 -0.18468107337543721 0 -0.19880271024428661 -0.17007658736909009 0 -0.1907059301477185 -0.18468107337543721 0 -0.2038146335316797 -0.1820121315948606 0 -0.20187756758401409 -0.19506767240709361 0 -0.1907059301477185 -0.18468107337543721 0 -0.2038146335316797 -0.1820121315948606 0 -0.21557055542943429 -0.1904257004922347 0 -0.2038146335316797 -0.1820121315948606 0 -0.21355186476225221 -0.16985639920369799 0 -0.19880271024428661 -0.17007658736909009 0 -0.2038146335316797 -0.1820121315948606 0 -0.21355186476225221 -0.16985639920369799 0 -0.20708483324238849 -0.15128624944667929 0 -0.21355186476225221 -0.16985639920369799 0 -0.22647357207813959 -0.15205360930679629 0 -0.20708483324238849 -0.15128624944667929 0 -0.19880271024428661 -0.17007658736909009 0 -0.21355186476225221 -0.16985639920369799 0 -0.22956488404758479 -0.1732841170125273 0 -0.2435592126657353 -0.1561425335328199 0 -0.22647357207813959 -0.15205360930679629 0 -0.21355186476225221 -0.16985639920369799 0 -0.22956488404758479 -0.1732841170125273 0 -0.22647357207813959 -0.15205360930679629 0 -0.21557055542943429 -0.1904257004922347 0 -0.21355186476225221 -0.16985639920369799 0 -0.22956488404758479 -0.1732841170125273 0 -0.21557055542943429 -0.1904257004922347 0 -0.22956488404758479 -0.1732841170125273 0 -0.21557055542943429 -0.1904257004922347 0 -0.23533053747689989 -0.1962925907305976 0 -0.22956488404758479 -0.1732841170125273 0 -0.23533053747689989 -0.1962925907305976 0 -0.22956488404758479 -0.1732841170125273 0 -0.25418198431724581 -0.18809916394242601 0 -0.22956488404758479 -0.1732841170125273 0 -0.25418198431724581 -0.18809916394242601 0 -0.2565438833259911 -0.1687602707777138 0 -0.22956488404758479 -0.1732841170125273 0 -0.2435592126657353 -0.1561425335328199 0 -0.22956488404758479 -0.1732841170125273 0 -0.2435592126657353 -0.1561425335328199 0 -0.2565438833259911 -0.1687602707777138 0 -0.2435592126657353 -0.1561425335328199 0 -0.22647357207813959 -0.15205360930679629 0 -0.2432602079730701 -0.13485583854350039 0 -0.22647357207813959 -0.15205360930679629 0 -0.2195633859389316 -0.1340578990397249 0 -0.2432602079730701 -0.13485583854350039 0 -0.2195633859389316 -0.1340578990397249 0 -0.2432602079730701 -0.13485583854350039 0 -0.23065476516460279 -0.11957242830579699 0 -0.2432602079730701 -0.13485583854350039 0 -0.2499653418643101 -0.1102460646797562 0 -0.23065476516460279 -0.11957242830579699 0 -0.2499653418643101 -0.1102460646797562 0 -0.2308399038819596 -0.1034577205422559 0 -0.23065476516460279 -0.11957242830579699 0 -0.2308399038819596 -0.1034577205422559 0 -0.25308440776240432 -0.086371671251396109 0 -0.2499653418643101 -0.1102460646797562 0 -0.2308399038819596 -0.1034577205422559 0 -0.25308440776240432 -0.086371671251396109 0 -0.2308399038819596 -0.1034577205422559 0 -0.21022893699736381 -0.1097241998529486 0 -0.21520721362926831 -0.098298511723915558 0 -0.2308399038819596 -0.1034577205422559 0 -0.22013457808717909 -0.089221868029860679 0 -0.21520721362926831 -0.098298511723915558 0 -0.2308399038819596 -0.1034577205422559 0 -0.23065476516460279 -0.11957242830579699 0 -0.21022893699736381 -0.1097241998529486 0 -0.2195633859389316 -0.1340578990397249 0 -0.23065476516460279 -0.11957242830579699 0 -0.21022893699736381 -0.1097241998529486 0 -0.2335598957907816 -0.079883889973887123 0 -0.24475965461883589 -0.059498385283178377 0 -0.2582325144520296 -0.070050845257802419 0 -0.2335598957907816 -0.079883889973887123 0 -0.2582325144520296 -0.070050845257802419 0 -0.25308440776240432 -0.086371671251396109 0 -0.2308399038819596 -0.1034577205422559 0 -0.2335598957907816 -0.079883889973887123 0 -0.25308440776240432 -0.086371671251396109 0 -0.2308399038819596 -0.1034577205422559 0 -0.22013457808717909 -0.089221868029860679 0 -0.2335598957907816 -0.079883889973887123 0 -0.22013457808717909 -0.089221868029860679 0 -0.2335598957907816 -0.079883889973887123 0 -0.21963876375789801 -0.077814354495200549 0 -0.2335598957907816 -0.079883889973887123 0 -0.21595644614104051 -0.065738508165203102 0 -0.24475965461883589 -0.059498385283178377 0 -0.21595644614104051 -0.065738508165203102 0 -0.24475965461883589 -0.059498385283178377 0 -0.2335598957907816 -0.079883889973887123 0 -0.21963876375789801 -0.077814354495200549 0 -0.21595644614104051 -0.065738508165203102 0 -0.20438945881064449 -0.068244458930106389 0 -0.21100771399754009 -0.086966924160961745 0 -0.21595644614104051 -0.065738508165203102 0 -0.21100771399754009 -0.086966924160961745 0 -0.20438945881064449 -0.068244458930106389 0 -0.21595644614104051 -0.065738508165203102 0 -0.21100771399754009 -0.086966924160961745 0 -0.21963876375789801 -0.077814354495200549 0 -0.21595644614104051 -0.065738508165203102 0 -0.21100771399754009 -0.086966924160961745 0 -0.20438945881064449 -0.068244458930106389 0 -0.21595644614104051 -0.065738508165203102 0 -0.20438945881064449 -0.068244458930106389 0 -0.21595644614104051 -0.065738508165203102 0 -0.20711132549122371 -0.057203435059411119 0 -0.20438945881064449 -0.068244458930106389 0 -0.21100771399754009 -0.086966924160961745 0 -0.19851231957361129 -0.085310821531315487 0 -0.22013457808717909 -0.089221868029860679 0 -0.21963876375789801 -0.077814354495200549 0 -0.21100771399754009 -0.086966924160961745 0 -0.22013457808717909 -0.089221868029860679 0 -0.21100771399754009 -0.086966924160961745 0 -0.21520721362926831 -0.098298511723915558 0 -0.21100771399754009 -0.086966924160961745 0 -0.19851231957361129 -0.085310821531315487 0 -0.20550431009004061 -0.095676697317907802 0 -0.21100771399754009 -0.086966924160961745 0 -0.21520721362926831 -0.098298511723915558 0 -0.20550431009004061 -0.095676697317907802 0 -0.19851231957361129 -0.085310821531315487 0 -0.18118326058104209 -0.08825419183970401 0 -0.18409944718507371 -0.07264022497537044 0 -0.19851231957361129 -0.085310821531315487 0 -0.19294566676858971 -0.096864600750783431 0 -0.18118326058104209 -0.08825419183970401 0 -0.19851231957361129 -0.085310821531315487 0 -0.20550431009004061 -0.095676697317907802 0 -0.19294566676858971 -0.096864600750783431 0 -0.20438945881064449 -0.068244458930106389 0 -0.19851231957361129 -0.085310821531315487 0 -0.18409944718507371 -0.07264022497537044 0 -0.20438945881064449 -0.068244458930106389 0 -0.18409944718507371 -0.07264022497537044 0 -0.18769526278089041 -0.057829612445021099 0 -0.20438945881064449 -0.068244458930106389 0 -0.18409944718507371 -0.07264022497537044 0 -0.21022893699736381 -0.1097241998529486 0 -0.21520721362926831 -0.098298511723915558 0 -0.20550431009004061 -0.095676697317907802 0 -0.21022893699736381 -0.1097241998529486 0 -0.20550431009004061 -0.095676697317907802 0 -0.19294566676858971 -0.096864600750783431 0 -0.19294566676858971 -0.096864600750783431 0 -0.18534812722118199 -0.1163550958908785 0 -0.21022893699736381 -0.1097241998529486 0 -0.19294566676858971 -0.096864600750783431 0 -0.18534812722118199 -0.1163550958908785 0 -0.19823449762692411 -0.13229999761030051 0 -0.21022893699736381 -0.1097241998529486 0 -0.18534812722118199 -0.1163550958908785 0 -0.18534812722118199 -0.1163550958908785 0 -0.17423934197139679 -0.1017815859784342 0 -0.15606779039194271 -0.1160101434681408 0 -0.17775058767377289 -0.13584559103097291 0 -0.18534812722118199 -0.1163550958908785 0 -0.15606779039194271 -0.1160101434681408 0 -0.16057304666404501 -0.10079887419961479 0 -0.17423934197139679 -0.1017815859784342 0 -0.15606779039194271 -0.1160101434681408 0 -0.16057304666404501 -0.10079887419961479 0 -0.16746185343044401 -0.091445336260546128 0 -0.1570966781871318 -0.090327755750333361 0 -0.16057304666404501 -0.10079887419961479 0 -0.17423934197139679 -0.1017815859784342 0 -0.16746185343044401 -0.091445336260546128 0 -0.17423934197139679 -0.1017815859784342 0 -0.18118326058104209 -0.08825419183970401 0 -0.16746185343044401 -0.091445336260546128 0 -0.19294566676858971 -0.096864600750783431 0 -0.18534812722118199 -0.1163550958908785 0 -0.17423934197139679 -0.1017815859784342 0 -0.19294566676858971 -0.096864600750783431 0 -0.17423934197139679 -0.1017815859784342 0 -0.18118326058104209 -0.08825419183970401 0 -0.18118326058104209 -0.08825419183970401 0 -0.18409944718507371 -0.07264022497537044 0 -0.16915717098214109 -0.081397787743409861 0 -0.18118326058104209 -0.08825419183970401 0 -0.16746185343044401 -0.091445336260546128 0 -0.16915717098214109 -0.081397787743409861 0 -0.18409944718507371 -0.07264022497537044 0 -0.1702117591297739 -0.06777753321031553 0 -0.16380943555950259 -0.077035991020633382 0 -0.18409944718507371 -0.07264022497537044 0 -0.16380943555950259 -0.077035991020633382 0 -0.16915717098214109 -0.081397787743409861 0 -0.18409944718507371 -0.07264022497537044 0 -0.17187825396406881 -0.057945450019426657 0 -0.18769526278089041 -0.057829612445021099 0 -0.18409944718507371 -0.07264022497537044 0 -0.16380943555950259 -0.077035991020633382 0 -0.18409944718507371 -0.07264022497537044 0 -0.1702117591297739 -0.06777753321031553 0 -0.17187825396406881 -0.057945450019426657 0 -0.16380943555950259 -0.077035991020633382 0 -0.16105989981045041 -0.063488466825831633 0 -0.14595160177326619 -0.062470528310013429 0 -0.1702117591297739 -0.06777753321031553 0 -0.16105989981045041 -0.063488466825831633 0 -0.17187825396406881 -0.057945450019426657 0 -0.1702117591297739 -0.06777753321031553 0 -0.16380943555950259 -0.077035991020633382 0 -0.16105989981045041 -0.063488466825831633 0 -0.16380943555950259 -0.077035991020633382 0 -0.16109871639751261 -0.084134952385501949 0 -0.14796844382834351 -0.080467891152587012 0 -0.16746185343044401 -0.091445336260546128 0 -0.16915717098214109 -0.081397787743409861 0 -0.16109871639751261 -0.084134952385501949 0 -0.16380943555950259 -0.077035991020633382 0 -0.16915717098214109 -0.081397787743409861 0 -0.16109871639751261 -0.084134952385501949 0 -0.16380943555950259 -0.077035991020633382 0 -0.16915717098214109 -0.081397787743409861 0 -0.16746185343044401 -0.091445336260546128 0 -0.16109871639751261 -0.084134952385501949 0 -0.1570966781871318 -0.090327755750333361 0 -0.16380943555950259 -0.077035991020633382 0 -0.14796844382834351 -0.080467891152587012 0 -0.14796844382834351 -0.080467891152587012 0 -0.13497135686491851 -0.078315161523928284 0 -0.1484932433812913 -0.094043062253026791 0 -0.1570966781871318 -0.090327755750333361 0 -0.14796844382834351 -0.080467891152587012 0 -0.1484932433812913 -0.094043062253026791 0 -0.16109871639751261 -0.084134952385501949 0 -0.1570966781871318 -0.090327755750333361 0 -0.14796844382834351 -0.080467891152587012 0 -0.16380943555950259 -0.077035991020633382 0 -0.14796844382834351 -0.080467891152587012 0 -0.14595160177326619 -0.062470528310013429 0 -0.16380943555950259 -0.077035991020633382 0 -0.14595160177326619 -0.062470528310013429 0 -0.14796844382834351 -0.080467891152587012 0 -0.13497135686491851 -0.078315161523928284 0 -0.14595160177326619 -0.062470528310013429 0 -0.1158705629695205 -0.060236298698018297 0 -0.13497135686491851 -0.078315161523928284 0 -0.1158705629695205 -0.060236298698018297 0 -0.13497135686491851 -0.078315161523928284 0 -0.13122182239868371 -0.062231763532838429 0 -0.13497135686491851 -0.078315161523928284 0 -0.13122182239868371 -0.062231763532838429 0 -0.14595160177326619 -0.062470528310013429 0 -0.112702195828283 -0.076339248342475546 0 -0.13497135686491851 -0.078315161523928284 0 -0.13438499311011279 -0.096174695905308166 0 -0.13497135686491851 -0.078315161523928284 0 -0.13438499311011279 -0.096174695905308166 0 -0.1484932433812913 -0.094043062253026791 0 -0.11276894493928399 -0.097790936300085646 0 -0.13438499311011279 -0.096174695905308166 0 -0.1306137014228527 -0.1212095633787966 0 -0.13438499311011279 -0.096174695905308166 0 -0.1306137014228527 -0.1212095633787966 0 -0.15606779039194271 -0.1160101434681408 0 -0.15406265534163929 -0.1294064941378926 0 -0.1306137014228527 -0.1212095633787966 0 -0.15606779039194271 -0.1160101434681408 0 -0.13438499311011279 -0.096174695905308166 0 -0.15606779039194271 -0.1160101434681408 0 -0.1484932433812913 -0.094043062253026791 0 -0.16057304666404501 -0.10079887419961479 0 -0.15606779039194271 -0.1160101434681408 0 -0.1484932433812913 -0.094043062253026791 0 -0.13438499311011279 -0.096174695905308166 0 -0.15606779039194271 -0.1160101434681408 0 -0.16057304666404501 -0.10079887419961479 0 -0.1570966781871318 -0.090327755750333361 0 -0.1484932433812913 -0.094043062253026791 0 -0.14513665439653431 -0.02122229521611602 0 -0.15148395360685291 -0.031475856168514699 0 -0.16129500549156001 -0.024264335985147129 0 -0.14513665439653431 -0.02122229521611602 0 -0.1346415055917565 -0.031432898451717602 0 -0.15148395360685291 -0.031475856168514699 0 -0.14513665439653431 -0.02122229521611602 0 -0.15327979458335059 -0.01391829646419882 0 -0.16129500549156001 -0.024264335985147129 0 -0.1412848112475209 -0.008091449167619497 0 -0.15773416148281841 -0.0035868741371463562 0 -0.14801408494475049 0.0031182785745780331 0 -0.15327979458335059 -0.01391829646419882 0 -0.1412848112475209 -0.008091449167619497 0 -0.15773416148281841 -0.0035868741371463562 0 -0.14513665439653431 -0.02122229521611602 0 -0.15327979458335059 -0.01391829646419882 0 -0.1412848112475209 -0.008091449167619497 0 -0.1236693299605585 -0.0137973575501921 0 -0.1412848112475209 -0.008091449167619497 0 -0.12735709500343681 0.004015926865657337 0 -0.1412848112475209 -0.008091449167619497 0 -0.12735709500343681 0.004015926865657337 0 -0.14801408494475049 0.0031182785745780331 0 -0.1236693299605585 -0.0137973575501921 0 -0.1412848112475209 -0.008091449167619497 0 -0.13426109495296229 -0.02049569832685658 0 -0.1236693299605585 -0.0137973575501921 0 -0.1221370268088495 -0.025998648103035 0 -0.13426109495296229 -0.02049569832685658 0 -0.14513665439653431 -0.02122229521611602 0 -0.1412848112475209 -0.008091449167619497 0 -0.13426109495296229 -0.02049569832685658 0 -0.14513665439653431 -0.02122229521611602 0 -0.13426109495296229 -0.02049569832685658 0 -0.1346415055917565 -0.031432898451717602 0 -0.1221370268088495 -0.025998648103035 0 -0.12530131535501859 -0.034952786400489197 0 -0.1346415055917565 -0.031432898451717602 0 -0.1221370268088495 -0.025998648103035 0 -0.13426109495296229 -0.02049569832685658 0 -0.1346415055917565 -0.031432898451717602 0 -0.12530131535501859 -0.034952786400489197 0 -0.1346415055917565 -0.031432898451717602 0 -0.12809376798702951 -0.047905065599393698 0 -0.1346415055917565 -0.031432898451717602 0 -0.12809376798702951 -0.047905065599393698 0 -0.14629371500633531 -0.042796653234188263 0 -0.12809376798702951 -0.047905065599393698 0 -0.14595160177326619 -0.062470528310013429 0 -0.12809376798702951 -0.047905065599393698 0 -0.14595160177326619 -0.062470528310013429 0 -0.14629371500633531 -0.042796653234188263 0 -0.13122182239868371 -0.062231763532838429 0 -0.12809376798702951 -0.047905065599393698 0 -0.14595160177326619 -0.062470528310013429 0 -0.1158705629695205 -0.060236298698018297 0 -0.13122182239868371 -0.062231763532838429 0 -0.12809376798702951 -0.047905065599393698 0 -0.14595160177326619 -0.062470528310013429 0 -0.14629371500633531 -0.042796653234188263 0 -0.15696853651444401 -0.052603520026387289 0 -0.16105989981045041 -0.063488466825831633 0 -0.14595160177326619 -0.062470528310013429 0 -0.15696853651444401 -0.052603520026387289 0 -0.15148395360685291 -0.031475856168514699 0 -0.14629371500633531 -0.042796653234188263 0 -0.16402488563849801 -0.041062174760887443 0 -0.1346415055917565 -0.031432898451717602 0 -0.15148395360685291 -0.031475856168514699 0 -0.14629371500633531 -0.042796653234188263 0 -0.14629371500633531 -0.042796653234188263 0 -0.16402488563849801 -0.041062174760887443 0 -0.15696853651444401 -0.052603520026387289 0 -0.15148395360685291 -0.031475856168514699 0 -0.16402488563849801 -0.041062174760887443 0 -0.16129500549156001 -0.024264335985147129 0 -0.16402488563849801 -0.041062174760887443 0 -0.17409393016306191 -0.030370879776367592 0 -0.16129500549156001 -0.024264335985147129 0 -0.16402488563849801 -0.041062174760887443 0 -0.15696853651444401 -0.052603520026387289 0 -0.17187825396406881 -0.057945450019426657 0 -0.16105989981045041 -0.063488466825831633 0 -0.15696853651444401 -0.052603520026387289 0 -0.17187825396406881 -0.057945450019426657 0 -0.16402488563849801 -0.041062174760887443 0 -0.17187825396406881 -0.057945450019426657 0 -0.18133558272394029 -0.043618149437272283 0 -0.17187825396406881 -0.057945450019426657 0 -0.18133558272394029 -0.043618149437272283 0 -0.18769526278089041 -0.057829612445021099 0 -0.18133558272394029 -0.043618149437272283 0 -0.17409393016306191 -0.030370879776367592 0 -0.18915768363079971 -0.025155098795753519 0 -0.16402488563849801 -0.041062174760887443 0 -0.18133558272394029 -0.043618149437272283 0 -0.17409393016306191 -0.030370879776367592 0 -0.17409393016306191 -0.030370879776367592 0 -0.17549551533112251 -0.014893414490097231 0 -0.18915768363079971 -0.025155098795753519 0 -0.16129500549156001 -0.024264335985147129 0 -0.16350931143073591 -0.01273440345064396 0 -0.17549551533112251 -0.014893414490097231 0 -0.17409393016306191 -0.030370879776367592 0 -0.16129500549156001 -0.024264335985147129 0 -0.17549551533112251 -0.014893414490097231 0 -0.15327979458335059 -0.01391829646419882 0 -0.16129500549156001 -0.024264335985147129 0 -0.16350931143073591 -0.01273440345064396 0 -0.15773416148281841 -0.0035868741371463562 0 -0.16716832075785379 -0.0032078365625175 0 -0.1619193683370386 0.0066468078375689294 0 -0.15773416148281841 -0.0035868741371463562 0 -0.16350931143073591 -0.01273440345064396 0 -0.16716832075785379 -0.0032078365625175 0 -0.15327979458335059 -0.01391829646419882 0 -0.15773416148281841 -0.0035868741371463562 0 -0.16350931143073591 -0.01273440345064396 0 -0.16350931143073591 -0.01273440345064396 0 -0.16716832075785379 -0.0032078365625175 0 -0.17549551533112251 -0.014893414490097231 0 -0.17549551533112251 -0.014893414490097231 0 -0.18154179604087481 -0.0036104187285780349 0 -0.18915768363079971 -0.025155098795753519 0 -0.18154179604087481 -0.0036104187285780349 0 -0.18915768363079971 -0.025155098795753519 0 -0.17549551533112251 -0.014893414490097231 0 -0.17584419881677341 0.0071523107965592754 0 -0.17549551533112251 -0.014893414490097231 0 -0.18154179604087481 -0.0036104187285780349 0 -0.17584419881677341 0.0071523107965592754 0 -0.16716832075785379 -0.0032078365625175 0 -0.17549551533112251 -0.014893414490097231 0 -0.17584419881677341 0.0071523107965592754 0 -0.18154179604087481 -0.0036104187285780349 0 -0.19066530249761049 -0.0041303576494283751 0 -0.18915768363079971 -0.025155098795753519 0 -0.18154179604087481 -0.0036104187285780349 0 -0.19066530249761049 -0.0041303576494283751 0 -0.18717715497560061 0.0062623078557712403 0 -0.19066530249761049 -0.0041303576494283751 0 -0.1989264366345522 -0.0080023544535597537 0 -0.18915768363079971 -0.025155098795753519 0 -0.19066530249761049 -0.0041303576494283751 0 -0.1989264366345522 -0.0080023544535597537 0 -0.1965234412062255 0.0098537758749781944 0 -0.1989264366345522 -0.0080023544535597537 0 -0.2007918169376324 -0.0191738513677071 0 -0.20680177871376751 -0.0119671669755851 0 -0.18915768363079971 -0.025155098795753519 0 -0.2007918169376324 -0.0191738513677071 0 -0.21013076049929519 -0.028334228638799381 0 -0.1989264366345522 -0.0080023544535597537 0 -0.18915768363079971 -0.025155098795753519 0 -0.2007918169376324 -0.0191738513677071 0 -0.2007918169376324 -0.0191738513677071 0 -0.21013076049929519 -0.028334228638799381 0 -0.20680177871376751 -0.0119671669755851 0 -0.21013076049929519 -0.028334228638799381 0 -0.21702438745170211 -0.0043907958627755336 0 -0.21921501925093501 -0.017985606360015789 0 -0.21013076049929519 -0.028334228638799381 0 -0.21702438745170211 -0.0043907958627755336 0 -0.21013076049929519 -0.028334228638799381 0 -0.22271521407306469 -0.037269361340154371 0 -0.21921501925093501 -0.017985606360015789 0 -0.21013076049929519 -0.028334228638799381 0 -0.21702438745170211 -0.0043907958627755336 0 -0.20680177871376751 -0.0119671669755851 0 -0.1989264366345522 -0.0080023544535597537 0 -0.20680177871376751 -0.0119671669755851 0 -0.20713549204565579 6.5395444916274768e-05 0 -0.21702438745170211 -0.0043907958627755336 0 -0.20680177871376751 -0.0119671669755851 0 -0.20713549204565579 6.5395444916274768e-05 0 -0.20438945881064449 -0.068244458930106389 0 -0.1967735712207245 -0.046699778862929052 0 -0.20438945881064449 -0.068244458930106389 0 -0.18769526278089041 -0.057829612445021099 0 -0.1967735712207245 -0.046699778862929052 0 -0.20438945881064449 -0.068244458930106389 0 -0.1967735712207245 -0.046699778862929052 0 -0.20711132549122371 -0.057203435059411119 0 -0.18133558272394029 -0.043618149437272283 0 -0.18769526278089041 -0.057829612445021099 0 -0.1967735712207245 -0.046699778862929052 0 -0.18133558272394029 -0.043618149437272283 0 -0.18915768363079971 -0.025155098795753519 0 -0.1967735712207245 -0.046699778862929052 0 -0.18915768363079971 -0.025155098795753519 0 -0.1967735712207245 -0.046699778862929052 0 -0.18915768363079971 -0.025155098795753519 0 -0.21013076049929519 -0.028334228638799381 0 -0.1967735712207245 -0.046699778862929052 0 -0.21013076049929519 -0.028334228638799381 0 -0.21132582579248671 -0.048130994279405613 0 -0.22271521407306469 -0.037269361340154371 0 -0.21013076049929519 -0.028334228638799381 0 -0.1967735712207245 -0.046699778862929052 0 -0.21132582579248671 -0.048130994279405613 0 -0.21595644614104051 -0.065738508165203102 0 -0.21132582579248671 -0.048130994279405613 0 -0.22271521407306469 -0.037269361340154371 0 -0.21595644614104051 -0.065738508165203102 0 -0.21132582579248671 -0.048130994279405613 0 -0.20711132549122371 -0.057203435059411119 0 -0.1967735712207245 -0.046699778862929052 0 -0.21132582579248671 -0.048130994279405613 0 -0.20711132549122371 -0.057203435059411119 0 -0.21595644614104051 -0.065738508165203102 0 -0.2284172135094342 -0.053659916570315727 0 -0.24475965461883589 -0.059498385283178377 0 -0.21595644614104051 -0.065738508165203102 0 -0.2284172135094342 -0.053659916570315727 0 -0.22271521407306469 -0.037269361340154371 0 -0.21595644614104051 -0.065738508165203102 0 -0.22271521407306469 -0.037269361340154371 0 -0.2284172135094342 -0.053659916570315727 0 -0.22271521407306469 -0.037269361340154371 0 -0.23903543051913109 -0.043198085603962481 0 -0.22271521407306469 -0.037269361340154371 0 -0.23903543051913109 -0.043198085603962481 0 -0.24161885061771041 -0.026720350447010301 0 -0.23903543051913109 -0.043198085603962481 0 -0.24161885061771041 -0.026720350447010301 0 -0.25766621977661042 -0.038842414379153638 0 -0.23903543051913109 -0.043198085603962481 0 -0.24475965461883589 -0.059498385283178377 0 -0.25766621977661042 -0.038842414379153638 0 -0.2284172135094342 -0.053659916570315727 0 -0.23903543051913109 -0.043198085603962481 0 -0.24475965461883589 -0.059498385283178377 0 -0.22947398200509031 -0.0088002145151058891 0 -0.22867745033346079 0.0038692188645070222 0 -0.2401015516947359 0.00075261550232862703 0 -0.21702438745170211 -0.0043907958627755336 0 -0.22947398200509031 -0.0088002145151058891 0 -0.22867745033346079 0.0038692188645070222 0 -0.21702438745170211 -0.0043907958627755336 0 -0.22947398200509031 -0.0088002145151058891 0 -0.21921501925093501 -0.017985606360015789 0 -0.22271521407306469 -0.037269361340154371 0 -0.22947398200509031 -0.0088002145151058891 0 -0.21921501925093501 -0.017985606360015789 0 -0.22271521407306469 -0.037269361340154371 0 -0.22947398200509031 -0.0088002145151058891 0 -0.22271521407306469 -0.037269361340154371 0 -0.22947398200509031 -0.0088002145151058891 0 -0.24161885061771041 -0.026720350447010301 0 -0.22947398200509031 -0.0088002145151058891 0 -0.24161885061771041 -0.026720350447010301 0 -0.2437457614006571 -0.011962382738850049 0 -0.24161885061771041 -0.026720350447010301 0 -0.2437457614006571 -0.011962382738850049 0 -0.2598032925822476 -0.0188915667982569 0 -0.22947398200509031 -0.0088002145151058891 0 -0.2437457614006571 -0.011962382738850049 0 -0.2401015516947359 0.00075261550232862703 0 -0.2437457614006571 -0.011962382738850049 0 -0.25267499080189931 -0.0034516002120552492 0 -0.2401015516947359 0.00075261550232862703 0 -0.25267499080189931 -0.0034516002120552492 0 -0.2598032925822476 -0.0188915667982569 0 -0.26909988492935111 -0.0018655285383734981 0 -0.2437457614006571 -0.011962382738850049 0 -0.25267499080189931 -0.0034516002120552492 0 -0.2598032925822476 -0.0188915667982569 0 -0.2598032925822476 -0.0188915667982569 0 -0.27267419604841259 -0.026924212746328481 0 -0.25766621977661042 -0.038842414379153638 0 -0.24161885061771041 -0.026720350447010301 0 -0.2598032925822476 -0.0188915667982569 0 -0.25766621977661042 -0.038842414379153638 0 -0.2598032925822476 -0.0188915667982569 0 -0.27267419604841259 -0.026924212746328481 0 -0.27804425228895369 -0.016131696666228459 0 -0.27267419604841259 -0.026924212746328481 0 -0.27804425228895369 -0.016131696666228459 0 -0.28378415359151371 -0.031280105512012511 0 -0.27804425228895369 -0.016131696666228459 0 -0.26909988492935111 -0.0018655285383734981 0 -0.2917254884257266 -0.0017566381736345419 0 -0.2598032925822476 -0.0188915667982569 0 -0.27804425228895369 -0.016131696666228459 0 -0.26909988492935111 -0.0018655285383734981 0 -0.27804425228895369 -0.016131696666228459 0 -0.2917254884257266 -0.0017566381736345419 0 -0.2928870998243559 -0.020527937726781 0 -0.27804425228895369 -0.016131696666228459 0 -0.2928870998243559 -0.020527937726781 0 -0.28378415359151371 -0.031280105512012511 0 -0.2928870998243559 -0.020527937726781 0 -0.29943422057661201 -0.032203920876667472 0 -0.28378415359151371 -0.031280105512012511 0 -0.2928870998243559 -0.020527937726781 0 -0.31144738423897378 -0.02126732740536201 0 -0.29943422057661201 -0.032203920876667472 0 -0.31144738423897378 -0.02126732740536201 0 -0.31110423911055801 -0.035316851109560482 0 -0.29943422057661201 -0.032203920876667472 0 -0.2917254884257266 -0.0017566381736345419 0 -0.31144738423897378 -0.02126732740536201 0 -0.31177688145040278 0.0050359958776742568 0 -0.2917254884257266 -0.0017566381736345419 0 -0.2928870998243559 -0.020527937726781 0 -0.31144738423897378 -0.02126732740536201 0 -0.2917254884257266 -0.0017566381736345419 0 -0.31144738423897378 -0.02126732740536201 0 -0.30323190850646392 -0.052883144282766713 0 -0.3023660715744253 -0.047018139519123002 0 -0.29757341552329353 -0.05219957266967655 0 -0.29931176789370939 -0.061629941742321552 0 -0.30659897303184058 -0.057135789817405573 0 -0.30728911182784302 -0.064893595009923935 0 -0.30323190850646392 -0.052883144282766713 0 -0.29931176789370939 -0.061629941742321552 0 -0.30659897303184058 -0.057135789817405573 0 -0.30323190850646392 -0.052883144282766713 0 -0.29757341552329353 -0.05219957266967655 0 -0.29931176789370939 -0.061629941742321552 0 -0.30659897303184058 -0.057135789817405573 0 -0.30728911182784302 -0.064893595009923935 0 -0.31405483352543062 -0.056831087900065053 0 -0.30323190850646392 -0.052883144282766713 0 -0.3023660715744253 -0.047018139519123002 0 -0.31025625293594222 -0.050033124508212908 0 -0.30659897303184058 -0.057135789817405573 0 -0.31025625293594222 -0.050033124508212908 0 -0.31405483352543062 -0.056831087900065053 0 -0.30323190850646392 -0.052883144282766713 0 -0.30659897303184058 -0.057135789817405573 0 -0.31025625293594222 -0.050033124508212908 0 -0.3023660715744253 -0.047018139519123002 0 -0.31110423911055801 -0.035316851109560482 0 -0.29943422057661201 -0.032203920876667472 0 -0.3023660715744253 -0.047018139519123002 0 -0.29943422057661201 -0.032203920876667472 0 -0.29166722635019171 -0.038853801873014321 0 -0.29943422057661201 -0.032203920876667472 0 -0.29166722635019171 -0.038853801873014321 0 -0.28378415359151371 -0.031280105512012511 0 -0.3023660715744253 -0.047018139519123002 0 -0.29166722635019171 -0.038853801873014321 0 -0.28390051605192418 -0.042754285685484159 0 -0.29166722635019171 -0.038853801873014321 0 -0.28378415359151371 -0.031280105512012511 0 -0.28390051605192418 -0.042754285685484159 0 -0.3023660715744253 -0.047018139519123002 0 -0.28390051605192418 -0.042754285685484159 0 -0.27356286309663053 -0.053258262401150697 0 -0.3023660715744253 -0.047018139519123002 0 -0.27356286309663053 -0.053258262401150697 0 -0.29757341552329353 -0.05219957266967655 0 -0.27356286309663053 -0.053258262401150697 0 -0.27532891164284878 -0.069285621960536392 0 -0.29757341552329353 -0.05219957266967655 0 -0.27532891164284878 -0.069285621960536392 0 -0.3023660715744253 -0.047018139519123002 0 -0.29757341552329353 -0.05219957266967655 0 -0.27356286309663053 -0.053258262401150697 0 -0.29757341552329353 -0.05219957266967655 0 -0.29931176789370939 -0.061629941742321552 0 -0.27532891164284878 -0.069285621960536392 0 -0.27267419604841259 -0.026924212746328481 0 -0.27375437843427658 -0.039043607324579933 0 -0.25766621977661042 -0.038842414379153638 0 -0.27356286309663053 -0.053258262401150697 0 -0.27375437843427658 -0.039043607324579933 0 -0.25766621977661042 -0.038842414379153638 0 -0.28378415359151371 -0.031280105512012511 0 -0.28390051605192418 -0.042754285685484159 0 -0.27375437843427658 -0.039043607324579933 0 -0.27267419604841259 -0.026924212746328481 0 -0.28378415359151371 -0.031280105512012511 0 -0.27375437843427658 -0.039043607324579933 0 -0.28390051605192418 -0.042754285685484159 0 -0.27356286309663053 -0.053258262401150697 0 -0.27375437843427658 -0.039043607324579933 0 -0.24475965461883589 -0.059498385283178377 0 -0.27356286309663053 -0.053258262401150697 0 -0.2582325144520296 -0.070050845257802419 0 -0.24475965461883589 -0.059498385283178377 0 -0.27356286309663053 -0.053258262401150697 0 -0.24475965461883589 -0.059498385283178377 0 -0.27356286309663053 -0.053258262401150697 0 -0.25766621977661042 -0.038842414379153638 0 -0.2582325144520296 -0.070050845257802419 0 -0.25308440776240432 -0.086371671251396109 0 -0.27532891164284878 -0.069285621960536392 0 -0.25308440776240432 -0.086371671251396109 0 -0.27532891164284878 -0.069285621960536392 0 -0.25308440776240432 -0.086371671251396109 0 -0.27361062541114611 -0.085405998149086934 0 -0.26907394573302829 -0.10103393024372311 0 -0.27361062541114611 -0.085405998149086934 0 -0.26907394573302829 -0.10103393024372311 0 -0.28494676303449051 -0.09097811142482605 0 -0.25308440776240432 -0.086371671251396109 0 -0.27361062541114611 -0.085405998149086934 0 -0.27532891164284878 -0.069285621960536392 0 -0.27356286309663053 -0.053258262401150697 0 -0.2582325144520296 -0.070050845257802419 0 -0.27532891164284878 -0.069285621960536392 0 -0.27361062541114611 -0.085405998149086934 0 -0.27532891164284878 -0.069285621960536392 0 -0.28561909888295839 -0.079360655864953042 0 -0.2432602079730701 -0.13485583854350039 0 -0.2499653418643101 -0.1102460646797562 0 -0.26490928006600228 -0.12397715003998409 0 -0.2499653418643101 -0.1102460646797562 0 -0.26490928006600228 -0.12397715003998409 0 -0.26907394573302829 -0.10103393024372311 0 -0.2499653418643101 -0.1102460646797562 0 -0.25308440776240432 -0.086371671251396109 0 -0.26907394573302829 -0.10103393024372311 0 -0.26907394573302829 -0.10103393024372311 0 -0.28789548083438649 -0.11161882002010511 0 -0.28494676303449051 -0.09097811142482605 0 -0.26490928006600228 -0.12397715003998409 0 -0.28789548083438649 -0.11161882002010511 0 -0.28428672055728371 -0.13281235115180859 0 -0.26490928006600228 -0.12397715003998409 0 -0.26907394573302829 -0.10103393024372311 0 -0.28789548083438649 -0.11161882002010511 0 -0.28789548083438649 -0.11161882002010511 0 -0.28428672055728371 -0.13281235115180859 0 -0.30877835781368662 -0.12931532841693749 0 -0.28789548083438649 -0.11161882002010511 0 -0.29765529442092259 -0.094840601490837839 0 -0.28494676303449051 -0.09097811142482605 0 -0.30761934067920371 -0.1042503242997595 0 -0.29765529442092259 -0.094840601490837839 0 -0.30832877355579341 -0.086934752854072747 0 -0.30761934067920371 -0.1042503242997595 0 -0.30832877355579341 -0.086934752854072747 0 -0.31968159473222052 -0.091584555267719248 0 -0.28789548083438649 -0.11161882002010511 0 -0.30761934067920371 -0.1042503242997595 0 -0.29765529442092259 -0.094840601490837839 0 -0.28789548083438649 -0.11161882002010511 0 -0.30761934067920371 -0.1042503242997595 0 -0.30877835781368662 -0.12931532841693749 0 -0.29931176789370939 -0.061629941742321552 0 -0.27532891164284878 -0.069285621960536392 0 -0.29568251685582603 -0.071589435967753134 0 -0.27532891164284878 -0.069285621960536392 0 -0.29568251685582603 -0.071589435967753134 0 -0.28561909888295839 -0.079360655864953042 0 -0.29568251685582603 -0.071589435967753134 0 -0.28561909888295839 -0.079360655864953042 0 -0.29849490204505058 -0.081938345925378783 0 -0.27361062541114611 -0.085405998149086934 0 -0.28561909888295839 -0.079360655864953042 0 -0.28494676303449051 -0.09097811142482605 0 -0.29765529442092259 -0.094840601490837839 0 -0.28494676303449051 -0.09097811142482605 0 -0.29849490204505058 -0.081938345925378783 0 -0.28561909888295839 -0.079360655864953042 0 -0.28494676303449051 -0.09097811142482605 0 -0.29849490204505058 -0.081938345925378783 0 -0.29849490204505058 -0.081938345925378783 0 -0.30832877355579341 -0.086934752854072747 0 -0.3066986514807607 -0.074546990101646726 0 -0.29765529442092259 -0.094840601490837839 0 -0.29849490204505058 -0.081938345925378783 0 -0.30832877355579341 -0.086934752854072747 0 -0.30832877355579341 -0.086934752854072747 0 -0.3066986514807607 -0.074546990101646726 0 -0.31636087034116728 -0.076704125898778439 0 -0.3066986514807607 -0.074546990101646726 0 -0.31411021802290889 -0.069356746280106005 0 -0.31636087034116728 -0.076704125898778439 0 -0.29568251685582603 -0.071589435967753134 0 -0.29849490204505058 -0.081938345925378783 0 -0.3066986514807607 -0.074546990101646726 0 -0.29568251685582603 -0.071589435967753134 0 -0.3066986514807607 -0.074546990101646726 0 -0.30728911182784302 -0.064893595009923935 0 -0.29931176789370939 -0.061629941742321552 0 -0.29568251685582603 -0.071589435967753134 0 -0.30728911182784302 -0.064893595009923935 0 -0.3066986514807607 -0.074546990101646726 0 -0.30728911182784302 -0.064893595009923935 0 -0.31411021802290889 -0.069356746280106005 0 -0.30728911182784302 -0.064893595009923935 0 -0.31630436981946819 -0.062936971351065629 0 -0.31411021802290889 -0.069356746280106005 0 -0.31630436981946819 -0.062936971351065629 0 -0.31411021802290889 -0.069356746280106005 0 -0.32389808664530562 -0.067702049039115322 0 -0.31630436981946819 -0.062936971351065629 0 -0.32389808664530562 -0.067702049039115322 0 -0.32481687078849097 -0.058022226865728103 0 -0.32389808664530562 -0.067702049039115322 0 -0.3259684841043719 -0.075020057435826168 0 -0.31636087034116728 -0.076704125898778439 0 -0.31411021802290889 -0.069356746280106005 0 -0.32389808664530562 -0.067702049039115322 0 -0.31636087034116728 -0.076704125898778439 0 -0.30832877355579341 -0.086934752854072747 0 -0.32608803180755441 -0.084321365842938284 0 -0.30832877355579341 -0.086934752854072747 0 -0.31968159473222052 -0.091584555267719248 0 -0.32608803180755441 -0.084321365842938284 0 -0.30832877355579341 -0.086934752854072747 0 -0.31636087034116728 -0.076704125898778439 0 -0.32608803180755441 -0.084321365842938284 0 -0.31968159473222052 -0.091584555267719248 0 -0.32608803180755441 -0.084321365842938284 0 -0.3259684841043719 -0.075020057435826168 0 -0.31636087034116728 -0.076704125898778439 0 -0.32608803180755441 -0.084321365842938284 0 -0.31968159473222052 -0.091584555267719248 0 -0.32608803180755441 -0.084321365842938284 0 -0.34030971713070318 -0.087052614945596102 0 -0.32608803180755441 -0.084321365842938284 0 -0.34030971713070318 -0.087052614945596102 0 -0.34745734249292459 -0.081176736816750444 0 -0.32608803180755441 -0.084321365842938284 0 -0.33752694762346008 -0.07135268896247253 0 -0.34745734249292459 -0.081176736816750444 0 -0.32608803180755441 -0.084321365842938284 0 -0.34745734249292459 -0.081176736816750444 0 -0.33752694762346008 -0.07135268896247253 0 -0.3489658634393657 -0.058384012082006782 0 -0.33645864726091979 -0.05858208772264157 0 -0.33752694762346008 -0.07135268896247253 0 -0.3489658634393657 -0.058384012082006782 0 -0.32389808664530562 -0.067702049039115322 0 -0.33752694762346008 -0.07135268896247253 0 -0.33645864726091979 -0.05858208772264157 0 -0.3259684841043719 -0.075020057435826168 0 -0.32608803180755441 -0.084321365842938284 0 -0.33752694762346008 -0.07135268896247253 0 -0.32608803180755441 -0.084321365842938284 0 -0.33752694762346008 -0.07135268896247253 0 -0.32389808664530562 -0.067702049039115322 0 -0.3259684841043719 -0.075020057435826168 0 -0.33752694762346008 -0.07135268896247253 0 -0.32454403747219479 -0.1081839716812668 0 -0.30877835781368662 -0.12931532841693749 0 -0.30761934067920371 -0.1042503242997595 0 -0.32454403747219479 -0.1081839716812668 0 -0.30877835781368662 -0.12931532841693749 0 -0.32454403747219479 -0.1081839716812668 0 -0.33570809008837621 -0.11845594114356341 0 -0.30877835781368662 -0.12931532841693749 0 -0.30761934067920371 -0.1042503242997595 0 -0.31968159473222052 -0.091584555267719248 0 -0.32454403747219479 -0.1081839716812668 0 -0.34030971713070318 -0.087052614945596102 0 -0.32454403747219479 -0.1081839716812668 0 -0.34278855512837281 -0.1049294584887832 0 -0.31968159473222052 -0.091584555267719248 0 -0.34030971713070318 -0.087052614945596102 0 -0.32454403747219479 -0.1081839716812668 0 -0.34030971713070318 -0.087052614945596102 0 -0.32454403747219479 -0.1081839716812668 0 -0.32454403747219479 -0.1081839716812668 0 -0.34278855512837281 -0.1049294584887832 0 -0.33570809008837621 -0.11845594114356341 0 -0.33570809008837621 -0.11845594114356341 0 -0.35404294059136687 -0.1217835462641018 0 -0.33688620478323589 -0.13358080389391511 0 -0.34278855512837281 -0.1049294584887832 0 -0.35404294059136687 -0.1217835462641018 0 -0.35932798989652742 -0.1047455147758234 0 -0.34278855512837281 -0.1049294584887832 0 -0.33570809008837621 -0.11845594114356341 0 -0.35404294059136687 -0.1217835462641018 0 -0.34278855512837281 -0.1049294584887832 0 -0.35932798989652742 -0.1047455147758234 0 -0.35079718399447979 -0.093651592615473511 0 -0.34030971713070318 -0.087052614945596102 0 -0.34278855512837281 -0.1049294584887832 0 -0.35079718399447979 -0.093651592615473511 0 -0.35932798989652742 -0.1047455147758234 0 -0.35079718399447979 -0.093651592615473511 0 -0.36132419909701757 -0.091459041133748031 0 -0.35932798989652742 -0.1047455147758234 0 -0.37367929427193591 -0.1014825750548952 0 -0.37212838853434238 -0.11808059788504249 0 -0.35932798989652742 -0.1047455147758234 0 -0.37367929427193591 -0.1014825750548952 0 -0.36132419909701757 -0.091459041133748031 0 -0.35404294059136687 -0.1217835462641018 0 -0.37212838853434238 -0.11808059788504249 0 -0.37028068739271691 -0.13083580994494901 0 -0.35404294059136687 -0.1217835462641018 0 -0.35932798989652742 -0.1047455147758234 0 -0.37212838853434238 -0.11808059788504249 0 -0.35069420168351129 -0.07223638641294812 0 -0.34745734249292459 -0.081176736816750444 0 -0.36882665317829499 -0.078032107790563188 0 -0.36882665317829499 -0.078032107790563188 0 -0.3489658634393657 -0.058384012082006782 0 -0.35069420168351129 -0.07223638641294812 0 -0.36882665317829499 -0.078032107790563188 0 -0.3489658634393657 -0.058384012082006782 0 -0.33752694762346008 -0.07135268896247253 0 -0.35069420168351129 -0.07223638641294812 0 -0.3489658634393657 -0.058384012082006782 0 -0.33752694762346008 -0.07135268896247253 0 -0.35069420168351129 -0.07223638641294812 0 -0.34745734249292459 -0.081176736816750444 0 -0.34745734249292459 -0.081176736816750444 0 -0.36882665317829499 -0.078032107790563188 0 -0.34745734249292459 -0.081176736816750444 0 -0.36132419909701757 -0.091459041133748031 0 -0.36882665317829499 -0.078032107790563188 0 -0.34030971713070318 -0.087052614945596102 0 -0.34745734249292459 -0.081176736816750444 0 -0.35079718399447979 -0.093651592615473511 0 -0.34745734249292459 -0.081176736816750444 0 -0.35079718399447979 -0.093651592615473511 0 -0.36132419909701757 -0.091459041133748031 0 -0.37367929427193591 -0.1014825750548952 0 -0.36132419909701757 -0.091459041133748031 0 -0.36882665317829499 -0.078032107790563188 0 -0.36882665317829499 -0.078032107790563188 0 -0.36862349457690058 -0.057461967220355487 0 -0.3489658634393657 -0.058384012082006782 0 -0.36882665317829499 -0.078032107790563188 0 -0.36862349457690058 -0.057461967220355487 0 -0.37947166312044489 -0.067272628224985004 0 -0.36862349457690058 -0.057461967220355487 0 -0.3489658634393657 -0.058384012082006782 0 -0.36066681755822472 -0.045118253717945672 0 -0.36862349457690058 -0.057461967220355487 0 -0.37355784227175309 -0.045246792894939887 0 -0.3815482533063424 -0.052412606119804542 0 -0.36862349457690058 -0.057461967220355487 0 -0.36066681755822472 -0.045118253717945672 0 -0.37355784227175309 -0.045246792894939887 0 -0.3489658634393657 -0.058384012082006782 0 -0.36066681755822472 -0.045118253717945672 0 -0.3489658634393657 -0.058384012082006782 0 -0.34511111307690212 -0.046137334811030092 0 -0.36066681755822472 -0.045118253717945672 0 -0.35304062521722218 -0.036039659744318157 0 -0.3553139768507978 -0.023567241021099371 0 -0.33371347875736079 -0.040226824134751989 0 -0.34511111307690212 -0.046137334811030092 0 -0.35304062521722218 -0.036039659744318157 0 -0.33371347875736079 -0.040226824134751989 0 -0.34511111307690212 -0.046137334811030092 0 -0.35304062521722218 -0.036039659744318157 0 -0.36066681755822472 -0.045118253717945672 0 -0.36066681755822472 -0.045118253717945672 0 -0.37236777167708351 -0.031852495353884333 0 -0.35304062521722218 -0.036039659744318157 0 -0.37236777167708351 -0.031852495353884333 0 -0.35304062521722218 -0.036039659744318157 0 -0.36066681755822472 -0.045118253717945672 0 -0.37236777167708351 -0.031852495353884333 0 -0.36066681755822472 -0.045118253717945672 0 -0.37355784227175309 -0.045246792894939887 0 -0.37236777167708351 -0.031852495353884333 0 -0.37236777167708351 -0.031852495353884333 0 -0.3739022591900184 -0.02415390189740213 0 -0.36770044175442279 -0.02036669541201027 0 -0.37236777167708351 -0.031852495353884333 0 -0.36770044175442279 -0.02036669541201027 0 -0.3553139768507978 -0.023567241021099371 0 -0.36770044175442279 -0.02036669541201027 0 -0.35847393927256738 -0.010652033510738681 0 -0.38297625517291389 -0.017448943304264108 0 -0.35304062521722218 -0.036039659744318157 0 -0.37236777167708351 -0.031852495353884333 0 -0.3553139768507978 -0.023567241021099371 0 -0.3739022591900184 -0.02415390189740213 0 -0.36770044175442279 -0.02036669541201027 0 -0.38297625517291389 -0.017448943304264108 0 -0.36770044175442279 -0.02036669541201027 0 -0.35847393927256738 -0.010652033510738681 0 -0.3553139768507978 -0.023567241021099371 0 -0.35847393927256738 -0.010652033510738681 0 -0.38297625517291389 -0.017448943304264108 0 -0.37278444596104371 -0.0079457960458173115 0 -0.35847393927256738 -0.010652033510738681 0 -0.38297625517291389 -0.017448943304264108 0 -0.37474494217865062 -0.0022388935110706832 0 -0.37278444596104371 -0.0079457960458173115 0 -0.36307869926690151 -0.00068504054922277494 0 -0.37278444596104371 -0.0079457960458173115 0 -0.36307869926690151 -0.00068504054922277494 0 -0.35847393927256738 -0.010652033510738681 0 -0.36307869926690151 -0.00068504054922277494 0 -0.34718119132474479 -0.01384164818341615 0 -0.36064890389212972 0.0125435277679194 0 -0.36307869926690151 -0.00068504054922277494 0 -0.35847393927256738 -0.010652033510738681 0 -0.34718119132474479 -0.01384164818341615 0 -0.34718119132474479 -0.01384164818341615 0 -0.36064890389212972 0.0125435277679194 0 -0.34718119132474479 -0.01384164818341615 0 -0.3553139768507978 -0.023567241021099371 0 -0.33371347875736079 -0.040226824134751989 0 -0.35847393927256738 -0.010652033510738681 0 -0.34718119132474479 -0.01384164818341615 0 -0.3553139768507978 -0.023567241021099371 0 -0.34718119132474479 -0.01384164818341615 0 -0.33035884889608558 -0.02420969997450095 0 -0.33371347875736079 -0.040226824134751989 0 -0.34718119132474479 -0.01384164818341615 0 -0.33371347875736079 -0.040226824134751989 0 -0.34718119132474479 -0.01384164818341615 0 -0.32828291010712762 -0.0049346835118845543 0 -0.34055428987364128 0.0059527955302196532 0 -0.34718119132474479 -0.01384164818341615 0 -0.33035884889608558 -0.02420969997450095 0 -0.32828291010712762 -0.0049346835118845543 0 -0.31144738423897378 -0.02126732740536201 0 -0.32828291010712762 -0.0049346835118845543 0 -0.31177688145040278 0.0050359958776742568 0 -0.31144738423897378 -0.02126732740536201 0 -0.33116928005221918 -0.040778016637091109 0 -0.31144738423897378 -0.02126732740536201 0 -0.33035884889608558 -0.02420969997450095 0 -0.32828291010712762 -0.0049346835118845543 0 -0.31144738423897378 -0.02126732740536201 0 -0.33035884889608558 -0.02420969997450095 0 -0.33116928005221918 -0.040778016637091109 0 -0.3023660715744253 -0.047018139519123002 0 -0.31110423911055801 -0.035316851109560482 0 -0.33116928005221918 -0.040778016637091109 0 -0.3023660715744253 -0.047018139519123002 0 -0.31025625293594222 -0.050033124508212908 0 -0.33116928005221918 -0.040778016637091109 0 -0.3023660715744253 -0.047018139519123002 0 -0.33116928005221918 -0.040778016637091109 0 -0.31144738423897378 -0.02126732740536201 0 -0.31110423911055801 -0.035316851109560482 0 -0.33116928005221918 -0.040778016637091109 0 -0.31025625293594222 -0.050033124508212908 0 -0.31770057673851387 -0.05020147555903863 0 -0.33116928005221918 -0.040778016637091109 0 -0.31025625293594222 -0.050033124508212908 0 -0.31770057673851387 -0.05020147555903863 0 -0.31405483352543062 -0.056831087900065053 0 -0.31770057673851387 -0.05020147555903863 0 -0.31405483352543062 -0.056831087900065053 0 -0.31936567051967829 -0.054711673150449433 0 -0.31630436981946819 -0.062936971351065629 0 -0.31936567051967829 -0.054711673150449433 0 -0.32481687078849097 -0.058022226865728103 0 -0.30728911182784302 -0.064893595009923935 0 -0.31630436981946819 -0.062936971351065629 0 -0.31405483352543062 -0.056831087900065053 0 -0.31630436981946819 -0.062936971351065629 0 -0.31405483352543062 -0.056831087900065053 0 -0.31936567051967829 -0.054711673150449433 0 -0.31770057673851387 -0.05020147555903863 0 -0.32448711316898249 -0.050622394842538963 0 -0.33116928005221918 -0.040778016637091109 0 -0.31936567051967829 -0.054711673150449433 0 -0.32481687078849097 -0.058022226865728103 0 -0.32448711316898249 -0.050622394842538963 0 -0.31770057673851387 -0.05020147555903863 0 -0.31936567051967829 -0.054711673150449433 0 -0.32448711316898249 -0.050622394842538963 0 -0.32481687078849097 -0.058022226865728103 0 -0.32770904195502032 -0.053173566283506987 0 -0.32448711316898249 -0.050622394842538963 0 -0.32770904195502032 -0.053173566283506987 0 -0.32448711316898249 -0.050622394842538963 0 -0.32972533979495861 -0.048040159006195682 0 -0.3489658634393657 -0.058384012082006782 0 -0.34511111307690212 -0.046137334811030092 0 -0.3326728772282519 -0.042265511425067279 0 -0.32972533979495861 -0.048040159006195682 0 -0.33645864726091979 -0.05858208772264157 0 -0.3326728772282519 -0.042265511425067279 0 -0.3489658634393657 -0.058384012082006782 0 -0.3326728772282519 -0.042265511425067279 0 -0.32770904195502032 -0.053173566283506987 0 -0.32972533979495861 -0.048040159006195682 0 -0.33645864726091979 -0.05858208772264157 0 -0.3489658634393657 -0.058384012082006782 0 -0.33645864726091979 -0.05858208772264157 0 -0.3326728772282519 -0.042265511425067279 0 -0.32389808664530562 -0.067702049039115322 0 -0.32481687078849097 -0.058022226865728103 0 -0.33645864726091979 -0.05858208772264157 0 -0.32481687078849097 -0.058022226865728103 0 -0.32770904195502032 -0.053173566283506987 0 -0.33645864726091979 -0.05858208772264157 0 -0.34511111307690212 -0.046137334811030092 0 -0.33371347875736079 -0.040226824134751989 0 -0.3326728772282519 -0.042265511425067279 0 -0.33035884889608558 -0.02420969997450095 0 -0.33116928005221918 -0.040778016637091109 0 -0.33371347875736079 -0.040226824134751989 0 -0.35304062521722218 -0.036039659744318157 0 -0.33371347875736079 -0.040226824134751989 0 -0.32448711316898249 -0.050622394842538963 0 -0.32972533979495861 -0.048040159006195682 0 -0.33116928005221918 -0.040778016637091109 0 -0.33116928005221918 -0.040778016637091109 0 -0.3326728772282519 -0.042265511425067279 0 -0.32972533979495861 -0.048040159006195682 0 -0.3326728772282519 -0.042265511425067279 0 -0.32972533979495861 -0.048040159006195682 0 -0.33116928005221918 -0.040778016637091109 0 -0.3326728772282519 -0.042265511425067279 0 -0.33116928005221918 -0.040778016637091109 0 -0.33371347875736079 -0.040226824134751989 0 -0.33116928005221918 -0.040778016637091109 0 -0.33371347875736079 -0.040226824134751989 0 -0.3326728772282519 -0.042265511425067279 0 -0.33371347875736079 -0.040226824134751989 0 -0.3326728772282519 -0.042265511425067279 0 -0.2907170577323625 -0.25177677077710309 0 -0.30853150187083839 -0.25429835417001312 0 -0.30748271917561598 -0.2431056607245809 0 -0.30748271917561598 -0.2431056607245809 0 -0.3004866401015065 -0.2269264896544945 0 -0.32066485276457768 -0.2334308190911655 0 -0.2907170577323625 -0.25177677077710309 0 -0.30748271917561598 -0.2431056607245809 0 -0.3004866401015065 -0.2269264896544945 0 -0.30853150187083839 -0.25429835417001312 0 -0.30748271917561598 -0.2431056607245809 0 -0.32023222063025569 -0.2489608815952247 0 -0.3004866401015065 -0.2269264896544945 0 -0.27575903677895092 -0.22208668823385669 0 -0.3004866401015065 -0.2269264896544945 0 -0.27309361240676189 -0.24179026653703889 0 -0.27575903677895092 -0.22208668823385669 0 -0.3004866401015065 -0.2269264896544945 0 -0.27575903677895092 -0.22208668823385669 0 -0.29482007196541532 -0.2089319155152673 0 -0.2907170577323625 -0.25177677077710309 0 -0.3004866401015065 -0.2269264896544945 0 -0.27309361240676189 -0.24179026653703889 0 -0.27309361240676189 -0.24179026653703889 0 -0.25431856302814809 -0.24833495949118861 0 -0.25103143345639523 -0.21724688681321891 0 -0.27575903677895092 -0.22208668823385669 0 -0.25103143345639523 -0.21724688681321891 0 -0.27309361240676189 -0.24179026653703889 0 -0.27575903677895092 -0.22208668823385669 0 -0.25103143345639523 -0.21724688681321891 0 -0.27575903677895092 -0.22208668823385669 0 -0.25103143345639523 -0.21724688681321891 0 -0.27708552823660842 -0.19790031786117671 0 -0.25103143345639523 -0.21724688681321891 0 -0.25418198431724581 -0.18809916394242601 0 -0.27708552823660842 -0.19790031786117671 0 -0.27708552823660842 -0.19790031786117671 0 -0.29482007196541532 -0.2089319155152673 0 -0.30195969341908391 -0.19078830755985379 0 -0.29482007196541532 -0.2089319155152673 0 -0.30195969341908391 -0.19078830755985379 0 -0.32674672588845421 -0.2120308859258328 0 -0.3004866401015065 -0.2269264896544945 0 -0.29482007196541532 -0.2089319155152673 0 -0.32674672588845421 -0.2120308859258328 0 -0.27575903677895092 -0.22208668823385669 0 -0.27708552823660842 -0.19790031786117671 0 -0.29482007196541532 -0.2089319155152673 0 -0.30195969341908391 -0.19078830755985379 0 -0.30674796742087651 -0.1684647150882764 0 -0.32123008678095788 -0.18729232698745699 0 -0.30674796742087651 -0.1684647150882764 0 -0.2930126781551784 -0.15044668515260809 0 -0.3206808779707625 -0.15110047818677941 0 -0.27724699849667023 -0.17157804188827869 0 -0.2930126781551784 -0.15044668515260809 0 -0.30674796742087651 -0.1684647150882764 0 -0.27724699849667023 -0.17157804188827869 0 -0.2930126781551784 -0.15044668515260809 0 -0.27708552823660842 -0.19790031786117671 0 -0.30195969341908391 -0.19078830755985379 0 -0.27724699849667023 -0.17157804188827869 0 -0.30195969341908391 -0.19078830755985379 0 -0.30674796742087651 -0.1684647150882764 0 -0.27724699849667023 -0.17157804188827869 0 -0.25418198431724581 -0.18809916394242601 0 -0.27708552823660842 -0.19790031786117671 0 -0.27724699849667023 -0.17157804188827869 0 -0.25418198431724581 -0.18809916394242601 0 -0.2565438833259911 -0.1687602707777138 0 -0.27724699849667023 -0.17157804188827869 0 -0.2435592126657353 -0.1561425335328199 0 -0.2565438833259911 -0.1687602707777138 0 -0.26683780591716472 -0.14870377212940841 0 -0.27724699849667023 -0.17157804188827869 0 -0.26683780591716472 -0.14870377212940841 0 -0.2930126781551784 -0.15044668515260809 0 -0.2565438833259911 -0.1687602707777138 0 -0.27724699849667023 -0.17157804188827869 0 -0.26683780591716472 -0.14870377212940841 0 -0.2435592126657353 -0.1561425335328199 0 -0.2432602079730701 -0.13485583854350039 0 -0.26683780591716472 -0.14870377212940841 0 -0.2432602079730701 -0.13485583854350039 0 -0.26490928006600228 -0.12397715003998409 0 -0.26683780591716472 -0.14870377212940841 0 -0.26490928006600228 -0.12397715003998409 0 -0.26683780591716472 -0.14870377212940841 0 -0.28428672055728371 -0.13281235115180859 0 -0.28428672055728371 -0.13281235115180859 0 -0.2930126781551784 -0.15044668515260809 0 -0.30877835781368662 -0.12931532841693749 0 -0.26683780591716472 -0.14870377212940841 0 -0.28428672055728371 -0.13281235115180859 0 -0.2930126781551784 -0.15044668515260809 0 -0.2930126781551784 -0.15044668515260809 0 -0.30877835781368662 -0.12931532841693749 0 -0.3206808779707625 -0.15110047818677941 0 -0.2930126781551784 -0.15044668515260809 0 -0.30877835781368662 -0.12931532841693749 0 -0.33570809008837621 -0.11845594114356341 0 -0.30877835781368662 -0.12931532841693749 0 -0.33688620478323589 -0.13358080389391511 0 -0.30877835781368662 -0.12931532841693749 0 -0.3206808779707625 -0.15110047818677941 0 -0.33688620478323589 -0.13358080389391511 0 -0.3206808779707625 -0.15110047818677941 0 -0.33688620478323589 -0.13358080389391511 0 -0.34399943231138669 -0.15408109000358611 0 -0.33688620478323589 -0.13358080389391511 0 -0.35929992868189681 -0.1386942596847188 0 -0.35404294059136687 -0.1217835462641018 0 -0.33688620478323589 -0.13358080389391511 0 -0.35929992868189681 -0.1386942596847188 0 -0.35404294059136687 -0.1217835462641018 0 -0.35929992868189681 -0.1386942596847188 0 -0.37028068739271691 -0.13083580994494901 0 -0.35929992868189681 -0.1386942596847188 0 -0.37028068739271691 -0.13083580994494901 0 -0.3804539816512269 -0.14482329966991631 0 -0.35929992868189681 -0.1386942596847188 0 -0.3804539816512269 -0.14482329966991631 0 -0.35929992868189681 -0.1386942596847188 0 -0.3655172116091886 -0.15688196674787641 0 -0.3804539816512269 -0.14482329966991631 0 -0.3655172116091886 -0.15688196674787641 0 -0.3804539816512269 -0.14482329966991631 0 -0.3655172116091886 -0.15688196674787641 0 -0.37839901512320262 -0.15996290040625341 0 -0.3804539816512269 -0.14482329966991631 0 -0.33688620478323589 -0.13358080389391511 0 -0.35929992868189681 -0.1386942596847188 0 -0.34399943231138669 -0.15408109000358611 0 -0.35929992868189681 -0.1386942596847188 0 -0.34399943231138669 -0.15408109000358611 0 -0.3655172116091886 -0.15688196674787641 0 -0.34399943231138669 -0.15408109000358611 0 -0.35323542112630057 -0.1671812377988513 0 -0.3655172116091886 -0.15688196674787641 0 -0.3655172116091886 -0.15688196674787641 0 -0.37378547386561772 -0.17392500984250869 0 -0.37839901512320262 -0.15996290040625341 0 -0.35323542112630057 -0.1671812377988513 0 -0.3655172116091886 -0.15688196674787641 0 -0.37378547386561772 -0.17392500984250869 0 -0.37378547386561772 -0.17392500984250869 0 -0.35240556330307887 -0.18479875362473361 0 -0.36895563931783232 -0.19259611207654981 0 -0.35323542112630057 -0.1671812377988513 0 -0.37378547386561772 -0.17392500984250869 0 -0.35240556330307887 -0.18479875362473361 0 -0.35323542112630057 -0.1671812377988513 0 -0.35240556330307887 -0.18479875362473361 0 -0.33400288196205857 -0.17193246321376471 0 -0.35240556330307887 -0.18479875362473361 0 -0.33400288196205857 -0.17193246321376471 0 -0.33669316521431608 -0.19324526314955739 0 -0.33400288196205857 -0.17193246321376471 0 -0.32123008678095788 -0.18729232698745699 0 -0.33669316521431608 -0.19324526314955739 0 -0.3206808779707625 -0.15110047818677941 0 -0.34399943231138669 -0.15408109000358611 0 -0.33400288196205857 -0.17193246321376471 0 -0.34399943231138669 -0.15408109000358611 0 -0.35323542112630057 -0.1671812377988513 0 -0.33400288196205857 -0.17193246321376471 0 -0.30674796742087651 -0.1684647150882764 0 -0.3206808779707625 -0.15110047818677941 0 -0.33400288196205857 -0.17193246321376471 0 -0.30674796742087651 -0.1684647150882764 0 -0.33400288196205857 -0.17193246321376471 0 -0.32123008678095788 -0.18729232698745699 0 -0.30195969341908391 -0.19078830755985379 0 -0.32123008678095788 -0.18729232698745699 0 -0.32674672588845421 -0.2120308859258328 0 -0.32674672588845421 -0.2120308859258328 0 -0.35024140450074381 -0.20994798342056251 0 -0.32674672588845421 -0.2120308859258328 0 -0.33669316521431608 -0.19324526314955739 0 -0.35024140450074381 -0.20994798342056251 0 -0.32674672588845421 -0.2120308859258328 0 -0.35024140450074381 -0.20994798342056251 0 -0.3377174746324717 -0.2284461722996495 0 -0.32123008678095788 -0.18729232698745699 0 -0.32674672588845421 -0.2120308859258328 0 -0.33669316521431608 -0.19324526314955739 0 -0.35240556330307887 -0.18479875362473361 0 -0.36895563931783232 -0.19259611207654981 0 -0.35024140450074381 -0.20994798342056251 0 -0.35240556330307887 -0.18479875362473361 0 -0.33669316521431608 -0.19324526314955739 0 -0.35024140450074381 -0.20994798342056251 0 -0.36895563931783232 -0.19259611207654981 0 -0.37373608311303341 -0.20786508091529229 0 -0.35024140450074381 -0.20994798342056251 0 -0.37373608311303341 -0.20786508091529229 0 -0.35024140450074381 -0.20994798342056251 0 -0.37373608311303341 -0.20786508091529229 0 -0.35024140450074381 -0.20994798342056251 0 -0.36602803805366552 -0.21914337572849349 0 -0.37373608311303341 -0.20786508091529229 0 -0.36602803805366552 -0.21914337572849349 0 -0.37785639846487218 -0.21906994256996459 0 -0.35024140450074381 -0.20994798342056251 0 -0.357966965356528 -0.23170644806675769 0 -0.3377174746324717 -0.2284461722996495 0 -0.35024140450074381 -0.20994798342056251 0 -0.357966965356528 -0.23170644806675769 0 -0.36602803805366552 -0.21914337572849349 0 -0.357966965356528 -0.23170644806675769 0 -0.36602803805366552 -0.21914337572849349 0 -0.36983275924353248 -0.22875232439276311 0 -0.36602803805366552 -0.21914337572849349 0 -0.36983275924353248 -0.22875232439276311 0 -0.37785639846487218 -0.21906994256996459 0 -0.357966965356528 -0.23170644806675769 0 -0.36983275924353248 -0.22875232439276311 0 -0.37747963509906429 -0.24508953120583671 0 -0.35872453044413888 -0.25078889886649508 0 -0.357966965356528 -0.23170644806675769 0 -0.37747963509906429 -0.24508953120583671 0 -0.357966965356528 -0.23170644806675769 0 -0.34395992200845399 -0.24382677409400949 0 -0.3377174746324717 -0.2284461722996495 0 -0.35872453044413888 -0.25078889886649508 0 -0.357966965356528 -0.23170644806675769 0 -0.34395992200845399 -0.24382677409400949 0 -0.33345250408021371 -0.25331871279766999 0 -0.34395992200845399 -0.24382677409400949 0 -0.33132333615916232 -0.2411148243472106 0 -0.33345250408021371 -0.25331871279766999 0 -0.33132333615916232 -0.2411148243472106 0 -0.32023222063025569 -0.2489608815952247 0 -0.34395992200845399 -0.24382677409400949 0 -0.33132333615916232 -0.2411148243472106 0 -0.3377174746324717 -0.2284461722996495 0 -0.32674672588845421 -0.2120308859258328 0 -0.3377174746324717 -0.2284461722996495 0 -0.32066485276457768 -0.2334308190911655 0 -0.33132333615916232 -0.2411148243472106 0 -0.3377174746324717 -0.2284461722996495 0 -0.32066485276457768 -0.2334308190911655 0 -0.3004866401015065 -0.2269264896544945 0 -0.32674672588845421 -0.2120308859258328 0 -0.32066485276457768 -0.2334308190911655 0 -0.30748271917561598 -0.2431056607245809 0 -0.32066485276457768 -0.2334308190911655 0 -0.32023222063025569 -0.2489608815952247 0 -0.33132333615916232 -0.2411148243472106 0 -0.32066485276457768 -0.2334308190911655 0 -0.32023222063025569 -0.2489608815952247 0 -0.43445882011373449 -0.25478651907497341 0 -0.43806130733353449 -0.23541812032183559 0 -0.43445882011373449 -0.25478651907497341 0 -0.4258852610480256 -0.24284815888716721 0 -0.43806130733353449 -0.23541812032183559 0 -0.4258852610480256 -0.24284815888716721 0 -0.42538833238501789 -0.2333934851751748 0 -0.41698539980062188 -0.23875950084572559 0 -0.43445882011373449 -0.25478651907497341 0 -0.4258852610480256 -0.24284815888716721 0 -0.42335340856967768 -0.24893549408922019 0 -0.4258852610480256 -0.24284815888716721 0 -0.42538833238501789 -0.2333934851751748 0 -0.43806130733353449 -0.23541812032183559 0 -0.43091611572645672 -0.22699763907763329 0 -0.42538833238501789 -0.2333934851751748 0 -0.43806130733353449 -0.23541812032183559 0 -0.43091611572645672 -0.22699763907763329 0 -0.44166379455333399 -0.21604972156869759 0 -0.43806130733353449 -0.23541812032183559 0 -0.43091611572645672 -0.22699763907763329 0 -0.43133498143110582 -0.21921018883561361 0 -0.44166379455333399 -0.21604972156869759 0 -0.43133498143110582 -0.21921018883561361 0 -0.4232485836513401 -0.22477446532261011 0 -0.4232102070061276 -0.21869015764887889 0 -0.43091611572645672 -0.22699763907763329 0 -0.43133498143110582 -0.21921018883561361 0 -0.4232485836513401 -0.22477446532261011 0 -0.43091611572645672 -0.22699763907763329 0 -0.4232485836513401 -0.22477446532261011 0 -0.42538833238501789 -0.2333934851751748 0 -0.4232485836513401 -0.22477446532261011 0 -0.42538833238501789 -0.2333934851751748 0 -0.41731365953457839 -0.2310953018814938 0 -0.4232485836513401 -0.22477446532261011 0 -0.41731365953457839 -0.2310953018814938 0 -0.4121948509493269 -0.2247325638453028 0 -0.41731365953457839 -0.2310953018814938 0 -0.4080561583250083 -0.23272886934204159 0 -0.41698539980062188 -0.23875950084572559 0 -0.4232485836513401 -0.22477446532261011 0 -0.4121948509493269 -0.2247325638453028 0 -0.41685681033243982 -0.21746512418924929 0 -0.4232485836513401 -0.22477446532261011 0 -0.41685681033243982 -0.21746512418924929 0 -0.4232102070061276 -0.21869015764887889 0 -0.4121948509493269 -0.2247325638453028 0 -0.4080561583250083 -0.23272886934204159 0 -0.39971520205611372 -0.2221352637332015 0 -0.4121948509493269 -0.2247325638453028 0 -0.40807454407470489 -0.21592977391801271 0 -0.41685681033243982 -0.21746512418924929 0 -0.4121948509493269 -0.2247325638453028 0 -0.39971520205611372 -0.2221352637332015 0 -0.40807454407470489 -0.21592977391801271 0 -0.41731365953457839 -0.2310953018814938 0 -0.4121948509493269 -0.2247325638453028 0 -0.4080561583250083 -0.23272886934204159 0 -0.4080561583250083 -0.23272886934204159 0 -0.40983148527785651 -0.24118391776602099 0 -0.41698539980062188 -0.23875950084572559 0 -0.42538833238501789 -0.2333934851751748 0 -0.41731365953457839 -0.2310953018814938 0 -0.41698539980062188 -0.23875950084572559 0 -0.40983148527785651 -0.24118391776602099 0 -0.41698539980062188 -0.23875950084572559 0 -0.41627810448972868 -0.24641300060905449 0 -0.4258852610480256 -0.24284815888716721 0 -0.42335340856967768 -0.24893549408922019 0 -0.41627810448972868 -0.24641300060905449 0 -0.4258852610480256 -0.24284815888716721 0 -0.41698539980062188 -0.23875950084572559 0 -0.41627810448972868 -0.24641300060905449 0 -0.41679144862722167 -0.25169429778568547 0 -0.42335340856967768 -0.24893549408922019 0 -0.41627810448972868 -0.24641300060905449 0 -0.41385673751816382 -0.25312989710486528 0 -0.41627810448972868 -0.24641300060905449 0 -0.4086566941719203 -0.24778871483445111 0 -0.40983148527785651 -0.24118391776602099 0 -0.41627810448972868 -0.24641300060905449 0 -0.4086566941719203 -0.24778871483445111 0 -0.40282532782868952 -0.25224285689579767 0 -0.4086566941719203 -0.24778871483445111 0 -0.40022281387448849 -0.24084313907701979 0 -0.40983148527785651 -0.24118391776602099 0 -0.4086566941719203 -0.24778871483445111 0 -0.40022281387448849 -0.24084313907701979 0 -0.4080561583250083 -0.23272886934204159 0 -0.40983148527785651 -0.24118391776602099 0 -0.40022281387448849 -0.24084313907701979 0 -0.40022281387448849 -0.24084313907701979 0 -0.3903832871219331 -0.2411545733314838 0 -0.38772777019650018 -0.2315142496456449 0 -0.3938256931015453 -0.25037754026629511 0 -0.40022281387448849 -0.24084313907701979 0 -0.3903832871219331 -0.2411545733314838 0 -0.3938256931015453 -0.25037754026629511 0 -0.3903832871219331 -0.2411545733314838 0 -0.37747963509906429 -0.24508953120583671 0 -0.3903832871219331 -0.2411545733314838 0 -0.37747963509906429 -0.24508953120583671 0 -0.38772777019650018 -0.2315142496456449 0 -0.37747963509906429 -0.24508953120583671 0 -0.37785639846487218 -0.21906994256996459 0 -0.37747963509906429 -0.24508953120583671 0 -0.37785639846487218 -0.21906994256996459 0 -0.38772777019650018 -0.2315142496456449 0 -0.36983275924353248 -0.22875232439276311 0 -0.37747963509906429 -0.24508953120583671 0 -0.37785639846487218 -0.21906994256996459 0 -0.37785639846487218 -0.21906994256996459 0 -0.38772777019650018 -0.2315142496456449 0 -0.38790285805175961 -0.2167146319195192 0 -0.4080561583250083 -0.23272886934204159 0 -0.40022281387448849 -0.24084313907701979 0 -0.39971520205611372 -0.2221352637332015 0 -0.40022281387448849 -0.24084313907701979 0 -0.39971520205611372 -0.2221352637332015 0 -0.38772777019650018 -0.2315142496456449 0 -0.39971520205611372 -0.2221352637332015 0 -0.38790285805175961 -0.2167146319195192 0 -0.40022281387448849 -0.24084313907701979 0 -0.38772777019650018 -0.2315142496456449 0 -0.39971520205611372 -0.2221352637332015 0 -0.39971520205611372 -0.2221352637332015 0 -0.39723076172532301 -0.205782178410022 0 -0.40807454407470489 -0.21592977391801271 0 -0.39971520205611372 -0.2221352637332015 0 -0.39723076172532301 -0.205782178410022 0 -0.38790285805175961 -0.2167146319195192 0 -0.39723076172532301 -0.205782178410022 0 -0.41303892827123678 -0.21093405469715851 0 -0.40807454407470489 -0.21592977391801271 0 -0.37373608311303341 -0.20786508091529229 0 -0.39723076172532301 -0.205782178410022 0 -0.38370630256805799 -0.1971119561512929 0 -0.37373608311303341 -0.20786508091529229 0 -0.39723076172532301 -0.205782178410022 0 -0.38790285805175961 -0.2167146319195192 0 -0.37373608311303341 -0.20786508091529229 0 -0.39723076172532301 -0.205782178410022 0 -0.37373608311303341 -0.20786508091529229 0 -0.37785639846487218 -0.21906994256996459 0 -0.38790285805175961 -0.2167146319195192 0 -0.36895563931783232 -0.19259611207654981 0 -0.38370630256805799 -0.1971119561512929 0 -0.3831693110633177 -0.1873742460103984 0 -0.36895563931783232 -0.19259611207654981 0 -0.37373608311303341 -0.20786508091529229 0 -0.38370630256805799 -0.1971119561512929 0 -0.38370630256805799 -0.1971119561512929 0 -0.39543971762078378 -0.19194216334420211 0 -0.3831693110633177 -0.1873742460103984 0 -0.39723076172532301 -0.205782178410022 0 -0.38370630256805799 -0.1971119561512929 0 -0.39543971762078378 -0.19194216334420211 0 -0.39723076172532301 -0.205782178410022 0 -0.39543971762078378 -0.19194216334420211 0 -0.40534117689708921 -0.19634387975323889 0 -0.39543971762078378 -0.19194216334420211 0 -0.40534117689708921 -0.19634387975323889 0 -0.40730162077548249 -0.18407395049314179 0 -0.39723076172532301 -0.205782178410022 0 -0.40534117689708921 -0.19634387975323889 0 -0.42072544033761272 -0.20369927590475301 0 -0.42032122747045741 -0.1927313373696285 0 -0.42072544033761272 -0.20369927590475301 0 -0.40730162077548249 -0.18407395049314179 0 -0.42072544033761272 -0.20369927590475301 0 -0.40730162077548249 -0.18407395049314179 0 -0.40534117689708921 -0.19634387975323889 0 -0.42072544033761272 -0.20369927590475301 0 -0.40730162077548249 -0.18407395049314179 0 -0.39723076172532301 -0.205782178410022 0 -0.41303892827123678 -0.21093405469715851 0 -0.42072544033761272 -0.20369927590475301 0 -0.39723076172532301 -0.205782178410022 0 -0.42072544033761272 -0.20369927590475301 0 -0.41303892827123678 -0.21093405469715851 0 -0.40807454407470489 -0.21592977391801271 0 -0.41685681033243982 -0.21746512418924929 0 -0.41303892827123678 -0.21093405469715851 0 -0.41685681033243982 -0.21746512418924929 0 -0.42140045260962489 -0.21331085224804261 0 -0.41685681033243982 -0.21746512418924929 0 -0.42140045260962489 -0.21331085224804261 0 -0.4232102070061276 -0.21869015764887889 0 -0.41303892827123678 -0.21093405469715851 0 -0.42140045260962489 -0.21331085224804261 0 -0.42072544033761272 -0.20369927590475301 0 -0.42512182626149492 -0.2033095177213731 0 -0.43378961613155448 -0.20908682079381441 0 -0.44184138868315109 -0.20247798044170351 0 -0.42072544033761272 -0.20369927590475301 0 -0.42512182626149492 -0.2033095177213731 0 -0.43133498143110582 -0.21921018883561361 0 -0.42072544033761272 -0.20369927590475301 0 -0.42512182626149492 -0.2033095177213731 0 -0.43133498143110582 -0.21921018883561361 0 -0.42512182626149492 -0.2033095177213731 0 -0.43378961613155448 -0.20908682079381441 0 -0.43133498143110582 -0.21921018883561361 0 -0.42140045260962489 -0.21331085224804261 0 -0.4232102070061276 -0.21869015764887889 0 -0.43133498143110582 -0.21921018883561361 0 -0.42072544033761272 -0.20369927590475301 0 -0.43133498143110582 -0.21921018883561361 0 -0.42140045260962489 -0.21331085224804261 0 -0.42072544033761272 -0.20369927590475301 0 -0.43133498143110582 -0.21921018883561361 0 -0.43378961613155448 -0.20908682079381441 0 -0.44166379455333399 -0.21604972156869759 0 -0.42032122747045741 -0.1927313373696285 0 -0.44184138868315109 -0.20247798044170351 0 -0.42032122747045741 -0.1927313373696285 0 -0.43099962817645188 -0.18319011649723049 0 -0.43833565968517207 -0.19112957676178299 0 -0.42032122747045741 -0.1927313373696285 0 -0.42512182626149492 -0.2033095177213731 0 -0.44184138868315109 -0.20247798044170351 0 -0.42032122747045741 -0.1927313373696285 0 -0.43833565968517207 -0.19112957676178299 0 -0.44184138868315109 -0.20247798044170351 0 -0.42032122747045741 -0.1927313373696285 0 -0.42072544033761272 -0.20369927590475301 0 -0.42512182626149492 -0.2033095177213731 0 -0.42549584187692119 -0.17333418479170171 0 -0.43099962817645188 -0.18319011649723049 0 -0.41834400919125792 -0.18158621355319651 0 -0.42032122747045741 -0.1927313373696285 0 -0.43099962817645188 -0.18319011649723049 0 -0.41834400919125792 -0.18158621355319651 0 -0.43099962817645188 -0.18319011649723049 0 -0.43495901877196291 -0.17485617288990979 0 -0.44455133712372419 -0.18300714728765441 0 -0.42549584187692119 -0.17333418479170171 0 -0.43099962817645188 -0.18319011649723049 0 -0.43495901877196291 -0.17485617288990979 0 -0.42549584187692119 -0.17333418479170171 0 -0.43495901877196291 -0.17485617288990979 0 -0.43155613508544272 -0.1669321437644439 0 -0.43495901877196291 -0.17485617288990979 0 -0.43155613508544272 -0.1669321437644439 0 -0.44219215159727421 -0.16781727210851849 0 -0.43155613508544272 -0.1669321437644439 0 -0.43166640735559808 -0.1552039120346444 0 -0.44219215159727421 -0.16781727210851849 0 -0.43155613508544272 -0.1669321437644439 0 -0.4214232379976206 -0.16216052115063159 0 -0.43166640735559808 -0.1552039120346444 0 -0.42549584187692119 -0.17333418479170171 0 -0.43155613508544272 -0.1669321437644439 0 -0.4214232379976206 -0.16216052115063159 0 -0.42549584187692119 -0.17333418479170171 0 -0.4214232379976206 -0.16216052115063159 0 -0.41110577652129249 -0.1670682470007229 0 -0.4214232379976206 -0.16216052115063159 0 -0.41110577652129249 -0.1670682470007229 0 -0.40669002996807779 -0.1495058137550834 0 -0.41110577652129249 -0.1670682470007229 0 -0.41834400919125792 -0.18158621355319651 0 -0.40730162077548249 -0.18407395049314179 0 -0.42549584187692119 -0.17333418479170171 0 -0.41110577652129249 -0.1670682470007229 0 -0.41834400919125792 -0.18158621355319651 0 -0.42032122747045741 -0.1927313373696285 0 -0.41834400919125792 -0.18158621355319651 0 -0.40730162077548249 -0.18407395049314179 0 -0.39543971762078378 -0.19194216334420211 0 -0.40730162077548249 -0.18407395049314179 0 -0.39267839793348491 -0.17927693187167279 0 -0.40730162077548249 -0.18407395049314179 0 -0.39267839793348491 -0.17927693187167279 0 -0.39387780121335469 -0.16444862508152899 0 -0.40730162077548249 -0.18407395049314179 0 -0.39387780121335469 -0.16444862508152899 0 -0.37378547386561772 -0.17392500984250869 0 -0.36895563931783232 -0.19259611207654981 0 -0.3831693110633177 -0.1873742460103984 0 -0.37378547386561772 -0.17392500984250869 0 -0.39267839793348491 -0.17927693187167279 0 -0.3831693110633177 -0.1873742460103984 0 -0.37378547386561772 -0.17392500984250869 0 -0.39267839793348491 -0.17927693187167279 0 -0.39387780121335469 -0.16444862508152899 0 -0.39543971762078378 -0.19194216334420211 0 -0.39267839793348491 -0.17927693187167279 0 -0.3831693110633177 -0.1873742460103984 0 -0.37378547386561772 -0.17392500984250869 0 -0.37839901512320262 -0.15996290040625341 0 -0.39387780121335469 -0.16444862508152899 0 -0.37839901512320262 -0.15996290040625341 0 -0.39387780121335469 -0.16444862508152899 0 -0.3804539816512269 -0.14482329966991631 0 -0.41110577652129249 -0.1670682470007229 0 -0.39387780121335469 -0.16444862508152899 0 -0.40669002996807779 -0.1495058137550834 0 -0.41110577652129249 -0.1670682470007229 0 -0.40730162077548249 -0.18407395049314179 0 -0.39387780121335469 -0.16444862508152899 0 -0.39387780121335469 -0.16444862508152899 0 -0.3804539816512269 -0.14482329966991631 0 -0.40669002996807779 -0.1495058137550834 0 -0.3804539816512269 -0.14482329966991631 0 -0.39647179587780151 -0.13189450107720049 0 -0.40669002996807779 -0.1495058137550834 0 -0.3804539816512269 -0.14482329966991631 0 -0.40669002996807779 -0.1495058137550834 0 -0.39387780121335469 -0.16444862508152899 0 -0.3804539816512269 -0.14482329966991631 0 -0.3804539816512269 -0.14482329966991631 0 -0.38278168804071749 -0.12940228238898679 0 -0.39647179587780151 -0.13189450107720049 0 -0.3804539816512269 -0.14482329966991631 0 -0.39647179587780151 -0.13189450107720049 0 -0.37212838853434238 -0.11808059788504249 0 -0.37028068739271691 -0.13083580994494901 0 -0.38278168804071749 -0.12940228238898679 0 -0.37028068739271691 -0.13083580994494901 0 -0.3804539816512269 -0.14482329966991631 0 -0.38278168804071749 -0.12940228238898679 0 -0.38278168804071749 -0.12940228238898679 0 -0.39647179587780151 -0.13189450107720049 0 -0.39044023874876249 -0.11757149150947201 0 -0.39647179587780151 -0.13189450107720049 0 -0.40828286160401828 -0.1310364195873514 0 -0.40669002996807779 -0.1495058137550834 0 -0.39647179587780151 -0.13189450107720049 0 -0.40828286160401828 -0.1310364195873514 0 -0.41122993917504558 -0.1199812866788818 0 -0.39647179587780151 -0.13189450107720049 0 -0.41122993917504558 -0.1199812866788818 0 -0.40828286160401828 -0.1310364195873514 0 -0.41930562378398423 -0.12797048681614909 0 -0.41122993917504558 -0.1199812866788818 0 -0.41930562378398423 -0.12797048681614909 0 -0.41533589961201212 -0.13938201891822019 0 -0.4273858072007774 -0.14414008567558009 0 -0.40828286160401828 -0.1310364195873514 0 -0.41533589961201212 -0.13938201891822019 0 -0.40669002996807779 -0.1495058137550834 0 -0.40828286160401828 -0.1310364195873514 0 -0.41930562378398423 -0.12797048681614909 0 -0.41533589961201212 -0.13938201891822019 0 -0.40669002996807779 -0.1495058137550834 0 -0.43166640735559808 -0.1552039120346444 0 -0.4214232379976206 -0.16216052115063159 0 -0.40669002996807779 -0.1495058137550834 0 -0.43166640735559808 -0.1552039120346444 0 -0.41533589961201212 -0.13938201891822019 0 -0.40669002996807779 -0.1495058137550834 0 -0.4273858072007774 -0.14414008567558009 0 -0.40669002996807779 -0.1495058137550834 0 -0.4273858072007774 -0.14414008567558009 0 -0.43166640735559808 -0.1552039120346444 0 -0.43166640735559808 -0.1552039120346444 0 -0.43525592456887258 -0.14374997194848471 0 -0.44410307239699631 -0.15282998285397989 0 -0.4273858072007774 -0.14414008567558009 0 -0.43166640735559808 -0.1552039120346444 0 -0.43525592456887258 -0.14374997194848471 0 -0.41930562378398423 -0.12797048681614909 0 -0.43525592456887258 -0.14374997194848471 0 -0.41930562378398423 -0.12797048681614909 0 -0.4273858072007774 -0.14414008567558009 0 -0.43525592456887258 -0.14374997194848471 0 -0.41930562378398423 -0.12797048681614909 0 -0.4273858072007774 -0.14414008567558009 0 -0.41930562378398423 -0.12797048681614909 0 -0.43525592456887258 -0.14374997194848471 0 -0.43389101300267191 -0.13422730327376839 0 -0.41930562378398423 -0.12797048681614909 0 -0.43389101300267191 -0.13422730327376839 0 -0.4149348530849476 -0.1169905694289516 0 -0.43389101300267191 -0.13422730327376839 0 -0.4149348530849476 -0.1169905694289516 0 -0.43389101300267191 -0.13422730327376839 0 -0.43160182387889101 -0.1187955019330571 0 -0.44085253015216358 -0.1237950587173612 0 -0.43389101300267191 -0.13422730327376839 0 -0.44872577578551592 -0.13320174295465559 0 -0.452847172920396 -0.1514640371185853 0 -0.44872577578551592 -0.13320174295465559 0 -0.45896755277767909 -0.12575633132281341 0 -0.45000974795797011 -0.119430952696417 0 -0.44872577578551592 -0.13320174295465559 0 -0.45000974795797011 -0.119430952696417 0 -0.44085253015216358 -0.1237950587173612 0 -0.43389101300267191 -0.13422730327376839 0 -0.44872577578551592 -0.13320174295465559 0 -0.44085253015216358 -0.1237950587173612 0 -0.43525592456887258 -0.14374997194848471 0 -0.43389101300267191 -0.13422730327376839 0 -0.452847172920396 -0.1514640371185853 0 -0.43525592456887258 -0.14374997194848471 0 -0.44410307239699631 -0.15282998285397989 0 -0.452847172920396 -0.1514640371185853 0 -0.44872577578551592 -0.13320174295465559 0 -0.452847172920396 -0.1514640371185853 0 -0.456386085566235 -0.14096643446963419 0 -0.43389101300267191 -0.13422730327376839 0 -0.452847172920396 -0.1514640371185853 0 -0.44410307239699631 -0.15282998285397989 0 -0.452847172920396 -0.1514640371185853 0 -0.45664278474311831 -0.16090201031420531 0 -0.452847172920396 -0.1514640371185853 0 -0.456386085566235 -0.14096643446963419 0 -0.46738274896045578 -0.15003021006820461 0 -0.452847172920396 -0.1514640371185853 0 -0.46738274896045578 -0.15003021006820461 0 -0.45664278474311831 -0.16090201031420531 0 -0.456386085566235 -0.14096643446963419 0 -0.46738274896045578 -0.15003021006820461 0 -0.47200539146090159 -0.13839174763128981 0 -0.456386085566235 -0.14096643446963419 0 -0.47200539146090159 -0.13839174763128981 0 -0.47750202174635031 -0.1215216316744509 0 -0.456386085566235 -0.14096643446963419 0 -0.45896755277767909 -0.12575633132281341 0 -0.47750202174635031 -0.1215216316744509 0 -0.456386085566235 -0.14096643446963419 0 -0.47750202174635031 -0.1215216316744509 0 -0.44872577578551592 -0.13320174295465559 0 -0.456386085566235 -0.14096643446963419 0 -0.45896755277767909 -0.12575633132281341 0 -0.47200539146090159 -0.13839174763128981 0 -0.48675070957056549 -0.14104871431286931 0 -0.47750202174635031 -0.1215216316744509 0 -0.50000000000000011 -0.12648838757554831 0 -0.48675070957056549 -0.14104871431286931 0 -0.5 -0.15043640832747529 0 -0.50000000000000011 -0.12648838757554831 0 -0.48675070957056549 -0.14104871431286931 0 -0.47750202174635031 -0.1215216316744509 0 -0.48675070957056549 -0.14104871431286931 0 -0.5 -0.15043640832747529 0 -0.48062174440056549 -0.15969986187448909 0 -0.46738274896045578 -0.15003021006820461 0 -0.47200539146090159 -0.13839174763128981 0 -0.48675070957056549 -0.14104871431286931 0 -0.48675070957056549 -0.14104871431286931 0 -0.48062174440056549 -0.15969986187448909 0 -0.46738274896045578 -0.15003021006820461 0 -0.48675070957056549 -0.14104871431286931 0 -0.48062174440056549 -0.15969986187448909 0 -0.48062174440056549 -0.15969986187448909 0 -0.46548313673471758 -0.16971310035941381 0 -0.46753260370971428 -0.1600862956540782 0 -0.46738274896045578 -0.15003021006820461 0 -0.48062174440056549 -0.15969986187448909 0 -0.46753260370971428 -0.1600862956540782 0 -0.48062174440056549 -0.15969986187448909 0 -0.47449277923056221 -0.17835100943610771 0 -0.46548313673471758 -0.16971310035941381 0 -0.48062174440056549 -0.15969986187448909 0 -0.47449277923056221 -0.17835100943610771 0 -0.5 -0.15043640832747529 0 -0.48062174440056549 -0.15969986187448909 0 -0.49999999999999828 -0.17438442907940241 0 -0.48062174440056549 -0.15969986187448909 0 -0.49999999999999828 -0.17438442907940241 0 -0.47449277923056221 -0.17835100943610771 0 -0.49999999999999828 -0.17438442907940241 0 -0.47449277923056221 -0.17835100943610771 0 -0.49999999999999828 -0.17438442907940241 0 -0.47449277923056221 -0.17835100943610771 0 -0.48549376880548989 -0.19132810400505559 0 -0.47449277923056221 -0.17835100943610771 0 -0.46892716456320649 -0.19528781647494389 0 -0.47449277923056221 -0.17835100943610771 0 -0.45952205817714309 -0.18067907836188021 0 -0.46892716456320649 -0.19528781647494389 0 -0.45952205817714309 -0.18067907836188021 0 -0.46548313673471758 -0.16971310035941381 0 -0.45289664290439807 -0.17180374819378549 0 -0.47449277923056221 -0.17835100943610771 0 -0.45952205817714309 -0.18067907836188021 0 -0.47449277923056221 -0.17835100943610771 0 -0.45952205817714309 -0.18067907836188021 0 -0.46548313673471758 -0.16971310035941381 0 -0.46548313673471758 -0.16971310035941381 0 -0.46753260370971428 -0.1600862956540782 0 -0.45664278474311831 -0.16090201031420531 0 -0.46738274896045578 -0.15003021006820461 0 -0.46753260370971428 -0.1600862956540782 0 -0.45664278474311831 -0.16090201031420531 0 -0.46548313673471758 -0.16971310035941381 0 -0.45664278474311831 -0.16090201031420531 0 -0.45289664290439807 -0.17180374819378549 0 -0.45664278474311831 -0.16090201031420531 0 -0.45289664290439807 -0.17180374819378549 0 -0.44219215159727421 -0.16781727210851849 0 -0.43166640735559808 -0.1552039120346444 0 -0.45664278474311831 -0.16090201031420531 0 -0.44219215159727421 -0.16781727210851849 0 -0.43166640735559808 -0.1552039120346444 0 -0.45664278474311831 -0.16090201031420531 0 -0.43166640735559808 -0.1552039120346444 0 -0.44410307239699631 -0.15282998285397989 0 -0.45664278474311831 -0.16090201031420531 0 -0.43495901877196291 -0.17485617288990979 0 -0.44219215159727421 -0.16781727210851849 0 -0.44455133712372419 -0.18300714728765441 0 -0.43099962817645188 -0.18319011649723049 0 -0.44455133712372419 -0.18300714728765441 0 -0.43833565968517207 -0.19112957676178299 0 -0.45952205817714309 -0.18067907836188021 0 -0.44455133712372419 -0.18300714728765441 0 -0.45396471697207569 -0.194241302212698 0 -0.45952205817714309 -0.18067907836188021 0 -0.44455133712372419 -0.18300714728765441 0 -0.45952205817714309 -0.18067907836188021 0 -0.45289664290439807 -0.17180374819378549 0 -0.44455133712372419 -0.18300714728765441 0 -0.45289664290439807 -0.17180374819378549 0 -0.44219215159727421 -0.16781727210851849 0 -0.44455133712372419 -0.18300714728765441 0 -0.44455133712372419 -0.18300714728765441 0 -0.43833565968517207 -0.19112957676178299 0 -0.45396471697207569 -0.194241302212698 0 -0.43833565968517207 -0.19112957676178299 0 -0.44184138868315109 -0.20247798044170351 0 -0.45396471697207569 -0.194241302212698 0 -0.44184138868315109 -0.20247798044170351 0 -0.46336154989584488 -0.2122246235137781 0 -0.45396471697207569 -0.194241302212698 0 -0.44184138868315109 -0.20247798044170351 0 -0.46336154989584488 -0.2122246235137781 0 -0.45338394269579491 -0.2190794284651259 0 -0.43378961613155448 -0.20908682079381441 0 -0.44184138868315109 -0.20247798044170351 0 -0.44166379455333399 -0.21604972156869759 0 -0.44184138868315109 -0.20247798044170351 0 -0.44166379455333399 -0.21604972156869759 0 -0.45338394269579491 -0.2190794284651259 0 -0.44184138868315109 -0.20247798044170351 0 -0.46336154989584488 -0.2122246235137781 0 -0.46336154989584488 -0.2122246235137781 0 -0.46892716456320649 -0.19528781647494389 0 -0.46336154989584488 -0.2122246235137781 0 -0.45396471697207569 -0.194241302212698 0 -0.46892716456320649 -0.19528781647494389 0 -0.45952205817714309 -0.18067907836188021 0 -0.45396471697207569 -0.194241302212698 0 -0.46892716456320649 -0.19528781647494389 0 -0.47449277923056221 -0.17835100943610771 0 -0.46892716456320649 -0.19528781647494389 0 -0.48549376880548989 -0.19132810400505559 0 -0.46892716456320649 -0.19528781647494389 0 -0.48549376880548989 -0.19132810400505559 0 -0.47978640147694102 -0.20418872613165631 0 -0.5 -0.20182215567114031 0 -0.48549376880548989 -0.19132810400505559 0 -0.47978640147694102 -0.20418872613165631 0 -0.49999999999999828 -0.17438442907940241 0 -0.5 -0.20182215567114031 0 -0.48549376880548989 -0.19132810400505559 0 -0.5 -0.20182215567114031 0 -0.48114952412016337 -0.22028093099336349 0 -0.49893749834448198 -0.22833723847294871 0 -0.5 -0.20182215567114031 0 -0.47978640147694102 -0.20418872613165631 0 -0.48114952412016337 -0.22028093099336349 0 -0.46336154989584488 -0.2122246235137781 0 -0.48114952412016337 -0.22028093099336349 0 -0.46336154989584488 -0.2122246235137781 0 -0.47978640147694102 -0.20418872613165631 0 -0.48114952412016337 -0.22028093099336349 0 -0.46336154989584488 -0.2122246235137781 0 -0.46892716456320649 -0.19528781647494389 0 -0.47978640147694102 -0.20418872613165631 0 -0.46336154989584488 -0.2122246235137781 0 -0.48114952412016337 -0.22028093099336349 0 -0.46857810181099829 -0.22486784275082261 0 -0.48114952412016337 -0.22028093099336349 0 -0.48798868478634799 -0.231470988200419 0 -0.47142395938804471 -0.23802335247430181 0 -0.48114952412016337 -0.22028093099336349 0 -0.47142395938804471 -0.23802335247430181 0 -0.46857810181099829 -0.22486784275082261 0 -0.48114952412016337 -0.22028093099336349 0 -0.48798868478634799 -0.231470988200419 0 -0.49893749834448198 -0.22833723847294871 0 -0.48114952412016337 -0.22028093099336349 0 -0.49893749834448198 -0.22833723847294871 0 -0.48798868478634799 -0.231470988200419 0 -0.49893749834448198 -0.22833723847294871 0 -0.4875835208682564 -0.24248539692068891 0 -0.5 -0.25669760885461612 0 -0.49893749834448198 -0.22833723847294871 0 -0.4875835208682564 -0.24248539692068891 0 -0.48798868478634799 -0.231470988200419 0 -0.4875835208682564 -0.24248539692068891 0 -0.47142395938804471 -0.23802335247430181 0 -0.47878778985378329 -0.25835102983948688 0 -0.4875835208682564 -0.24248539692068891 0 -0.47142395938804471 -0.23802335247430181 0 -0.45662330498375908 -0.25656877445722759 0 -0.47142395938804471 -0.23802335247430181 0 -0.45034617445999431 -0.24335722649563979 0 -0.47142395938804471 -0.23802335247430181 0 -0.45735065046854989 -0.23051648340969341 0 -0.45034617445999431 -0.24335722649563979 0 -0.46336154989584488 -0.2122246235137781 0 -0.46857810181099829 -0.22486784275082261 0 -0.45735065046854989 -0.23051648340969341 0 -0.46336154989584488 -0.2122246235137781 0 -0.45735065046854989 -0.23051648340969341 0 -0.47142395938804471 -0.23802335247430181 0 -0.46857810181099829 -0.22486784275082261 0 -0.45735065046854989 -0.23051648340969341 0 -0.46336154989584488 -0.2122246235137781 0 -0.45338394269579491 -0.2190794284651259 0 -0.45735065046854989 -0.23051648340969341 0 -0.45338394269579491 -0.2190794284651259 0 -0.45735065046854989 -0.23051648340969341 0 -0.43806130733353449 -0.23541812032183559 0 -0.44166379455333399 -0.21604972156869759 0 -0.43806130733353449 -0.23541812032183559 0 -0.44166379455333399 -0.21604972156869759 0 -0.45338394269579491 -0.2190794284651259 0 -0.43806130733353449 -0.23541812032183559 0 -0.45735065046854989 -0.23051648340969341 0 -0.45034617445999431 -0.24335722649563979 0 -0.43806130733353449 -0.23541812032183559 0 -0.43445882011373449 -0.25478651907497341 0 -0.45034617445999431 -0.24335722649563979 0 -0.43806130733353449 -0.23541812032183559 0 -0.41324955929443102 -0.038374170610562031 0 -0.41005136228565903 -0.05540387285823338 0 -0.42435348212729052 -0.04457483879584373 0 -0.41324955929443102 -0.038374170610562031 0 -0.41005136228565903 -0.05540387285823338 0 -0.39900851660089293 -0.046429079601448257 0 -0.41324955929443102 -0.038374170610562031 0 -0.40747857107326091 -0.02424585309778798 0 -0.40045416304880688 -0.034240371911693122 0 -0.41005136228565903 -0.05540387285823338 0 -0.4246600563061857 -0.059067830999859447 0 -0.41422906440869389 -0.068128229862373102 0 -0.41005136228565903 -0.05540387285823338 0 -0.4246600563061857 -0.059067830999859447 0 -0.42435348212729052 -0.04457483879584373 0 -0.4246600563061857 -0.059067830999859447 0 -0.42435348212729052 -0.04457483879584373 0 -0.43957367317472601 -0.045089571971719818 0 -0.4246600563061857 -0.059067830999859447 0 -0.43957367317472601 -0.045089571971719818 0 -0.44544580640037118 -0.056213229689383748 0 -0.41324955929443102 -0.038374170610562031 0 -0.42435348212729052 -0.04457483879584373 0 -0.42981912379901888 -0.030443092666165631 0 -0.42435348212729052 -0.04457483879584373 0 -0.42981912379901888 -0.030443092666165631 0 -0.43957367317472601 -0.045089571971719818 0 -0.41302196833726168 -0.01226972299954816 0 -0.4392085005598273 -0.024676348383282701 0 -0.42659341977192161 -0.010103830507352861 0 -0.41302196833726168 -0.01226972299954816 0 -0.4392085005598273 -0.024676348383282701 0 -0.42981912379901888 -0.030443092666165631 0 -0.41673372021425997 -0.022240754673565791 0 -0.4392085005598273 -0.024676348383282701 0 -0.41302196833726168 -0.01226972299954816 0 -0.41673372021425997 -0.022240754673565791 0 -0.4392085005598273 -0.024676348383282701 0 -0.43741768347029059 -0.01288367903972009 0 -0.42659341977192161 -0.010103830507352861 0 -0.4392085005598273 -0.024676348383282701 0 -0.4441818909265971 -0.00998157505946092 0 -0.42578104856505677 0.0031949168855625672 0 -0.43741768347029059 -0.01288367903972009 0 -0.4441818909265971 -0.00998157505946092 0 -0.42578104856505677 0.0031949168855625672 0 -0.43741768347029059 -0.01288367903972009 0 -0.42659341977192161 -0.010103830507352861 0 -0.42578104856505677 0.0031949168855625672 0 -0.43741768347029059 -0.01288367903972009 0 -0.42578104856505677 0.0031949168855625672 0 -0.42659341977192161 -0.010103830507352861 0 -0.41753789792717189 -0.0038843189997757009 0 -0.42578104856505677 0.0031949168855625672 0 -0.42659341977192161 -0.010103830507352861 0 -0.41753789792717189 -0.0038843189997757009 0 -0.41302196833726168 -0.01226972299954816 0 -0.41753789792717189 -0.0038843189997757009 0 -0.41302196833726168 -0.01226972299954816 0 -0.40771050441737638 -0.0035262849216432719 0 -0.41753789792717189 -0.0038843189997757009 0 -0.40771050441737638 -0.0035262849216432719 0 -0.41105156913745711 0.0034129409419674369 0 -0.42981912379901888 -0.030443092666165631 0 -0.40747857107326091 -0.02424585309778798 0 -0.41324955929443102 -0.038374170610562031 0 -0.42981912379901888 -0.030443092666165631 0 -0.40747857107326091 -0.02424585309778798 0 -0.42981912379901888 -0.030443092666165631 0 -0.41673372021425997 -0.022240754673565791 0 -0.40747857107326091 -0.02424585309778798 0 -0.41302196833726168 -0.01226972299954816 0 -0.41673372021425997 -0.022240754673565791 0 -0.40747857107326091 -0.02424585309778798 0 -0.41673372021425997 -0.022240754673565791 0 -0.40747857107326091 -0.02424585309778798 0 -0.40747857107326091 -0.02424585309778798 0 -0.38992317137517202 -0.02804917422583518 0 -0.40747857107326091 -0.02424585309778798 0 -0.38992317137517202 -0.02804917422583518 0 -0.38297625517291389 -0.017448943304264108 0 -0.40747857107326091 -0.02424585309778798 0 -0.38992317137517202 -0.02804917422583518 0 -0.40045416304880688 -0.034240371911693122 0 -0.40747857107326091 -0.02424585309778798 0 -0.39567459441968961 -0.012635194689989219 0 -0.38297625517291389 -0.017448943304264108 0 -0.40747857107326091 -0.02424585309778798 0 -0.38297625517291389 -0.017448943304264108 0 -0.41302196833726168 -0.01226972299954816 0 -0.40747857107326091 -0.02424585309778798 0 -0.39567459441968961 -0.012635194689989219 0 -0.41302196833726168 -0.01226972299954816 0 -0.40771050441737638 -0.0035262849216432719 0 -0.38683543611469601 0.0001369023841863784 0 -0.41302196833726168 -0.01226972299954816 0 -0.39567459441968961 -0.012635194689989219 0 -0.38683543611469601 0.0001369023841863784 0 -0.41302196833726168 -0.01226972299954816 0 -0.38683543611469601 0.0001369023841863784 0 -0.40771050441737638 -0.0035262849216432719 0 -0.38683543611469601 0.0001369023841863784 0 -0.40226596945639398 0.0014711925349297271 0 -0.39567459441968961 -0.012635194689989219 0 -0.38502252263107412 -0.0084426060797158468 0 -0.38683543611469601 0.0001369023841863784 0 -0.39567459441968961 -0.012635194689989219 0 -0.38502252263107412 -0.0084426060797158468 0 -0.38297625517291389 -0.017448943304264108 0 -0.38502252263107412 -0.0084426060797158468 0 -0.38009964520605882 -0.0090403485437739461 0 -0.38297625517291389 -0.017448943304264108 0 -0.37278444596104371 -0.0079457960458173115 0 -0.38009964520605882 -0.0090403485437739461 0 -0.38297625517291389 -0.017448943304264108 0 -0.37474494217865062 -0.0022388935110706832 0 -0.38502252263107412 -0.0084426060797158468 0 -0.38683543611469601 0.0001369023841863784 0 -0.37474494217865062 -0.0022388935110706832 0 -0.38502252263107412 -0.0084426060797158468 0 -0.38009964520605882 -0.0090403485437739461 0 -0.37474494217865062 -0.0022388935110706832 0 -0.37278444596104371 -0.0079457960458173115 0 -0.38009964520605882 -0.0090403485437739461 0 -0.37236777167708351 -0.031852495353884333 0 -0.38992317137517202 -0.02804917422583518 0 -0.37990921189048049 -0.023302515363219579 0 -0.37236777167708351 -0.031852495353884333 0 -0.38992317137517202 -0.02804917422583518 0 -0.38992317137517202 -0.02804917422583518 0 -0.38297625517291389 -0.017448943304264108 0 -0.37990921189048049 -0.023302515363219579 0 -0.3739022591900184 -0.02415390189740213 0 -0.38297625517291389 -0.017448943304264108 0 -0.37990921189048049 -0.023302515363219579 0 -0.37236777167708351 -0.031852495353884333 0 -0.3739022591900184 -0.02415390189740213 0 -0.37990921189048049 -0.023302515363219579 0 -0.37236777167708351 -0.031852495353884333 0 -0.37990921189048049 -0.023302515363219579 0 -0.38458287424021398 -0.039388642062709187 0 -0.39900851660089293 -0.046429079601448257 0 -0.3815482533063424 -0.052412606119804542 0 -0.37355784227175309 -0.045246792894939887 0 -0.37236777167708351 -0.031852495353884333 0 -0.38458287424021398 -0.039388642062709187 0 -0.37236777167708351 -0.031852495353884333 0 -0.38992317137517202 -0.02804917422583518 0 -0.38458287424021398 -0.039388642062709187 0 -0.37355784227175309 -0.045246792894939887 0 -0.38458287424021398 -0.039388642062709187 0 -0.3815482533063424 -0.052412606119804542 0 -0.38458287424021398 -0.039388642062709187 0 -0.39900851660089293 -0.046429079601448257 0 -0.40045416304880688 -0.034240371911693122 0 -0.38992317137517202 -0.02804917422583518 0 -0.38458287424021398 -0.039388642062709187 0 -0.40045416304880688 -0.034240371911693122 0 -0.41324955929443102 -0.038374170610562031 0 -0.39900851660089293 -0.046429079601448257 0 -0.40045416304880688 -0.034240371911693122 0 -0.39900851660089293 -0.046429079601448257 0 -0.39626447370361728 -0.06091275685647668 0 -0.3815482533063424 -0.052412606119804542 0 -0.41005136228565903 -0.05540387285823338 0 -0.39626447370361728 -0.06091275685647668 0 -0.40517181862379281 -0.066558370858305557 0 -0.41005136228565903 -0.05540387285823338 0 -0.39900851660089293 -0.046429079601448257 0 -0.39626447370361728 -0.06091275685647668 0 -0.36862349457690058 -0.057461967220355487 0 -0.3815482533063424 -0.052412606119804542 0 -0.37947166312044489 -0.067272628224985004 0 -0.3815482533063424 -0.052412606119804542 0 -0.37947166312044489 -0.067272628224985004 0 -0.39260231949431601 -0.074533368335879327 0 -0.36882665317829499 -0.078032107790563188 0 -0.39260231949431601 -0.074533368335879327 0 -0.39626447370361728 -0.06091275685647668 0 -0.3815482533063424 -0.052412606119804542 0 -0.39260231949431601 -0.074533368335879327 0 -0.3815482533063424 -0.052412606119804542 0 -0.39260231949431601 -0.074533368335879327 0 -0.36882665317829499 -0.078032107790563188 0 -0.37947166312044489 -0.067272628224985004 0 -0.39260231949431601 -0.074533368335879327 0 -0.36882665317829499 -0.078032107790563188 0 -0.39260231949431601 -0.074533368335879327 0 -0.39002829617667018 -0.099006697234722524 0 -0.36882665317829499 -0.078032107790563188 0 -0.39002829617667018 -0.099006697234722524 0 -0.37367929427193591 -0.1014825750548952 0 -0.36882665317829499 -0.078032107790563188 0 -0.39002829617667018 -0.099006697234722524 0 -0.39260231949431601 -0.074533368335879327 0 -0.39002829617667018 -0.099006697234722524 0 -0.39510370691593599 -0.098958215311000047 0 -0.39260231949431601 -0.074533368335879327 0 -0.40274583300482147 -0.094831984843681591 0 -0.39260231949431601 -0.074533368335879327 0 -0.39510370691593599 -0.098958215311000047 0 -0.40274583300482147 -0.094831984843681591 0 -0.40361170428446441 -0.083317353290434007 0 -0.39260231949431601 -0.074533368335879327 0 -0.40274583300482147 -0.094831984843681591 0 -0.40361170428446441 -0.083317353290434007 0 -0.39867569396630093 -0.073639632925658519 0 -0.40696916935602839 -0.074517235882718885 0 -0.39867569396630093 -0.073639632925658519 0 -0.40517181862379281 -0.066558370858305557 0 -0.40696916935602839 -0.074517235882718885 0 -0.39626447370361728 -0.06091275685647668 0 -0.39867569396630093 -0.073639632925658519 0 -0.40517181862379281 -0.066558370858305557 0 -0.39626447370361728 -0.06091275685647668 0 -0.39867569396630093 -0.073639632925658519 0 -0.39260231949431601 -0.074533368335879327 0 -0.40361170428446441 -0.083317353290434007 0 -0.39867569396630093 -0.073639632925658519 0 -0.39260231949431601 -0.074533368335879327 0 -0.39867569396630093 -0.073639632925658519 0 -0.39260231949431601 -0.074533368335879327 0 -0.37212838853434238 -0.11808059788504249 0 -0.38278168804071749 -0.12940228238898679 0 -0.39044023874876249 -0.11757149150947201 0 -0.37367929427193591 -0.1014825750548952 0 -0.37212838853434238 -0.11808059788504249 0 -0.39044023874876249 -0.11757149150947201 0 -0.37367929427193591 -0.1014825750548952 0 -0.39044023874876249 -0.11757149150947201 0 -0.39002829617667018 -0.099006697234722524 0 -0.39510370691593599 -0.098958215311000047 0 -0.40274583300482147 -0.094831984843681591 0 -0.41288934651532883 -0.11513060135148299 0 -0.39002829617667018 -0.099006697234722524 0 -0.39510370691593599 -0.098958215311000047 0 -0.41122993917504558 -0.1199812866788818 0 -0.39510370691593599 -0.098958215311000047 0 -0.41288934651532883 -0.11513060135148299 0 -0.39647179587780151 -0.13189450107720049 0 -0.39044023874876249 -0.11757149150947201 0 -0.41122993917504558 -0.1199812866788818 0 -0.39002829617667018 -0.099006697234722524 0 -0.41122993917504558 -0.1199812866788818 0 -0.39044023874876249 -0.11757149150947201 0 -0.39002829617667018 -0.099006697234722524 0 -0.41122993917504558 -0.1199812866788818 0 -0.39510370691593599 -0.098958215311000047 0 -0.41122993917504558 -0.1199812866788818 0 -0.41288934651532883 -0.11513060135148299 0 -0.41930562378398423 -0.12797048681614909 0 -0.41122993917504558 -0.1199812866788818 0 -0.4149348530849476 -0.1169905694289516 0 -0.41930562378398423 -0.12797048681614909 0 -0.41122993917504558 -0.1199812866788818 0 -0.41930562378398423 -0.12797048681614909 0 -0.4149348530849476 -0.1169905694289516 0 -0.41122993917504558 -0.1199812866788818 0 -0.41288934651532883 -0.11513060135148299 0 -0.4149348530849476 -0.1169905694289516 0 -0.41122993917504558 -0.1199812866788818 0 -0.4149348530849476 -0.1169905694289516 0 -0.41288934651532883 -0.11513060135148299 0 -0.4149348530849476 -0.1169905694289516 0 -0.41288934651532883 -0.11513060135148299 0 -0.4149348530849476 -0.1169905694289516 0 -0.41458672172207622 -0.10427776634057311 0 -0.40274583300482147 -0.094831984843681591 0 -0.41288934651532883 -0.11513060135148299 0 -0.4149348530849476 -0.1169905694289516 0 -0.41458672172207622 -0.10427776634057311 0 -0.43059848591229039 -0.1043464168163742 0 -0.40274583300482147 -0.094831984843681591 0 -0.41288934651532883 -0.11513060135148299 0 -0.41458672172207622 -0.10427776634057311 0 -0.41458672172207622 -0.10427776634057311 0 -0.41348552386521947 -0.090840815536544176 0 -0.43025813067654672 -0.08737754853092726 0 -0.40274583300482147 -0.094831984843681591 0 -0.41458672172207622 -0.10427776634057311 0 -0.41348552386521947 -0.090840815536544176 0 -0.43059848591229039 -0.1043464168163742 0 -0.43025813067654672 -0.08737754853092726 0 -0.44626211873963212 -0.091702264203795431 0 -0.41458672172207622 -0.10427776634057311 0 -0.43059848591229039 -0.1043464168163742 0 -0.43025813067654672 -0.08737754853092726 0 -0.41458672172207622 -0.10427776634057311 0 -0.43025813067654672 -0.08737754853092726 0 -0.4149348530849476 -0.1169905694289516 0 -0.43059848591229039 -0.1043464168163742 0 -0.43160182387889101 -0.1187955019330571 0 -0.4149348530849476 -0.1169905694289516 0 -0.43059848591229039 -0.1043464168163742 0 -0.43389101300267191 -0.13422730327376839 0 -0.4149348530849476 -0.1169905694289516 0 -0.43160182387889101 -0.1187955019330571 0 -0.43059848591229039 -0.1043464168163742 0 -0.43160182387889101 -0.1187955019330571 0 -0.44003429013576911 -0.11331979272890801 0 -0.43160182387889101 -0.1187955019330571 0 -0.44085253015216358 -0.1237950587173612 0 -0.44003429013576911 -0.11331979272890801 0 -0.41422906440869389 -0.068128229862373102 0 -0.41539885585273961 -0.080089681603359497 0 -0.42594434486026628 -0.073522222089585226 0 -0.4246600563061857 -0.059067830999859447 0 -0.41422906440869389 -0.068128229862373102 0 -0.42594434486026628 -0.073522222089585226 0 -0.41005136228565903 -0.05540387285823338 0 -0.40517181862379281 -0.066558370858305557 0 -0.41422906440869389 -0.068128229862373102 0 -0.40517181862379281 -0.066558370858305557 0 -0.41422906440869389 -0.068128229862373102 0 -0.40696916935602839 -0.074517235882718885 0 -0.41422906440869389 -0.068128229862373102 0 -0.40696916935602839 -0.074517235882718885 0 -0.41539885585273961 -0.080089681603359497 0 -0.41348552386521947 -0.090840815536544176 0 -0.41539885585273961 -0.080089681603359497 0 -0.43025813067654672 -0.08737754853092726 0 -0.40361170428446441 -0.083317353290434007 0 -0.41348552386521947 -0.090840815536544176 0 -0.41539885585273961 -0.080089681603359497 0 -0.40361170428446441 -0.083317353290434007 0 -0.40696916935602839 -0.074517235882718885 0 -0.41539885585273961 -0.080089681603359497 0 -0.40361170428446441 -0.083317353290434007 0 -0.40274583300482147 -0.094831984843681591 0 -0.41348552386521947 -0.090840815536544176 0 -0.41539885585273961 -0.080089681603359497 0 -0.43025813067654672 -0.08737754853092726 0 -0.42594434486026628 -0.073522222089585226 0 -0.4246600563061857 -0.059067830999859447 0 -0.44592953963101739 -0.07047733072128165 0 -0.43025813067654672 -0.08737754853092726 0 -0.42594434486026628 -0.073522222089585226 0 -0.44592953963101739 -0.07047733072128165 0 -0.4246600563061857 -0.059067830999859447 0 -0.42594434486026628 -0.073522222089585226 0 -0.44592953963101739 -0.07047733072128165 0 -0.44592953963101739 -0.07047733072128165 0 -0.45893666683642192 -0.056450303318209168 0 -0.44592953963101739 -0.07047733072128165 0 -0.44626211873963212 -0.091702264203795431 0 -0.46192575156697407 -0.079058111591217034 0 -0.43025813067654672 -0.08737754853092726 0 -0.44592953963101739 -0.07047733072128165 0 -0.43025813067654672 -0.08737754853092726 0 -0.44592953963101739 -0.07047733072128165 0 -0.44626211873963212 -0.091702264203795431 0 -0.44626211873963212 -0.091702264203795431 0 -0.46631049206888459 -0.091444160656324658 0 -0.46192575156697407 -0.079058111591217034 0 -0.44626211873963212 -0.091702264203795431 0 -0.46192575156697407 -0.079058111591217034 0 -0.46631049206888459 -0.091444160656324658 0 -0.46192575156697407 -0.079058111591217034 0 -0.47702460168979111 -0.087157524427869615 0 -0.44592953963101739 -0.07047733072128165 0 -0.46192575156697407 -0.079058111591217034 0 -0.45893666683642192 -0.056450303318209168 0 -0.46192575156697407 -0.079058111591217034 0 -0.47491389520024407 -0.068573693827893439 0 -0.45893666683642192 -0.056450303318209168 0 -0.46192575156697407 -0.079058111591217034 0 -0.47491389520024407 -0.068573693827893439 0 -0.44592953963101739 -0.07047733072128165 0 -0.46192575156697407 -0.079058111591217034 0 -0.45000974795797011 -0.119430952696417 0 -0.44085253015216358 -0.1237950587173612 0 -0.44003429013576911 -0.11331979272890801 0 -0.45000974795797011 -0.119430952696417 0 -0.44003429013576911 -0.11331979272890801 0 -0.44926481423485548 -0.10476542824413421 0 -0.43059848591229039 -0.1043464168163742 0 -0.44626211873963212 -0.091702264203795431 0 -0.43059848591229039 -0.1043464168163742 0 -0.44626211873963212 -0.091702264203795431 0 -0.44926481423485548 -0.10476542824413421 0 -0.43059848591229039 -0.1043464168163742 0 -0.44003429013576911 -0.11331979272890801 0 -0.44926481423485548 -0.10476542824413421 0 -0.44626211873963212 -0.091702264203795431 0 -0.44926481423485548 -0.10476542824413421 0 -0.46153012095291662 -0.1019472767233552 0 -0.44626211873963212 -0.091702264203795431 0 -0.46631049206888459 -0.091444160656324658 0 -0.46153012095291662 -0.1019472767233552 0 -0.46631049206888459 -0.091444160656324658 0 -0.46153012095291662 -0.1019472767233552 0 -0.4710589232177344 -0.098453604121520433 0 -0.46153012095291662 -0.1019472767233552 0 -0.46221413283232399 -0.11366089481890911 0 -0.47430793409480421 -0.10627177682285049 0 -0.44926481423485548 -0.10476542824413421 0 -0.46153012095291662 -0.1019472767233552 0 -0.46221413283232399 -0.11366089481890911 0 -0.45896755277767909 -0.12575633132281341 0 -0.46221413283232399 -0.11366089481890911 0 -0.47750202174635031 -0.1215216316744509 0 -0.45000974795797011 -0.119430952696417 0 -0.44926481423485548 -0.10476542824413421 0 -0.46221413283232399 -0.11366089481890911 0 -0.45896755277767909 -0.12575633132281341 0 -0.45000974795797011 -0.119430952696417 0 -0.46221413283232399 -0.11366089481890911 0 -0.47750202174635031 -0.1215216316744509 0 -0.47430793409480421 -0.10627177682285049 0 -0.48673501487359588 -0.1010237797652184 0 -0.46221413283232399 -0.11366089481890911 0 -0.47750202174635031 -0.1215216316744509 0 -0.47430793409480421 -0.10627177682285049 0 -0.47430793409480421 -0.10627177682285049 0 -0.47745372589702628 -0.099742000537211661 0 -0.48673501487359588 -0.1010237797652184 0 -0.46153012095291662 -0.1019472767233552 0 -0.47430793409480421 -0.10627177682285049 0 -0.4710589232177344 -0.098453604121520433 0 -0.46631049206888459 -0.091444160656324658 0 -0.4710589232177344 -0.098453604121520433 0 -0.47771303140197108 -0.093218841439257433 0 -0.47430793409480421 -0.10627177682285049 0 -0.4710589232177344 -0.098453604121520433 0 -0.47745372589702628 -0.099742000537211661 0 -0.4710589232177344 -0.098453604121520433 0 -0.47745372589702628 -0.099742000537211661 0 -0.47771303140197108 -0.093218841439257433 0 -0.47745372589702628 -0.099742000537211661 0 -0.48673501487359588 -0.1010237797652184 0 -0.47771303140197108 -0.093218841439257433 0 -0.48673501487359588 -0.1010237797652184 0 -0.47771303140197108 -0.093218841439257433 0 -0.47702460168979111 -0.087157524427869615 0 -0.47750202174635031 -0.1215216316744509 0 -0.48673501487359588 -0.1010237797652184 0 -0.4986179579264654 -0.1020768288792674 0 -0.48673501487359588 -0.1010237797652184 0 -0.49842317329231273 -0.098636270432611556 0 -0.47702460168979111 -0.087157524427869615 0 -0.48673501487359588 -0.1010237797652184 0 -0.49842317329231273 -0.098636270432611556 0 -0.4986179579264654 -0.1020768288792674 0 -0.49999999999999939 -0.099482120969144883 0 -0.49842317329231273 -0.098636270432611556 0 -0.4986179579264654 -0.1020768288792674 0 -0.49842317329231273 -0.098636270432611556 0 -0.4986179579264654 -0.1020768288792674 0 -0.49999999999999939 -0.099482120969144883 0 -0.49842317329231273 -0.098636270432611556 0 -0.50000000000000011 -0.12648838757554831 0 -0.47750202174635031 -0.1215216316744509 0 -0.4986179579264654 -0.1020768288792674 0 -0.47750202174635031 -0.1215216316744509 0 -0.4986179579264654 -0.1020768288792674 0 -0.47491389520024407 -0.068573693827893439 0 -0.47702460168979111 -0.087157524427869615 0 -0.4847984782487687 -0.075944598732494498 0 -0.47491389520024407 -0.068573693827893439 0 -0.47702460168979111 -0.087157524427869615 0 -0.47967839073812912 -0.064727650616396362 0 -0.4847984782487687 -0.075944598732494498 0 -0.48794163871831331 -0.064119883023254248 0 -0.47967839073812912 -0.064727650616396362 0 -0.47491389520024407 -0.068573693827893439 0 -0.4847984782487687 -0.075944598732494498 0 -0.47967839073812912 -0.064727650616396362 0 -0.47491389520024407 -0.068573693827893439 0 -0.46192575156697407 -0.079058111591217034 0 -0.47702460168979111 -0.087157524427869615 0 -0.46192575156697407 -0.079058111591217034 0 -0.47491389520024407 -0.068573693827893439 0 -0.47702460168979111 -0.087157524427869615 0 -0.46631049206888459 -0.091444160656324658 0 -0.47771303140197108 -0.093218841439257433 0 -0.47702460168979111 -0.087157524427869615 0 -0.47771303140197108 -0.093218841439257433 0 -0.47702460168979111 -0.087157524427869615 0 -0.49842317329231273 -0.098636270432611556 0 -0.49712708577170861 -0.075742961183477536 0 -0.4847984782487687 -0.075944598732494498 0 -0.49999999999999939 -0.099482120969144883 0 -0.49842317329231273 -0.098636270432611556 0 -0.5 -0.078030389970551228 0 -0.49842317329231273 -0.098636270432611556 0 -0.49712708577170861 -0.075742961183477536 0 -0.49842317329231273 -0.098636270432611556 0 -0.5 -0.078030389970551228 0 -0.49712708577170861 -0.075742961183477536 0 -0.49842317329231273 -0.098636270432611556 0 -0.47702460168979111 -0.087157524427869615 0 -0.4847984782487687 -0.075944598732494498 0 -0.49842317329231273 -0.098636270432611556 0 -0.47702460168979111 -0.087157524427869615 0 -0.5 -0.078030389970551228 0 -0.49712708577170861 -0.075742961183477536 0 -0.49999999999999928 -0.056578658971957581 0 -0.49712708577170861 -0.075742961183477536 0 -0.49583099825110311 -0.052849651934343489 0 -0.49712708577170861 -0.075742961183477536 0 -0.48794163871831331 -0.064119883023254248 0 -0.49583099825110311 -0.052849651934343489 0 -0.49712708577170861 -0.075742961183477536 0 -0.4847984782487687 -0.075944598732494498 0 -0.48794163871831331 -0.064119883023254248 0 -0.49712708577170861 -0.075742961183477536 0 -0.49999999999999928 -0.056578658971957581 0 -0.49583099825110311 -0.052849651934343489 0 -0.49583099825110311 -0.052849651934343489 0 -0.47748890114140963 -0.036443372127734748 0 -0.48227324058185622 -0.051334552649559453 0 -0.49999999999999928 -0.056578658971957581 0 -0.49583099825110311 -0.052849651934343489 0 -0.49999999999999928 -0.056578658971957581 0 -0.50000000000000144 -0.053559852644015388 0 -0.49583099825110311 -0.052849651934343489 0 -0.48794163871831331 -0.064119883023254248 0 -0.49583099825110311 -0.052849651934343489 0 -0.48227324058185622 -0.051334552649559453 0 -0.50000000000000144 -0.053559852644015388 0 -0.49583099825110311 -0.052849651934343489 0 -0.48598145264485831 -0.02728491224803695 0 -0.49583099825110311 -0.052849651934343489 0 -0.47748890114140963 -0.036443372127734748 0 -0.48598145264485831 -0.02728491224803695 0 -0.50000000000000144 -0.053559852644015388 0 -0.48598145264485831 -0.02728491224803695 0 -0.50000000000000144 -0.053559852644015388 0 -0.48598145264485831 -0.02728491224803695 0 -0.5 -0.025161366008633609 0 -0.49583099825110311 -0.052849651934343489 0 -0.47748890114140963 -0.036443372127734748 0 -0.47748890114140963 -0.036443372127734748 0 -0.48598145264485831 -0.02728491224803695 0 -0.47748890114140963 -0.036443372127734748 0 -0.47194379404182718 -0.042423275915137587 0 -0.48227324058185622 -0.051334552649559453 0 -0.47748890114140963 -0.036443372127734748 0 -0.47194379404182718 -0.042423275915137587 0 -0.47748890114140963 -0.036443372127734748 0 -0.47194379404182718 -0.042423275915137587 0 -0.47056077858213702 -0.03024644074295027 0 -0.47194379404182718 -0.042423275915137587 0 -0.46539503278239303 -0.037082973767017267 0 -0.47056077858213702 -0.03024644074295027 0 -0.47194379404182718 -0.042423275915137587 0 -0.47056077858213702 -0.03024644074295027 0 -0.47748890114140963 -0.036443372127734748 0 -0.47056077858213702 -0.03024644074295027 0 -0.47748890114140963 -0.036443372127734748 0 -0.47056077858213702 -0.03024644074295027 0 -0.47745882259212458 -0.028728106929589409 0 -0.47967839073812912 -0.064727650616396362 0 -0.47491389520024407 -0.068573693827893439 0 -0.47194379404182718 -0.042423275915137587 0 -0.47967839073812912 -0.064727650616396362 0 -0.47194379404182718 -0.042423275915137587 0 -0.48227324058185622 -0.051334552649559453 0 -0.47491389520024407 -0.068573693827893439 0 -0.47194379404182718 -0.042423275915137587 0 -0.47967839073812912 -0.064727650616396362 0 -0.48794163871831331 -0.064119883023254248 0 -0.48227324058185622 -0.051334552649559453 0 -0.47491389520024407 -0.068573693827893439 0 -0.47194379404182718 -0.042423275915137587 0 -0.45893666683642192 -0.056450303318209168 0 -0.45893666683642192 -0.056450303318209168 0 -0.45743491846808387 -0.04563500224908737 0 -0.44544580640037118 -0.056213229689383748 0 -0.47194379404182718 -0.042423275915137587 0 -0.45893666683642192 -0.056450303318209168 0 -0.45743491846808387 -0.04563500224908737 0 -0.47194379404182718 -0.042423275915137587 0 -0.45893666683642192 -0.056450303318209168 0 -0.46539503278239303 -0.037082973767017267 0 -0.44890774518284438 -0.02927164544362729 0 -0.46539503278239303 -0.037082973767017267 0 -0.45215967652477718 -0.036640332234541717 0 -0.44890774518284438 -0.02927164544362729 0 -0.46539503278239303 -0.037082973767017267 0 -0.44890774518284438 -0.02927164544362729 0 -0.46189821575704781 -0.02986243911986371 0 -0.47194379404182718 -0.042423275915137587 0 -0.46539503278239303 -0.037082973767017267 0 -0.45743491846808387 -0.04563500224908737 0 -0.46539503278239303 -0.037082973767017267 0 -0.46189821575704781 -0.02986243911986371 0 -0.47056077858213702 -0.03024644074295027 0 -0.46539503278239303 -0.037082973767017267 0 -0.45743491846808387 -0.04563500224908737 0 -0.45215967652477718 -0.036640332234541717 0 -0.42981912379901888 -0.030443092666165631 0 -0.45215967652477718 -0.036640332234541717 0 -0.45743491846808387 -0.04563500224908737 0 -0.45215967652477718 -0.036640332234541717 0 -0.43957367317472601 -0.045089571971719818 0 -0.42981912379901888 -0.030443092666165631 0 -0.45215967652477718 -0.036640332234541717 0 -0.43957367317472601 -0.045089571971719818 0 -0.45743491846808387 -0.04563500224908737 0 -0.43957367317472601 -0.045089571971719818 0 -0.44544580640037118 -0.056213229689383748 0 -0.4246600563061857 -0.059067830999859447 0 -0.44592953963101739 -0.07047733072128165 0 -0.44544580640037118 -0.056213229689383748 0 -0.44592953963101739 -0.07047733072128165 0 -0.45893666683642192 -0.056450303318209168 0 -0.44544580640037118 -0.056213229689383748 0 -0.4441818909265971 -0.00998157505946092 0 -0.45588653083934588 0.00041698580085632909 0 -0.44737850259376799 0.0077656591989471307 0 -0.4441818909265971 -0.00998157505946092 0 -0.4570262928383732 -0.018140378997512391 0 -0.45633913854906122 -0.0094275687658610888 0 -0.4441818909265971 -0.00998157505946092 0 -0.45633913854906122 -0.0094275687658610888 0 -0.45588653083934588 0.00041698580085632909 0 -0.43741768347029059 -0.01288367903972009 0 -0.4441818909265971 -0.00998157505946092 0 -0.44890774518284438 -0.02927164544362729 0 -0.42981912379901888 -0.030443092666165631 0 -0.45215967652477718 -0.036640332234541717 0 -0.4392085005598273 -0.024676348383282701 0 -0.4441818909265971 -0.00998157505946092 0 -0.44890774518284438 -0.02927164544362729 0 -0.46258273328813732 -0.023158067004484729 0 -0.43741768347029059 -0.01288367903972009 0 -0.44890774518284438 -0.02927164544362729 0 -0.43741768347029059 -0.01288367903972009 0 -0.4392085005598273 -0.024676348383282701 0 -0.44890774518284438 -0.02927164544362729 0 -0.4392085005598273 -0.024676348383282701 0 -0.44890774518284438 -0.02927164544362729 0 -0.45215967652477718 -0.036640332234541717 0 -0.4392085005598273 -0.024676348383282701 0 -0.44890774518284438 -0.02927164544362729 0 -0.4441818909265971 -0.00998157505946092 0 -0.46258273328813732 -0.023158067004484729 0 -0.46258273328813732 -0.023158067004484729 0 -0.46826183959192841 -0.01000530680732737 0 -0.47056077858213702 -0.03024644074295027 0 -0.4441818909265971 -0.00998157505946092 0 -0.4570262928383732 -0.018140378997512391 0 -0.46258273328813732 -0.023158067004484729 0 -0.4570262928383732 -0.018140378997512391 0 -0.46258273328813732 -0.023158067004484729 0 -0.44890774518284438 -0.02927164544362729 0 -0.46189821575704781 -0.02986243911986371 0 -0.46258273328813732 -0.023158067004484729 0 -0.46258273328813732 -0.023158067004484729 0 -0.47056077858213702 -0.03024644074295027 0 -0.46189821575704781 -0.02986243911986371 0 -0.46258273328813732 -0.023158067004484729 0 -0.47056077858213702 -0.03024644074295027 0 -0.4570262928383732 -0.018140378997512391 0 -0.46258273328813732 -0.023158067004484729 0 -0.46826183959192841 -0.01000530680732737 0 -0.4570262928383732 -0.018140378997512391 0 -0.46826183959192841 -0.01000530680732737 0 -0.45633913854906122 -0.0094275687658610888 0 -0.46826183959192841 -0.01000530680732737 0 -0.45633913854906122 -0.0094275687658610888 0 -0.45588653083934588 0.00041698580085632909 0 -0.46826183959192841 -0.01000530680732737 0 -0.47597217662329228 -0.0085245425598697612 0 -0.4659629006017233 0.010235827128295859 0 -0.46826183959192841 -0.01000530680732737 0 -0.47597217662329228 -0.0085245425598697612 0 -0.47580415800009379 -0.02093770259963601 0 -0.47597217662329228 -0.0085245425598697612 0 -0.48922725890134677 -0.010453537226696331 0 -0.48082517856277007 0.001845263919603602 0 -0.47597217662329228 -0.0085245425598697612 0 -0.47580415800009379 -0.02093770259963601 0 -0.48598145264485831 -0.02728491224803695 0 -0.47597217662329228 -0.0085245425598697612 0 -0.48598145264485831 -0.02728491224803695 0 -0.46826183959192841 -0.01000530680732737 0 -0.47056077858213702 -0.03024644074295027 0 -0.47580415800009379 -0.02093770259963601 0 -0.47597217662329228 -0.0085245425598697612 0 -0.48598145264485831 -0.02728491224803695 0 -0.4893389393206713 -0.02366416211133009 0 -0.46826183959192841 -0.01000530680732737 0 -0.47056077858213702 -0.03024644074295027 0 -0.47056077858213702 -0.03024644074295027 0 -0.47580415800009379 -0.02093770259963601 0 -0.47745882259212458 -0.028728106929589409 0 -0.47580415800009379 -0.02093770259963601 0 -0.47745882259212458 -0.028728106929589409 0 -0.48598145264485831 -0.02728491224803695 0 -0.47748890114140963 -0.036443372127734748 0 -0.47745882259212458 -0.028728106929589409 0 -0.48598145264485831 -0.02728491224803695 0 -0.48598145264485831 -0.02728491224803695 0 -0.4893389393206713 -0.02366416211133009 0 -0.5 -0.025161366008633609 0 -0.48598145264485831 -0.02728491224803695 0 -0.4893389393206713 -0.02366416211133009 0 -0.4893389393206713 -0.02366416211133009 0 -0.5 -0.025161366008633609 0 -0.48922725890134677 -0.010453537226696331 0 -0.48922725890134677 -0.010453537226696331 0 -0.5 0.0032371206267481911 0 -0.48082517856277007 0.001845263919603602 0 -0.5 -0.025161366008633609 0 -0.48922725890134677 -0.010453537226696331 0 -0.5 0.0032371206267481911 0 -0.47597217662329228 -0.0085245425598697612 0 -0.4893389393206713 -0.02366416211133009 0 -0.48922725890134677 -0.010453537226696331 0 -0.5 0.0032371206267481911 0 -0.48596576445654982 0.01457961489688041 0 -0.48082517856277007 0.001845263919603602 0 -0.48596576445654982 0.01457961489688041 0 -0.47541999506787802 0.025418180444172121 0 -0.5 0.031635607262129987 0 -0.5 0.0032371206267481911 0 -0.48596576445654982 0.01457961489688041 0 -0.5 0.031635607262129987 0 -0.48596576445654982 0.01457961489688041 0 -0.47541999506787802 0.025418180444172121 0 -0.47401658579892991 0.013489912392399149 0 -0.47541999506787802 0.025418180444172121 0 -0.46963945276383978 0.01793989872667965 0 -0.47401658579892991 0.013489912392399149 0 -0.47597217662329228 -0.0085245425598697612 0 -0.48082517856277007 0.001845263919603602 0 -0.4659629006017233 0.010235827128295859 0 -0.47401658579892991 0.013489912392399149 0 -0.48082517856277007 0.001845263919603602 0 -0.4659629006017233 0.010235827128295859 0 -0.46963945276383978 0.01793989872667965 0 -0.47401658579892991 0.013489912392399149 0 -0.4659629006017233 0.010235827128295859 0 -0.47597217662329228 -0.0085245425598697612 0 -0.4659629006017233 0.010235827128295859 0 -0.48596576445654982 0.01457961489688041 0 -0.47401658579892991 0.013489912392399149 0 -0.48082517856277007 0.001845263919603602 0 -0.5 0.060034093897511798 0 -0.47816362815030861 0.043832779932641487 0 -0.48068047186290208 0.063626500276227002 0 -0.47541999506787802 0.025418180444172121 0 -0.5 0.031635607262129987 0 -0.47816362815030861 0.043832779932641487 0 -0.5 0.060034093897511798 0 -0.5 0.031635607262129987 0 -0.47816362815030861 0.043832779932641487 0 -0.47541999506787802 0.025418180444172121 0 -0.47816362815030861 0.043832779932641487 0 -0.46442391639916691 0.036471327701905212 0 -0.47816362815030861 0.043832779932641487 0 -0.46119618507356652 0.049359273152949731 0 -0.48068047186290208 0.063626500276227002 0 -0.46119618507356652 0.049359273152949731 0 -0.46103932749027238 0.064238871702306077 0 -0.48068047186290208 0.063626500276227002 0 -0.46119618507356652 0.049359273152949731 0 -0.44286953411296898 0.045255716157198693 0 -0.46103932749027238 0.064238871702306077 0 -0.47816362815030861 0.043832779932641487 0 -0.46119618507356652 0.049359273152949731 0 -0.46442391639916691 0.036471327701905212 0 -0.46119618507356652 0.049359273152949731 0 -0.46442391639916691 0.036471327701905212 0 -0.45082509298125129 0.038608595210277222 0 -0.46442391639916691 0.036471327701905212 0 -0.45082509298125129 0.038608595210277222 0 -0.4583939967914884 0.024422211169287101 0 -0.45082509298125129 0.038608595210277222 0 -0.4583939967914884 0.024422211169287101 0 -0.46119618507356652 0.049359273152949731 0 -0.45082509298125129 0.038608595210277222 0 -0.44286953411296898 0.045255716157198693 0 -0.45082509298125129 0.038608595210277222 0 -0.4405409619944019 0.035432846457562263 0 -0.4458839614772655 0.023387518650519249 0 -0.45082509298125129 0.038608595210277222 0 -0.4405409619944019 0.035432846457562263 0 -0.44286953411296898 0.045255716157198693 0 -0.4405409619944019 0.035432846457562263 0 -0.44286953411296898 0.045255716157198693 0 -0.43229092530358848 0.04451632412921195 0 -0.44286953411296898 0.045255716157198693 0 -0.44282721760043869 0.062046251170956107 0 -0.46103932749027238 0.064238871702306077 0 -0.44286953411296898 0.045255716157198693 0 -0.44282721760043869 0.062046251170956107 0 -0.43188097302969042 0.056955122555226501 0 -0.44286953411296898 0.045255716157198693 0 -0.46103932749027238 0.064238871702306077 0 -0.46826183959192841 -0.01000530680732737 0 -0.45588653083934588 0.00041698580085632909 0 -0.4659629006017233 0.010235827128295859 0 -0.46826183959192841 -0.01000530680732737 0 -0.4659629006017233 0.010235827128295859 0 -0.45609316173783881 0.014082317838893479 0 -0.45588653083934588 0.00041698580085632909 0 -0.4659629006017233 0.010235827128295859 0 -0.46963945276383978 0.01793989872667965 0 -0.4659629006017233 0.010235827128295859 0 -0.4583939967914884 0.024422211169287101 0 -0.4659629006017233 0.010235827128295859 0 -0.4583939967914884 0.024422211169287101 0 -0.47541999506787802 0.025418180444172121 0 -0.46963945276383978 0.01793989872667965 0 -0.4583939967914884 0.024422211169287101 0 -0.47541999506787802 0.025418180444172121 0 -0.46442391639916691 0.036471327701905212 0 -0.4583939967914884 0.024422211169287101 0 -0.45609316173783881 0.014082317838893479 0 -0.4659629006017233 0.010235827128295859 0 -0.4583939967914884 0.024422211169287101 0 -0.45609316173783881 0.014082317838893479 0 -0.4583939967914884 0.024422211169287101 0 -0.4458839614772655 0.023387518650519249 0 -0.45082509298125129 0.038608595210277222 0 -0.4583939967914884 0.024422211169287101 0 -0.4458839614772655 0.023387518650519249 0 -0.4405409619944019 0.035432846457562263 0 -0.4458839614772655 0.023387518650519249 0 -0.43566193494816191 0.02574822372494872 0 -0.4458839614772655 0.023387518650519249 0 -0.4359559447540089 0.01018896392150693 0 -0.43566193494816191 0.02574822372494872 0 -0.4441818909265971 -0.00998157505946092 0 -0.44737850259376799 0.0077656591989471307 0 -0.4359559447540089 0.01018896392150693 0 -0.4458839614772655 0.023387518650519249 0 -0.44737850259376799 0.0077656591989471307 0 -0.4359559447540089 0.01018896392150693 0 -0.45609316173783881 0.014082317838893479 0 -0.4458839614772655 0.023387518650519249 0 -0.44737850259376799 0.0077656591989471307 0 -0.45609316173783881 0.014082317838893479 0 -0.45588653083934588 0.00041698580085632909 0 -0.44737850259376799 0.0077656591989471307 0 -0.4441818909265971 -0.00998157505946092 0 -0.4359559447540089 0.01018896392150693 0 -0.42578104856505677 0.0031949168855625672 0 -0.42578104856505677 0.0031949168855625672 0 -0.41622595309658328 0.016397403714119251 0 -0.42870406893849561 0.019163111370922251 0 -0.4359559447540089 0.01018896392150693 0 -0.42578104856505677 0.0031949168855625672 0 -0.42870406893849561 0.019163111370922251 0 -0.41753789792717189 -0.0038843189997757009 0 -0.42578104856505677 0.0031949168855625672 0 -0.41105156913745711 0.0034129409419674369 0 -0.42578104856505677 0.0031949168855625672 0 -0.40852807671777941 0.0155494406680463 0 -0.41622595309658328 0.016397403714119251 0 -0.42578104856505677 0.0031949168855625672 0 -0.40852807671777941 0.0155494406680463 0 -0.41105156913745711 0.0034129409419674369 0 -0.42578104856505677 0.0031949168855625672 0 -0.40852807671777941 0.0155494406680463 0 -0.42578104856505677 0.0031949168855625672 0 -0.41622595309658328 0.016397403714119251 0 -0.40852807671777941 0.0155494406680463 0 -0.41105156913745711 0.0034129409419674369 0 -0.40262572535869262 0.0089097845909437267 0 -0.40771050441737638 -0.0035262849216432719 0 -0.41105156913745711 0.0034129409419674369 0 -0.40226596945639398 0.0014711925349297271 0 -0.40667085762811028 0.029599890542676258 0 -0.41622595309658328 0.016397403714119251 0 -0.42870406893849561 0.019163111370922251 0 -0.40667085762811028 0.029599890542676258 0 -0.42870406893849561 0.019163111370922251 0 -0.40667085762811028 0.029599890542676258 0 -0.41990433555607742 0.03061685230769556 0 -0.42870406893849561 0.019163111370922251 0 -0.40852807671777941 0.0155494406680463 0 -0.40667085762811028 0.029599890542676258 0 -0.41622595309658328 0.016397403714119251 0 -0.40667085762811028 0.029599890542676258 0 -0.41622595309658328 0.016397403714119251 0 -0.41990433555607742 0.03061685230769556 0 -0.4284463216954002 0.029357354603554459 0 -0.42870406893849561 0.019163111370922251 0 -0.4359559447540089 0.01018896392150693 0 -0.42870406893849561 0.019163111370922251 0 -0.43566193494816191 0.02574822372494872 0 -0.4284463216954002 0.029357354603554459 0 -0.42870406893849561 0.019163111370922251 0 -0.43566193494816191 0.02574822372494872 0 -0.4284463216954002 0.029357354603554459 0 -0.43566193494816191 0.02574822372494872 0 -0.43264023121812112 0.033917661463996759 0 -0.4405409619944019 0.035432846457562263 0 -0.43264023121812112 0.033917661463996759 0 -0.43229092530358848 0.04451632412921195 0 -0.43264023121812112 0.033917661463996759 0 -0.43229092530358848 0.04451632412921195 0 -0.42532103781614489 0.037340924150209003 0 -0.4405409619944019 0.035432846457562263 0 -0.43566193494816191 0.02574822372494872 0 -0.43264023121812112 0.033917661463996759 0 -0.43229092530358848 0.04451632412921195 0 -0.42532103781614489 0.037340924150209003 0 -0.42042490988599091 0.046091327469671317 0 -0.4284463216954002 0.029357354603554459 0 -0.43264023121812112 0.033917661463996759 0 -0.42532103781614489 0.037340924150209003 0 -0.41990433555607742 0.03061685230769556 0 -0.4284463216954002 0.029357354603554459 0 -0.42532103781614489 0.037340924150209003 0 -0.43229092530358848 0.04451632412921195 0 -0.43188097302969042 0.056955122555226501 0 -0.42585725303016408 0.051510102087770737 0 -0.44286953411296898 0.045255716157198693 0 -0.43229092530358848 0.04451632412921195 0 -0.43188097302969042 0.056955122555226501 0 -0.43229092530358848 0.04451632412921195 0 -0.42585725303016408 0.051510102087770737 0 -0.42042490988599091 0.046091327469671317 0 -0.43188097302969042 0.056955122555226501 0 -0.41883220390138681 0.058477634196973202 0 -0.43131469147834472 0.070632617455275076 0 -0.43188097302969042 0.056955122555226501 0 -0.42585725303016408 0.051510102087770737 0 -0.41883220390138681 0.058477634196973202 0 -0.41883220390138681 0.058477634196973202 0 -0.40840220717331749 0.048304634434869917 0 -0.39985653820026013 0.060860810446949978 0 -0.42585725303016408 0.051510102087770737 0 -0.41883220390138681 0.058477634196973202 0 -0.42042490988599091 0.046091327469671317 0 -0.41883220390138681 0.058477634196973202 0 -0.40840220717331749 0.048304634434869917 0 -0.42042490988599091 0.046091327469671317 0 -0.41990433555607742 0.03061685230769556 0 -0.42532103781614489 0.037340924150209003 0 -0.4122967326089878 0.037821593301397609 0 -0.42532103781614489 0.037340924150209003 0 -0.42042490988599091 0.046091327469671317 0 -0.4122967326089878 0.037821593301397609 0 -0.40840220717331749 0.048304634434869917 0 -0.4122967326089878 0.037821593301397609 0 -0.40579981868685489 0.041495006097714962 0 -0.40840220717331749 0.048304634434869917 0 -0.42042490988599091 0.046091327469671317 0 -0.4122967326089878 0.037821593301397609 0 -0.4122967326089878 0.037821593301397609 0 -0.40278544391907911 0.034968452634622761 0 -0.40579981868685489 0.041495006097714962 0 -0.40667085762811028 0.029599890542676258 0 -0.4122967326089878 0.037821593301397609 0 -0.40278544391907911 0.034968452634622761 0 -0.40667085762811028 0.029599890542676258 0 -0.41990433555607742 0.03061685230769556 0 -0.4122967326089878 0.037821593301397609 0 -0.40667085762811028 0.029599890542676258 0 -0.40278544391907911 0.034968452634622761 0 -0.40667085762811028 0.029599890542676258 0 -0.38856614517843069 0.038175802748282091 0 -0.40667085762811028 0.029599890542676258 0 -0.38856614517843069 0.038175802748282091 0 -0.39127510487050182 0.027903964450529759 0 -0.40667085762811028 0.029599890542676258 0 -0.40278544391907911 0.034968452634622761 0 -0.38856614517843069 0.038175802748282091 0 -0.40278544391907911 0.034968452634622761 0 -0.40579981868685489 0.041495006097714962 0 -0.3977250587697031 0.045015474274426849 0 -0.40840220717331749 0.048304634434869917 0 -0.40579981868685489 0.041495006097714962 0 -0.3977250587697031 0.045015474274426849 0 -0.40278544391907911 0.034968452634622761 0 -0.3977250587697031 0.045015474274426849 0 -0.38856614517843069 0.038175802748282091 0 -0.40840220717331749 0.048304634434869917 0 -0.3977250587697031 0.045015474274426849 0 -0.39985653820026013 0.060860810446949978 0 -0.3977250587697031 0.045015474274426849 0 -0.39985653820026013 0.060860810446949978 0 -0.38472691017257071 0.052921849058569698 0 -0.39985653820026013 0.060860810446949978 0 -0.38472691017257071 0.052921849058569698 0 -0.38510762700538009 0.066428587654483159 0 -0.38472691017257071 0.052921849058569698 0 -0.37046143272875132 0.04675171495388801 0 -0.37000681959492809 0.05831264468359916 0 -0.38472691017257071 0.052921849058569698 0 -0.38510762700538009 0.066428587654483159 0 -0.37000681959492809 0.05831264468359916 0 -0.38856614517843069 0.038175802748282091 0 -0.37871402691879819 0.03757115751491092 0 -0.37046143272875132 0.04675171495388801 0 -0.38856614517843069 0.038175802748282091 0 -0.37046143272875132 0.04675171495388801 0 -0.38472691017257071 0.052921849058569698 0 -0.38856614517843069 0.038175802748282091 0 -0.37046143272875132 0.04675171495388801 0 -0.38856614517843069 0.038175802748282091 0 -0.38315308642314733 0.033917821982192238 0 -0.39127510487050182 0.027903964450529759 0 -0.38856614517843069 0.038175802748282091 0 -0.38315308642314733 0.033917821982192238 0 -0.37871402691879819 0.03757115751491092 0 -0.3977250587697031 0.045015474274426849 0 -0.38472691017257071 0.052921849058569698 0 -0.38856614517843069 0.038175802748282091 0 -0.37871402691879819 0.03757115751491092 0 -0.3764786745208083 0.032098692741998169 0 -0.37046143272875132 0.04675171495388801 0 -0.38315308642314733 0.033917821982192238 0 -0.3764786745208083 0.032098692741998169 0 -0.38155727091044611 0.028316364585127811 0 -0.38315308642314733 0.033917821982192238 0 -0.37871402691879819 0.03757115751491092 0 -0.3764786745208083 0.032098692741998169 0 -0.3764786745208083 0.032098692741998169 0 -0.38155727091044611 0.028316364585127811 0 -0.37960108001976323 0.022263106047543741 0 -0.37960108001976323 0.022263106047543741 0 -0.37998819155715241 0.0057865511937031933 0 -0.37123175334181557 0.027162262264614271 0 -0.3764786745208083 0.032098692741998169 0 -0.37960108001976323 0.022263106047543741 0 -0.37123175334181557 0.027162262264614271 0 -0.38155727091044611 0.028316364585127811 0 -0.38533699425949169 0.022674384769296389 0 -0.37960108001976323 0.022263106047543741 0 -0.38155727091044611 0.028316364585127811 0 -0.38533699425949169 0.022674384769296389 0 -0.39127510487050182 0.027903964450529759 0 -0.38315308642314733 0.033917821982192238 0 -0.38155727091044611 0.028316364585127811 0 -0.39127510487050182 0.027903964450529759 0 -0.39054146691731162 0.018060194648231769 0 -0.38533699425949169 0.022674384769296389 0 -0.39127510487050182 0.027903964450529759 0 -0.38533699425949169 0.022674384769296389 0 -0.3837100485794358 0.01682829411504885 0 -0.37960108001976323 0.022263106047543741 0 -0.39054146691731162 0.018060194648231769 0 -0.38533699425949169 0.022674384769296389 0 -0.3837100485794358 0.01682829411504885 0 -0.3837100485794358 0.01682829411504885 0 -0.37960108001976323 0.022263106047543741 0 -0.37998819155715241 0.0057865511937031933 0 -0.37998819155715241 0.0057865511937031933 0 -0.38683543611469601 0.0001369023841863784 0 -0.36064890389212972 0.0125435277679194 0 -0.37998819155715241 0.0057865511937031933 0 -0.38683543611469601 0.0001369023841863784 0 -0.38901012294298121 0.0062908016400105649 0 -0.38683543611469601 0.0001369023841863784 0 -0.38901012294298121 0.0062908016400105649 0 -0.39501457079486157 0.0055715078560810288 0 -0.37998819155715241 0.0057865511937031933 0 -0.38901012294298121 0.0062908016400105649 0 -0.38744744785130802 0.01185902438546781 0 -0.3837100485794358 0.01682829411504885 0 -0.37998819155715241 0.0057865511937031933 0 -0.38744744785130802 0.01185902438546781 0 -0.38901012294298121 0.0062908016400105649 0 -0.38744744785130802 0.01185902438546781 0 -0.39422738021243581 0.01127211946813913 0 -0.39054146691731162 0.018060194648231769 0 -0.3837100485794358 0.01682829411504885 0 -0.38744744785130802 0.01185902438546781 0 -0.39054146691731162 0.018060194648231769 0 -0.39422738021243581 0.01127211946813913 0 -0.39743955081534421 0.016339100765178138 0 -0.39054146691731162 0.018060194648231769 0 -0.38744744785130802 0.01185902438546781 0 -0.39422738021243581 0.01127211946813913 0 -0.39422738021243581 0.01127211946813913 0 -0.39501457079486157 0.0055715078560810288 0 -0.40262572535869262 0.0089097845909437267 0 -0.39422738021243581 0.01127211946813913 0 -0.40262572535869262 0.0089097845909437267 0 -0.39743955081534421 0.016339100765178138 0 -0.38683543611469601 0.0001369023841863784 0 -0.39501457079486157 0.0055715078560810288 0 -0.40226596945639398 0.0014711925349297271 0 -0.38901012294298121 0.0062908016400105649 0 -0.39422738021243581 0.01127211946813913 0 -0.39501457079486157 0.0055715078560810288 0 -0.41105156913745711 0.0034129409419674369 0 -0.40226596945639398 0.0014711925349297271 0 -0.40262572535869262 0.0089097845909437267 0 -0.39501457079486157 0.0055715078560810288 0 -0.40226596945639398 0.0014711925349297271 0 -0.40262572535869262 0.0089097845909437267 0 -0.40852807671777941 0.0155494406680463 0 -0.40262572535869262 0.0089097845909437267 0 -0.39743955081534421 0.016339100765178138 0 -0.40852807671777941 0.0155494406680463 0 -0.39127510487050182 0.027903964450529759 0 -0.40852807671777941 0.0155494406680463 0 -0.40667085762811028 0.029599890542676258 0 -0.39127510487050182 0.027903964450529759 0 -0.40852807671777941 0.0155494406680463 0 -0.39127510487050182 0.027903964450529759 0 -0.39743955081534421 0.016339100765178138 0 -0.39054146691731162 0.018060194648231769 0 -0.39127510487050182 0.027903964450529759 0 -0.39743955081534421 0.016339100765178138 0 -0.39792088922733271 0.1160922105611595 0 -0.40104213778508202 0.092866093853817611 0 -0.41467909406405851 0.1139188519362445 0 -0.39792088922733271 0.1160922105611595 0 -0.3782625711058698 0.101617738696854 0 -0.40104213778508202 0.092866093853817611 0 -0.3782625711058698 0.101617738696854 0 -0.38372255811484618 0.13025780258704611 0 -0.3782625711058698 0.101617738696854 0 -0.38372255811484618 0.13025780258704611 0 -0.36747352968705388 0.12273486311700831 0 -0.39792088922733271 0.1160922105611595 0 -0.3782625711058698 0.101617738696854 0 -0.38372255811484618 0.13025780258704611 0 -0.39792088922733271 0.1160922105611595 0 -0.3782625711058698 0.101617738696854 0 -0.3782625711058698 0.101617738696854 0 -0.40104213778508202 0.092866093853817611 0 -0.37470600383380392 0.082961959162170973 0 -0.39520328107527708 0.075997639864115257 0 -0.40104213778508202 0.092866093853817611 0 -0.37470600383380392 0.082961959162170973 0 -0.3782625711058698 0.101617738696854 0 -0.37470600383380392 0.082961959162170973 0 -0.40104213778508202 0.092866093853817611 0 -0.37470600383380392 0.082961959162170973 0 -0.38510762700538009 0.066428587654483159 0 -0.37000681959492809 0.05831264468359916 0 -0.37470600383380392 0.082961959162170973 0 -0.38510762700538009 0.066428587654483159 0 -0.39520328107527708 0.075997639864115257 0 -0.37470600383380392 0.082961959162170973 0 -0.39985653820026013 0.060860810446949978 0 -0.39520328107527708 0.075997639864115257 0 -0.41322693425173768 0.074694678089132868 0 -0.39985653820026013 0.060860810446949978 0 -0.38510762700538009 0.066428587654483159 0 -0.39520328107527708 0.075997639864115257 0 -0.39520328107527708 0.075997639864115257 0 -0.40104213778508202 0.092866093853817611 0 -0.41322693425173768 0.074694678089132868 0 -0.40104213778508202 0.092866093853817611 0 -0.41322693425173768 0.074694678089132868 0 -0.42957324029363853 0.085693113452461764 0 -0.41883220390138681 0.058477634196973202 0 -0.41322693425173768 0.074694678089132868 0 -0.43131469147834472 0.070632617455275076 0 -0.41883220390138681 0.058477634196973202 0 -0.39985653820026013 0.060860810446949978 0 -0.41322693425173768 0.074694678089132868 0 -0.43131469147834472 0.070632617455275076 0 -0.42957324029363853 0.085693113452461764 0 -0.4470315618909167 0.073148927984774167 0 -0.41322693425173768 0.074694678089132868 0 -0.43131469147834472 0.070632617455275076 0 -0.42957324029363853 0.085693113452461764 0 -0.44282721760043869 0.062046251170956107 0 -0.43188097302969042 0.056955122555226501 0 -0.43131469147834472 0.070632617455275076 0 -0.42957324029363853 0.085693113452461764 0 -0.42737827173636012 0.1027702285454639 0 -0.44343173260412461 0.097571970950778963 0 -0.40104213778508202 0.092866093853817611 0 -0.42737827173636012 0.1027702285454639 0 -0.41467909406405851 0.1139188519362445 0 -0.40104213778508202 0.092866093853817611 0 -0.42737827173636012 0.1027702285454639 0 -0.40104213778508202 0.092866093853817611 0 -0.42957324029363853 0.085693113452461764 0 -0.42737827173636012 0.1027702285454639 0 -0.39792088922733271 0.1160922105611595 0 -0.41467909406405851 0.1139188519362445 0 -0.417579207348795 0.13056668242546571 0 -0.39792088922733271 0.1160922105611595 0 -0.417579207348795 0.13056668242546571 0 -0.41467909406405851 0.1139188519362445 0 -0.42608096723388439 0.1205091241492761 0 -0.417579207348795 0.13056668242546571 0 -0.42737827173636012 0.1027702285454639 0 -0.41467909406405851 0.1139188519362445 0 -0.42608096723388439 0.1205091241492761 0 -0.42737827173636012 0.1027702285454639 0 -0.42608096723388439 0.1205091241492761 0 -0.43826405507869293 0.1195835460605416 0 -0.42608096723388439 0.1205091241492761 0 -0.43826405507869293 0.1195835460605416 0 -0.43293323699752101 0.1317554923945817 0 -0.43826405507869293 0.1195835460605416 0 -0.45371440568763749 0.1126743632371118 0 -0.44901593584904892 0.12912088192892021 0 -0.42737827173636012 0.1027702285454639 0 -0.43826405507869293 0.1195835460605416 0 -0.45371440568763749 0.1126743632371118 0 -0.4523882543875366 0.10983005993361 0 -0.45371440568763749 0.1126743632371118 0 -0.42737827173636012 0.1027702285454639 0 -0.4523882543875366 0.10983005993361 0 -0.44343173260412461 0.097571970950778963 0 -0.42737827173636012 0.1027702285454639 0 -0.4523882543875366 0.10983005993361 0 -0.45371440568763749 0.1126743632371118 0 -0.42737827173636012 0.1027702285454639 0 -0.45371440568763749 0.1126743632371118 0 -0.44343173260412461 0.097571970950778963 0 -0.45084974973894648 0.096020795281878568 0 -0.45306155814551219 0.1028275296158008 0 -0.44343173260412461 0.097571970950778963 0 -0.45084974973894648 0.096020795281878568 0 -0.44733932132275389 0.088290098875458828 0 -0.4523882543875366 0.10983005993361 0 -0.44343173260412461 0.097571970950778963 0 -0.45306155814551219 0.1028275296158008 0 -0.4523882543875366 0.10983005993361 0 -0.45306155814551219 0.1028275296158008 0 -0.45661100561120399 0.109540819014999 0 -0.45306155814551219 0.1028275296158008 0 -0.46084618436187341 0.10490351706993729 0 -0.45661100561120399 0.109540819014999 0 -0.45306155814551219 0.1028275296158008 0 -0.46084618436187341 0.10490351706993729 0 -0.45799439118323759 0.099220837031069903 0 -0.46084618436187341 0.10490351706993729 0 -0.4635407771028337 0.1124237257980706 0 -0.45661100561120399 0.109540819014999 0 -0.45799439118323759 0.099220837031069903 0 -0.46723244863383712 0.097971273043108306 0 -0.45594156200913483 0.091684632610025046 0 -0.45084974973894648 0.096020795281878568 0 -0.45799439118323759 0.099220837031069903 0 -0.45594156200913483 0.091684632610025046 0 -0.45084974973894648 0.096020795281878568 0 -0.45306155814551219 0.1028275296158008 0 -0.45799439118323759 0.099220837031069903 0 -0.46084618436187341 0.10490351706993729 0 -0.45799439118323759 0.099220837031069903 0 -0.46723244863383712 0.097971273043108306 0 -0.46084618436187341 0.10490351706993729 0 -0.46723244863383712 0.097971273043108306 0 -0.46686982756835349 0.1074114054382402 0 -0.46084618436187341 0.10490351706993729 0 -0.46686982756835349 0.1074114054382402 0 -0.4635407771028337 0.1124237257980706 0 -0.45371440568763749 0.1126743632371118 0 -0.46425598871103851 0.13528374379222011 0 -0.4635407771028337 0.1124237257980706 0 -0.45674497769142258 0.1138140594952527 0 -0.46958882025875243 0.12035793204680111 0 -0.46686982756835349 0.1074114054382402 0 -0.4635407771028337 0.1124237257980706 0 -0.47044075898603932 0.11380610730348489 0 -0.4635407771028337 0.1124237257980706 0 -0.46958882025875243 0.12035793204680111 0 -0.47044075898603932 0.11380610730348489 0 -0.45674497769142258 0.1138140594952527 0 -0.45371440568763749 0.1126743632371118 0 -0.46425598871103851 0.13528374379222011 0 -0.45674497769142258 0.1138140594952527 0 -0.46958882025875243 0.12035793204680111 0 -0.46425598871103851 0.13528374379222011 0 -0.4523882543875366 0.10983005993361 0 -0.45661100561120399 0.109540819014999 0 -0.45371440568763749 0.1126743632371118 0 -0.45674497769142258 0.1138140594952527 0 -0.45661100561120399 0.109540819014999 0 -0.45371440568763749 0.1126743632371118 0 -0.45674497769142258 0.1138140594952527 0 -0.45371440568763749 0.1126743632371118 0 -0.4635407771028337 0.1124237257980706 0 -0.45674497769142258 0.1138140594952527 0 -0.45661100561120399 0.109540819014999 0 -0.44282721760043869 0.062046251170956107 0 -0.4470315618909167 0.073148927984774167 0 -0.46103932749027238 0.064238871702306077 0 -0.44282721760043869 0.062046251170956107 0 -0.43131469147834472 0.070632617455275076 0 -0.4470315618909167 0.073148927984774167 0 -0.42957324029363853 0.085693113452461764 0 -0.44343173260412461 0.097571970950778963 0 -0.44733932132275389 0.088290098875458828 0 -0.42957324029363853 0.085693113452461764 0 -0.4470315618909167 0.073148927984774167 0 -0.44733932132275389 0.088290098875458828 0 -0.4470315618909167 0.073148927984774167 0 -0.44733932132275389 0.088290098875458828 0 -0.46047789149500767 0.082617330138573752 0 -0.45084974973894648 0.096020795281878568 0 -0.44733932132275389 0.088290098875458828 0 -0.45594156200913483 0.091684632610025046 0 -0.44733932132275389 0.088290098875458828 0 -0.45594156200913483 0.091684632610025046 0 -0.46047789149500767 0.082617330138573752 0 -0.46723244863383712 0.097971273043108306 0 -0.45594156200913483 0.091684632610025046 0 -0.46047789149500767 0.082617330138573752 0 -0.46047789149500767 0.082617330138573752 0 -0.46103932749027238 0.064238871702306077 0 -0.47920912086757578 0.083222027247413538 0 -0.4470315618909167 0.073148927984774167 0 -0.46047789149500767 0.082617330138573752 0 -0.46103932749027238 0.064238871702306077 0 -0.46103932749027238 0.064238871702306077 0 -0.48068047186290208 0.063626500276227002 0 -0.47920912086757578 0.083222027247413538 0 -0.46103932749027238 0.064238871702306077 0 -0.47920912086757578 0.083222027247413538 0 -0.46723244863383712 0.097971273043108306 0 -0.46047789149500767 0.082617330138573752 0 -0.47920912086757578 0.083222027247413538 0 -0.48068047186290208 0.063626500276227002 0 -0.47920912086757578 0.083222027247413538 0 -0.5 0.088432580532893601 0 -0.47920912086757578 0.083222027247413538 0 -0.49737891424487929 0.102205182792521 0 -0.47920912086757578 0.083222027247413538 0 -0.5 0.088432580532893601 0 -0.49737891424487929 0.102205182792521 0 -0.5 0.060034093897511798 0 -0.48068047186290208 0.063626500276227002 0 -0.5 0.088432580532893601 0 -0.47827810320487629 0.116675775998883 0 -0.48837893466537508 0.1117690854599766 0 -0.4842723158563047 0.1301441798928954 0 -0.47827810320487629 0.116675775998883 0 -0.47512549980118862 0.10796659812409699 0 -0.48837893466537508 0.1117690854599766 0 -0.47827810320487629 0.116675775998883 0 -0.46958882025875243 0.12035793204680111 0 -0.4842723158563047 0.1301441798928954 0 -0.47827810320487629 0.116675775998883 0 -0.47044075898603932 0.11380610730348489 0 -0.47512549980118862 0.10796659812409699 0 -0.46686982756835349 0.1074114054382402 0 -0.47044075898603932 0.11380610730348489 0 -0.47512549980118862 0.10796659812409699 0 -0.47827810320487629 0.116675775998883 0 -0.46958882025875243 0.12035793204680111 0 -0.47044075898603932 0.11380610730348489 0 -0.46723244863383712 0.097971273043108306 0 -0.47512549980118862 0.10796659812409699 0 -0.48162445158666772 0.1005823670901454 0 -0.46723244863383712 0.097971273043108306 0 -0.47920912086757578 0.083222027247413538 0 -0.48162445158666772 0.1005823670901454 0 -0.46723244863383712 0.097971273043108306 0 -0.46686982756835349 0.1074114054382402 0 -0.47512549980118862 0.10796659812409699 0 -0.47512549980118862 0.10796659812409699 0 -0.48162445158666772 0.1005823670901454 0 -0.48837893466537508 0.1117690854599766 0 -0.48162445158666772 0.1005823670901454 0 -0.49737891424487929 0.102205182792521 0 -0.48837893466537508 0.1117690854599766 0 -0.47920912086757578 0.083222027247413538 0 -0.48162445158666772 0.1005823670901454 0 -0.49737891424487929 0.102205182792521 0 -0.5 0.088432580532893601 0 -0.49737891424487929 0.102205182792521 0 -0.5 0.1168310671682755 0 -0.49737891424487929 0.102205182792521 0 -0.5 0.1168310671682755 0 -0.48837893466537508 0.1117690854599766 0 -0.5 0.1168310671682755 0 -0.48837893466537508 0.1117690854599766 0 -0.4842723158563047 0.1301441798928954 0 -0.5 0.1168310671682755 0 -0.4842723158563047 0.1301441798928954 0 -0.5 0.14522955380365729 0 -0.46958882025875243 0.12035793204680111 0 -0.4842723158563047 0.1301441798928954 0 -0.46425598871103851 0.13528374379222011 0 -0.4842723158563047 0.1301441798928954 0 -0.47479757173443998 0.15789312434732811 0 -0.46425598871103851 0.13528374379222011 0 -0.47479757173443998 0.15789312434732811 0 -0.46425598871103851 0.13528374379222011 0 -0.4842723158563047 0.1301441798928954 0 -0.5 0.14522955380365729 0 -0.47479757173443998 0.15789312434732811 0 -0.5 0.14522955380365729 0 -0.49999999999999972 0.17362804043903909 0 -0.47479757173443998 0.15789312434732811 0 -0.49999999999999972 0.17362804043903909 0 -0.47479757173443998 0.15789312434732811 0 -0.49999999999999972 0.17362804043903909 0 -0.49200992699072321 0.1743962810239672 0 -0.47479757173443998 0.15789312434732811 0 -0.48341269367675271 0.17637066895233999 0 -0.49170634683837577 0.1941587336203292 0 -0.49368671912131301 0.1828531969182482 0 -0.49999999999999972 0.17362804043903909 0 -0.5 0.19278741936367841 0 -0.49368671912131301 0.1828531969182482 0 -0.48341269367675271 0.17637066895233999 0 -0.49170634683837577 0.1941587336203292 0 -0.49368671912131301 0.1828531969182482 0 -0.49999999999999972 0.17362804043903909 0 -0.49200992699072321 0.1743962810239672 0 -0.49200992699072321 0.1743962810239672 0 -0.48341269367675271 0.17637066895233999 0 -0.49368671912131301 0.1828531969182482 0 -0.49200992699072321 0.1743962810239672 0 -0.48341269367675271 0.17637066895233999 0 -0.48341269367675271 0.17637066895233999 0 -0.45591042926964898 0.18268667049205081 0 -0.47274380268756999 0.19288508587190861 0 -0.48341269367675271 0.17637066895233999 0 -0.45591042926964898 0.18268667049205081 0 -0.49200992699072321 0.1743962810239672 0 -0.48341269367675271 0.17637066895233999 0 -0.47479757173443998 0.15789312434732811 0 -0.48341269367675271 0.17637066895233999 0 -0.47479757173443998 0.15789312434732811 0 -0.48341269367675271 0.17637066895233999 0 -0.47479757173443998 0.15789312434732811 0 -0.45723956394668003 0.16387676974864759 0 -0.48341269367675271 0.17637066895233999 0 -0.45723956394668003 0.16387676974864759 0 -0.45591042926964898 0.18268667049205081 0 -0.45591042926964898 0.18268667049205081 0 -0.43992511097516529 0.17411109905454999 0 -0.4284081648625454 0.1890026720317621 0 -0.45591042926964898 0.18268667049205081 0 -0.4284081648625454 0.1890026720317621 0 -0.45723956394668003 0.16387676974864759 0 -0.45591042926964898 0.18268667049205081 0 -0.43992511097516529 0.17411109905454999 0 -0.45723956394668003 0.16387676974864759 0 -0.43992511097516529 0.17411109905454999 0 -0.43892522612619872 0.15930650560997939 0 -0.43892522612619872 0.15930650560997939 0 -0.43796764784210812 0.14528805014891141 0 -0.45386540436598038 0.14482430837095511 0 -0.45723956394668003 0.16387676974864759 0 -0.43892522612619872 0.15930650560997939 0 -0.45386540436598038 0.14482430837095511 0 -0.45386540436598038 0.14482430837095511 0 -0.43293323699752101 0.1317554923945817 0 -0.43826405507869293 0.1195835460605416 0 -0.44901593584904892 0.12912088192892021 0 -0.43293323699752101 0.1317554923945817 0 -0.43796764784210812 0.14528805014891141 0 -0.45386540436598038 0.14482430837095511 0 -0.43293323699752101 0.1317554923945817 0 -0.44901593584904892 0.12912088192892021 0 -0.45386540436598038 0.14482430837095511 0 -0.43293323699752101 0.1317554923945817 0 -0.45371440568763749 0.1126743632371118 0 -0.44901593584904892 0.12912088192892021 0 -0.46425598871103851 0.13528374379222011 0 -0.44901593584904892 0.12912088192892021 0 -0.46425598871103851 0.13528374379222011 0 -0.45386540436598038 0.14482430837095511 0 -0.47479757173443998 0.15789312434732811 0 -0.45723956394668003 0.16387676974864759 0 -0.45386540436598038 0.14482430837095511 0 -0.47479757173443998 0.15789312434732811 0 -0.46425598871103851 0.13528374379222011 0 -0.45386540436598038 0.14482430837095511 0 -0.47479757173443998 0.15789312434732811 0 -0.45386540436598038 0.14482430837095511 0 -0.48226153920099157 0.23766317590200001 0 -0.47864167104372218 0.246590621409366 0 -0.48932095354102823 0.25454658797793611 0 -0.47315400564016008 0.2364435414805684 0 -0.47864167104372218 0.246590621409366 0 -0.46938038244821267 0.25133041049185839 0 -0.47315400564016008 0.2364435414805684 0 -0.48226153920099157 0.23766317590200001 0 -0.47864167104372218 0.246590621409366 0 -0.49106398183666961 0.22759324404760359 0 -0.48932095354102823 0.25454658797793611 0 -0.5 0.23810140997737081 0 -0.49106398183666961 0.22759324404760359 0 -0.48932095354102823 0.25454658797793611 0 -0.48226153920099157 0.23766317590200001 0 -0.49106398183666961 0.22759324404760359 0 -0.48932095354102823 0.25454658797793611 0 -0.5 0.23810140997737081 0 -0.49106398183666961 0.22759324404760359 0 -0.50000000000000022 0.21194679828831781 0 -0.49106398183666961 0.22759324404760359 0 -0.47912708394337772 0.2231418845945258 0 -0.48726644121087642 0.21298690825741631 0 -0.48226153920099157 0.23766317590200001 0 -0.49106398183666961 0.22759324404760359 0 -0.47912708394337772 0.2231418845945258 0 -0.47315400564016008 0.2364435414805684 0 -0.48226153920099157 0.23766317590200001 0 -0.47912708394337772 0.2231418845945258 0 -0.47315400564016008 0.2364435414805684 0 -0.47912708394337772 0.2231418845945258 0 -0.46764368341616458 0.22415830119077751 0 -0.47912708394337772 0.2231418845945258 0 -0.47360767850491831 0.20951316246361981 0 -0.46764368341616458 0.22415830119077751 0 -0.47360767850491831 0.20951316246361981 0 -0.48726644121087642 0.21298690825741631 0 -0.49170634683837577 0.1941587336203292 0 -0.47912708394337772 0.2231418845945258 0 -0.47360767850491831 0.20951316246361981 0 -0.48726644121087642 0.21298690825741631 0 -0.49106398183666961 0.22759324404760359 0 -0.50000000000000022 0.21194679828831781 0 -0.48726644121087642 0.21298690825741631 0 -0.50000000000000022 0.21194679828831781 0 -0.48726644121087642 0.21298690825741631 0 -0.49170634683837577 0.1941587336203292 0 -0.50000000000000022 0.21194679828831781 0 -0.49170634683837577 0.1941587336203292 0 -0.50000000000000022 0.21194679828831781 0 -0.5 0.19278741936367841 0 -0.49170634683837577 0.1941587336203292 0 -0.49368671912131301 0.1828531969182482 0 -0.5 0.19278741936367841 0 -0.49170634683837577 0.1941587336203292 0 -0.48341269367675271 0.17637066895233999 0 -0.49170634683837577 0.1941587336203292 0 -0.47274380268756999 0.19288508587190861 0 -0.47360767850491831 0.20951316246361981 0 -0.49170634683837577 0.1941587336203292 0 -0.47274380268756999 0.19288508587190861 0 -0.47360767850491831 0.20951316246361981 0 -0.47274380268756999 0.19288508587190861 0 -0.45820261548712909 0.20353130823034371 0 -0.45591042926964898 0.18268667049205081 0 -0.47274380268756999 0.19288508587190861 0 -0.45820261548712909 0.20353130823034371 0 -0.45591042926964898 0.18268667049205081 0 -0.43516662619925378 0.20614333559983469 0 -0.4284081648625454 0.1890026720317621 0 -0.45591042926964898 0.18268667049205081 0 -0.45820261548712909 0.20353130823034371 0 -0.43516662619925378 0.20614333559983469 0 -0.44192508753596349 0.22328399916790689 0 -0.43516662619925378 0.20614333559983469 0 -0.45032248765871591 0.2151961798839368 0 -0.44192508753596349 0.22328399916790689 0 -0.43516662619925378 0.20614333559983469 0 -0.45032248765871591 0.2151961798839368 0 -0.45820261548712909 0.20353130823034371 0 -0.43516662619925378 0.20614333559983469 0 -0.45032248765871591 0.2151961798839368 0 -0.46109406183397039 0.21551848415653921 0 -0.45620465585954723 0.2251951411450015 0 -0.45032248765871591 0.2151961798839368 0 -0.45820261548712909 0.20353130823034371 0 -0.46109406183397039 0.21551848415653921 0 -0.47360767850491831 0.20951316246361981 0 -0.45820261548712909 0.20353130823034371 0 -0.46109406183397039 0.21551848415653921 0 -0.47360767850491831 0.20951316246361981 0 -0.46109406183397039 0.21551848415653921 0 -0.46764368341616458 0.22415830119077751 0 -0.47315400564016008 0.2364435414805684 0 -0.46764368341616458 0.22415830119077751 0 -0.45925329591452863 0.2407771106774913 0 -0.46764368341616458 0.22415830119077751 0 -0.45620465585954723 0.2251951411450015 0 -0.45925329591452863 0.2407771106774913 0 -0.46109406183397039 0.21551848415653921 0 -0.46764368341616458 0.22415830119077751 0 -0.45620465585954723 0.2251951411450015 0 -0.45032248765871591 0.2151961798839368 0 -0.45620465585954723 0.2251951411450015 0 -0.44192508753596349 0.22328399916790689 0 -0.44192508753596349 0.22328399916790689 0 -0.44062222049055039 0.24203477259657111 0 -0.43146145522804691 0.2313120115293863 0 -0.45620465585954723 0.2251951411450015 0 -0.44062222049055039 0.24203477259657111 0 -0.45620465585954723 0.2251951411450015 0 -0.44192508753596349 0.22328399916790689 0 -0.44062222049055039 0.24203477259657111 0 -0.44062222049055039 0.24203477259657111 0 -0.45046339488490522 0.249057113070103 0 -0.44442574262614493 0.25832327296872359 0 -0.44062222049055039 0.24203477259657111 0 -0.45046339488490522 0.249057113070103 0 -0.45925329591452863 0.2407771106774913 0 -0.45620465585954723 0.2251951411450015 0 -0.44062222049055039 0.24203477259657111 0 -0.45925329591452863 0.2407771106774913 0 -0.45046339488490522 0.249057113070103 0 -0.45925329591452863 0.2407771106774913 0 -0.45807104112411212 0.25534721177055669 0 -0.45925329591452863 0.2407771106774913 0 -0.46938038244821267 0.25133041049185839 0 -0.45807104112411212 0.25534721177055669 0 -0.47315400564016008 0.2364435414805684 0 -0.45925329591452863 0.2407771106774913 0 -0.46938038244821267 0.25133041049185839 0 -0.4198454647722451 0.23985190764030939 0 -0.40081965837488509 0.24074316727492401 0 -0.40585136056822319 0.25674789398696107 0 -0.4198454647722451 0.23985190764030939 0 -0.405480724964072 0.22581663549259839 0 -0.40081965837488509 0.24074316727492401 0 -0.44062222049055039 0.24203477259657111 0 -0.4198454647722451 0.23985190764030939 0 -0.42503978512155383 0.25887440404814072 0 -0.44062222049055039 0.24203477259657111 0 -0.4198454647722451 0.23985190764030939 0 -0.43146145522804691 0.2313120115293863 0 -0.4198454647722451 0.23985190764030939 0 -0.43146145522804691 0.2313120115293863 0 -0.42370673975344808 0.22056464269113771 0 -0.44192508753596349 0.22328399916790689 0 -0.43146145522804691 0.2313120115293863 0 -0.42370673975344808 0.22056464269113771 0 -0.4198454647722451 0.23985190764030939 0 -0.42370673975344808 0.22056464269113771 0 -0.405480724964072 0.22581663549259839 0 -0.42370673975344808 0.22056464269113771 0 -0.40708390191205951 0.20882890034131879 0 -0.405480724964072 0.22581663549259839 0 -0.42370673975344808 0.22056464269113771 0 -0.40708390191205951 0.20882890034131879 0 -0.42107335870595469 0.2022269477122331 0 -0.44192508753596349 0.22328399916790689 0 -0.42370673975344808 0.22056464269113771 0 -0.43516662619925378 0.20614333559983469 0 -0.42370673975344808 0.22056464269113771 0 -0.43516662619925378 0.20614333559983469 0 -0.42107335870595469 0.2022269477122331 0 -0.43516662619925378 0.20614333559983469 0 -0.4284081648625454 0.1890026720317621 0 -0.42107335870595469 0.2022269477122331 0 -0.43516662619925378 0.20614333559983469 0 -0.4284081648625454 0.1890026720317621 0 -0.4284081648625454 0.1890026720317621 0 -0.40915969581062839 0.19342315750049971 0 -0.4284081648625454 0.1890026720317621 0 -0.42107335870595469 0.2022269477122331 0 -0.40915969581062839 0.19342315750049971 0 -0.40708390191205951 0.20882890034131879 0 -0.42107335870595469 0.2022269477122331 0 -0.40915969581062839 0.19342315750049971 0 -0.40708390191205951 0.20882890034131879 0 -0.40915969581062839 0.19342315750049971 0 -0.38991122675871148 0.19784364296923759 0 -0.40915969581062839 0.19342315750049971 0 -0.38991122675871148 0.19784364296923759 0 -0.40915969581062839 0.19342315750049971 0 -0.38991122675871148 0.19784364296923759 0 -0.39569501158598158 0.17813944679546001 0 -0.39158905321283283 0.2136173787495643 0 -0.38435338999826391 0.22831720607051781 0 -0.36414166766971379 0.2074649771098355 0 -0.38991122675871148 0.19784364296923759 0 -0.39158905321283283 0.2136173787495643 0 -0.36414166766971379 0.2074649771098355 0 -0.40708390191205951 0.20882890034131879 0 -0.39158905321283283 0.2136173787495643 0 -0.405480724964072 0.22581663549259839 0 -0.40708390191205951 0.20882890034131879 0 -0.38991122675871148 0.19784364296923759 0 -0.39158905321283283 0.2136173787495643 0 -0.405480724964072 0.22581663549259839 0 -0.38435338999826391 0.22831720607051781 0 -0.40081965837488509 0.24074316727492401 0 -0.39158905321283283 0.2136173787495643 0 -0.405480724964072 0.22581663549259839 0 -0.38435338999826391 0.22831720607051781 0 -0.37619177155740557 0.24036243622333081 0 -0.38790582398472923 0.24962922847932231 0 -0.36318679658289171 0.25196182354824148 0 -0.38435338999826391 0.22831720607051781 0 -0.37619177155740557 0.24036243622333081 0 -0.38790582398472923 0.24962922847932231 0 -0.38435338999826391 0.22831720607051781 0 -0.38790582398472923 0.24962922847932231 0 -0.40081965837488509 0.24074316727492401 0 -0.38790582398472923 0.24962922847932231 0 -0.40081965837488509 0.24074316727492401 0 -0.40585136056822319 0.25674789398696107 0 -0.40926453963391513 0.14045102348790381 0 -0.42614672387873248 0.14526589422012931 0 -0.41883635224822963 0.16472684775983329 0 -0.40926453963391513 0.14045102348790381 0 -0.41883635224822963 0.16472684775983329 0 -0.40926453963391513 0.14045102348790381 0 -0.41883635224822963 0.16472684775983329 0 -0.40029434983296169 0.15790366282291429 0 -0.40926453963391513 0.14045102348790381 0 -0.417579207348795 0.13056668242546571 0 -0.40026410281127539 0.13237877311027449 0 -0.40926453963391513 0.14045102348790381 0 -0.417579207348795 0.13056668242546571 0 -0.42614672387873248 0.14526589422012931 0 -0.417579207348795 0.13056668242546571 0 -0.43293323699752101 0.1317554923945817 0 -0.42614672387873248 0.14526589422012931 0 -0.42608096723388439 0.1205091241492761 0 -0.417579207348795 0.13056668242546571 0 -0.43293323699752101 0.1317554923945817 0 -0.43796764784210812 0.14528805014891141 0 -0.43293323699752101 0.1317554923945817 0 -0.42614672387873248 0.14526589422012931 0 -0.43892522612619872 0.15930650560997939 0 -0.43796764784210812 0.14528805014891141 0 -0.42614672387873248 0.14526589422012931 0 -0.43892522612619872 0.15930650560997939 0 -0.42614672387873248 0.14526589422012931 0 -0.41883635224822963 0.16472684775983329 0 -0.43992511097516529 0.17411109905454999 0 -0.43892522612619872 0.15930650560997939 0 -0.41883635224822963 0.16472684775983329 0 -0.4284081648625454 0.1890026720317621 0 -0.41883635224822963 0.16472684775983329 0 -0.43992511097516529 0.17411109905454999 0 -0.4284081648625454 0.1890026720317621 0 -0.41883635224822963 0.16472684775983329 0 -0.40915969581062839 0.19342315750049971 0 -0.41883635224822963 0.16472684775983329 0 -0.39569501158598158 0.17813944679546001 0 -0.4284081648625454 0.1890026720317621 0 -0.40915969581062839 0.19342315750049971 0 -0.41883635224822963 0.16472684775983329 0 -0.40029434983296169 0.15790366282291429 0 -0.39569501158598158 0.17813944679546001 0 -0.38484252596519369 0.16167484958157691 0 -0.41883635224822963 0.16472684775983329 0 -0.40029434983296169 0.15790366282291429 0 -0.39569501158598158 0.17813944679546001 0 -0.39569501158598158 0.17813944679546001 0 -0.38484252596519369 0.16167484958157691 0 -0.36525228834216061 0.17922160577889321 0 -0.38991122675871148 0.19784364296923759 0 -0.39569501158598158 0.17813944679546001 0 -0.36525228834216061 0.17922160577889321 0 -0.39283331973148827 0.14452614648979731 0 -0.38372255811484618 0.13025780258704611 0 -0.36636290901460722 0.1509782344479508 0 -0.38484252596519369 0.16167484958157691 0 -0.39283331973148827 0.14452614648979731 0 -0.36636290901460722 0.1509782344479508 0 -0.40029434983296169 0.15790366282291429 0 -0.38484252596519369 0.16167484958157691 0 -0.39283331973148827 0.14452614648979731 0 -0.40926453963391513 0.14045102348790381 0 -0.40029434983296169 0.15790366282291429 0 -0.39283331973148827 0.14452614648979731 0 -0.39283331973148827 0.14452614648979731 0 -0.40026410281127539 0.13237877311027449 0 -0.38372255811484618 0.13025780258704611 0 -0.39792088922733271 0.1160922105611595 0 -0.417579207348795 0.13056668242546571 0 -0.40026410281127539 0.13237877311027449 0 -0.39792088922733271 0.1160922105611595 0 -0.40026410281127539 0.13237877311027449 0 -0.38372255811484618 0.13025780258704611 0 -0.40926453963391513 0.14045102348790381 0 -0.39283331973148827 0.14452614648979731 0 -0.40026410281127539 0.13237877311027449 0 -0.38372255811484618 0.13025780258704611 0 -0.36636290901460722 0.1509782344479508 0 -0.36747352968705388 0.12273486311700831 0 -0.36636290901460722 0.1509782344479508 0 -0.36747352968705388 0.12273486311700831 0 -0.35528769071996391 0.12689780186549679 0 -0.36636290901460722 0.1509782344479508 0 -0.36747352968705388 0.12273486311700831 0 -0.35528769071996391 0.12689780186549679 0 -0.33512599087492562 0.1447950320020088 0 -0.35528769071996391 0.12689780186549679 0 -0.35168351666373848 0.14314256241625531 0 -0.33512599087492562 0.1447950320020088 0 -0.35528769071996391 0.12689780186549679 0 -0.33512599087492562 0.1447950320020088 0 -0.34115039425197219 0.12498493974687711 0 -0.35528769071996391 0.12689780186549679 0 -0.35168351666373848 0.14314256241625531 0 -0.36636290901460722 0.1509782344479508 0 -0.35168351666373848 0.14314256241625531 0 -0.36636290901460722 0.1509782344479508 0 -0.34333519974196419 0.16612441953572921 0 -0.38484252596519369 0.16167484958157691 0 -0.36636290901460722 0.1509782344479508 0 -0.36525228834216061 0.17922160577889321 0 -0.36636290901460722 0.1509782344479508 0 -0.36525228834216061 0.17922160577889321 0 -0.36525228834216061 0.17922160577889321 0 -0.34333519974196419 0.16612441953572921 0 -0.34654591437965571 0.19533490523866279 0 -0.36636290901460722 0.1509782344479508 0 -0.36525228834216061 0.17922160577889321 0 -0.34333519974196419 0.16612441953572921 0 -0.34333519974196419 0.16612441953572921 0 -0.31496429102988749 0.16269226213852109 0 -0.33512599087492562 0.1447950320020088 0 -0.34333519974196419 0.16612441953572921 0 -0.34654591437965571 0.19533490523866279 0 -0.32412519241006588 0.1878495682783011 0 -0.31496429102988749 0.16269226213852109 0 -0.32412519241006588 0.1878495682783011 0 -0.34333519974196419 0.16612441953572921 0 -0.31496429102988749 0.16269226213852109 0 -0.32412519241006588 0.1878495682783011 0 -0.31303823693556859 0.17707572181323081 0 -0.31496429102988749 0.16269226213852109 0 -0.32412519241006588 0.1878495682783011 0 -0.31303823693556859 0.17707572181323081 0 -0.32412519241006588 0.1878495682783011 0 -0.3108046026399135 0.18379038091696129 0 -0.31496429102988749 0.16269226213852109 0 -0.31353256245119709 0.1587605055712967 0 -0.31354631638020197 0.13395604467094269 0 -0.33512599087492562 0.1447950320020088 0 -0.3122891553291075 0.14635758184588041 0 -0.31353256245119709 0.1587605055712967 0 -0.33512599087492562 0.1447950320020088 0 -0.3122891553291075 0.14635758184588041 0 -0.31496429102988749 0.16269226213852109 0 -0.31353256245119709 0.1587605055712967 0 -0.33512599087492562 0.1447950320020088 0 -0.31496429102988749 0.16269226213852109 0 -0.33512599087492562 0.1447950320020088 0 -0.31354631638020197 0.13395604467094269 0 -0.32917568526667751 0.12578156900391591 0 -0.33512599087492562 0.1447950320020088 0 -0.31354631638020197 0.13395604467094269 0 -0.32917568526667751 0.12578156900391591 0 -0.32114709127587232 0.11611322513389059 0 -0.32917568526667751 0.12578156900391591 0 -0.33512599087492562 0.1447950320020088 0 -0.34115039425197219 0.12498493974687711 0 -0.35168351666373848 0.14314256241625531 0 -0.34333519974196419 0.16612441953572921 0 -0.33512599087492562 0.1447950320020088 0 -0.36303104699726713 0.23570834844077809 0 -0.34244699517042121 0.23816418055786151 0 -0.36318679658289171 0.25196182354824148 0 -0.34244699517042121 0.23816418055786151 0 -0.36318679658289171 0.25196182354824148 0 -0.33952374355129727 0.25899057541505788 0 -0.37619177155740557 0.24036243622333081 0 -0.36303104699726713 0.23570834844077809 0 -0.36318679658289171 0.25196182354824148 0 -0.38435338999826391 0.22831720607051781 0 -0.37619177155740557 0.24036243622333081 0 -0.36303104699726713 0.23570834844077809 0 -0.38435338999826391 0.22831720607051781 0 -0.36303104699726713 0.23570834844077809 0 -0.36414166766971379 0.2074649771098355 0 -0.36303104699726713 0.23570834844077809 0 -0.36414166766971379 0.2074649771098355 0 -0.36303104699726713 0.23570834844077809 0 -0.35084793517488477 0.2210857468323085 0 -0.34244699517042121 0.23816418055786151 0 -0.36303104699726713 0.23570834844077809 0 -0.35084793517488477 0.2210857468323085 0 -0.36414166766971379 0.2074649771098355 0 -0.35084793517488477 0.2210857468323085 0 -0.36414166766971379 0.2074649771098355 0 -0.34654591437965571 0.19533490523866279 0 -0.36525228834216061 0.17922160577889321 0 -0.36414166766971379 0.2074649771098355 0 -0.38991122675871148 0.19784364296923759 0 -0.36525228834216061 0.17922160577889321 0 -0.36414166766971379 0.2074649771098355 0 -0.36525228834216061 0.17922160577889321 0 -0.36414166766971379 0.2074649771098355 0 -0.34654591437965571 0.19533490523866279 0 -0.32412519241006588 0.1878495682783011 0 -0.33328609379024349 0.2130068744180813 0 -0.34654591437965571 0.19533490523866279 0 -0.32412519241006588 0.1878495682783011 0 -0.33328609379024349 0.2130068744180813 0 -0.32412519241006588 0.1878495682783011 0 -0.33328609379024349 0.2130068744180813 0 -0.31080006153106382 0.20197173666100501 0 -0.32412519241006588 0.1878495682783011 0 -0.31080006153106382 0.20197173666100501 0 -0.3108046026399135 0.18379038091696129 0 -0.33328609379024349 0.2130068744180813 0 -0.31873218963182409 0.22654972870499029 0 -0.31080006153106382 0.20197173666100501 0 -0.35084793517488477 0.2210857468323085 0 -0.34654591437965571 0.19533490523866279 0 -0.33328609379024349 0.2130068744180813 0 -0.35084793517488477 0.2210857468323085 0 -0.33328609379024349 0.2130068744180813 0 -0.34244699517042121 0.23816418055786151 0 -0.33328609379024349 0.2130068744180813 0 -0.34244699517042121 0.23816418055786151 0 -0.33328609379024349 0.2130068744180813 0 -0.31873218963182409 0.22654972870499029 0 -0.34244699517042121 0.23816418055786151 0 -0.31873218963182409 0.22654972870499029 0 -0.32200613725511351 0.24850726385495631 0 -0.34244699517042121 0.23816418055786151 0 -0.31873218963182409 0.22654972870499029 0 -0.32200613725511351 0.24850726385495631 0 -0.30672251365844311 0.23743048015470111 0 -0.32200613725511351 0.24850726385495631 0 -0.34244699517042121 0.23816418055786151 0 -0.33952374355129727 0.25899057541505788 0 -0.29125564533142001 0.24067530578368901 0 -0.30672251365844311 0.23743048015470111 0 -0.30640548876467488 0.25787073169030861 0 -0.32200613725511351 0.24850726385495631 0 -0.30672251365844311 0.23743048015470111 0 -0.30640548876467488 0.25787073169030861 0 -0.29125564533142001 0.24067530578368901 0 -0.30672251365844311 0.23743048015470111 0 -0.29521310730918271 0.21354937073956171 0 -0.31873218963182409 0.22654972870499029 0 -0.30672251365844311 0.23743048015470111 0 -0.29521310730918271 0.21354937073956171 0 -0.29125564533142001 0.24067530578368901 0 -0.29521310730918271 0.21354937073956171 0 -0.29125564533142001 0.24067530578368901 0 -0.29521310730918271 0.21354937073956171 0 -0.27258595833473342 0.22149207507906341 0 -0.29521310730918271 0.21354937073956171 0 -0.28878760701375322 0.1984352968903606 0 -0.27490594785389072 0.20112241201531189 0 -0.31873218963182409 0.22654972870499029 0 -0.29521310730918271 0.21354937073956171 0 -0.31080006153106382 0.20197173666100501 0 -0.29521310730918271 0.21354937073956171 0 -0.29917056928694541 0.1864234356954344 0 -0.29521310730918271 0.21354937073956171 0 -0.31080006153106382 0.20197173666100501 0 -0.29917056928694541 0.1864234356954344 0 -0.31080006153106382 0.20197173666100501 0 -0.3108046026399135 0.18379038091696129 0 -0.29917056928694541 0.1864234356954344 0 -0.28878760701375322 0.1984352968903606 0 -0.29917056928694541 0.1864234356954344 0 -0.28955343229492791 0.1852490896997587 0 -0.29521310730918271 0.21354937073956171 0 -0.28878760701375322 0.1984352968903606 0 -0.29917056928694541 0.1864234356954344 0 -0.28878760701375322 0.1984352968903606 0 -0.27938784373491388 0.18917199981814359 0 -0.28955343229492791 0.1852490896997587 0 -0.27938784373491388 0.18917199981814359 0 -0.27490594785389072 0.20112241201531189 0 -0.26439180367967152 0.18225540552070321 0 -0.28878760701375322 0.1984352968903606 0 -0.27938784373491388 0.18917199981814359 0 -0.27490594785389072 0.20112241201531189 0 -0.27490594785389072 0.20112241201531189 0 -0.25370102580463139 0.2052288024824625 0 -0.26439180367967152 0.18225540552070321 0 -0.25370102580463139 0.2052288024824625 0 -0.26439180367967152 0.18225540552070321 0 -0.23359887481107691 0.1809086922627815 0 -0.27490594785389072 0.20112241201531189 0 -0.25370102580463139 0.2052288024824625 0 -0.27258595833473342 0.22149207507906341 0 -0.29521310730918271 0.21354937073956171 0 -0.27490594785389072 0.20112241201531189 0 -0.27258595833473342 0.22149207507906341 0 -0.29125564533142001 0.24067530578368901 0 -0.27258595833473342 0.22149207507906341 0 -0.26834113505385238 0.23837358332174549 0 -0.27258595833473342 0.22149207507906341 0 -0.25272375818517617 0.22994970808158929 0 -0.26834113505385238 0.23837358332174549 0 -0.25370102580463139 0.2052288024824625 0 -0.27258595833473342 0.22149207507906341 0 -0.25272375818517617 0.22994970808158929 0 -0.25272375818517617 0.22994970808158929 0 -0.25621817608628389 0.2460965770837312 0 -0.26834113505385238 0.23837358332174549 0 -0.25621817608628389 0.2460965770837312 0 -0.26834113505385238 0.23837358332174549 0 -0.26892213733164849 0.25365425058065472 0 -0.29125564533142001 0.24067530578368901 0 -0.26834113505385238 0.23837358332174549 0 -0.26892213733164849 0.25365425058065472 0 -0.29370567785695612 0.15770531643225719 0 -0.28412418886142132 0.16518528890623771 0 -0.28065913062351988 0.14575155473079041 0 -0.30159211447790629 0.14759241864651959 0 -0.29370567785695612 0.15770531643225719 0 -0.28065913062351988 0.14575155473079041 0 -0.29682817834931757 0.13068013418198679 0 -0.30159211447790629 0.14759241864651959 0 -0.28065913062351988 0.14575155473079041 0 -0.29682817834931757 0.13068013418198679 0 -0.28065913062351988 0.14575155473079041 0 -0.28285123447775751 0.1183560919224374 0 -0.31354631638020197 0.13395604467094269 0 -0.29682817834931757 0.13068013418198679 0 -0.30159211447790629 0.14759241864651959 0 -0.31354631638020197 0.13395604467094269 0 -0.3122891553291075 0.14635758184588041 0 -0.30159211447790629 0.14759241864651959 0 -0.31353256245119709 0.1587605055712967 0 -0.3122891553291075 0.14635758184588041 0 -0.30159211447790629 0.14759241864651959 0 -0.31496429102988749 0.16269226213852109 0 -0.31353256245119709 0.1587605055712967 0 -0.30488677357152572 0.1641353808659653 0 -0.30159211447790629 0.14759241864651959 0 -0.30488677357152572 0.1641353808659653 0 -0.29370567785695612 0.15770531643225719 0 -0.31353256245119709 0.1587605055712967 0 -0.30159211447790629 0.14759241864651959 0 -0.30488677357152572 0.1641353808659653 0 -0.31496429102988749 0.16269226213852109 0 -0.30225886166240762 0.17397067591913981 0 -0.31303823693556859 0.17707572181323081 0 -0.31496429102988749 0.16269226213852109 0 -0.30225886166240762 0.17397067591913981 0 -0.31496429102988749 0.16269226213852109 0 -0.30488677357152572 0.1641353808659653 0 -0.30225886166240762 0.17397067591913981 0 -0.30488677357152572 0.1641353808659653 0 -0.30225886166240762 0.17397067591913981 0 -0.29597535979189887 0.1670989905046398 0 -0.30488677357152572 0.1641353808659653 0 -0.29370567785695612 0.15770531643225719 0 -0.29597535979189887 0.1670989905046398 0 -0.31303823693556859 0.17707572181323081 0 -0.3108046026399135 0.18379038091696129 0 -0.30225886166240762 0.17397067591913981 0 -0.30225886166240762 0.17397067591913981 0 -0.29917056928694541 0.1864234356954344 0 -0.28955343229492791 0.1852490896997587 0 -0.3108046026399135 0.18379038091696129 0 -0.30225886166240762 0.17397067591913981 0 -0.29917056928694541 0.1864234356954344 0 -0.30225886166240762 0.17397067591913981 0 -0.28955343229492791 0.1852490896997587 0 -0.30225886166240762 0.17397067591913981 0 -0.28955343229492791 0.1852490896997587 0 -0.29024545837739651 0.173916500811098 0 -0.28955343229492791 0.1852490896997587 0 -0.29024545837739651 0.173916500811098 0 -0.27889874324695868 0.17762520371433099 0 -0.29024545837739651 0.173916500811098 0 -0.28412418886142132 0.16518528890623771 0 -0.27889874324695868 0.17762520371433099 0 -0.27938784373491388 0.18917199981814359 0 -0.28955343229492791 0.1852490896997587 0 -0.27889874324695868 0.17762520371433099 0 -0.29370567785695612 0.15770531643225719 0 -0.29597535979189887 0.1670989905046398 0 -0.28412418886142132 0.16518528890623771 0 -0.30225886166240762 0.17397067591913981 0 -0.29024545837739651 0.173916500811098 0 -0.29597535979189887 0.1670989905046398 0 -0.29024545837739651 0.173916500811098 0 -0.29597535979189887 0.1670989905046398 0 -0.28412418886142132 0.16518528890623771 0 -0.28412418886142132 0.16518528890623771 0 -0.26844272787379447 0.16268744982768751 0 -0.27889874324695868 0.17762520371433099 0 -0.28412418886142132 0.16518528890623771 0 -0.26844272787379447 0.16268744982768751 0 -0.28065913062351988 0.14575155473079041 0 -0.26844272787379447 0.16268744982768751 0 -0.27889874324695868 0.17762520371433099 0 -0.26439180367967152 0.18225540552070321 0 -0.27938784373491388 0.18917199981814359 0 -0.27889874324695868 0.17762520371433099 0 -0.26439180367967152 0.18225540552070321 0 -0.26844272787379447 0.16268744982768751 0 -0.26439180367967152 0.18225540552070321 0 -0.247018622616726 0.15992587597476091 0 -0.26844272787379447 0.16268744982768751 0 -0.25846103874104392 0.14702121199507179 0 -0.247018622616726 0.15992587597476091 0 -0.26844272787379447 0.16268744982768751 0 -0.25846103874104392 0.14702121199507179 0 -0.28065913062351988 0.14575155473079041 0 -0.25846103874104392 0.14702121199507179 0 -0.28065913062351988 0.14575155473079041 0 -0.25922316449870308 0.12628093809151891 0 -0.28065913062351988 0.14575155473079041 0 -0.25922316449870308 0.12628093809151891 0 -0.28285123447775751 0.1183560919224374 0 -0.25846103874104392 0.14702121199507179 0 -0.25922316449870308 0.12628093809151891 0 -0.2369615480924761 0.1404602413506009 0 -0.25922316449870308 0.12628093809151891 0 -0.25136603029008331 0.1103208693098497 0 -0.26687835675477128 0.1014348965859585 0 -0.25136603029008331 0.1103208693098497 0 -0.26687835675477128 0.1014348965859585 0 -0.24377998071086901 0.096378574065869249 0 -0.26687835675477128 0.1014348965859585 0 -0.28737892951993471 0.098967158637655914 0 -0.27569457229827071 0.081243623470509244 0 -0.26687835675477128 0.1014348965859585 0 -0.28285123447775751 0.1183560919224374 0 -0.28737892951993471 0.098967158637655914 0 -0.25922316449870308 0.12628093809151891 0 -0.26687835675477128 0.1014348965859585 0 -0.28285123447775751 0.1183560919224374 0 -0.29682817834931757 0.13068013418198679 0 -0.28285123447775751 0.1183560919224374 0 -0.30549209578720232 0.10774456093924389 0 -0.28285123447775751 0.1183560919224374 0 -0.28737892951993471 0.098967158637655914 0 -0.30549209578720232 0.10774456093924389 0 -0.28737892951993471 0.098967158637655914 0 -0.30549209578720232 0.10774456093924389 0 -0.29743787519420251 0.08153307720754506 0 -0.30549209578720232 0.10774456093924389 0 -0.29743787519420251 0.08153307720754506 0 -0.31354631638020197 0.13395604467094269 0 -0.29682817834931757 0.13068013418198679 0 -0.30549209578720232 0.10774456093924389 0 -0.31354631638020197 0.13395604467094269 0 -0.30549209578720232 0.10774456093924389 0 -0.29926204670725021 0.066629363318123747 0 -0.30931237829482389 0.073252958087475881 0 -0.31697319293959142 0.061410437985649477 0 -0.29926204670725021 0.066629363318123747 0 -0.30931237829482389 0.073252958087475881 0 -0.29743787519420251 0.08153307720754506 0 -0.30549209578720232 0.10774456093924389 0 -0.29743787519420251 0.08153307720754506 0 -0.31312795334666071 0.083579729522452809 0 -0.30931237829482389 0.073252958087475881 0 -0.29743787519420251 0.08153307720754506 0 -0.31312795334666071 0.083579729522452809 0 -0.28737892951993471 0.098967158637655914 0 -0.29743787519420251 0.08153307720754506 0 -0.27569457229827071 0.081243623470509244 0 -0.29743787519420251 0.08153307720754506 0 -0.28743776060402371 0.060458689408765323 0 -0.28938365460120269 0.05532159347584624 0 -0.29743787519420251 0.08153307720754506 0 -0.28938365460120269 0.05532159347584624 0 -0.29926204670725021 0.066629363318123747 0 -0.29743787519420251 0.08153307720754506 0 -0.28938365460120269 0.05532159347584624 0 -0.29743787519420251 0.08153307720754506 0 -0.27569457229827071 0.081243623470509244 0 -0.28743776060402371 0.060458689408765323 0 -0.27569457229827071 0.081243623470509244 0 -0.26257114212692878 0.06573449919026883 0 -0.28743776060402371 0.060458689408765323 0 -0.26257114212692878 0.06573449919026883 0 -0.28743776060402371 0.060458689408765323 0 -0.26687835675477128 0.1014348965859585 0 -0.25261226255175379 0.080423606239198905 0 -0.24377998071086901 0.096378574065869249 0 -0.26687835675477128 0.1014348965859585 0 -0.27569457229827071 0.081243623470509244 0 -0.25261226255175379 0.080423606239198905 0 -0.26257114212692878 0.06573449919026883 0 -0.23770452364983391 0.071010308971772351 0 -0.25261226255175379 0.080423606239198905 0 -0.26257114212692878 0.06573449919026883 0 -0.23770452364983391 0.071010308971772351 0 -0.27569457229827071 0.081243623470509244 0 -0.25261226255175379 0.080423606239198905 0 -0.26257114212692878 0.06573449919026883 0 -0.2522816967992324 0.037264740289820159 0 -0.27263172987273521 0.051913181220590639 0 -0.24906194248509719 0.058488871325365822 0 -0.26257114212692878 0.06573449919026883 0 -0.27263172987273521 0.051913181220590639 0 -0.24906194248509719 0.058488871325365822 0 -0.2522816967992324 0.037264740289820159 0 -0.2684979789729644 0.03593820420606865 0 -0.27263172987273521 0.051913181220590639 0 -0.2684979789729644 0.03593820420606865 0 -0.27263172987273521 0.051913181220590639 0 -0.28132943400820298 0.02911010974414751 0 -0.27263172987273521 0.051913181220590639 0 -0.28132943400820298 0.02911010974414751 0 -0.28938365460120269 0.05532159347584624 0 -0.26257114212692878 0.06573449919026883 0 -0.27263172987273521 0.051913181220590639 0 -0.28743776060402371 0.060458689408765323 0 -0.25267499080189931 -0.0034516002120552492 0 -0.26909988492935111 -0.0018655285383734981 0 -0.25157722050270093 0.012682655753942951 0 -0.26909988492935111 -0.0018655285383734981 0 -0.25157722050270093 0.012682655753942951 0 -0.27200359261247947 0.017754051058092819 0 -0.2522816967992324 0.037264740289820159 0 -0.25157722050270093 0.012682655753942951 0 -0.27200359261247947 0.017754051058092819 0 -0.2522816967992324 0.037264740289820159 0 -0.2684979789729644 0.03593820420606865 0 -0.27200359261247947 0.017754051058092819 0 -0.2522816967992324 0.037264740289820159 0 -0.27200359261247947 0.017754051058092819 0 -0.27200359261247947 0.017754051058092819 0 -0.28831373269731447 0.017122983851404761 0 -0.28132943400820298 0.02911010974414751 0 -0.2684979789729644 0.03593820420606865 0 -0.27200359261247947 0.017754051058092819 0 -0.28132943400820298 0.02911010974414751 0 -0.26909988492935111 -0.0018655285383734981 0 -0.2917254884257266 -0.0017566381736345419 0 -0.27200359261247947 0.017754051058092819 0 -0.2917254884257266 -0.0017566381736345419 0 -0.27200359261247947 0.017754051058092819 0 -0.28831373269731447 0.017122983851404761 0 -0.2917254884257266 -0.0017566381736345419 0 -0.28831373269731447 0.017122983851404761 0 -0.29997880334656019 0.01439552450637107 0 -0.2917254884257266 -0.0017566381736345419 0 -0.27200359261247947 0.017754051058092819 0 -0.28831373269731447 0.017122983851404761 0 -0.29656482898857922 0.02610767777843559 0 -0.29997880334656019 0.01439552450637107 0 -0.28831373269731447 0.017122983851404761 0 -0.28132943400820298 0.02911010974414751 0 -0.29656482898857922 0.02610767777843559 0 -0.28132943400820298 0.02911010974414751 0 -0.29656482898857922 0.02610767777843559 0 -0.29344050585463782 0.03493273697686209 0 -0.29656482898857922 0.02610767777843559 0 -0.31039051656375261 0.022327184027059441 0 -0.30541723396373921 0.038711125382435783 0 -0.31039051656375261 0.022327184027059441 0 -0.30541723396373921 0.038711125382435783 0 -0.32038394146944787 0.031620215762440292 0 -0.29656482898857922 0.02610767777843559 0 -0.31039051656375261 0.022327184027059441 0 -0.29997880334656019 0.01439552450637107 0 -0.31039051656375261 0.022327184027059441 0 -0.31177688145040278 0.0050359958776742568 0 -0.29997880334656019 0.01439552450637107 0 -0.2917254884257266 -0.0017566381736345419 0 -0.31177688145040278 0.0050359958776742568 0 -0.29997880334656019 0.01439552450637107 0 -0.27263172987273521 0.051913181220590639 0 -0.28743776060402371 0.060458689408765323 0 -0.28938365460120269 0.05532159347584624 0 -0.28938365460120269 0.05532159347584624 0 -0.29045052645802971 0.045802035002429492 0 -0.29738278035354182 0.050541329601553678 0 -0.28938365460120269 0.05532159347584624 0 -0.29738278035354182 0.050541329601553678 0 -0.29780899910201009 0.056562827273038227 0 -0.29926204670725021 0.066629363318123747 0 -0.28938365460120269 0.05532159347584624 0 -0.29780899910201009 0.056562827273038227 0 -0.28132943400820298 0.02911010974414751 0 -0.28938365460120269 0.05532159347584624 0 -0.29045052645802971 0.045802035002429492 0 -0.28132943400820298 0.02911010974414751 0 -0.28938365460120269 0.05532159347584624 0 -0.28132943400820298 0.02911010974414751 0 -0.29344050585463782 0.03493273697686209 0 -0.29045052645802971 0.045802035002429492 0 -0.29344050585463782 0.03493273697686209 0 -0.29045052645802971 0.045802035002429492 0 -0.30541723396373921 0.038711125382435783 0 -0.29045052645802971 0.045802035002429492 0 -0.30541723396373921 0.038711125382435783 0 -0.29738278035354182 0.050541329601553678 0 -0.29045052645802971 0.045802035002429492 0 -0.30541723396373921 0.038711125382435783 0 -0.29656482898857922 0.02610767777843559 0 -0.29344050585463782 0.03493273697686209 0 -0.30541723396373921 0.038711125382435783 0 -0.30541723396373921 0.038711125382435783 0 -0.30520751474604563 0.05375902269662923 0 -0.31780711793698518 0.045521831715634557 0 -0.29926204670725021 0.066629363318123747 0 -0.30520751474604563 0.05375902269662923 0 -0.31697319293959142 0.061410437985649477 0 -0.30541723396373921 0.038711125382435783 0 -0.30520751474604563 0.05375902269662923 0 -0.29738278035354182 0.050541329601553678 0 -0.30520751474604563 0.05375902269662923 0 -0.29738278035354182 0.050541329601553678 0 -0.29780899910201009 0.056562827273038227 0 -0.29926204670725021 0.066629363318123747 0 -0.30520751474604563 0.05375902269662923 0 -0.29780899910201009 0.056562827273038227 0 -0.32553678940662539 0.052415823907368687 0 -0.31780711793698518 0.045521831715634557 0 -0.33422422494732851 0.04449049745268327 0 -0.31697319293959142 0.061410437985649477 0 -0.32553678940662539 0.052415823907368687 0 -0.31780711793698518 0.045521831715634557 0 -0.30520751474604563 0.05375902269662923 0 -0.31697319293959142 0.061410437985649477 0 -0.31780711793698518 0.045521831715634557 0 -0.31697319293959142 0.061410437985649477 0 -0.32808937753058609 0.059947696530402161 0 -0.32553678940662539 0.052415823907368687 0 -0.31780711793698518 0.045521831715634557 0 -0.32038394146944787 0.031620215762440292 0 -0.33422422494732851 0.04449049745268327 0 -0.30541723396373921 0.038711125382435783 0 -0.31780711793698518 0.045521831715634557 0 -0.32038394146944787 0.031620215762440292 0 -0.30541723396373921 0.038711125382435783 0 -0.32038394146944787 0.031620215762440292 0 -0.32038394146944787 0.031620215762440292 0 -0.33422422494732851 0.04449049745268327 0 -0.33422422494732851 0.04449049745268327 0 -0.34051642268078958 0.02208187176518148 0 -0.34924074101412461 0.03711639968071382 0 -0.32038394146944787 0.031620215762440292 0 -0.33422422494732851 0.04449049745268327 0 -0.34051642268078958 0.02208187176518148 0 -0.33422422494732851 0.04449049745268327 0 -0.34715076893326918 0.04673829876922056 0 -0.34924074101412461 0.03711639968071382 0 -0.33422422494732851 0.04449049745268327 0 -0.34806450842520742 0.057360779142928031 0 -0.34715076893326918 0.04673829876922056 0 -0.33422422494732851 0.04449049745268327 0 -0.34806450842520742 0.057360779142928031 0 -0.33422422494732851 0.04449049745268327 0 -0.33482930480244999 0.055095026294593591 0 -0.34806450842520742 0.057360779142928031 0 -0.3407399656121517 0.06083029771636933 0 -0.33482930480244999 0.055095026294593591 0 -0.33440717105718593 0.063083878638897639 0 -0.3407399656121517 0.06083029771636933 0 -0.33482930480244999 0.055095026294593591 0 -0.34806450842520742 0.057360779142928031 0 -0.32808937753058609 0.059947696530402161 0 -0.33482930480244999 0.055095026294593591 0 -0.33440717105718593 0.063083878638897639 0 -0.32808937753058609 0.059947696530402161 0 -0.32553678940662539 0.052415823907368687 0 -0.33482930480244999 0.055095026294593591 0 -0.32553678940662539 0.052415823907368687 0 -0.33422422494732851 0.04449049745268327 0 -0.33482930480244999 0.055095026294593591 0 -0.31039051656375261 0.022327184027059441 0 -0.31177688145040278 0.0050359958776742568 0 -0.3261420213634148 0.01391490981329808 0 -0.32828291010712762 -0.0049346835118845543 0 -0.31177688145040278 0.0050359958776742568 0 -0.3261420213634148 0.01391490981329808 0 -0.31039051656375261 0.022327184027059441 0 -0.32038394146944787 0.031620215762440292 0 -0.3261420213634148 0.01391490981329808 0 -0.31039051656375261 0.022327184027059441 0 -0.32038394146944787 0.031620215762440292 0 -0.32038394146944787 0.031620215762440292 0 -0.34051642268078958 0.02208187176518148 0 -0.32038394146944787 0.031620215762440292 0 -0.3261420213634148 0.01391490981329808 0 -0.34051642268078958 0.02208187176518148 0 -0.3261420213634148 0.01391490981329808 0 -0.34051642268078958 0.02208187176518148 0 -0.34055428987364128 0.0059527955302196532 0 -0.32828291010712762 -0.0049346835118845543 0 -0.3261420213634148 0.01391490981329808 0 -0.34055428987364128 0.0059527955302196532 0 -0.34051642268078958 0.02208187176518148 0 -0.34055428987364128 0.0059527955302196532 0 -0.36064890389212972 0.0125435277679194 0 -0.34718119132474479 -0.01384164818341615 0 -0.34055428987364128 0.0059527955302196532 0 -0.36064890389212972 0.0125435277679194 0 -0.34051642268078958 0.02208187176518148 0 -0.36064890389212972 0.0125435277679194 0 -0.34051642268078958 0.02208187176518148 0 -0.35699945364537122 0.027147445145089769 0 -0.34924074101412461 0.03711639968071382 0 -0.34051642268078958 0.02208187176518148 0 -0.35699945364537122 0.027147445145089769 0 -0.36064890389212972 0.0125435277679194 0 -0.35699945364537122 0.027147445145089769 0 -0.36163302121541668 0.029781402687577421 0 -0.35940737946489582 0.035374977024224222 0 -0.37998819155715241 0.0057865511937031933 0 -0.36738966121720701 0.029980518529024301 0 -0.37123175334181557 0.027162262264614271 0 -0.37998819155715241 0.0057865511937031933 0 -0.36738966121720701 0.029980518529024301 0 -0.3645477689834325 0.020181962352102071 0 -0.37998819155715241 0.0057865511937031933 0 -0.36738966121720701 0.029980518529024301 0 -0.36273559053419291 0.026622670051971411 0 -0.36738966121720701 0.029980518529024301 0 -0.3645477689834325 0.020181962352102071 0 -0.35699945364537122 0.027147445145089769 0 -0.36163302121541668 0.029781402687577421 0 -0.36273559053419291 0.026622670051971411 0 -0.35699945364537122 0.027147445145089769 0 -0.36273559053419291 0.026622670051971411 0 -0.3645477689834325 0.020181962352102071 0 -0.36163302121541668 0.029781402687577421 0 -0.36273559053419291 0.026622670051971411 0 -0.36738966121720701 0.029980518529024301 0 -0.35699945364537122 0.027147445145089769 0 -0.3645477689834325 0.020181962352102071 0 -0.36064890389212972 0.0125435277679194 0 -0.3645477689834325 0.020181962352102071 0 -0.36064890389212972 0.0125435277679194 0 -0.37998819155715241 0.0057865511937031933 0 -0.3645477689834325 0.020181962352102071 0 -0.36064890389212972 0.0125435277679194 0 -0.38683543611469601 0.0001369023841863784 0 -0.36064890389212972 0.0125435277679194 0 -0.37474494217865062 -0.0022388935110706832 0 -0.38683543611469601 0.0001369023841863784 0 -0.36064890389212972 0.0125435277679194 0 -0.37474494217865062 -0.0022388935110706832 0 -0.36307869926690151 -0.00068504054922277494 0 -0.36064890389212972 0.0125435277679194 0 -0.35479113087726238 0.05417448586434577 0 -0.34715076893326918 0.04673829876922056 0 -0.35593663516940488 0.04278932274017315 0 -0.35479113087726238 0.05417448586434577 0 -0.35147867423579721 0.06053566178096708 0 -0.3622197730044176 0.060127746183944272 0 -0.35479113087726238 0.05417448586434577 0 -0.35147867423579721 0.06053566178096708 0 -0.35479113087726238 0.05417448586434577 0 -0.34806450842520742 0.057360779142928031 0 -0.35147867423579721 0.06053566178096708 0 -0.35479113087726238 0.05417448586434577 0 -0.34806450842520742 0.057360779142928031 0 -0.34806450842520742 0.057360779142928031 0 -0.35147867423579721 0.06053566178096708 0 -0.3447014191436914 0.063951910484466787 0 -0.34806450842520742 0.057360779142928031 0 -0.35147867423579721 0.06053566178096708 0 -0.3407399656121517 0.06083029771636933 0 -0.34806450842520742 0.057360779142928031 0 -0.3407399656121517 0.06083029771636933 0 -0.34806450842520742 0.057360779142928031 0 -0.3447014191436914 0.063951910484466787 0 -0.35479113087726238 0.05417448586434577 0 -0.34806450842520742 0.057360779142928031 0 -0.34715076893326918 0.04673829876922056 0 -0.34715076893326918 0.04673829876922056 0 -0.34924074101412461 0.03711639968071382 0 -0.35593663516940488 0.04278932274017315 0 -0.36738966121720701 0.029980518529024301 0 -0.35479113087726238 0.05417448586434577 0 -0.35593663516940488 0.04278932274017315 0 -0.35699945364537122 0.027147445145089769 0 -0.34924074101412461 0.03711639968071382 0 -0.35940737946489582 0.035374977024224222 0 -0.34924074101412461 0.03711639968071382 0 -0.35593663516940488 0.04278932274017315 0 -0.35940737946489582 0.035374977024224222 0 -0.36738966121720701 0.029980518529024301 0 -0.35479113087726238 0.05417448586434577 0 -0.36677646394688163 0.041367990420506082 0 -0.37123175334181557 0.027162262264614271 0 -0.37046143272875132 0.04675171495388801 0 -0.36738966121720701 0.029980518529024301 0 -0.35479113087726238 0.05417448586434577 0 -0.37123175334181557 0.027162262264614271 0 -0.36677646394688163 0.041367990420506082 0 -0.37046143272875132 0.04675171495388801 0 -0.3764786745208083 0.032098692741998169 0 -0.37123175334181557 0.027162262264614271 0 -0.37046143272875132 0.04675171495388801 0 -0.36163302121541668 0.029781402687577421 0 -0.36738966121720701 0.029980518529024301 0 -0.35940737946489582 0.035374977024224222 0 -0.36738966121720701 0.029980518529024301 0 -0.35593663516940488 0.04278932274017315 0 -0.35940737946489582 0.035374977024224222 0 -0.36738966121720701 0.029980518529024301 0 -0.37123175334181557 0.027162262264614271 0 -0.36677646394688163 0.041367990420506082 0 -0.36677646394688163 0.041367990420506082 0 -0.37046143272875132 0.04675171495388801 0 -0.36802302346639398 0.047906750352184523 0 -0.36677646394688163 0.041367990420506082 0 -0.36802302346639398 0.047906750352184523 0 -0.37046143272875132 0.04675171495388801 0 -0.37000681959492809 0.05831264468359916 0 -0.36802302346639398 0.047906750352184523 0 -0.37000681959492809 0.05831264468359916 0 -0.37046143272875132 0.04675171495388801 0 -0.36802302346639398 0.047906750352184523 0 -0.37000681959492809 0.05831264468359916 0 -0.37046143272875132 0.04675171495388801 0 -0.36802302346639398 0.047906750352184523 0 -0.35479113087726238 0.05417448586434577 0 -0.36802302346639398 0.047906750352184523 0 -0.35479113087726238 0.05417448586434577 0 -0.36802302346639398 0.047906750352184523 0 -0.3622197730044176 0.060127746183944272 0 -0.35479113087726238 0.05417448586434577 0 -0.36677646394688163 0.041367990420506082 0 -0.36802302346639398 0.047906750352184523 0 -0.36802302346639398 0.047906750352184523 0 -0.3622197730044176 0.060127746183944272 0 -0.37000681959492809 0.05831264468359916 0 -0.35147867423579721 0.06053566178096708 0 -0.36926886504626422 0.077079019973005369 0 -0.3622197730044176 0.060127746183944272 0 -0.37000681959492809 0.05831264468359916 0 -0.36926886504626422 0.077079019973005369 0 -0.37000681959492809 0.05831264468359916 0 -0.36926886504626422 0.077079019973005369 0 -0.37079498002478778 0.078498176574577722 0 -0.36926886504626422 0.077079019973005369 0 -0.34551673285671652 0.071984855543133663 0 -0.36912013352382872 0.080861301107253064 0 -0.37000681959492809 0.05831264468359916 0 -0.37079498002478778 0.078498176574577722 0 -0.37470600383380392 0.082961959162170973 0 -0.35147867423579721 0.06053566178096708 0 -0.3622197730044176 0.060127746183944272 0 -0.36926886504626422 0.077079019973005369 0 -0.37000681959492809 0.05831264468359916 0 -0.37470600383380392 0.082961959162170973 0 -0.37000681959492809 0.05831264468359916 0 -0.36926886504626422 0.077079019973005369 0 -0.36926886504626422 0.077079019973005369 0 -0.37079498002478778 0.078498176574577722 0 -0.34551673285671652 0.071984855543133663 0 -0.34763839367566191 0.079069075487607554 0 -0.36912013352382872 0.080861301107253064 0 -0.34551673285671652 0.071984855543133663 0 -0.36912013352382872 0.080861301107253064 0 -0.35147867423579721 0.06053566178096708 0 -0.36926886504626422 0.077079019973005369 0 -0.34551673285671652 0.071984855543133663 0 -0.34408269824063842 0.074738747125954852 0 -0.34763839367566191 0.079069075487607554 0 -0.34179116264722731 0.080399472229040897 0 -0.34408269824063842 0.074738747125954852 0 -0.34551673285671652 0.071984855543133663 0 -0.34763839367566191 0.079069075487607554 0 -0.34408269824063842 0.074738747125954852 0 -0.34551673285671652 0.071984855543133663 0 -0.35147867423579721 0.06053566178096708 0 -0.34551673285671652 0.071984855543133663 0 -0.3447014191436914 0.063951910484466787 0 -0.35147867423579721 0.06053566178096708 0 -0.34551673285671652 0.071984855543133663 0 -0.34763839367566191 0.079069075487607554 0 -0.36858415035949882 0.094491491786065696 0 -0.34763839367566191 0.079069075487607554 0 -0.36858415035949882 0.094491491786065696 0 -0.35198293914272999 0.094145145766245733 0 -0.34456144318064219 0.08667329674911145 0 -0.34763839367566191 0.079069075487607554 0 -0.35198293914272999 0.094145145766245733 0 -0.34456144318064219 0.08667329674911145 0 -0.35198293914272999 0.094145145766245733 0 -0.34431035454597703 0.093789606507308373 0 -0.34456144318064219 0.08667329674911145 0 -0.34763839367566191 0.079069075487607554 0 -0.34179116264722731 0.080399472229040897 0 -0.3782625711058698 0.101617738696854 0 -0.37470600383380392 0.082961959162170973 0 -0.36858415035949882 0.094491491786065696 0 -0.34763839367566191 0.079069075487607554 0 -0.36912013352382872 0.080861301107253064 0 -0.36858415035949882 0.094491491786065696 0 -0.36926886504626422 0.077079019973005369 0 -0.37079498002478778 0.078498176574577722 0 -0.36912013352382872 0.080861301107253064 0 -0.36926886504626422 0.077079019973005369 0 -0.36912013352382872 0.080861301107253064 0 -0.36912013352382872 0.080861301107253064 0 -0.37470600383380392 0.082961959162170973 0 -0.37079498002478778 0.078498176574577722 0 -0.36912013352382872 0.080861301107253064 0 -0.37470600383380392 0.082961959162170973 0 -0.36912013352382872 0.080861301107253064 0 -0.37470600383380392 0.082961959162170973 0 -0.36858415035949882 0.094491491786065696 0 -0.36912013352382872 0.080861301107253064 0 -0.36858415035949882 0.094491491786065696 0 -0.36858415035949882 0.094491491786065696 0 -0.36747352968705388 0.12273486311700831 0 -0.3782625711058698 0.101617738696854 0 -0.36858415035949882 0.094491491786065696 0 -0.36858415035949882 0.094491491786065696 0 -0.36006702585218792 0.10838608290929221 0 -0.35198293914272999 0.094145145766245733 0 -0.36858415035949882 0.094491491786065696 0 -0.36006702585218792 0.10838608290929221 0 -0.36747352968705388 0.12273486311700831 0 -0.3782625711058698 0.101617738696854 0 -0.36858415035949882 0.094491491786065696 0 -0.36747352968705388 0.12273486311700831 0 -0.36006702585218792 0.10838608290929221 0 -0.36747352968705388 0.12273486311700831 0 -0.35832203275528268 0.1183511860346923 0 -0.35528769071996391 0.12689780186549679 0 -0.36747352968705388 0.12273486311700831 0 -0.35832203275528268 0.1183511860346923 0 -0.35528769071996391 0.12689780186549679 0 -0.35832203275528268 0.1183511860346923 0 -0.35045988476192508 0.115385996246972 0 -0.36006702585218792 0.10838608290929221 0 -0.35832203275528268 0.1183511860346923 0 -0.35045988476192508 0.115385996246972 0 -0.35045988476192508 0.115385996246972 0 -0.34547580274860562 0.10394098399483009 0 -0.33570271963636877 0.11206429961599181 0 -0.35528769071996391 0.12689780186549679 0 -0.35045988476192508 0.115385996246972 0 -0.34115039425197219 0.12498493974687711 0 -0.36006702585218792 0.10838608290929221 0 -0.35198293914272999 0.094145145766245733 0 -0.34547580274860562 0.10394098399483009 0 -0.36006702585218792 0.10838608290929221 0 -0.35045988476192508 0.115385996246972 0 -0.34547580274860562 0.10394098399483009 0 -0.35198293914272999 0.094145145766245733 0 -0.34547580274860562 0.10394098399483009 0 -0.34431035454597703 0.093789606507308373 0 -0.34547580274860562 0.10394098399483009 0 -0.34431035454597703 0.093789606507308373 0 -0.335413749579693 0.097286071719103154 0 -0.34547580274860562 0.10394098399483009 0 -0.335413749579693 0.097286071719103154 0 -0.33570271963636877 0.11206429961599181 0 -0.335413749579693 0.097286071719103154 0 -0.33570271963636877 0.11206429961599181 0 -0.32444247844199348 0.1047035033472971 0 -0.35045988476192508 0.115385996246972 0 -0.34115039425197219 0.12498493974687711 0 -0.33570271963636877 0.11206429961599181 0 -0.32917568526667751 0.12578156900391591 0 -0.33570271963636877 0.11206429961599181 0 -0.32114709127587232 0.11611322513389059 0 -0.32917568526667751 0.12578156900391591 0 -0.34115039425197219 0.12498493974687711 0 -0.33570271963636877 0.11206429961599181 0 -0.31354631638020197 0.13395604467094269 0 -0.30549209578720232 0.10774456093924389 0 -0.32114709127587232 0.11611322513389059 0 -0.30549209578720232 0.10774456093924389 0 -0.32114709127587232 0.11611322513389059 0 -0.32444247844199348 0.1047035033472971 0 -0.33570271963636877 0.11206429961599181 0 -0.32114709127587232 0.11611322513389059 0 -0.32444247844199348 0.1047035033472971 0 -0.30549209578720232 0.10774456093924389 0 -0.32444247844199348 0.1047035033472971 0 -0.32445673593083119 0.090309359328255762 0 -0.30549209578720232 0.10774456093924389 0 -0.32445673593083119 0.090309359328255762 0 -0.31312795334666071 0.083579729522452809 0 -0.335413749579693 0.097286071719103154 0 -0.32444247844199348 0.1047035033472971 0 -0.32445673593083119 0.090309359328255762 0 -0.32445673593083119 0.090309359328255762 0 -0.3275606083710243 0.080211281293741998 0 -0.31312795334666071 0.083579729522452809 0 -0.3275606083710243 0.080211281293741998 0 -0.31312795334666071 0.083579729522452809 0 -0.31976082328641481 0.073112182403608325 0 -0.30931237829482389 0.073252958087475881 0 -0.31312795334666071 0.083579729522452809 0 -0.31976082328641481 0.073112182403608325 0 -0.30931237829482389 0.073252958087475881 0 -0.31697319293959142 0.061410437985649477 0 -0.31976082328641481 0.073112182403608325 0 -0.31697319293959142 0.061410437985649477 0 -0.31976082328641481 0.073112182403608325 0 -0.32886731949388731 0.069155273298144179 0 -0.31697319293959142 0.061410437985649477 0 -0.32808937753058609 0.059947696530402161 0 -0.32886731949388731 0.069155273298144179 0 -0.3275606083710243 0.080211281293741998 0 -0.31976082328641481 0.073112182403608325 0 -0.32886731949388731 0.069155273298144179 0 -0.32886731949388731 0.069155273298144179 0 -0.33770721458858299 0.069047958238937293 0 -0.336378655355973 0.076693290193422539 0 -0.3275606083710243 0.080211281293741998 0 -0.32886731949388731 0.069155273298144179 0 -0.336378655355973 0.076693290193422539 0 -0.33440717105718593 0.063083878638897639 0 -0.32886731949388731 0.069155273298144179 0 -0.33770721458858299 0.069047958238937293 0 -0.32808937753058609 0.059947696530402161 0 -0.33440717105718593 0.063083878638897639 0 -0.32886731949388731 0.069155273298144179 0 -0.3407399656121517 0.06083029771636933 0 -0.33440717105718593 0.063083878638897639 0 -0.33770721458858299 0.069047958238937293 0 -0.3407399656121517 0.06083029771636933 0 -0.3447014191436914 0.063951910484466787 0 -0.33770721458858299 0.069047958238937293 0 -0.34551673285671652 0.071984855543133663 0 -0.3447014191436914 0.063951910484466787 0 -0.33770721458858299 0.069047958238937293 0 -0.34408269824063842 0.074738747125954852 0 -0.33770721458858299 0.069047958238937293 0 -0.336378655355973 0.076693290193422539 0 -0.34408269824063842 0.074738747125954852 0 -0.34551673285671652 0.071984855543133663 0 -0.33770721458858299 0.069047958238937293 0 -0.34551673285671652 0.071984855543133663 0 -0.33770721458858299 0.069047958238937293 0 -0.34408269824063842 0.074738747125954852 0 -0.336378655355973 0.076693290193422539 0 -0.34179116264722731 0.080399472229040897 0 -0.336378655355973 0.076693290193422539 0 -0.34179116264722731 0.080399472229040897 0 -0.33708436589161489 0.085963183755354639 0 -0.34456144318064219 0.08667329674911145 0 -0.34179116264722731 0.080399472229040897 0 -0.33708436589161489 0.085963183755354639 0 -0.34456144318064219 0.08667329674911145 0 -0.34431035454597703 0.093789606507308373 0 -0.33708436589161489 0.085963183755354639 0 -0.34431035454597703 0.093789606507308373 0 -0.335413749579693 0.097286071719103154 0 -0.33708436589161489 0.085963183755354639 0 -0.335413749579693 0.097286071719103154 0 -0.32445673593083119 0.090309359328255762 0 -0.33708436589161489 0.085963183755354639 0 -0.32445673593083119 0.090309359328255762 0 -0.3275606083710243 0.080211281293741998 0 -0.33708436589161489 0.085963183755354639 0 -0.3275606083710243 0.080211281293741998 0 -0.336378655355973 0.076693290193422539 0 -0.33708436589161489 0.085963183755354639 0 -0.38891458820749281 0.47713565504117422 0 -0.42172655890518862 0.5 0 -0.3640375775585698 0.5 0 -0.38891458820749281 0.47713565504117422 0 -0.37103467036260362 0.45695891695805302 0 -0.36943712044780219 0.47475959506207249 0 -0.39694697642853649 0.45370639251272787 0 -0.37103467036260362 0.45695891695805302 0 -0.38891458820749281 0.47713565504117422 0 -0.39694697642853649 0.45370639251272787 0 -0.37103467036260362 0.45695891695805302 0 -0.38249991962136642 0.44345487931465249 0 -0.39694697642853649 0.45370639251272787 0 -0.37103467036260362 0.45695891695805302 0 -0.38249991962136642 0.44345487931465249 0 -0.39694697642853649 0.45370639251272787 0 -0.40464661760035381 0.43350824459614162 0 -0.38891458820749281 0.47713565504117422 0 -0.39694697642853649 0.45370639251272787 0 -0.41631826774707797 0.4711213942969617 0 -0.39694697642853649 0.45370639251272787 0 -0.42285928249446952 0.45045386806740279 0 -0.41631826774707797 0.4711213942969617 0 -0.42285928249446952 0.45045386806740279 0 -0.42501824733507809 0.43459816807542118 0 -0.40464661760035381 0.43350824459614162 0 -0.39694697642853649 0.45370639251272787 0 -0.42285928249446952 0.45045386806740279 0 -0.39694697642853649 0.45370639251272787 0 -0.42285928249446952 0.45045386806740279 0 -0.40464661760035381 0.43350824459614162 0 -0.42285928249446952 0.45045386806740279 0 -0.43521244088076849 0.46107148678855758 0 -0.44877158856040261 0.44720134362207808 0 -0.42285928249446952 0.45045386806740279 0 -0.44877158856040261 0.44720134362207808 0 -0.42285928249446952 0.45045386806740279 0 -0.43592409671607729 0.44045812782560079 0 -0.44877158856040261 0.44720134362207808 0 -0.42285928249446952 0.45045386806740279 0 -0.43592409671607729 0.44045812782560079 0 -0.42501824733507809 0.43459816807542118 0 -0.42285928249446952 0.45045386806740279 0 -0.43521244088076849 0.46107148678855758 0 -0.41631826774707797 0.4711213942969617 0 -0.41631826774707797 0.4711213942969617 0 -0.42172655890518862 0.5 0 -0.43935827984199688 0.47473889959161758 0 -0.43521244088076849 0.46107148678855758 0 -0.41631826774707797 0.4711213942969617 0 -0.43935827984199688 0.47473889959161758 0 -0.38891458820749281 0.47713565504117422 0 -0.41631826774707797 0.4711213942969617 0 -0.42172655890518862 0.5 0 -0.42172655890518862 0.5 0 -0.43935827984199688 0.47473889959161758 0 -0.47784082473980471 0.47626967285504462 0 -0.42172655890518862 0.5 0 -0.5 0.5 0 -0.47784082473980471 0.47626967285504462 0 -0.43935827984199688 0.47473889959161758 0 -0.47784082473980471 0.47626967285504462 0 -0.4487547857598953 0.46184192836472759 0 -0.5 0.5 0 -0.47784082473980471 0.47626967285504462 0 -0.49999999999999589 0.44077113011354369 0 -0.47784082473980471 0.47626967285504462 0 -0.47438579428019922 0.44398623686781052 0 -0.4627013265822788 0.4545376326069438 0 -0.47784082473980471 0.47626967285504462 0 -0.49999999999999589 0.44077113011354369 0 -0.47438579428019922 0.44398623686781052 0 -0.49999999999999589 0.44077113011354369 0 -0.47438579428019922 0.44398623686781052 0 -0.48180565015534738 0.42787197640755792 0 -0.49999999999999589 0.44077113011354369 0 -0.47438579428019922 0.44398623686781052 0 -0.47438579428019922 0.44398623686781052 0 -0.4627013265822788 0.4545376326069438 0 -0.44877158856040261 0.44720134362207808 0 -0.47438579428019922 0.44398623686781052 0 -0.44877158856040261 0.44720134362207808 0 -0.47438579428019922 0.44398623686781052 0 -0.44877158856040261 0.44720134362207808 0 -0.46289485375526918 0.43579199928955081 0 -0.44877158856040261 0.44720134362207808 0 -0.44878504691792248 0.43547483269414872 0 -0.46289485375526918 0.43579199928955081 0 -0.47784082473980471 0.47626967285504462 0 -0.4627013265822788 0.4545376326069438 0 -0.4487547857598953 0.46184192836472759 0 -0.4627013265822788 0.4545376326069438 0 -0.4487547857598953 0.46184192836472759 0 -0.44877158856040261 0.44720134362207808 0 -0.4487547857598953 0.46184192836472759 0 -0.44877158856040261 0.44720134362207808 0 -0.43521244088076849 0.46107148678855758 0 -0.4487547857598953 0.46184192836472759 0 -0.44877158856040261 0.44720134362207808 0 -0.43521244088076849 0.46107148678855758 0 -0.43935827984199688 0.47473889959161758 0 -0.4487547857598953 0.46184192836472759 0 -0.44877158856040261 0.44720134362207808 0 -0.44508566455651338 0.43839632914573512 0 -0.44878504691792248 0.43547483269414872 0 -0.44877158856040261 0.44720134362207808 0 -0.44878504691792248 0.43547483269414872 0 -0.43592409671607729 0.44045812782560079 0 -0.44877158856040261 0.44720134362207808 0 -0.44508566455651338 0.43839632914573512 0 -0.44531233658805403 0.42513554986162888 0 -0.44878504691792248 0.43547483269414872 0 -0.44880957839306629 0.41410011360809668 0 -0.44878504691792248 0.43547483269414872 0 -0.44880957839306629 0.41410011360809668 0 -0.43788570063392329 0.43164093021736671 0 -0.44531233658805403 0.42513554986162888 0 -0.44878504691792248 0.43547483269414872 0 -0.43592409671607729 0.44045812782560079 0 -0.44508566455651338 0.43839632914573512 0 -0.43788570063392329 0.43164093021736671 0 -0.44508566455651338 0.43839632914573512 0 -0.43788570063392329 0.43164093021736671 0 -0.44878504691792248 0.43547483269414872 0 -0.44508566455651338 0.43839632914573512 0 -0.44878504691792248 0.43547483269414872 0 -0.44531233658805403 0.42513554986162888 0 -0.44880957839306629 0.41410011360809668 0 -0.42391867717568832 0.41711337076656618 0 -0.44880957839306629 0.41410011360809668 0 -0.46585669794528167 0.42199291516666237 0 -0.4641229039382897 0.40091036417177778 0 -0.44878504691792248 0.43547483269414872 0 -0.46585669794528167 0.42199291516666237 0 -0.44878504691792248 0.43547483269414872 0 -0.44880957839306629 0.41410011360809668 0 -0.46585669794528167 0.42199291516666237 0 -0.44878504691792248 0.43547483269414872 0 -0.46585669794528167 0.42199291516666237 0 -0.46289485375526918 0.43579199928955081 0 -0.47438579428019922 0.44398623686781052 0 -0.46289485375526918 0.43579199928955081 0 -0.48180565015534738 0.42787197640755792 0 -0.46585669794528167 0.42199291516666237 0 -0.46289485375526918 0.43579199928955081 0 -0.48180565015534738 0.42787197640755792 0 -0.46585669794528167 0.42199291516666237 0 -0.48292834897264081 0.4085109976391762 0 -0.4641229039382897 0.40091036417177778 0 -0.46585669794528167 0.42199291516666237 0 -0.48292834897264081 0.4085109976391762 0 -0.46585669794528167 0.42199291516666237 0 -0.48180565015534738 0.42787197640755792 0 -0.48292834897264081 0.4085109976391762 0 -0.48292834897264081 0.4085109976391762 0 -0.5 0.41790010511261683 0 -0.5 0.39502908011169002 0 -0.48180565015534738 0.42787197640755792 0 -0.48292834897264081 0.4085109976391762 0 -0.5 0.41790010511261683 0 -0.49999999999999589 0.44077113011354369 0 -0.48180565015534738 0.42787197640755792 0 -0.5 0.41790010511261683 0 -0.48850556386005051 0.3766603246979251 0 -0.5 0.39502908011169002 0 -0.47832653283541199 0.38608194873200979 0 -0.48850556386005051 0.3766603246979251 0 -0.5 0.39502908011169002 0 -0.5 0.36887446842263683 0 -0.48292834897264081 0.4085109976391762 0 -0.5 0.39502908011169002 0 -0.47832653283541199 0.38608194873200979 0 -0.48292834897264081 0.4085109976391762 0 -0.5 0.39502908011169002 0 -0.48292834897264081 0.4085109976391762 0 -0.47832653283541199 0.38608194873200979 0 -0.4641229039382897 0.40091036417177778 0 -0.48850556386005051 0.3766603246979251 0 -0.47832653283541199 0.38608194873200979 0 -0.48259334700195489 0.36409898273387958 0 -0.47832653283541199 0.38608194873200979 0 -0.46059005399087027 0.38292215568240928 0 -0.4641229039382897 0.40091036417177778 0 -0.47832653283541199 0.38608194873200979 0 -0.46059005399087027 0.38292215568240928 0 -0.46572599417265398 0.36772482908493609 0 -0.44880957839306629 0.41410011360809668 0 -0.4641229039382897 0.40091036417177778 0 -0.44883410986820999 0.3927253945220448 0 -0.46059005399087027 0.38292215568240928 0 -0.4641229039382897 0.40091036417177778 0 -0.44883410986820999 0.3927253945220448 0 -0.44880957839306629 0.41410011360809668 0 -0.44883410986820999 0.3927253945220448 0 -0.43699833754743561 0.40294499431243458 0 -0.44880957839306629 0.41410011360809668 0 -0.44883410986820999 0.3927253945220448 0 -0.44883410986820999 0.3927253945220448 0 -0.43978391516082421 0.3912231797547942 0 -0.43699833754743561 0.40294499431243458 0 -0.44883410986820999 0.3927253945220448 0 -0.43978391516082421 0.3912231797547942 0 -0.44802713623065987 0.37645115623263098 0 -0.44883410986820999 0.3927253945220448 0 -0.44885864134335329 0.37135067543599282 0 -0.44883410986820999 0.3927253945220448 0 -0.44802713623065987 0.37645115623263098 0 -0.44885864134335329 0.37135067543599282 0 -0.43978391516082421 0.3912231797547942 0 -0.44802713623065987 0.37645115623263098 0 -0.42527607699699133 0.39277117395206662 0 -0.46059005399087027 0.38292215568240928 0 -0.44883410986820999 0.3927253945220448 0 -0.44885864134335329 0.37135067543599282 0 -0.44802713623065987 0.37645115623263098 0 -0.4250431626101242 0.37647010748543319 0 -0.42527607699699133 0.39277117395206662 0 -0.44802713623065987 0.37645115623263098 0 -0.42527607699699133 0.39277117395206662 0 -0.4250431626101242 0.37647010748543319 0 -0.4134887672477453 0.38574914578498593 0 -0.40122768387689522 0.38158953953487368 0 -0.4250431626101242 0.37647010748543319 0 -0.40122768387689522 0.38158953953487368 0 -0.4250431626101242 0.37647010748543319 0 -0.4134887672477453 0.38574914578498593 0 -0.42527607699699133 0.39277117395206662 0 -0.4250431626101242 0.37647010748543319 0 -0.40122768387689522 0.38158953953487368 0 -0.40086489287733429 0.37467411733839928 0 -0.4134887672477453 0.38574914578498593 0 -0.40798835104355652 0.39359067917546098 0 -0.40557429982823212 0.38794008425198068 0 -0.4134887672477453 0.38574914578498593 0 -0.40122768387689522 0.38158953953487368 0 -0.40557429982823212 0.38794008425198068 0 -0.40798835104355652 0.39359067917546098 0 -0.42527607699699133 0.39277117395206662 0 -0.40252501776332311 0.40909119167150271 0 -0.42527607699699133 0.39277117395206662 0 -0.40252501776332311 0.40909119167150271 0 -0.4134887672477453 0.38574914578498593 0 -0.40798835104355652 0.39359067917546098 0 -0.42527607699699133 0.39277117395206662 0 -0.42527607699699133 0.39277117395206662 0 -0.43699833754743561 0.40294499431243458 0 -0.42391867717568832 0.41711337076656618 0 -0.43978391516082421 0.3912231797547942 0 -0.42527607699699133 0.39277117395206662 0 -0.43699833754743561 0.40294499431243458 0 -0.44880957839306629 0.41410011360809668 0 -0.43699833754743561 0.40294499431243458 0 -0.42391867717568832 0.41711337076656618 0 -0.44531233658805403 0.42513554986162888 0 -0.42391867717568832 0.41711337076656618 0 -0.43788570063392329 0.43164093021736671 0 -0.44531233658805403 0.42513554986162888 0 -0.42391867717568832 0.41711337076656618 0 -0.43788570063392329 0.43164093021736671 0 -0.42391867717568832 0.41711337076656618 0 -0.42501824733507809 0.43459816807542118 0 -0.43592409671607729 0.44045812782560079 0 -0.43788570063392329 0.43164093021736671 0 -0.42501824733507809 0.43459816807542118 0 -0.42391867717568832 0.41711337076656618 0 -0.42501824733507809 0.43459816807542118 0 -0.40464661760035381 0.43350824459614162 0 -0.42527607699699133 0.39277117395206662 0 -0.42391867717568832 0.41711337076656618 0 -0.40252501776332311 0.40909119167150271 0 -0.42391867717568832 0.41711337076656618 0 -0.40252501776332311 0.40909119167150271 0 -0.40464661760035381 0.43350824459614162 0 -0.42391867717568832 0.41711337076656618 0 -0.40252501776332311 0.40909119167150271 0 -0.40252501776332311 0.40909119167150271 0 -0.37875820238401509 0.42613984176471847 0 -0.40252501776332311 0.40909119167150271 0 -0.40464661760035381 0.43350824459614162 0 -0.37875820238401509 0.42613984176471847 0 -0.38249991962136642 0.44345487931465249 0 -0.40464661760035381 0.43350824459614162 0 -0.37875820238401509 0.42613984176471847 0 -0.40252501776332311 0.40909119167150271 0 -0.37875820238401509 0.42613984176471847 0 -0.37769092578324193 0.39977892163450779 0 -0.37769092578324193 0.39977892163450779 0 -0.38963770449155072 0.39285491215608792 0 -0.37686086334024771 0.38257038446795849 0 -0.40252501776332311 0.40909119167150271 0 -0.37769092578324193 0.39977892163450779 0 -0.38963770449155072 0.39285491215608792 0 -0.40252501776332311 0.40909119167150271 0 -0.37769092578324193 0.39977892163450779 0 -0.37686086334024771 0.38257038446795849 0 -0.39363670834615189 0.38450398520198442 0 -0.40086489287733429 0.37467411733839928 0 -0.38963770449155072 0.39285491215608792 0 -0.37686086334024771 0.38257038446795849 0 -0.39363670834615189 0.38450398520198442 0 -0.37686086334024771 0.38257038446795849 0 -0.40086489287733429 0.37467411733839928 0 -0.37686086334024771 0.38257038446795849 0 -0.40086489287733429 0.37467411733839928 0 -0.39033592763893787 0.37070590072739279 0 -0.39363670834615189 0.38450398520198442 0 -0.40122768387689522 0.38158953953487368 0 -0.39959239714473138 0.39083097251260251 0 -0.38963770449155072 0.39285491215608792 0 -0.39363670834615189 0.38450398520198442 0 -0.39959239714473138 0.39083097251260251 0 -0.39363670834615189 0.38450398520198442 0 -0.40122768387689522 0.38158953953487368 0 -0.40086489287733429 0.37467411733839928 0 -0.40122768387689522 0.38158953953487368 0 -0.40557429982823212 0.38794008425198068 0 -0.39959239714473138 0.39083097251260251 0 -0.40798835104355652 0.39359067917546098 0 -0.40557429982823212 0.38794008425198068 0 -0.39959239714473138 0.39083097251260251 0 -0.40252501776332311 0.40909119167150271 0 -0.38963770449155072 0.39285491215608792 0 -0.39959239714473138 0.39083097251260251 0 -0.40798835104355652 0.39359067917546098 0 -0.40252501776332311 0.40909119167150271 0 -0.39959239714473138 0.39083097251260251 0 -0.3926828114571661 0.35541775914535301 0 -0.40105078960399698 0.34662517948293931 0 -0.40586906590548888 0.3393029225754271 0 -0.3926828114571661 0.35541775914535301 0 -0.39400561065841477 0.34382680172727831 0 -0.40586906590548888 0.3393029225754271 0 -0.3926828114571661 0.35541775914535301 0 -0.40586906590548888 0.3393029225754271 0 -0.3926828114571661 0.35541775914535301 0 -0.39969836615416421 0.35756427730283669 0 -0.39341808057325789 0.36431669671432632 0 -0.3926828114571661 0.35541775914535301 0 -0.40105078960399698 0.34662517948293931 0 -0.39969836615416421 0.35756427730283669 0 -0.3926828114571661 0.35541775914535301 0 -0.39400561065841477 0.34382680172727831 0 -0.38539473684528258 0.34837828204789067 0 -0.40105078960399698 0.34662517948293931 0 -0.40525205349158999 0.35429039595711992 0 -0.40888688292129022 0.34941903462410451 0 -0.40105078960399698 0.34662517948293931 0 -0.4080564418273247 0.34368885170405422 0 -0.40888688292129022 0.34941903462410451 0 -0.40105078960399698 0.34662517948293931 0 -0.40525205349158999 0.35429039595711992 0 -0.39969836615416421 0.35756427730283669 0 -0.40525205349158999 0.35429039595711992 0 -0.39969836615416421 0.35756427730283669 0 -0.40553625032349627 0.36037170931698131 0 -0.40553625032349627 0.36037170931698131 0 -0.40544017780568847 0.3661562974108753 0 -0.40025021147547779 0.36436392320030081 0 -0.40544017780568847 0.3661562974108753 0 -0.40025021147547779 0.36436392320030081 0 -0.397742957241214 0.36844985128713797 0 -0.39969836615416421 0.35756427730283669 0 -0.40553625032349627 0.36037170931698131 0 -0.40025021147547779 0.36436392320030081 0 -0.40544017780568847 0.3661562974108753 0 -0.40086489287733429 0.37467411733839928 0 -0.397742957241214 0.36844985128713797 0 -0.40086489287733429 0.37467411733839928 0 -0.397742957241214 0.36844985128713797 0 -0.39033592763893787 0.37070590072739279 0 -0.397742957241214 0.36844985128713797 0 -0.39341808057325789 0.36431669671432632 0 -0.39033592763893787 0.37070590072739279 0 -0.39969836615416421 0.35756427730283669 0 -0.40025021147547779 0.36436392320030081 0 -0.39341808057325789 0.36431669671432632 0 -0.40025021147547779 0.36436392320030081 0 -0.397742957241214 0.36844985128713797 0 -0.39341808057325789 0.36431669671432632 0 -0.3926828114571661 0.35541775914535301 0 -0.39341808057325789 0.36431669671432632 0 -0.37949655700884349 0.37153259571527891 0 -0.37949655700884349 0.37153259571527891 0 -0.37823932191431281 0.35548757599615399 0 -0.37024808467873749 0.36543132639488701 0 -0.3926828114571661 0.35541775914535301 0 -0.37949655700884349 0.37153259571527891 0 -0.37823932191431281 0.35548757599615399 0 -0.3926828114571661 0.35541775914535301 0 -0.37949655700884349 0.37153259571527891 0 -0.39341808057325789 0.36431669671432632 0 -0.39033592763893787 0.37070590072739279 0 -0.37949655700884349 0.37153259571527891 0 -0.37686086334024771 0.38257038446795849 0 -0.39033592763893787 0.37070590072739279 0 -0.37949655700884349 0.37153259571527891 0 -0.37823932191431281 0.35548757599615399 0 -0.38539473684528258 0.34837828204789067 0 -0.3787015959315434 0.33902802614693439 0 -0.3926828114571661 0.35541775914535301 0 -0.37823932191431281 0.35548757599615399 0 -0.38539473684528258 0.34837828204789067 0 -0.3787015959315434 0.33902802614693439 0 -0.37816355277066899 0.32985684687273281 0 -0.39158393304450312 0.32769252248945308 0 -0.39400561065841477 0.34382680172727831 0 -0.38539473684528258 0.34837828204789067 0 -0.3787015959315434 0.33902802614693439 0 -0.39158393304450312 0.32769252248945308 0 -0.37442838800096029 0.32044424157556423 0 -0.37816355277066899 0.32985684687273281 0 -0.39158393304450312 0.32769252248945308 0 -0.37442838800096029 0.32044424157556423 0 -0.38613629988198012 0.31665983269396758 0 -0.39158393304450312 0.32769252248945308 0 -0.37442838800096029 0.32044424157556423 0 -0.38613629988198012 0.31665983269396758 0 -0.37442838800096029 0.32044424157556423 0 -0.37415321332832258 0.31386652142517069 0 -0.39158393304450312 0.32769252248945308 0 -0.4039094095666334 0.320812311378052 0 -0.40925887999808552 0.33516025262174892 0 -0.38613629988198012 0.31665983269396758 0 -0.39830358576524327 0.31266849694114901 0 -0.39158393304450312 0.32769252248945308 0 -0.39830358576524327 0.31266849694114901 0 -0.39158393304450312 0.32769252248945308 0 -0.4039094095666334 0.320812311378052 0 -0.39830358576524327 0.31266849694114901 0 -0.4039094095666334 0.320812311378052 0 -0.40826549608127172 0.31275764886218971 0 -0.3787015959315434 0.33902802614693439 0 -0.40777024278950652 0.33697950655941222 0 -0.39158393304450312 0.32769252248945308 0 -0.40925887999808552 0.33516025262174892 0 -0.39158393304450312 0.32769252248945308 0 -0.40777024278950652 0.33697950655941222 0 -0.40925887999808552 0.33516025262174892 0 -0.3787015959315434 0.33902802614693439 0 -0.39158393304450312 0.32769252248945308 0 -0.40777024278950652 0.33697950655941222 0 -0.39400561065841477 0.34382680172727831 0 -0.3787015959315434 0.33902802614693439 0 -0.40777024278950652 0.33697950655941222 0 -0.39400561065841477 0.34382680172727831 0 -0.40586906590548888 0.3393029225754271 0 -0.40777024278950652 0.33697950655941222 0 -0.40105078960399698 0.34662517948293931 0 -0.40586906590548888 0.3393029225754271 0 -0.40105078960399698 0.34662517948293931 0 -0.40586906590548888 0.3393029225754271 0 -0.4080564418273247 0.34368885170405422 0 -0.4080564418273247 0.34368885170405422 0 -0.41125860555200922 0.34134685969384471 0 -0.40895905381070002 0.33957121871677393 0 -0.40586906590548888 0.3393029225754271 0 -0.4080564418273247 0.34368885170405422 0 -0.40895905381070002 0.33957121871677393 0 -0.4080564418273247 0.34368885170405422 0 -0.41125860555200922 0.34134685969384471 0 -0.41366919887348358 0.34576378073699821 0 -0.41125860555200922 0.34134685969384471 0 -0.41273643032526569 0.33662953043248711 0 -0.41433336845197538 0.3415594658204692 0 -0.41125860555200922 0.34134685969384471 0 -0.41433336845197538 0.3415594658204692 0 -0.41366919887348358 0.34576378073699821 0 -0.41125860555200922 0.34134685969384471 0 -0.41273643032526569 0.33662953043248711 0 -0.40895905381070002 0.33957121871677393 0 -0.41273643032526569 0.33662953043248711 0 -0.40777024278950652 0.33697950655941222 0 -0.41273643032526569 0.33662953043248711 0 -0.40895905381070002 0.33957121871677393 0 -0.40777024278950652 0.33697950655941222 0 -0.41273643032526569 0.33662953043248711 0 -0.40777024278950652 0.33697950655941222 0 -0.40925887999808552 0.33516025262174892 0 -0.40777024278950652 0.33697950655941222 0 -0.40925887999808552 0.33516025262174892 0 -0.40586906590548888 0.3393029225754271 0 -0.40895905381070002 0.33957121871677393 0 -0.40777024278950652 0.33697950655941222 0 -0.40586906590548888 0.3393029225754271 0 -0.40777024278950652 0.33697950655941222 0 -0.41273643032526569 0.33662953043248711 0 -0.40925887999808552 0.33516025262174892 0 -0.40925887999808552 0.33516025262174892 0 -0.42024067891477529 0.32173946694831868 0 -0.40925887999808552 0.33516025262174892 0 -0.42071708592719742 0.33131558094746122 0 -0.42024067891477529 0.32173946694831868 0 -0.41273643032526569 0.33662953043248711 0 -0.40925887999808552 0.33516025262174892 0 -0.42071708592719742 0.33131558094746122 0 -0.41273643032526569 0.33662953043248711 0 -0.4199209072431685 0.34318781838679219 0 -0.41433336845197538 0.3415594658204692 0 -0.4199209072431685 0.34318781838679219 0 -0.41433336845197538 0.3415594658204692 0 -0.41366919887348358 0.34576378073699821 0 -0.40925887999808552 0.33516025262174892 0 -0.41892768793075841 0.31754462100172592 0 -0.42141481873501418 0.31567829233095179 0 -0.40925887999808552 0.33516025262174892 0 -0.411263050936583 0.31954773430139438 0 -0.41892768793075841 0.31754462100172592 0 -0.40925887999808552 0.33516025262174892 0 -0.42141481873501418 0.31567829233095179 0 -0.40925887999808552 0.33516025262174892 0 -0.42024067891477529 0.32173946694831868 0 -0.42141481873501418 0.31567829233095179 0 -0.411263050936583 0.31954773430139438 0 -0.40826549608127172 0.31275764886218971 0 -0.41647318301620623 0.31168328686166002 0 -0.4039094095666334 0.320812311378052 0 -0.411263050936583 0.31954773430139438 0 -0.40826549608127172 0.31275764886218971 0 -0.4039094095666334 0.320812311378052 0 -0.40925887999808552 0.33516025262174892 0 -0.411263050936583 0.31954773430139438 0 -0.411263050936583 0.31954773430139438 0 -0.41892768793075841 0.31754462100172592 0 -0.41647318301620623 0.31168328686166002 0 -0.41892768793075841 0.31754462100172592 0 -0.42141481873501418 0.31567829233095179 0 -0.41892768793075841 0.31754462100172592 0 -0.42141481873501418 0.31567829233095179 0 -0.41647318301620623 0.31168328686166002 0 -0.42024067891477529 0.32173946694831868 0 -0.43790895006943947 0.32081412042189511 0 -0.43122247783146522 0.30831868127488848 0 -0.42024067891477529 0.32173946694831868 0 -0.42938605365092247 0.3272194948190838 0 -0.43790895006943947 0.32081412042189511 0 -0.42024067891477529 0.32173946694831868 0 -0.42141481873501418 0.31567829233095179 0 -0.43122247783146522 0.30831868127488848 0 -0.42024067891477529 0.32173946694831868 0 -0.43122247783146522 0.30831868127488848 0 -0.42071708592719742 0.33131558094746122 0 -0.42024067891477529 0.32173946694831868 0 -0.42938605365092247 0.3272194948190838 0 -0.42938605365092247 0.3272194948190838 0 -0.43674098495811231 0.33493788649063261 0 -0.43790895006943947 0.32081412042189511 0 -0.43790895006943947 0.32081412042189511 0 -0.4401847358662575 0.3127477530096977 0 -0.43122247783146522 0.30831868127488848 0 -0.41273643032526569 0.33662953043248711 0 -0.43674098495811231 0.33493788649063261 0 -0.42071708592719742 0.33131558094746122 0 -0.42938605365092247 0.3272194948190838 0 -0.43674098495811231 0.33493788649063261 0 -0.41273643032526569 0.33662953043248711 0 -0.4199209072431685 0.34318781838679219 0 -0.43385085243219867 0.34555045147446217 0 -0.41273643032526569 0.33662953043248711 0 -0.42071708592719742 0.33131558094746122 0 -0.43674098495811231 0.33493788649063261 0 -0.41273643032526569 0.33662953043248711 0 -0.43385085243219867 0.34555045147446217 0 -0.41273643032526569 0.33662953043248711 0 -0.43674098495811231 0.33493788649063261 0 -0.43385085243219867 0.34555045147446217 0 -0.43385085243219867 0.34555045147446217 0 -0.4302486007270056 0.35272204188882378 0 -0.42573384958437638 0.34916959158482058 0 -0.43385085243219867 0.34555045147446217 0 -0.43539550265875948 0.35741731211322858 0 -0.44110397924445488 0.35756373905142852 0 -0.43539550265875948 0.35741731211322858 0 -0.4302486007270056 0.35272204188882378 0 -0.42757171946388478 0.35850981688022993 0 -0.43385085243219867 0.34555045147446217 0 -0.43539550265875948 0.35741731211322858 0 -0.4302486007270056 0.35272204188882378 0 -0.4302486007270056 0.35272204188882378 0 -0.42480748600639012 0.35482075793933809 0 -0.42573384958437638 0.34916959158482058 0 -0.4302486007270056 0.35272204188882378 0 -0.42757171946388478 0.35850981688022993 0 -0.42480748600639012 0.35482075793933809 0 -0.42757171946388478 0.35850981688022993 0 -0.42480748600639012 0.35482075793933809 0 -0.42195212413097077 0.36043988011418487 0 -0.4199209072431685 0.34318781838679219 0 -0.43385085243219867 0.34555045147446217 0 -0.42573384958437638 0.34916959158482058 0 -0.42480748600639012 0.35482075793933809 0 -0.42573384958437638 0.34916959158482058 0 -0.41984140151311927 0.3495668882346864 0 -0.4199209072431685 0.34318781838679219 0 -0.42573384958437638 0.34916959158482058 0 -0.41984140151311927 0.3495668882346864 0 -0.4199209072431685 0.34318781838679219 0 -0.41984140151311927 0.3495668882346864 0 -0.41366919887348358 0.34576378073699821 0 -0.41984140151311927 0.3495668882346864 0 -0.41366919887348358 0.34576378073699821 0 -0.41404230344944593 0.35073751764187411 0 -0.42480748600639012 0.35482075793933809 0 -0.41984140151311927 0.3495668882346864 0 -0.41755863725870102 0.35684421707679032 0 -0.42480748600639012 0.35482075793933809 0 -0.41755863725870102 0.35684421707679032 0 -0.42195212413097077 0.36043988011418487 0 -0.41984140151311927 0.3495668882346864 0 -0.41755863725870102 0.35684421707679032 0 -0.41404230344944593 0.35073751764187411 0 -0.41755863725870102 0.35684421707679032 0 -0.41125051028190041 0.35540848222164118 0 -0.41404230344944593 0.35073751764187411 0 -0.41125051028190041 0.35540848222164118 0 -0.40888688292129022 0.34941903462410451 0 -0.41404230344944593 0.35073751764187411 0 -0.41755863725870102 0.35684421707679032 0 -0.41125051028190041 0.35540848222164118 0 -0.41142088061722581 0.36176204086772412 0 -0.40553625032349627 0.36037170931698131 0 -0.41125051028190041 0.35540848222164118 0 -0.41142088061722581 0.36176204086772412 0 -0.40525205349158999 0.35429039595711992 0 -0.40553625032349627 0.36037170931698131 0 -0.41125051028190041 0.35540848222164118 0 -0.40525205349158999 0.35429039595711992 0 -0.41125051028190041 0.35540848222164118 0 -0.40888688292129022 0.34941903462410451 0 -0.4080564418273247 0.34368885170405422 0 -0.40888688292129022 0.34941903462410451 0 -0.41366919887348358 0.34576378073699821 0 -0.40888688292129022 0.34941903462410451 0 -0.41366919887348358 0.34576378073699821 0 -0.41404230344944593 0.35073751764187411 0 -0.4250431626101242 0.37647010748543319 0 -0.40086489287733429 0.37467411733839928 0 -0.42486892241442098 0.36677785020884007 0 -0.40086489287733429 0.37467411733839928 0 -0.42486892241442098 0.36677785020884007 0 -0.40086489287733429 0.37467411733839928 0 -0.41378193274770297 0.36450427419225789 0 -0.42486892241442098 0.36677785020884007 0 -0.40544017780568847 0.3661562974108753 0 -0.40086489287733429 0.37467411733839928 0 -0.41378193274770297 0.36450427419225789 0 -0.40544017780568847 0.3661562974108753 0 -0.41142088061722581 0.36176204086772412 0 -0.41378193274770297 0.36450427419225789 0 -0.40553625032349627 0.36037170931698131 0 -0.40544017780568847 0.3661562974108753 0 -0.41142088061722581 0.36176204086772412 0 -0.41755863725870102 0.35684421707679032 0 -0.41378193274770297 0.36450427419225789 0 -0.42195212413097077 0.36043988011418487 0 -0.41378193274770297 0.36450427419225789 0 -0.42486892241442098 0.36677785020884007 0 -0.42195212413097077 0.36043988011418487 0 -0.41755863725870102 0.35684421707679032 0 -0.41142088061722581 0.36176204086772412 0 -0.41378193274770297 0.36450427419225789 0 -0.4250431626101242 0.37647010748543319 0 -0.44885864134335329 0.37135067543599282 0 -0.4250431626101242 0.37647010748543319 0 -0.42486892241442098 0.36677785020884007 0 -0.44885864134335329 0.37135067543599282 0 -0.42486892241442098 0.36677785020884007 0 -0.448872951951507 0.35888158307927881 0 -0.43539550265875948 0.35741731211322858 0 -0.42486892241442098 0.36677785020884007 0 -0.44110397924445488 0.35756373905142852 0 -0.43539550265875948 0.35741731211322858 0 -0.42757171946388478 0.35850981688022993 0 -0.42486892241442098 0.36677785020884007 0 -0.42757171946388478 0.35850981688022993 0 -0.42486892241442098 0.36677785020884007 0 -0.42195212413097077 0.36043988011418487 0 -0.42486892241442098 0.36677785020884007 0 -0.44885864134335329 0.37135067543599282 0 -0.448872951951507 0.35888158307927881 0 -0.44802713623065987 0.37645115623263098 0 -0.4250431626101242 0.37647010748543319 0 -0.44885864134335329 0.37135067543599282 0 -0.42486892241442098 0.36677785020884007 0 -0.44110397924445488 0.35756373905142852 0 -0.448872951951507 0.35888158307927881 0 -0.44885864134335329 0.37135067543599282 0 -0.448872951951507 0.35888158307927881 0 -0.44885864134335329 0.37135067543599282 0 -0.448872951951507 0.35888158307927881 0 -0.45634368000688869 0.36512471152292858 0 -0.43385085243219867 0.34555045147446217 0 -0.45496527453913199 0.35447137251643651 0 -0.44889299330712729 0.34242966823447613 0 -0.43385085243219867 0.34555045147446217 0 -0.45496527453913199 0.35447137251643651 0 -0.43385085243219867 0.34555045147446217 0 -0.44887533288597797 0.35680703170406669 0 -0.45496527453913199 0.35447137251643651 0 -0.43385085243219867 0.34555045147446217 0 -0.44110397924445488 0.35756373905142852 0 -0.44887533288597797 0.35680703170406669 0 -0.44110397924445488 0.35756373905142852 0 -0.44887533288597797 0.35680703170406669 0 -0.448872951951507 0.35888158307927881 0 -0.44887533288597797 0.35680703170406669 0 -0.448872951951507 0.35888158307927881 0 -0.44887533288597797 0.35680703170406669 0 -0.448872951951507 0.35888158307927881 0 -0.45496527453913199 0.35447137251643651 0 -0.448872951951507 0.35888158307927881 0 -0.45496527453913199 0.35447137251643651 0 -0.47186707529616939 0.3513175305497272 0 -0.448872951951507 0.35888158307927881 0 -0.47186707529616939 0.3513175305497272 0 -0.448872951951507 0.35888158307927881 0 -0.45634368000688869 0.36512471152292858 0 -0.47186707529616939 0.3513175305497272 0 -0.45911772068334677 0.34536620346235469 0 -0.45496527453913199 0.35447137251643651 0 -0.47186707529616939 0.3513175305497272 0 -0.45911772068334677 0.34536620346235469 0 -0.45496527453913199 0.35447137251643651 0 -0.44889299330712729 0.34242966823447613 0 -0.46572599417265398 0.36772482908493609 0 -0.45634368000688869 0.36512471152292858 0 -0.47186707529616939 0.3513175305497272 0 -0.46059005399087027 0.38292215568240928 0 -0.44885864134335329 0.37135067543599282 0 -0.46572599417265398 0.36772482908493609 0 -0.44885864134335329 0.37135067543599282 0 -0.46572599417265398 0.36772482908493609 0 -0.44885864134335329 0.37135067543599282 0 -0.46572599417265398 0.36772482908493609 0 -0.45634368000688869 0.36512471152292858 0 -0.47832653283541199 0.38608194873200979 0 -0.46572599417265398 0.36772482908493609 0 -0.48259334700195489 0.36409898273387958 0 -0.46572599417265398 0.36772482908493609 0 -0.48259334700195489 0.36409898273387958 0 -0.47186707529616939 0.3513175305497272 0 -0.46572599417265398 0.36772482908493609 0 -0.48259334700195489 0.36409898273387958 0 -0.47186707529616939 0.3513175305497272 0 -0.494861198640831 0.34375347802017348 0 -0.47186707529616939 0.3513175305497272 0 -0.48536711719674469 0.35339641184703091 0 -0.494861198640831 0.34375347802017348 0 -0.48259334700195489 0.36409898273387958 0 -0.47186707529616939 0.3513175305497272 0 -0.48536711719674469 0.35339641184703091 0 -0.48259334700195489 0.36409898273387958 0 -0.49214684784802371 0.35441565608434311 0 -0.48536711719674469 0.35339641184703091 0 -0.49214684784802371 0.35441565608434311 0 -0.5 0.36887446842263683 0 -0.5 0.34271985673358363 0 -0.49214684784802371 0.35441565608434311 0 -0.48536711719674469 0.35339641184703091 0 -0.494861198640831 0.34375347802017348 0 -0.49214684784802371 0.35441565608434311 0 -0.494861198640831 0.34375347802017348 0 -0.5 0.34271985673358363 0 -0.48850556386005051 0.3766603246979251 0 -0.48259334700195489 0.36409898273387958 0 -0.5 0.36887446842263683 0 -0.48259334700195489 0.36409898273387958 0 -0.49214684784802371 0.35441565608434311 0 -0.5 0.36887446842263683 0 -0.485708092488497 0.3189911195031831 0 -0.5 0.31656524504453032 0 -0.48475009422380527 0.3315545986069256 0 -0.485708092488497 0.3189911195031831 0 -0.5 0.31656524504453032 0 -0.48583489694974541 0.30845327583860088 0 -0.5 0.31656524504453032 0 -0.5 0.34271985673358363 0 -0.48475009422380527 0.3315545986069256 0 -0.494861198640831 0.34375347802017348 0 -0.5 0.34271985673358363 0 -0.48475009422380527 0.3315545986069256 0 -0.48475009422380527 0.3315545986069256 0 -0.46074553959095882 0.3332462425487791 0 -0.47186707529616939 0.3513175305497272 0 -0.494861198640831 0.34375347802017348 0 -0.48475009422380527 0.3315545986069256 0 -0.47186707529616939 0.3513175305497272 0 -0.48475009422380527 0.3315545986069256 0 -0.46074553959095882 0.3332462425487791 0 -0.48475009422380527 0.3315545986069256 0 -0.47224737878043732 0.31939135852267558 0 -0.46074553959095882 0.3332462425487791 0 -0.485708092488497 0.3189911195031831 0 -0.48475009422380527 0.3315545986069256 0 -0.47224737878043732 0.31939135852267558 0 -0.485708092488497 0.3189911195031831 0 -0.47224737878043732 0.31939135852267558 0 -0.48583489694974541 0.30845327583860088 0 -0.47224737878043732 0.31939135852267558 0 -0.46258830912673421 0.31343425170936878 0 -0.46074553959095882 0.3332462425487791 0 -0.46258830912673421 0.31343425170936878 0 -0.46074553959095882 0.3332462425487791 0 -0.45107709460752138 0.31557533431346357 0 -0.45911772068334677 0.34536620346235469 0 -0.47186707529616939 0.3513175305497272 0 -0.46074553959095882 0.3332462425487791 0 -0.45911772068334677 0.34536620346235469 0 -0.46074553959095882 0.3332462425487791 0 -0.44889299330712729 0.34242966823447613 0 -0.43674098495811231 0.33493788649063261 0 -0.46074553959095882 0.3332462425487791 0 -0.43674098495811231 0.33493788649063261 0 -0.46074553959095882 0.3332462425487791 0 -0.44889299330712729 0.34242966823447613 0 -0.43674098495811231 0.33493788649063261 0 -0.46074553959095882 0.3332462425487791 0 -0.43790895006943947 0.32081412042189511 0 -0.43674098495811231 0.33493788649063261 0 -0.43385085243219867 0.34555045147446217 0 -0.44889299330712729 0.34242966823447613 0 -0.46074553959095882 0.3332462425487791 0 -0.45107709460752138 0.31557533431346357 0 -0.43790895006943947 0.32081412042189511 0 -0.45107709460752138 0.31557533431346357 0 -0.43790895006943947 0.32081412042189511 0 -0.4401847358662575 0.3127477530096977 0 -0.44444415583193408 0.29216055381020578 0 -0.43122247783146522 0.30831868127488848 0 -0.44810052680614793 0.29565349026271098 0 -0.43122247783146522 0.30831868127488848 0 -0.44368336155109173 0.30649675881006838 0 -0.44810052680614793 0.29565349026271098 0 -0.43122247783146522 0.30831868127488848 0 -0.4401847358662575 0.3127477530096977 0 -0.44368336155109173 0.30649675881006838 0 -0.43122247783146522 0.30831868127488848 0 -0.44444415583193408 0.29216055381020578 0 -0.44810052680614793 0.29565349026271098 0 -0.43122247783146522 0.30831868127488848 0 -0.45107709460752138 0.31557533431346357 0 -0.4401847358662575 0.3127477530096977 0 -0.44368336155109173 0.30649675881006838 0 -0.44368336155109173 0.30649675881006838 0 -0.44996115485610377 0.3015940899144034 0 -0.4551770389262465 0.30483297142504889 0 -0.44368336155109173 0.30649675881006838 0 -0.44996115485610377 0.3015940899144034 0 -0.44810052680614793 0.29565349026271098 0 -0.45288369214092922 0.29939313915978533 0 -0.44996115485610377 0.3015940899144034 0 -0.44810052680614793 0.29565349026271098 0 -0.45288369214092922 0.29939313915978533 0 -0.44996115485610377 0.3015940899144034 0 -0.4551770389262465 0.30483297142504889 0 -0.45107709460752138 0.31557533431346357 0 -0.44368336155109173 0.30649675881006838 0 -0.4551770389262465 0.30483297142504889 0 -0.44702735364695217 0.27675533545947301 0 -0.43422108619098299 0.29621681389521232 0 -0.44444415583193408 0.29216055381020578 0 -0.44702735364695217 0.27675533545947301 0 -0.43422108619098299 0.29621681389521232 0 -0.44702735364695217 0.27675533545947301 0 -0.43274811138672559 0.28469846643612018 0 -0.43422108619098299 0.29621681389521232 0 -0.44810052680614793 0.29565349026271098 0 -0.4493542421043164 0.28919027156790111 0 -0.45395006383388498 0.28587005882998617 0 -0.44444415583193408 0.29216055381020578 0 -0.44810052680614793 0.29565349026271098 0 -0.4493542421043164 0.28919027156790111 0 -0.44444415583193408 0.29216055381020578 0 -0.4493542421043164 0.28919027156790111 0 -0.44702735364695217 0.27675533545947301 0 -0.4493542421043164 0.28919027156790111 0 -0.45395006383388498 0.28587005882998617 0 -0.44702735364695217 0.27675533545947301 0 -0.44810052680614793 0.29565349026271098 0 -0.45395006383388498 0.28587005882998617 0 -0.46497857578083068 0.28298829925053381 0 -0.44810052680614793 0.29565349026271098 0 -0.4593999708052337 0.29480301670676529 0 -0.46497857578083068 0.28298829925053381 0 -0.44810052680614793 0.29565349026271098 0 -0.46497857578083068 0.28298829925053381 0 -0.45288369214092922 0.29939313915978533 0 -0.44810052680614793 0.29565349026271098 0 -0.4593999708052337 0.29480301670676529 0 -0.4593999708052337 0.29480301670676529 0 -0.46827174088950307 0.29409138505043392 0 -0.46497857578083068 0.28298829925053381 0 -0.46258830912673421 0.31343425170936878 0 -0.45107709460752138 0.31557533431346357 0 -0.4551770389262465 0.30483297142504889 0 -0.45288369214092922 0.29939313915978533 0 -0.4593999708052337 0.29480301670676529 0 -0.4551770389262465 0.30483297142504889 0 -0.4593999708052337 0.29480301670676529 0 -0.4551770389262465 0.30483297142504889 0 -0.46625021185001803 0.30380681263807602 0 -0.4593999708052337 0.29480301670676529 0 -0.46827174088950307 0.29409138505043392 0 -0.46625021185001803 0.30380681263807602 0 -0.47224737878043732 0.31939135852267558 0 -0.46258830912673421 0.31343425170936878 0 -0.46625021185001803 0.30380681263807602 0 -0.46258830912673421 0.31343425170936878 0 -0.4551770389262465 0.30483297142504889 0 -0.46625021185001803 0.30380681263807602 0 -0.47551717359816043 0.30301602212345602 0 -0.4769183937012712 0.29196404103452073 0 -0.48583489694974541 0.30845327583860088 0 -0.47224737878043732 0.31939135852267558 0 -0.46625021185001803 0.30380681263807602 0 -0.47551717359816043 0.30301602212345602 0 -0.47224737878043732 0.31939135852267558 0 -0.47551717359816043 0.30301602212345602 0 -0.48583489694974541 0.30845327583860088 0 -0.46827174088950307 0.29409138505043392 0 -0.46625021185001803 0.30380681263807602 0 -0.47551717359816043 0.30301602212345602 0 -0.46827174088950307 0.29409138505043392 0 -0.46497857578083068 0.28298829925053381 0 -0.4769183937012712 0.29196404103452073 0 -0.4769183937012712 0.29196404103452073 0 -0.48757792524538679 0.2814999319082685 0 -0.48583489694974541 0.30845327583860088 0 -0.46827174088950307 0.29409138505043392 0 -0.47551717359816043 0.30301602212345602 0 -0.4769183937012712 0.29196404103452073 0 -0.46497857578083068 0.28298829925053381 0 -0.47783287987075052 0.28169384510791978 0 -0.4769183937012712 0.29196404103452073 0 -0.47783287987075052 0.28169384510791978 0 -0.4769183937012712 0.29196404103452073 0 -0.48757792524538679 0.2814999319082685 0 -0.5 0.29041063335547701 0 -0.48757792524538679 0.2814999319082685 0 -0.48583489694974541 0.30845327583860088 0 -0.48757792524538679 0.2814999319082685 0 -0.48583489694974541 0.30845327583860088 0 -0.5 0.31656524504453032 0 -0.5 0.29041063335547701 0 -0.48583489694974541 0.30845327583860088 0 -0.5 0.23810140997737081 0 -0.5 0.26425602166642381 0 -0.48932095354102823 0.25454658797793611 0 -0.48757792524538679 0.2814999319082685 0 -0.48932095354102823 0.25454658797793611 0 -0.48366697684514259 0.26703881783025729 0 -0.48757792524538679 0.2814999319082685 0 -0.5 0.26425602166642381 0 -0.48932095354102823 0.25454658797793611 0 -0.48757792524538679 0.2814999319082685 0 -0.48932095354102823 0.25454658797793611 0 -0.5 0.29041063335547701 0 -0.48757792524538679 0.2814999319082685 0 -0.5 0.26425602166642381 0 -0.46497857578083068 0.28298829925053381 0 -0.48185662475551339 0.27032310823835648 0 -0.46497857578083068 0.28298829925053381 0 -0.47783287987075052 0.28169384510791978 0 -0.48185662475551339 0.27032310823835648 0 -0.48366697684514259 0.26703881783025729 0 -0.45893043448094739 0.2699305570534084 0 -0.48757792524538679 0.2814999319082685 0 -0.48366697684514259 0.26703881783025729 0 -0.48185662475551339 0.27032310823835648 0 -0.48366697684514259 0.26703881783025729 0 -0.48185662475551339 0.27032310823835648 0 -0.47235815296560851 0.27257019559313889 0 -0.46497857578083068 0.28298829925053381 0 -0.48185662475551339 0.27032310823835648 0 -0.47235815296560851 0.27257019559313889 0 -0.48366697684514259 0.26703881783025729 0 -0.46959483388743167 0.25994315597580908 0 -0.45893043448094739 0.2699305570534084 0 -0.48366697684514259 0.26703881783025729 0 -0.47235815296560851 0.27257019559313889 0 -0.45893043448094739 0.2699305570534084 0 -0.47783287987075052 0.28169384510791978 0 -0.48757792524538679 0.2814999319082685 0 -0.48185662475551339 0.27032310823835648 0 -0.48932095354102823 0.25454658797793611 0 -0.48366697684514259 0.26703881783025729 0 -0.47792533453874358 0.25606878273296479 0 -0.48366697684514259 0.26703881783025729 0 -0.46959483388743167 0.25994315597580908 0 -0.47792533453874358 0.25606878273296479 0 -0.47864167104372218 0.246590621409366 0 -0.48932095354102823 0.25454658797793611 0 -0.47792533453874358 0.25606878273296479 0 -0.47864167104372218 0.246590621409366 0 -0.47792533453874358 0.25606878273296479 0 -0.46938038244821267 0.25133041049185839 0 -0.46959483388743167 0.25994315597580908 0 -0.47792533453874358 0.25606878273296479 0 -0.46938038244821267 0.25133041049185839 0 -0.46959483388743167 0.25994315597580908 0 -0.46938038244821267 0.25133041049185839 0 -0.45807104112411212 0.25534721177055669 0 -0.46959483388743167 0.25994315597580908 0 -0.45807104112411212 0.25534721177055669 0 -0.45893043448094739 0.2699305570534084 0 -0.45807104112411212 0.25534721177055669 0 -0.45893043448094739 0.2699305570534084 0 -0.44442574262614493 0.25832327296872359 0 -0.45395006383388498 0.28587005882998617 0 -0.46497857578083068 0.28298829925053381 0 -0.45893043448094739 0.2699305570534084 0 -0.45395006383388498 0.28587005882998617 0 -0.45893043448094739 0.2699305570534084 0 -0.44702735364695217 0.27675533545947301 0 -0.46497857578083068 0.28298829925053381 0 -0.47235815296560851 0.27257019559313889 0 -0.45893043448094739 0.2699305570534084 0 -0.45893043448094739 0.2699305570534084 0 -0.43419389211675241 0.27282229627655952 0 -0.45893043448094739 0.2699305570534084 0 -0.44442574262614493 0.25832327296872359 0 -0.43419389211675241 0.27282229627655952 0 -0.45893043448094739 0.2699305570534084 0 -0.44702735364695217 0.27675533545947301 0 -0.43419389211675241 0.27282229627655952 0 -0.44702735364695217 0.27675533545947301 0 -0.43419389211675241 0.27282229627655952 0 -0.43274811138672559 0.28469846643612018 0 -0.45046339488490522 0.249057113070103 0 -0.45807104112411212 0.25534721177055669 0 -0.44442574262614493 0.25832327296872359 0 -0.44062222049055039 0.24203477259657111 0 -0.44442574262614493 0.25832327296872359 0 -0.42503978512155383 0.25887440404814072 0 -0.44062222049055039 0.24203477259657111 0 -0.42503978512155383 0.25887440404814072 0 -0.44442574262614493 0.25832327296872359 0 -0.42503978512155383 0.25887440404814072 0 -0.43419389211675241 0.27282229627655952 0 -0.42503978512155383 0.25887440404814072 0 -0.40945734975255721 0.27571403549971041 0 -0.40585136056822319 0.25674789398696107 0 -0.4198454647722451 0.23985190764030939 0 -0.42503978512155383 0.25887440404814072 0 -0.40585136056822319 0.25674789398696107 0 -0.40945734975255721 0.27571403549971041 0 -0.43419389211675241 0.27282229627655952 0 -0.42503978512155383 0.25887440404814072 0 -0.40945734975255721 0.27571403549971041 0 -0.42503978512155383 0.25887440404814072 0 -0.40945734975255721 0.27571403549971041 0 -0.43419389211675241 0.27282229627655952 0 -0.40945734975255721 0.27571403549971041 0 -0.43419389211675241 0.27282229627655952 0 -0.4229835889384117 0.28415291652507912 0 -0.43419389211675241 0.27282229627655952 0 -0.43274811138672559 0.28469846643612018 0 -0.4229835889384117 0.28415291652507912 0 -0.43274811138672559 0.28469846643612018 0 -0.43422108619098299 0.29621681389521232 0 -0.42519236151645012 0.29288975242762622 0 -0.43274811138672559 0.28469846643612018 0 -0.42519236151645012 0.29288975242762622 0 -0.4229835889384117 0.28415291652507912 0 -0.42141481873501418 0.31567829233095179 0 -0.43422108619098299 0.29621681389521232 0 -0.42141481873501418 0.31567829233095179 0 -0.43422108619098299 0.29621681389521232 0 -0.42237726971740519 0.30236741203524931 0 -0.44444415583193408 0.29216055381020578 0 -0.43422108619098299 0.29621681389521232 0 -0.43122247783146522 0.30831868127488848 0 -0.42141481873501418 0.31567829233095179 0 -0.43422108619098299 0.29621681389521232 0 -0.43122247783146522 0.30831868127488848 0 -0.43422108619098299 0.29621681389521232 0 -0.42519236151645012 0.29288975242762622 0 -0.42237726971740519 0.30236741203524931 0 -0.42141481873501418 0.31567829233095179 0 -0.43122247783146522 0.30831868127488848 0 -0.42237726971740519 0.30236741203524931 0 -0.41647318301620623 0.31168328686166002 0 -0.40812109447663159 0.30329838776079099 0 -0.42141481873501418 0.31567829233095179 0 -0.42237726971740519 0.30236741203524931 0 -0.41647318301620623 0.31168328686166002 0 -0.42237726971740519 0.30236741203524931 0 -0.40812109447663159 0.30329838776079099 0 -0.41256551749876041 0.29129965580367562 0 -0.40826549608127172 0.31275764886218971 0 -0.41647318301620623 0.31168328686166002 0 -0.40812109447663159 0.30329838776079099 0 -0.40945734975255721 0.27571403549971041 0 -0.4229835889384117 0.28415291652507912 0 -0.41256551749876041 0.29129965580367562 0 -0.42519236151645012 0.29288975242762622 0 -0.4229835889384117 0.28415291652507912 0 -0.41256551749876041 0.29129965580367562 0 -0.42519236151645012 0.29288975242762622 0 -0.42237726971740519 0.30236741203524931 0 -0.41256551749876041 0.29129965580367562 0 -0.40945734975255721 0.27571403549971041 0 -0.39180528154043992 0.29479027846244049 0 -0.39350738277932218 0.27757861076756318 0 -0.40945734975255721 0.27571403549971041 0 -0.39180528154043992 0.29479027846244049 0 -0.40812109447663159 0.30329838776079099 0 -0.41256551749876041 0.29129965580367562 0 -0.39180528154043992 0.29479027846244049 0 -0.40945734975255721 0.27571403549971041 0 -0.41256551749876041 0.29129965580367562 0 -0.39180528154043992 0.29479027846244049 0 -0.38613629988198012 0.31665983269396758 0 -0.39830358576524327 0.31266849694114901 0 -0.39180528154043992 0.29479027846244049 0 -0.39830358576524327 0.31266849694114901 0 -0.40812109447663159 0.30329838776079099 0 -0.39180528154043992 0.29479027846244049 0 -0.39830358576524327 0.31266849694114901 0 -0.40826549608127172 0.31275764886218971 0 -0.40812109447663159 0.30329838776079099 0 -0.39180528154043992 0.29479027846244049 0 -0.37819889022761238 0.29924868842846319 0 -0.37415321332832258 0.31386652142517069 0 -0.38613629988198012 0.31665983269396758 0 -0.39180528154043992 0.29479027846244049 0 -0.37415321332832258 0.31386652142517069 0 -0.39180528154043992 0.29479027846244049 0 -0.37415321332832258 0.31386652142517069 0 -0.39180528154043992 0.29479027846244049 0 -0.37819889022761238 0.29924868842846319 0 -0.37870614451813112 0.28175948497688769 0 -0.39180528154043992 0.29479027846244049 0 -0.37870614451813112 0.28175948497688769 0 -0.39350738277932218 0.27757861076756318 0 -0.37870614451813112 0.28175948497688769 0 -0.37647038179830861 0.26645711442365799 0 -0.39350738277932218 0.27757861076756318 0 -0.37647038179830861 0.26645711442365799 0 -0.39336972403141229 0.26369738761855421 0 -0.39350738277932218 0.27757861076756318 0 -0.38790582398472923 0.24962922847932231 0 -0.37647038179830861 0.26645711442365799 0 -0.39336972403141229 0.26369738761855421 0 -0.38790582398472923 0.24962922847932231 0 -0.37647038179830861 0.26645711442365799 0 -0.36318679658289171 0.25196182354824148 0 -0.40945734975255721 0.27571403549971041 0 -0.40585136056822319 0.25674789398696107 0 -0.39336972403141229 0.26369738761855421 0 -0.38790582398472923 0.24962922847932231 0 -0.40585136056822319 0.25674789398696107 0 -0.39336972403141229 0.26369738761855421 0 -0.40945734975255721 0.27571403549971041 0 -0.39336972403141229 0.26369738761855421 0 -0.39350738277932218 0.27757861076756318 0 -0.40945734975255721 0.27571403549971041 0 -0.39350738277932218 0.27757861076756318 0 -0.35583614606747688 0.27501819518035592 0 -0.36318679658289171 0.25196182354824148 0 -0.33952374355129727 0.25899057541505788 0 -0.37647038179830861 0.26645711442365799 0 -0.35583614606747688 0.27501819518035592 0 -0.36318679658289171 0.25196182354824148 0 -0.37870614451813112 0.28175948497688769 0 -0.37647038179830861 0.26645711442365799 0 -0.35583614606747688 0.27501819518035592 0 -0.37819889022761238 0.29924868842846319 0 -0.37870614451813112 0.28175948497688769 0 -0.36775571630023218 0.2927315942663431 0 -0.37870614451813112 0.28175948497688769 0 -0.35583614606747688 0.27501819518035592 0 -0.36775571630023218 0.2927315942663431 0 -0.37819889022761238 0.29924868842846319 0 -0.36899777432263853 0.30469822459034263 0 -0.37415321332832258 0.31386652142517069 0 -0.36899777432263853 0.30469822459034263 0 -0.36272901898995358 0.31473918551029578 0 -0.37415321332832258 0.31386652142517069 0 -0.37819889022761238 0.29924868842846319 0 -0.36775571630023218 0.2927315942663431 0 -0.36899777432263853 0.30469822459034263 0 -0.36775571630023218 0.2927315942663431 0 -0.36899777432263853 0.30469822459034263 0 -0.35931620367806588 0.30475084950198522 0 -0.36775571630023218 0.2927315942663431 0 -0.35931620367806588 0.30475084950198522 0 -0.35261706249820868 0.29381533636168528 0 -0.36899777432263853 0.30469822459034263 0 -0.35931620367806588 0.30475084950198522 0 -0.36272901898995358 0.31473918551029578 0 -0.35931620367806588 0.30475084950198522 0 -0.35261706249820868 0.29381533636168528 0 -0.34344143829887858 0.30736403781452232 0 -0.35931620367806588 0.30475084950198522 0 -0.34344143829887858 0.30736403781452232 0 -0.35467675850453528 0.31743756764607989 0 -0.35931620367806588 0.30475084950198522 0 -0.35467675850453528 0.31743756764607989 0 -0.36272901898995358 0.31473918551029578 0 -0.35583614606747688 0.27501819518035592 0 -0.36775571630023218 0.2927315942663431 0 -0.35261706249820868 0.29381533636168528 0 -0.35583614606747688 0.27501819518035592 0 -0.35261706249820868 0.29381533636168528 0 -0.33673580814638959 0.28921200504521999 0 -0.35261706249820868 0.29381533636168528 0 -0.33673580814638959 0.28921200504521999 0 -0.34344143829887858 0.30736403781452232 0 -0.33673580814638959 0.28921200504521999 0 -0.32075162894010661 0.28280614760534989 0 -0.33379142081270979 0.2734424933293601 0 -0.34344143829887858 0.30736403781452232 0 -0.31699951866320542 0.30755322334125379 0 -0.34344143829887858 0.30736403781452232 0 -0.31699951866320542 0.30755322334125379 0 -0.33459812393413729 0.32207732583041709 0 -0.33673580814638959 0.28921200504521999 0 -0.34344143829887858 0.30736403781452232 0 -0.31699951866320542 0.30755322334125379 0 -0.33673580814638959 0.28921200504521999 0 -0.31699951866320542 0.30755322334125379 0 -0.32075162894010661 0.28280614760534989 0 -0.31699951866320542 0.30755322334125379 0 -0.32075162894010661 0.28280614760534989 0 -0.30493521127791462 0.28695781074044469 0 -0.32075162894010661 0.28280614760534989 0 -0.31931282352829687 0.26617321261290411 0 -0.33379142081270979 0.2734424933293601 0 -0.32075162894010661 0.28280614760534989 0 -0.31931282352829687 0.26617321261290411 0 -0.30493521127791462 0.28695781074044469 0 -0.35583614606747688 0.27501819518035592 0 -0.33673580814638959 0.28921200504521999 0 -0.33379142081270979 0.2734424933293601 0 -0.35583614606747688 0.27501819518035592 0 -0.33379142081270979 0.2734424933293601 0 -0.33952374355129727 0.25899057541505788 0 -0.31931282352829687 0.26617321261290411 0 -0.33379142081270979 0.2734424933293601 0 -0.33952374355129727 0.25899057541505788 0 -0.32200613725511351 0.24850726385495631 0 -0.31931282352829687 0.26617321261290411 0 -0.33952374355129727 0.25899057541505788 0 -0.32200613725511351 0.24850726385495631 0 -0.31931282352829687 0.26617321261290411 0 -0.30640548876467488 0.25787073169030861 0 -0.31931282352829687 0.26617321261290411 0 -0.30640548876467488 0.25787073169030861 0 -0.3010630097917536 0.27273037638764702 0 -0.31931282352829687 0.26617321261290411 0 -0.3010630097917536 0.27273037638764702 0 -0.30493521127791462 0.28695781074044469 0 -0.31931282352829687 0.26617321261290411 0 -0.30493521127791462 0.28695781074044469 0 -0.3010630097917536 0.27273037638764702 0 -0.29309283898050847 0.28048055459605348 0 -0.30493521127791462 0.28695781074044469 0 -0.3010630097917536 0.27273037638764702 0 -0.29309283898050847 0.28048055459605348 0 -0.28156868640737281 0.27216957229852412 0 -0.30640548876467488 0.25787073169030861 0 -0.3010630097917536 0.27273037638764702 0 -0.28156868640737281 0.27216957229852412 0 -0.30640548876467488 0.25787073169030861 0 -0.28156868640737281 0.27216957229852412 0 -0.28729818335365731 0.26780124082781631 0 -0.28156868640737281 0.27216957229852412 0 -0.28729818335365731 0.26780124082781631 0 -0.27880962639343299 0.26078065685839158 0 -0.29309283898050847 0.28048055459605348 0 -0.28156868640737281 0.27216957229852412 0 -0.28401529333418091 0.28255904946725641 0 -0.30640548876467488 0.25787073169030861 0 -0.28156868640737281 0.27216957229852412 0 -0.29125564533142001 0.24067530578368901 0 -0.30640548876467488 0.25787073169030861 0 -0.28729818335365731 0.26780124082781631 0 -0.29125564533142001 0.24067530578368901 0 -0.28729818335365731 0.26780124082781631 0 -0.27880962639343299 0.26078065685839158 0 -0.29125564533142001 0.24067530578368901 0 -0.28729818335365731 0.26780124082781631 0 -0.29125564533142001 0.24067530578368901 0 -0.26892213733164849 0.25365425058065472 0 -0.27880962639343299 0.26078065685839158 0 -0.26892213733164849 0.25365425058065472 0 -0.27880962639343299 0.26078065685839158 0 -0.26500347954306669 0.26960291480127369 0 -0.28156868640737281 0.27216957229852412 0 -0.25673188405007052 0.28646841290673969 0 -0.28156868640737281 0.27216957229852412 0 -0.26500347954306669 0.26960291480127369 0 -0.25673188405007052 0.28646841290673969 0 -0.28156868640737281 0.27216957229852412 0 -0.27880962639343299 0.26078065685839158 0 -0.26500347954306669 0.26960291480127369 0 -0.28156868640737281 0.27216957229852412 0 -0.27479408276187339 0.28687287199942368 0 -0.28401529333418091 0.28255904946725641 0 -0.26500347954306669 0.26960291480127369 0 -0.25265925142613249 0.26128234508680298 0 -0.25673188405007052 0.28646841290673969 0 -0.26892213733164849 0.25365425058065472 0 -0.26500347954306669 0.26960291480127369 0 -0.25265925142613249 0.26128234508680298 0 -0.25621817608628389 0.2460965770837312 0 -0.26892213733164849 0.25365425058065472 0 -0.25265925142613249 0.26128234508680298 0 -0.25505401324638421 0.30366623925853881 0 -0.26661761067819428 0.2958317928062858 0 -0.26721257633701828 0.30790943684761429 0 -0.25505401324638421 0.30366623925853881 0 -0.26721257633701828 0.30790943684761429 0 -0.25901197930261888 0.31383205914145501 0 -0.26721257633701828 0.30790943684761429 0 -0.25901197930261888 0.31383205914145501 0 -0.26528599585519008 0.31471464054907522 0 -0.25505401324638421 0.30366623925853881 0 -0.25901197930261888 0.31383205914145501 0 -0.24885494741763489 0.31718848033418301 0 -0.25505401324638421 0.30366623925853881 0 -0.25673188405007052 0.28646841290673969 0 -0.26661761067819428 0.2958317928062858 0 -0.26661761067819428 0.2958317928062858 0 -0.27573637841232751 0.29432500902679382 0 -0.27326763327687947 0.30016750757533939 0 -0.28156868640737281 0.27216957229852412 0 -0.25673188405007052 0.28646841290673969 0 -0.27479408276187339 0.28687287199942368 0 -0.26661761067819428 0.2958317928062858 0 -0.27479408276187339 0.28687287199942368 0 -0.27573637841232751 0.29432500902679382 0 -0.25673188405007052 0.28646841290673969 0 -0.26661761067819428 0.2958317928062858 0 -0.27479408276187339 0.28687287199942368 0 -0.27479408276187339 0.28687287199942368 0 -0.28401529333418091 0.28255904946725641 0 -0.28313816676434478 0.29069510378855717 0 -0.27479408276187339 0.28687287199942368 0 -0.27573637841232751 0.29432500902679382 0 -0.28313816676434478 0.29069510378855717 0 -0.27573637841232751 0.29432500902679382 0 -0.28086439858034518 0.29805776896436298 0 -0.28313816676434478 0.29069510378855717 0 -0.28086439858034518 0.29805776896436298 0 -0.27753065875984329 0.30327410754998058 0 -0.28274061889410179 0.30278083970340541 0 -0.27753065875984329 0.30327410754998058 0 -0.27514776209796898 0.30785266251660498 0 -0.28274061889410179 0.30278083970340541 0 -0.27753065875984329 0.30327410754998058 0 -0.27326763327687947 0.30016750757533939 0 -0.27348155140824082 0.30658246875079598 0 -0.28086439858034518 0.29805776896436298 0 -0.27753065875984329 0.30327410754998058 0 -0.27326763327687947 0.30016750757533939 0 -0.27573637841232751 0.29432500902679382 0 -0.28086439858034518 0.29805776896436298 0 -0.27326763327687947 0.30016750757533939 0 -0.26661761067819428 0.2958317928062858 0 -0.27326763327687947 0.30016750757533939 0 -0.26721257633701828 0.30790943684761429 0 -0.26721257633701828 0.30790943684761429 0 -0.27514776209796898 0.30785266251660498 0 -0.27123720609067609 0.3158529302113221 0 -0.26721257633701828 0.30790943684761429 0 -0.27348155140824082 0.30658246875079598 0 -0.27514776209796898 0.30785266251660498 0 -0.26721257633701828 0.30790943684761429 0 -0.27514776209796898 0.30785266251660498 0 -0.27326763327687947 0.30016750757533939 0 -0.26721257633701828 0.30790943684761429 0 -0.27348155140824082 0.30658246875079598 0 -0.27514776209796898 0.30785266251660498 0 -0.2851872012256097 0.31550597615259851 0 -0.27753065875984329 0.30327410754998058 0 -0.27348155140824082 0.30658246875079598 0 -0.27514776209796898 0.30785266251660498 0 -0.27348155140824082 0.30658246875079598 0 -0.27514776209796898 0.30785266251660498 0 -0.27514776209796898 0.30785266251660498 0 -0.2905575990275322 0.30774240886798532 0 -0.27514776209796898 0.30785266251660498 0 -0.2905575990275322 0.30774240886798532 0 -0.2851872012256097 0.31550597615259851 0 -0.2896026760048197 0.2969772506180926 0 -0.2905575990275322 0.30774240886798532 0 -0.30493521127791462 0.28695781074044469 0 -0.27514776209796898 0.30785266251660498 0 -0.28274061889410179 0.30278083970340541 0 -0.2905575990275322 0.30774240886798532 0 -0.2905575990275322 0.30774240886798532 0 -0.2851872012256097 0.31550597615259851 0 -0.28274061889410179 0.30278083970340541 0 -0.2896026760048197 0.2969772506180926 0 -0.2905575990275322 0.30774240886798532 0 -0.28086439858034518 0.29805776896436298 0 -0.28274061889410179 0.30278083970340541 0 -0.2896026760048197 0.2969772506180926 0 -0.28401529333418091 0.28255904946725641 0 -0.28313816676434478 0.29069510378855717 0 -0.29095683727235372 0.28753395384208091 0 -0.28086439858034518 0.29805776896436298 0 -0.2896026760048197 0.2969772506180926 0 -0.28313816676434478 0.29069510378855717 0 -0.2896026760048197 0.2969772506180926 0 -0.28313816676434478 0.29069510378855717 0 -0.29095683727235372 0.28753395384208091 0 -0.2896026760048197 0.2969772506180926 0 -0.29095683727235372 0.28753395384208091 0 -0.30493521127791462 0.28695781074044469 0 -0.29309283898050847 0.28048055459605348 0 -0.29095683727235372 0.28753395384208091 0 -0.30493521127791462 0.28695781074044469 0 -0.29309283898050847 0.28048055459605348 0 -0.28401529333418091 0.28255904946725641 0 -0.29095683727235372 0.28753395384208091 0 -0.31699951866320542 0.30755322334125379 0 -0.2905575990275322 0.30774240886798532 0 -0.30563014257680821 0.31779627416788381 0 -0.31699951866320542 0.30755322334125379 0 -0.2905575990275322 0.30774240886798532 0 -0.2905575990275322 0.30774240886798532 0 -0.30493521127791462 0.28695781074044469 0 -0.31699951866320542 0.30755322334125379 0 -0.2905575990275322 0.30774240886798532 0 -0.30493521127791462 0.28695781074044469 0 -0.30538608464820588 0.33090408634228141 0 -0.28942706780696309 0.31873813168532672 0 -0.30563014257680821 0.31779627416788381 0 -0.30538608464820588 0.33090408634228141 0 -0.31811651498789978 0.32488887006413791 0 -0.30563014257680821 0.31779627416788381 0 -0.30538608464820588 0.33090408634228141 0 -0.2937791937433501 0.31637108240395312 0 -0.30538608464820588 0.33090408634228141 0 -0.3017933608705089 0.344447887165377 0 -0.32134510148944728 0.34307004099923799 0 -0.30538608464820588 0.33090408634228141 0 -0.29093013722955491 0.33661105704622479 0 -0.3017933608705089 0.344447887165377 0 -0.30538608464820588 0.33090408634228141 0 -0.29093013722955491 0.33661105704622479 0 -0.2885751077852815 0.32830696870384862 0 -0.29093013722955491 0.33661105704622479 0 -0.28224162025157051 0.34582573333151501 0 -0.3017933608705089 0.344447887165377 0 -0.2885751077852815 0.32830696870384862 0 -0.28146834572906437 0.33465123959114113 0 -0.2790455690922089 0.3243844570517187 0 -0.29093013722955491 0.33661105704622479 0 -0.2885751077852815 0.32830696870384862 0 -0.28146834572906437 0.33465123959114113 0 -0.29093013722955491 0.33661105704622479 0 -0.28146834572906437 0.33465123959114113 0 -0.28224162025157051 0.34582573333151501 0 -0.30538608464820588 0.33090408634228141 0 -0.2885751077852815 0.32830696870384862 0 -0.28942706780696309 0.31873813168532672 0 -0.30538608464820588 0.33090408634228141 0 -0.28942706780696309 0.31873813168532672 0 -0.2937791937433501 0.31637108240395312 0 -0.28942706780696309 0.31873813168532672 0 -0.2937791937433501 0.31637108240395312 0 -0.2851872012256097 0.31550597615259851 0 -0.2905575990275322 0.30774240886798532 0 -0.30563014257680821 0.31779627416788381 0 -0.2937791937433501 0.31637108240395312 0 -0.2905575990275322 0.30774240886798532 0 -0.2937791937433501 0.31637108240395312 0 -0.2851872012256097 0.31550597615259851 0 -0.28942706780696309 0.31873813168532672 0 -0.2937791937433501 0.31637108240395312 0 -0.2885751077852815 0.32830696870384862 0 -0.28942706780696309 0.31873813168532672 0 -0.2790455690922089 0.3243844570517187 0 -0.28942706780696309 0.31873813168532672 0 -0.2790455690922089 0.3243844570517187 0 -0.2851872012256097 0.31550597615259851 0 -0.2790455690922089 0.3243844570517187 0 -0.28942706780696309 0.31873813168532672 0 -0.2851872012256097 0.31550597615259851 0 -0.2790455690922089 0.3243844570517187 0 -0.28942706780696309 0.31873813168532672 0 -0.2851872012256097 0.31550597615259851 0 -0.27514776209796898 0.30785266251660498 0 -0.2851872012256097 0.31550597615259851 0 -0.27699557949655113 0.31645322234696882 0 -0.2851872012256097 0.31550597615259851 0 -0.27699557949655113 0.31645322234696882 0 -0.2790455690922089 0.3243844570517187 0 -0.27514776209796898 0.30785266251660498 0 -0.27699557949655113 0.31645322234696882 0 -0.27123720609067609 0.3158529302113221 0 -0.27001263578126711 0.32263717043347712 0 -0.2790455690922089 0.3243844570517187 0 -0.25910260253645218 0.33523110656146687 0 -0.26721257633701828 0.30790943684761429 0 -0.27123720609067609 0.3158529302113221 0 -0.26528599585519008 0.31471464054907522 0 -0.27699557949655113 0.31645322234696882 0 -0.27123720609067609 0.3158529302113221 0 -0.27001263578126711 0.32263717043347712 0 -0.27123720609067609 0.3158529302113221 0 -0.26528599585519008 0.31471464054907522 0 -0.26368222169044719 0.32126413599590953 0 -0.27123720609067609 0.3158529302113221 0 -0.27001263578126711 0.32263717043347712 0 -0.26368222169044719 0.32126413599590953 0 -0.27699557949655113 0.31645322234696882 0 -0.27001263578126711 0.32263717043347712 0 -0.2790455690922089 0.3243844570517187 0 -0.2790455690922089 0.3243844570517187 0 -0.25910260253645218 0.33523110656146687 0 -0.2790455690922089 0.3243844570517187 0 -0.26824012707650141 0.34000504592112352 0 -0.28146834572906437 0.33465123959114113 0 -0.2790455690922089 0.3243844570517187 0 -0.26824012707650141 0.34000504592112352 0 -0.2790455690922089 0.3243844570517187 0 -0.26824012707650141 0.34000504592112352 0 -0.25910260253645218 0.33523110656146687 0 -0.28146834572906437 0.33465123959114113 0 -0.26824012707650141 0.34000504592112352 0 -0.28224162025157051 0.34582573333151501 0 -0.25910260253645218 0.33523110656146687 0 -0.25407523553642281 0.3497448278934856 0 -0.23915963598069589 0.34607775607121571 0 -0.25910260253645218 0.33523110656146687 0 -0.25407523553642281 0.3497448278934856 0 -0.26309588156361569 0.34576168367824162 0 -0.26824012707650141 0.34000504592112352 0 -0.25910260253645218 0.33523110656146687 0 -0.26309588156361569 0.34576168367824162 0 -0.25910260253645218 0.33523110656146687 0 -0.25451497659773847 0.32559442806853028 0 -0.24843663428782739 0.33758714710907461 0 -0.25451497659773847 0.32559442806853028 0 -0.25901197930261888 0.31383205914145501 0 -0.24885494741763489 0.31718848033418301 0 -0.25451497659773847 0.32559442806853028 0 -0.25901197930261888 0.31383205914145501 0 -0.26368222169044719 0.32126413599590953 0 -0.25901197930261888 0.31383205914145501 0 -0.26528599585519008 0.31471464054907522 0 -0.26368222169044719 0.32126413599590953 0 -0.27001263578126711 0.32263717043347712 0 -0.25910260253645218 0.33523110656146687 0 -0.26368222169044719 0.32126413599590953 0 -0.25910260253645218 0.33523110656146687 0 -0.25451497659773847 0.32559442806853028 0 -0.26368222169044719 0.32126413599590953 0 -0.26470209097228098 0.37140351159401941 0 -0.25562758441007077 0.36194187249828802 0 -0.266880351992417 0.3582272519812631 0 -0.26470209097228098 0.37140351159401941 0 -0.25213085833087667 0.37355178257669552 0 -0.25562758441007077 0.36194187249828802 0 -0.25213085833087667 0.37355178257669552 0 -0.25562758441007077 0.36194187249828802 0 -0.24329038266145239 0.36134909741814653 0 -0.25562758441007077 0.36194187249828802 0 -0.25407523553642281 0.3497448278934856 0 -0.24329038266145239 0.36134909741814653 0 -0.25407523553642281 0.3497448278934856 0 -0.26309588156361569 0.34576168367824162 0 -0.266880351992417 0.3582272519812631 0 -0.25562758441007077 0.36194187249828802 0 -0.25407523553642281 0.3497448278934856 0 -0.266880351992417 0.3582272519812631 0 -0.266880351992417 0.3582272519812631 0 -0.27640009279511962 0.35155878343443242 0 -0.28837447244510311 0.36628710188532532 0 -0.26309588156361569 0.34576168367824162 0 -0.266880351992417 0.3582272519812631 0 -0.27640009279511962 0.35155878343443242 0 -0.26824012707650141 0.34000504592112352 0 -0.26309588156361569 0.34576168367824162 0 -0.27640009279511962 0.35155878343443242 0 -0.26824012707650141 0.34000504592112352 0 -0.27640009279511962 0.35155878343443242 0 -0.28224162025157051 0.34582573333151501 0 -0.266880351992417 0.3582272519812631 0 -0.28837447244510311 0.36628710188532532 0 -0.266880351992417 0.3582272519812631 0 -0.28837447244510311 0.36628710188532532 0 -0.27747916353329311 0.37529003384729942 0 -0.26470209097228098 0.37140351159401941 0 -0.266880351992417 0.3582272519812631 0 -0.27747916353329311 0.37529003384729942 0 -0.28837447244510311 0.36628710188532532 0 -0.28714059247178902 0.37543321948423419 0 -0.27747916353329311 0.37529003384729942 0 -0.28837447244510311 0.36628710188532532 0 -0.28956810344150979 0.35324588380912608 0 -0.30292150033679799 0.36018321991941088 0 -0.28837447244510311 0.36628710188532532 0 -0.29874239202075642 0.37528196759933868 0 -0.28714059247178902 0.37543321948423419 0 -0.28224162025157051 0.34582573333151501 0 -0.3017933608705089 0.344447887165377 0 -0.28224162025157051 0.34582573333151501 0 -0.28956810344150979 0.35324588380912608 0 -0.3017933608705089 0.344447887165377 0 -0.27640009279511962 0.35155878343443242 0 -0.28224162025157051 0.34582573333151501 0 -0.28956810344150979 0.35324588380912608 0 -0.27640009279511962 0.35155878343443242 0 -0.28837447244510311 0.36628710188532532 0 -0.28956810344150979 0.35324588380912608 0 -0.3017933608705089 0.344447887165377 0 -0.31193410579265052 0.3536039280541286 0 -0.30292150033679799 0.36018321991941088 0 -0.28956810344150979 0.35324588380912608 0 -0.3017933608705089 0.344447887165377 0 -0.30292150033679799 0.36018321991941088 0 -0.3017933608705089 0.344447887165377 0 -0.32134510148944728 0.34307004099923799 0 -0.3017933608705089 0.344447887165377 0 -0.31193410579265052 0.3536039280541286 0 -0.32134510148944728 0.34307004099923799 0 -0.31193410579265052 0.3536039280541286 0 -0.30292150033679799 0.36018321991941088 0 -0.31340485972314069 0.36375751913665871 0 -0.28837447244510311 0.36628710188532532 0 -0.30292150033679799 0.36018321991941088 0 -0.30986859289778912 0.37434695178938759 0 -0.28837447244510311 0.36628710188532532 0 -0.30986859289778912 0.37434695178938759 0 -0.28837447244510311 0.36628710188532532 0 -0.30986859289778912 0.37434695178938759 0 -0.29874239202075642 0.37528196759933868 0 -0.30292150033679799 0.36018321991941088 0 -0.30986859289778912 0.37434695178938759 0 -0.31340485972314069 0.36375751913665871 0 -0.30986859289778912 0.37434695178938759 0 -0.31340485972314069 0.36375751913665871 0 -0.32167824364597858 0.36970754211250728 0 -0.31340485972314069 0.36375751913665871 0 -0.32243327870136801 0.35950699838777223 0 -0.32167824364597858 0.36970754211250728 0 -0.32243327870136801 0.35950699838777223 0 -0.32167824364597858 0.36970754211250728 0 -0.33132177355711989 0.36851943955526861 0 -0.32167824364597858 0.36970754211250728 0 -0.33132177355711989 0.36851943955526861 0 -0.33136271335047512 0.38240680169344993 0 -0.32243327870136801 0.35950699838777223 0 -0.33132177355711989 0.36851943955526861 0 -0.33989838930305449 0.35721367281084643 0 -0.33132177355711989 0.36851943955526861 0 -0.34304766554360439 0.37232322735168022 0 -0.33136271335047512 0.38240680169344993 0 -0.33132177355711989 0.36851943955526861 0 -0.34304766554360439 0.37232322735168022 0 -0.33989838930305449 0.35721367281084643 0 -0.33989838930305449 0.35721367281084643 0 -0.32134510148944728 0.34307004099923799 0 -0.33989838930305449 0.35721367281084643 0 -0.32134510148944728 0.34307004099923799 0 -0.3500233487104954 0.34104903357308669 0 -0.32243327870136801 0.35950699838777223 0 -0.33989838930305449 0.35721367281084643 0 -0.32134510148944728 0.34307004099923799 0 -0.31193410579265052 0.3536039280541286 0 -0.32243327870136801 0.35950699838777223 0 -0.32134510148944728 0.34307004099923799 0 -0.31193410579265052 0.3536039280541286 0 -0.31340485972314069 0.36375751913665871 0 -0.32243327870136801 0.35950699838777223 0 -0.30538608464820588 0.33090408634228141 0 -0.32134510148944728 0.34307004099923799 0 -0.30538608464820588 0.33090408634228141 0 -0.32134510148944728 0.34307004099923799 0 -0.31811651498789978 0.32488887006413791 0 -0.32134510148944728 0.34307004099923799 0 -0.31811651498789978 0.32488887006413791 0 -0.33459812393413729 0.32207732583041709 0 -0.31699951866320542 0.30755322334125379 0 -0.30563014257680821 0.31779627416788381 0 -0.31811651498789978 0.32488887006413791 0 -0.31699951866320542 0.30755322334125379 0 -0.31811651498789978 0.32488887006413791 0 -0.33459812393413729 0.32207732583041709 0 -0.32134510148944728 0.34307004099923799 0 -0.34342889555096417 0.33131534648734451 0 -0.3500233487104954 0.34104903357308669 0 -0.32134510148944728 0.34307004099923799 0 -0.33459812393413729 0.32207732583041709 0 -0.34342889555096417 0.33131534648734451 0 -0.32134510148944728 0.34307004099923799 0 -0.3500233487104954 0.34104903357308669 0 -0.3500233487104954 0.34104903357308669 0 -0.35650114511620551 0.33294276438790088 0 -0.36794029410566942 0.33226259727897972 0 -0.34342889555096417 0.33131534648734451 0 -0.3500233487104954 0.34104903357308669 0 -0.35650114511620551 0.33294276438790088 0 -0.33459812393413729 0.32207732583041709 0 -0.34342889555096417 0.33131534648734451 0 -0.35467675850453528 0.31743756764607989 0 -0.34344143829887858 0.30736403781452232 0 -0.33459812393413729 0.32207732583041709 0 -0.35467675850453528 0.31743756764607989 0 -0.35650114511620551 0.33294276438790088 0 -0.35467675850453528 0.31743756764607989 0 -0.36272901898995358 0.31473918551029578 0 -0.34342889555096417 0.33131534648734451 0 -0.35650114511620551 0.33294276438790088 0 -0.35467675850453528 0.31743756764607989 0 -0.35650114511620551 0.33294276438790088 0 -0.36272901898995358 0.31473918551029578 0 -0.37415321332832258 0.31386652142517069 0 -0.35650114511620551 0.33294276438790088 0 -0.37415321332832258 0.31386652142517069 0 -0.35650114511620551 0.33294276438790088 0 -0.37442838800096029 0.32044424157556423 0 -0.37415321332832258 0.31386652142517069 0 -0.37816355277066899 0.32985684687273281 0 -0.37442838800096029 0.32044424157556423 0 -0.36794029410566942 0.33226259727897972 0 -0.3787015959315434 0.33902802614693439 0 -0.3500233487104954 0.34104903357308669 0 -0.36794029410566942 0.33226259727897972 0 -0.35650114511620551 0.33294276438790088 0 -0.37442838800096029 0.32044424157556423 0 -0.36794029410566942 0.33226259727897972 0 -0.3787015959315434 0.33902802614693439 0 -0.3500233487104954 0.34104903357308669 0 -0.3787015959315434 0.33902802614693439 0 -0.37816355277066899 0.32985684687273281 0 -0.36794029410566942 0.33226259727897972 0 -0.3787015959315434 0.33902802614693439 0 -0.3500233487104954 0.34104903357308669 0 -0.36501658974902518 0.35367198233662939 0 -0.37823932191431281 0.35548757599615399 0 -0.3787015959315434 0.33902802614693439 0 -0.36501658974902518 0.35367198233662939 0 -0.37823932191431281 0.35548757599615399 0 -0.36501658974902518 0.35367198233662939 0 -0.37024808467873749 0.36543132639488701 0 -0.36501658974902518 0.35367198233662939 0 -0.37024808467873749 0.36543132639488701 0 -0.35845167711666143 0.37135730462245548 0 -0.37949655700884349 0.37153259571527891 0 -0.37024808467873749 0.36543132639488701 0 -0.36758280318953013 0.37627165255961892 0 -0.37024808467873749 0.36543132639488701 0 -0.35845167711666143 0.37135730462245548 0 -0.36758280318953013 0.37627165255961892 0 -0.36501658974902518 0.35367198233662939 0 -0.35845167711666143 0.37135730462245548 0 -0.35334750121980912 0.35582299833575448 0 -0.34304766554360439 0.37232322735168022 0 -0.33989838930305449 0.35721367281084643 0 -0.35845167711666143 0.37135730462245548 0 -0.33989838930305449 0.35721367281084643 0 -0.35845167711666143 0.37135730462245548 0 -0.35334750121980912 0.35582299833575448 0 -0.33989838930305449 0.35721367281084643 0 -0.35845167711666143 0.37135730462245548 0 -0.33989838930305449 0.35721367281084643 0 -0.3500233487104954 0.34104903357308669 0 -0.35334750121980912 0.35582299833575448 0 -0.3500233487104954 0.34104903357308669 0 -0.36501658974902518 0.35367198233662939 0 -0.35334750121980912 0.35582299833575448 0 -0.35285683380316007 0.39046665159751448 0 -0.36027192889352422 0.40897543894708011 0 -0.34270265381785459 0.40768080501023862 0 -0.34304766554360439 0.37232322735168022 0 -0.35845167711666143 0.37135730462245548 0 -0.35285683380316007 0.39046665159751448 0 -0.37686086334024771 0.38257038446795849 0 -0.35285683380316007 0.39046665159751448 0 -0.37686086334024771 0.38257038446795849 0 -0.35285683380316007 0.39046665159751448 0 -0.36758280318953013 0.37627165255961892 0 -0.35845167711666143 0.37135730462245548 0 -0.35285683380316007 0.39046665159751448 0 -0.36758280318953013 0.37627165255961892 0 -0.37686086334024771 0.38257038446795849 0 -0.37949655700884349 0.37153259571527891 0 -0.36758280318953013 0.37627165255961892 0 -0.37769092578324193 0.39977892163450779 0 -0.35285683380316007 0.39046665159751448 0 -0.37769092578324193 0.39977892163450779 0 -0.37686086334024771 0.38257038446795849 0 -0.35285683380316007 0.39046665159751448 0 -0.37769092578324193 0.39977892163450779 0 -0.35285683380316007 0.39046665159751448 0 -0.36027192889352422 0.40897543894708011 0 -0.37875820238401509 0.42613984176471847 0 -0.37769092578324193 0.39977892163450779 0 -0.36027192889352422 0.40897543894708011 0 -0.37875820238401509 0.42613984176471847 0 -0.36027192889352422 0.40897543894708011 0 -0.36048507512927641 0.42545129427310208 0 -0.37875820238401509 0.42613984176471847 0 -0.36048507512927641 0.42545129427310208 0 -0.35499138700470761 0.44318849185793469 0 -0.37875820238401509 0.42613984176471847 0 -0.35499138700470761 0.44318849185793469 0 -0.34691622899781399 0.42161541908905831 0 -0.33223168701086447 0.43660936806356893 0 -0.35499138700470761 0.44318849185793469 0 -0.36048507512927641 0.42545129427310208 0 -0.34691622899781399 0.42161541908905831 0 -0.35499138700470761 0.44318849185793469 0 -0.36027192889352422 0.40897543894708011 0 -0.34691622899781399 0.42161541908905831 0 -0.34270265381785459 0.40768080501023862 0 -0.36027192889352422 0.40897543894708011 0 -0.36048507512927641 0.42545129427310208 0 -0.34691622899781399 0.42161541908905831 0 -0.34270265381785459 0.40768080501023862 0 -0.32841174735063311 0.41773478988879181 0 -0.32505653004414181 0.39961172552874852 0 -0.34691622899781399 0.42161541908905831 0 -0.34270265381785459 0.40768080501023862 0 -0.32841174735063311 0.41773478988879181 0 -0.34691622899781399 0.42161541908905831 0 -0.32841174735063311 0.41773478988879181 0 -0.33223168701086447 0.43660936806356893 0 -0.32841174735063311 0.41773478988879181 0 -0.33223168701086447 0.43660936806356893 0 -0.31148998866141242 0.43181261152586448 0 -0.32841174735063311 0.41773478988879181 0 -0.31441363705571701 0.41408607272300291 0 -0.32505653004414181 0.39961172552874852 0 -0.32841174735063311 0.41773478988879181 0 -0.31441363705571701 0.41408607272300291 0 -0.31148998866141242 0.43181261152586448 0 -0.32505653004414181 0.39961172552874852 0 -0.31219235154091651 0.39185403334122892 0 -0.30619500853749271 0.39725637532293351 0 -0.32505653004414181 0.39961172552874852 0 -0.31778050989885959 0.38527433798844479 0 -0.31219235154091651 0.39185403334122892 0 -0.35285683380316007 0.39046665159751448 0 -0.32505653004414181 0.39961172552874852 0 -0.33136271335047512 0.38240680169344993 0 -0.35285683380316007 0.39046665159751448 0 -0.34270265381785459 0.40768080501023862 0 -0.32505653004414181 0.39961172552874852 0 -0.35285683380316007 0.39046665159751448 0 -0.32505653004414181 0.39961172552874852 0 -0.35285683380316007 0.39046665159751448 0 -0.33136271335047512 0.38240680169344993 0 -0.34304766554360439 0.37232322735168022 0 -0.35285683380316007 0.39046665159751448 0 -0.33136271335047512 0.38240680169344993 0 -0.30986859289778912 0.37434695178938759 0 -0.32167824364597858 0.36970754211250728 0 -0.33136271335047512 0.38240680169344993 0 -0.30986859289778912 0.37434695178938759 0 -0.33136271335047512 0.38240680169344993 0 -0.32505653004414181 0.39961172552874852 0 -0.33136271335047512 0.38240680169344993 0 -0.31778050989885959 0.38527433798844479 0 -0.30986859289778912 0.37434695178938759 0 -0.33136271335047512 0.38240680169344993 0 -0.31778050989885959 0.38527433798844479 0 -0.30986859289778912 0.37434695178938759 0 -0.31778050989885959 0.38527433798844479 0 -0.30574515252343709 0.38648905476423068 0 -0.30986859289778912 0.37434695178938759 0 -0.30574515252343709 0.38648905476423068 0 -0.29874239202075642 0.37528196759933868 0 -0.30574515252343709 0.38648905476423068 0 -0.29874239202075642 0.37528196759933868 0 -0.29146244090030071 0.40289140707507309 0 -0.31778050989885959 0.38527433798844479 0 -0.30574515252343709 0.38648905476423068 0 -0.31219235154091651 0.39185403334122892 0 -0.32505653004414181 0.39961172552874852 0 -0.30619500853749271 0.39725637532293351 0 -0.29725622628512233 0.40875679945997928 0 -0.32505653004414181 0.39961172552874852 0 -0.29725622628512233 0.40875679945997928 0 -0.30574515252343709 0.38648905476423068 0 -0.30619500853749271 0.39725637532293351 0 -0.29146244090030071 0.40289140707507309 0 -0.30574515252343709 0.38648905476423068 0 -0.31219235154091651 0.39185403334122892 0 -0.30619500853749271 0.39725637532293351 0 -0.30619500853749271 0.39725637532293351 0 -0.29146244090030071 0.40289140707507309 0 -0.29725622628512233 0.40875679945997928 0 -0.29146244090030071 0.40289140707507309 0 -0.2882496590958894 0.39023794275143442 0 -0.278827461574497 0.39790462172635238 0 -0.28396634188800352 0.38487377460497352 0 -0.2882496590958894 0.39023794275143442 0 -0.278827461574497 0.39790462172635238 0 -0.29146244090030071 0.40289140707507309 0 -0.278827461574497 0.39790462172635238 0 -0.27940045790464241 0.41220012044695847 0 -0.29874239202075642 0.37528196759933868 0 -0.29146244090030071 0.40289140707507309 0 -0.29874239202075642 0.37528196759933868 0 -0.29146244090030071 0.40289140707507309 0 -0.2882496590958894 0.39023794275143442 0 -0.29874239202075642 0.37528196759933868 0 -0.28396634188800352 0.38487377460497352 0 -0.28714059247178902 0.37543321948423419 0 -0.29874239202075642 0.37528196759933868 0 -0.28396634188800352 0.38487377460497352 0 -0.2882496590958894 0.39023794275143442 0 -0.28396634188800352 0.38487377460497352 0 -0.28714059247178902 0.37543321948423419 0 -0.27747916353329311 0.37529003384729942 0 -0.28396634188800352 0.38487377460497352 0 -0.27747916353329311 0.37529003384729942 0 -0.26775424033426293 0.38456849691175748 0 -0.28396634188800352 0.38487377460497352 0 -0.26775424033426293 0.38456849691175748 0 -0.278827461574497 0.39790462172635238 0 -0.26470209097228098 0.37140351159401941 0 -0.27747916353329311 0.37529003384729942 0 -0.26775424033426293 0.38456849691175748 0 -0.278827461574497 0.39790462172635238 0 -0.26298604578065232 0.3973558675440883 0 -0.2677584473194361 0.40899541659639099 0 -0.26775424033426293 0.38456849691175748 0 -0.278827461574497 0.39790462172635238 0 -0.26298604578065232 0.3973558675440883 0 -0.26298604578065232 0.3973558675440883 0 -0.25152819264859128 0.38883491631829081 0 -0.2490618870264745 0.40647588616764979 0 -0.26298604578065232 0.3973558675440883 0 -0.2677584473194361 0.40899541659639099 0 -0.2490618870264745 0.40647588616764979 0 -0.25213085833087667 0.37355178257669552 0 -0.26775424033426293 0.38456849691175748 0 -0.25152819264859128 0.38883491631829081 0 -0.26775424033426293 0.38456849691175748 0 -0.26298604578065232 0.3973558675440883 0 -0.25152819264859128 0.38883491631829081 0 -0.26470209097228098 0.37140351159401941 0 -0.25213085833087667 0.37355178257669552 0 -0.26775424033426293 0.38456849691175748 0 -0.2572482915111563 0.42152384209731297 0 -0.26330490497154813 0.43976041958731371 0 -0.24092688658692171 0.43286849171069308 0 -0.2572482915111563 0.42152384209731297 0 -0.27163392734069919 0.42205675226444578 0 -0.26330490497154813 0.43976041958731371 0 -0.2572482915111563 0.42152384209731297 0 -0.2677584473194361 0.40899541659639099 0 -0.2490618870264745 0.40647588616764979 0 -0.2572482915111563 0.42152384209731297 0 -0.2677584473194361 0.40899541659639099 0 -0.27163392734069919 0.42205675226444578 0 -0.27940045790464241 0.41220012044695847 0 -0.27163392734069919 0.42205675226444578 0 -0.28418248977984512 0.43050084655080739 0 -0.2677584473194361 0.40899541659639099 0 -0.27940045790464241 0.41220012044695847 0 -0.27163392734069919 0.42205675226444578 0 -0.278827461574497 0.39790462172635238 0 -0.2677584473194361 0.40899541659639099 0 -0.27940045790464241 0.41220012044695847 0 -0.27163392734069919 0.42205675226444578 0 -0.28418248977984512 0.43050084655080739 0 -0.26330490497154813 0.43976041958731371 0 -0.28418248977984512 0.43050084655080739 0 -0.29943060469912958 0.42576946359573847 0 -0.28981068171355151 0.44369098771903792 0 -0.29146244090030071 0.40289140707507309 0 -0.28418248977984512 0.43050084655080739 0 -0.29146244090030071 0.40289140707507309 0 -0.27940045790464241 0.41220012044695847 0 -0.28418248977984512 0.43050084655080739 0 -0.28418248977984512 0.43050084655080739 0 -0.29725622628512233 0.40875679945997928 0 -0.29943060469912958 0.42576946359573847 0 -0.29146244090030071 0.40289140707507309 0 -0.28418248977984512 0.43050084655080739 0 -0.29725622628512233 0.40875679945997928 0 -0.31441363705571701 0.41408607272300291 0 -0.32505653004414181 0.39961172552874852 0 -0.29725622628512233 0.40875679945997928 0 -0.31441363705571701 0.41408607272300291 0 -0.29725622628512233 0.40875679945997928 0 -0.29943060469912958 0.42576946359573847 0 -0.31441363705571701 0.41408607272300291 0 -0.29943060469912958 0.42576946359573847 0 -0.31148998866141242 0.43181261152586448 0 -0.29943060469912958 0.42576946359573847 0 -0.31148998866141242 0.43181261152586448 0 -0.28981068171355151 0.44369098771903792 0 -0.31148998866141242 0.43181261152586448 0 -0.30120616623050861 0.45239726712555162 0 -0.31718999816658727 0.45065056632578487 0 -0.31148998866141242 0.43181261152586448 0 -0.30120616623050861 0.45239726712555162 0 -0.31148998866141242 0.43181261152586448 0 -0.30120616623050861 0.45239726712555162 0 -0.28981068171355151 0.44369098771903792 0 -0.30120616623050861 0.45239726712555162 0 -0.29092234379960469 0.47298192272523881 0 -0.30745775624609217 0.47728579204436761 0 -0.30120616623050861 0.45239726712555162 0 -0.30745775624609217 0.47728579204436761 0 -0.31718999816658727 0.45065056632578487 0 -0.2852957606144535 0.45730244818253718 0 -0.28186649269177161 0.46567885888970018 0 -0.29092234379960469 0.47298192272523881 0 -0.30120616623050861 0.45239726712555162 0 -0.29092234379960469 0.47298192272523881 0 -0.30120616623050861 0.45239726712555162 0 -0.2852957606144535 0.45730244818253718 0 -0.29092234379960469 0.47298192272523881 0 -0.2852957606144535 0.45730244818253718 0 -0.28186649269177161 0.46567885888970018 0 -0.27690253865938408 0.45811028602654041 0 -0.28418248977984512 0.43050084655080739 0 -0.28981068171355151 0.44369098771903792 0 -0.27690253865938408 0.45811028602654041 0 -0.30120616623050861 0.45239726712555162 0 -0.2852957606144535 0.45730244818253718 0 -0.28981068171355151 0.44369098771903792 0 -0.2852957606144535 0.45730244818253718 0 -0.28981068171355151 0.44369098771903792 0 -0.27690253865938408 0.45811028602654041 0 -0.28418248977984512 0.43050084655080739 0 -0.27690253865938408 0.45811028602654041 0 -0.28418248977984512 0.43050084655080739 0 -0.27690253865938408 0.45811028602654041 0 -0.26330490497154813 0.43976041958731371 0 -0.2852957606144535 0.45730244818253718 0 -0.27690253865938408 0.45811028602654041 0 -0.28186649269177161 0.46567885888970018 0 -0.27690253865938408 0.45811028602654041 0 -0.27835780074514338 0.47366975871288508 0 -0.27690253865938408 0.45811028602654041 0 -0.25345677561811758 0.46036691342989022 0 -0.27690253865938408 0.45811028602654041 0 -0.25345677561811758 0.46036691342989022 0 -0.26590293397843329 0.47057525233348851 0 -0.25345677561811758 0.46036691342989022 0 -0.25315469521642581 0.4750486889203015 0 -0.26590293397843329 0.47057525233348851 0 -0.25345677561811758 0.46036691342989022 0 -0.26330490497154813 0.43976041958731371 0 -0.24129970279445639 0.44943490890582899 0 -0.27690253865938408 0.45811028602654041 0 -0.25345677561811758 0.46036691342989022 0 -0.26330490497154813 0.43976041958731371 0 -0.26169037092037989 0.4910190989046625 0 -0.25397816739109252 0.5 0 -0.27113802145370669 0.49283981386083792 0 -0.26169037092037989 0.4910190989046625 0 -0.25474868654415728 0.48692894813519849 0 -0.26689660829256312 0.48430763362261348 0 -0.26169037092037989 0.4910190989046625 0 -0.25397816739109252 0.5 0 -0.25474868654415728 0.48692894813519849 0 -0.25315469521642581 0.4750486889203015 0 -0.26689660829256312 0.48430763362261348 0 -0.25315469521642581 0.4750486889203015 0 -0.26689660829256312 0.48430763362261348 0 -0.26590293397843329 0.47057525233348851 0 -0.25474868654415728 0.48692894813519849 0 -0.25315469521642581 0.4750486889203015 0 -0.26689660829256312 0.48430763362261348 0 -0.27690253865938408 0.45811028602654041 0 -0.26590293397843329 0.47057525233348851 0 -0.26946370716205509 0.4860372782758946 0 -0.27690253865938408 0.45811028602654041 0 -0.26946370716205509 0.4860372782758946 0 -0.27690253865938408 0.45811028602654041 0 -0.27835780074514338 0.47366975871288508 0 -0.26946370716205509 0.4860372782758946 0 -0.26689660829256312 0.48430763362261348 0 -0.26590293397843329 0.47057525233348851 0 -0.26946370716205509 0.4860372782758946 0 -0.28186649269177161 0.46567885888970018 0 -0.27835780074514338 0.47366975871288508 0 -0.28298297564177088 0.4743823417855309 0 -0.27835780074514338 0.47366975871288508 0 -0.2798907507987049 0.48286402398659151 0 -0.28298297564177088 0.4743823417855309 0 -0.27835780074514338 0.47366975871288508 0 -0.2798907507987049 0.48286402398659151 0 -0.26946370716205509 0.4860372782758946 0 -0.26946370716205509 0.4860372782758946 0 -0.28063852136870049 0.49356657832492562 0 -0.26946370716205509 0.4860372782758946 0 -0.27113802145370669 0.49283981386083792 0 -0.28063852136870049 0.49356657832492562 0 -0.2798907507987049 0.48286402398659151 0 -0.26946370716205509 0.4860372782758946 0 -0.28063852136870049 0.49356657832492562 0 -0.25397816739109252 0.5 0 -0.27113802145370669 0.49283981386083792 0 -0.27742446875513049 0.50000000000000155 0 -0.26689660829256312 0.48430763362261348 0 -0.26946370716205509 0.4860372782758946 0 -0.27113802145370669 0.49283981386083792 0 -0.26169037092037989 0.4910190989046625 0 -0.26689660829256312 0.48430763362261348 0 -0.27113802145370669 0.49283981386083792 0 -0.26689660829256312 0.48430763362261348 0 -0.26946370716205509 0.4860372782758946 0 -0.27113802145370669 0.49283981386083792 0 -0.28063852136870049 0.49356657832492562 0 -0.27742446875513049 0.50000000000000155 0 -0.28063852136870049 0.49356657832492562 0 -0.27742446875513049 0.50000000000000155 0 -0.28063852136870049 0.49356657832492562 0 -0.27742446875513049 0.50000000000000155 0 -0.29018685806186229 0.50000000000000122 0 -0.28063852136870049 0.49356657832492562 0 -0.29018685806186229 0.50000000000000122 0 -0.29092234379960469 0.47298192272523881 0 -0.28063852136870049 0.49356657832492562 0 -0.29018685806186229 0.50000000000000122 0 -0.29018685806186229 0.50000000000000122 0 -0.29092234379960469 0.47298192272523881 0 -0.30745775624609217 0.47728579204436761 0 -0.28063852136870049 0.49356657832492562 0 -0.29092234379960469 0.47298192272523881 0 -0.2798907507987049 0.48286402398659151 0 -0.28063852136870049 0.49356657832492562 0 -0.29092234379960469 0.47298192272523881 0 -0.28186649269177161 0.46567885888970018 0 -0.28298297564177088 0.4743823417855309 0 -0.29092234379960469 0.47298192272523881 0 -0.2798907507987049 0.48286402398659151 0 -0.28298297564177088 0.4743823417855309 0 -0.29092234379960469 0.47298192272523881 0 -0.29018685806186229 0.50000000000000122 0 -0.30745775624609217 0.47728579204436761 0 -0.3640375775585698 0.5 0 -0.30745775624609217 0.47728579204436761 0 -0.33122457162539992 0.46023714195115112 0 -0.3640375775585698 0.5 0 -0.30745775624609217 0.47728579204436761 0 -0.33122457162539992 0.46023714195115112 0 -0.30745775624609217 0.47728579204436761 0 -0.31718999816658727 0.45065056632578487 0 -0.33122457162539992 0.46023714195115112 0 -0.33223168701086447 0.43660936806356893 0 -0.31148998866141242 0.43181261152586448 0 -0.31718999816658727 0.45065056632578487 0 -0.33223168701086447 0.43660936806356893 0 -0.31718999816658727 0.45065056632578487 0 -0.33122457162539992 0.46023714195115112 0 -0.33122457162539992 0.46023714195115112 0 -0.35499138700470761 0.44318849185793469 0 -0.33223168701086447 0.43660936806356893 0 -0.33122457162539992 0.46023714195115112 0 -0.35499138700470761 0.44318849185793469 0 -0.33122457162539992 0.46023714195115112 0 -0.35376164566254242 0.46494380824906301 0 -0.35499138700470761 0.44318849185793469 0 -0.38249991962136642 0.44345487931465249 0 -0.35499138700470761 0.44318849185793469 0 -0.37103467036260362 0.45695891695805302 0 -0.38249991962136642 0.44345487931465249 0 -0.37875820238401509 0.42613984176471847 0 -0.35499138700470761 0.44318849185793469 0 -0.35376164566254242 0.46494380824906301 0 -0.35499138700470761 0.44318849185793469 0 -0.37103467036260362 0.45695891695805302 0 -0.35376164566254242 0.46494380824906301 0 -0.37103467036260362 0.45695891695805302 0 -0.36943712044780219 0.47475959506207249 0 -0.33122457162539992 0.46023714195115112 0 -0.35376164566254242 0.46494380824906301 0 -0.3640375775585698 0.5 0 -0.38891458820749281 0.47713565504117422 0 -0.36943712044780219 0.47475959506207249 0 -0.3640375775585698 0.5 0 -0.35376164566254242 0.46494380824906301 0 -0.36943712044780219 0.47475959506207249 0 -0.3640375775585698 0.5 0 -0.1410608215807003 0.47118489318428192 0 -0.1506389915883973 0.47451242435581331 0 -0.15779819732271971 0.4695739402503486 0 -0.1410608215807003 0.47118489318428192 0 -0.15779819732271971 0.4695739402503486 0 -0.1455325599989582 0.47665965757352818 0 -0.14983465253105441 0.48099067897208148 0 -0.1405957742956809 0.47995063378193648 0 -0.14983465253105441 0.48099067897208148 0 -0.14427471349546869 0.48965289008050411 0 -0.1405957742956809 0.47995063378193648 0 -0.1455325599989582 0.47665965757352818 0 -0.1410608215807003 0.47118489318428192 0 -0.1506389915883973 0.47451242435581331 0 -0.1455325599989582 0.47665965757352818 0 -0.1410608215807003 0.47118489318428192 0 -0.1405957742956809 0.47995063378193648 0 -0.1506389915883973 0.47451242435581331 0 -0.15682389603308189 0.47748605108520858 0 -0.15779819732271971 0.4695739402503486 0 -0.1506389915883973 0.47451242435581331 0 -0.14983465253105441 0.48099067897208148 0 -0.15682389603308189 0.47748605108520858 0 -0.1455325599989582 0.47665965757352818 0 -0.1506389915883973 0.47451242435581331 0 -0.14983465253105441 0.48099067897208148 0 -0.14983465253105441 0.48099067897208148 0 -0.1558122254133027 0.48316327461493752 0 -0.15682389603308189 0.47748605108520858 0 -0.14983465253105441 0.48099067897208148 0 -0.1558122254133027 0.48316327461493752 0 -0.15140604362779489 0.486968875654338 0 -0.1558122254133027 0.48316327461493752 0 -0.15140604362779489 0.486968875654338 0 -0.15545271364459581 0.49281799385228547 0 -0.14983465253105441 0.48099067897208148 0 -0.15140604362779489 0.486968875654338 0 -0.14427471349546869 0.48965289008050411 0 -0.15140604362779489 0.486968875654338 0 -0.15545271364459581 0.49281799385228547 0 -0.14427471349546869 0.48965289008050411 0 -0.15453849507163009 0.5 0 -0.14427471349546869 0.48965289008050411 0 -0.12543772684428189 0.5 0 -0.15453849507163009 0.5 0 -0.15545271364459581 0.49281799385228547 0 -0.14427471349546869 0.48965289008050411 0 -0.14427471349546869 0.48965289008050411 0 -0.12543772684428189 0.5 0 -0.13178312884530541 0.48627570230508688 0 -0.14427471349546869 0.48965289008050411 0 -0.13178312884530541 0.48627570230508688 0 -0.1405957742956809 0.47995063378193648 0 -0.13178312884530541 0.48627570230508688 0 -0.1317912103042716 0.47600940211286807 0 -0.11642361318749669 0.48420448820259387 0 -0.1317912103042716 0.47600940211286807 0 -0.14083201439797821 0.46516349611765162 0 -0.12052644250191399 0.4682622397032008 0 -0.13178312884530541 0.48627570230508688 0 -0.1405957742956809 0.47995063378193648 0 -0.1317912103042716 0.47600940211286807 0 -0.1410608215807003 0.47118489318428192 0 -0.1405957742956809 0.47995063378193648 0 -0.1317912103042716 0.47600940211286807 0 -0.1410608215807003 0.47118489318428192 0 -0.1317912103042716 0.47600940211286807 0 -0.14083201439797821 0.46516349611765162 0 -0.12618187852634369 0.45882241462805679 0 -0.14083201439797821 0.46516349611765162 0 -0.12052644250191399 0.4682622397032008 0 -0.14083201439797821 0.46516349611765162 0 -0.12052644250191399 0.4682622397032008 0 -0.12618187852634369 0.45882241462805679 0 -0.13621980461969219 0.45775649261309698 0 -0.13482926781972801 0.45201676164804122 0 -0.13621980461969219 0.45775649261309698 0 -0.13482926781972801 0.45201676164804122 0 -0.1430360577347192 0.45502329805863873 0 -0.13621980461969219 0.45775649261309698 0 -0.14083201439797821 0.46516349611765162 0 -0.1430360577347192 0.45502329805863873 0 -0.12618187852634369 0.45882241462805679 0 -0.13621980461969219 0.45775649261309698 0 -0.14083201439797821 0.46516349611765162 0 -0.12618187852634369 0.45882241462805679 0 -0.13482926781972801 0.45201676164804122 0 -0.1248743097581413 0.44162978393037222 0 -0.13482926781972801 0.45201676164804122 0 -0.13973201497409549 0.44099892737807922 0 -0.1415241139788854 0.4488412036993919 0 -0.13482926781972801 0.45201676164804122 0 -0.1415241139788854 0.4488412036993919 0 -0.1430360577347192 0.45502329805863873 0 -0.13973201497409549 0.44099892737807922 0 -0.13491063247587859 0.43073185275000708 0 -0.1248743097581413 0.44162978393037222 0 -0.13482926781972801 0.45201676164804122 0 -0.13973201497409549 0.44099892737807922 0 -0.1248743097581413 0.44162978393037222 0 -0.13973201497409549 0.44099892737807922 0 -0.14849911538699881 0.44732582771280882 0 -0.14949031039727409 0.43903968606904947 0 -0.14849911538699881 0.44732582771280882 0 -0.1430360577347192 0.45502329805863873 0 -0.15230793746503779 0.45507497120342549 0 -0.13973201497409549 0.44099892737807922 0 -0.1415241139788854 0.4488412036993919 0 -0.14849911538699881 0.44732582771280882 0 -0.1415241139788854 0.4488412036993919 0 -0.14849911538699881 0.44732582771280882 0 -0.1430360577347192 0.45502329805863873 0 -0.14849911538699881 0.44732582771280882 0 -0.15230793746503779 0.45507497120342549 0 -0.15767924869329919 0.44641741059368378 0 -0.14949031039727409 0.43903968606904947 0 -0.15767924869329919 0.44641741059368378 0 -0.15912083936695831 0.4347249498771325 0 -0.14849911538699881 0.44732582771280882 0 -0.14949031039727409 0.43903968606904947 0 -0.15767924869329919 0.44641741059368378 0 -0.14083201439797821 0.46516349611765162 0 -0.16113758629404229 0.46206475253210239 0 -0.15779819732271971 0.4695739402503486 0 -0.1410608215807003 0.47118489318428192 0 -0.14083201439797821 0.46516349611765162 0 -0.15779819732271971 0.4695739402503486 0 -0.14083201439797821 0.46516349611765162 0 -0.16113758629404229 0.46206475253210239 0 -0.14083201439797821 0.46516349611765162 0 -0.15230793746503779 0.45507497120342549 0 -0.16113758629404229 0.46206475253210239 0 -0.14083201439797821 0.46516349611765162 0 -0.1430360577347192 0.45502329805863873 0 -0.15230793746503779 0.45507497120342549 0 -0.16113758629404229 0.46206475253210239 0 -0.16940388650370539 0.44815354093755089 0 -0.18144315819010631 0.45896600894655282 0 -0.16113758629404229 0.46206475253210239 0 -0.18144315819010631 0.45896600894655282 0 -0.16113758629404229 0.46206475253210239 0 -0.17453557306473899 0.46796298731641428 0 -0.15779819732271971 0.4695739402503486 0 -0.15230793746503779 0.45507497120342549 0 -0.16113758629404229 0.46206475253210239 0 -0.16013216473902109 0.45292766881669072 0 -0.16113758629404229 0.46206475253210239 0 -0.16013216473902109 0.45292766881669072 0 -0.16940388650370539 0.44815354093755089 0 -0.15767924869329919 0.44641741059368378 0 -0.16940388650370539 0.44815354093755089 0 -0.15912083936695831 0.4347249498771325 0 -0.15230793746503779 0.45507497120342549 0 -0.16013216473902109 0.45292766881669072 0 -0.15767924869329919 0.44641741059368378 0 -0.16013216473902109 0.45292766881669072 0 -0.15767924869329919 0.44641741059368378 0 -0.16940388650370539 0.44815354093755089 0 -0.1829590266345629 0.45699162349075462 0 -0.18255950863604661 0.43173185523385532 0 -0.1829590266345629 0.45699162349075462 0 -0.19557533522393281 0.44055915781337712 0 -0.18255950863604661 0.43173185523385532 0 -0.16940388650370539 0.44815354093755089 0 -0.1829590266345629 0.45699162349075462 0 -0.18255950863604661 0.43173185523385532 0 -0.16113758629404229 0.46206475253210239 0 -0.17453557306473899 0.46796298731641428 0 -0.18144315819010631 0.45896600894655282 0 -0.17453557306473899 0.46796298731641428 0 -0.18144315819010631 0.45896600894655282 0 -0.17453557306473899 0.46796298731641428 0 -0.18311948649431831 0.46713679563994498 0 -0.16940388650370539 0.44815354093755089 0 -0.18144315819010631 0.45896600894655282 0 -0.1829590266345629 0.45699162349075462 0 -0.18144315819010631 0.45896600894655282 0 -0.1829590266345629 0.45699162349075462 0 -0.18144315819010631 0.45896600894655282 0 -0.1829865290739871 0.45873048193697258 0 -0.1829590266345629 0.45699162349075462 0 -0.18144315819010631 0.45896600894655282 0 -0.1829865290739871 0.45873048193697258 0 -0.1829865290739871 0.45873048193697258 0 -0.1829590266345629 0.45699162349075462 0 -0.17453557306473899 0.46796298731641428 0 -0.18144315819010631 0.45896600894655282 0 -0.18311948649431831 0.46713679563994498 0 -0.1829865290739871 0.45873048193697258 0 -0.18311948649431831 0.46713679563994498 0 -0.18144315819010631 0.45896600894655282 0 -0.1829865290739871 0.45873048193697258 0 -0.18311948649431831 0.46713679563994498 0 -0.18311948649431831 0.46713679563994498 0 -0.18337937489664821 0.48356839781997168 0 -0.19511197543601369 0.47606725323690458 0 -0.18311948649431831 0.46713679563994498 0 -0.18337937489664821 0.48356839781997168 0 -0.18311948649431831 0.46713679563994498 0 -0.18337937489664821 0.48356839781997168 0 -0.17485937494801759 0.47808814193434568 0 -0.17453557306473899 0.46796298731641428 0 -0.18311948649431831 0.46713679563994498 0 -0.17485937494801759 0.47808814193434568 0 -0.17453557306473899 0.46796298731641428 0 -0.15779819732271971 0.4695739402503486 0 -0.17453557306473899 0.46796298731641428 0 -0.16499414335466689 0.48039049058434952 0 -0.17453557306473899 0.46796298731641428 0 -0.16499414335466689 0.48039049058434952 0 -0.15779819732271971 0.4695739402503486 0 -0.17453557306473899 0.46796298731641428 0 -0.17485937494801759 0.47808814193434568 0 -0.16499414335466689 0.48039049058434952 0 -0.17485937494801759 0.47808814193434568 0 -0.16499414335466689 0.48039049058434952 0 -0.1699453859209171 0.49288017845899518 0 -0.1558122254133027 0.48316327461493752 0 -0.16499414335466689 0.48039049058434952 0 -0.15682389603308189 0.47748605108520858 0 -0.16499414335466689 0.48039049058434952 0 -0.15682389603308189 0.47748605108520858 0 -0.15779819732271971 0.4695739402503486 0 -0.15453849507163009 0.5 0 -0.1699453859209171 0.49288017845899518 0 -0.18363926329897839 0.49999999999999828 0 -0.15453849507163009 0.5 0 -0.15545271364459581 0.49281799385228547 0 -0.1699453859209171 0.49288017845899518 0 -0.15545271364459581 0.49281799385228547 0 -0.16499414335466689 0.48039049058434952 0 -0.1699453859209171 0.49288017845899518 0 -0.15545271364459581 0.49281799385228547 0 -0.16499414335466689 0.48039049058434952 0 -0.1558122254133027 0.48316327461493752 0 -0.15545271364459581 0.49281799385228547 0 -0.16499414335466689 0.48039049058434952 0 -0.18337937489664821 0.48356839781997168 0 -0.18363926329897839 0.49999999999999828 0 -0.18337937489664821 0.48356839781997168 0 -0.1699453859209171 0.49288017845899518 0 -0.18363926329897839 0.49999999999999828 0 -0.18337937489664821 0.48356839781997168 0 -0.17485937494801759 0.47808814193434568 0 -0.1699453859209171 0.49288017845899518 0 -0.18337937489664821 0.48356839781997168 0 -0.18363926329897839 0.49999999999999828 0 -0.19848883175809501 0.48685236178056529 0 -0.18363926329897839 0.49999999999999828 0 -0.19848883175809501 0.48685236178056529 0 -0.20708556466301639 0.5 0 -0.18311948649431831 0.46713679563994498 0 -0.19511197543601369 0.47606725323690458 0 -0.20656524953558469 0.46488016823659339 0 -0.18337937489664821 0.48356839781997168 0 -0.19848883175809501 0.48685236178056529 0 -0.19511197543601369 0.47606725323690458 0 -0.19848883175809501 0.48685236178056529 0 -0.19511197543601369 0.47606725323690458 0 -0.206747867840962 0.47700509082497228 0 -0.19511197543601369 0.47606725323690458 0 -0.206747867840962 0.47700509082497228 0 -0.20656524953558469 0.46488016823659339 0 -0.19848883175809501 0.48685236178056529 0 -0.206747867840962 0.47700509082497228 0 -0.21585796601610141 0.48648558657266339 0 -0.206747867840962 0.47700509082497228 0 -0.21852396914967101 0.47285401242330122 0 -0.20656524953558469 0.46488016823659339 0 -0.206747867840962 0.47700509082497228 0 -0.21852396914967101 0.47285401242330122 0 -0.21585796601610141 0.48648558657266339 0 -0.20708556466301639 0.5 0 -0.21585796601610141 0.48648558657266339 0 -0.23053186602705439 0.5 0 -0.19848883175809501 0.48685236178056529 0 -0.20708556466301639 0.5 0 -0.21585796601610141 0.48648558657266339 0 -0.21585796601610141 0.48648558657266339 0 -0.23053186602705439 0.5 0 -0.2373192826940049 0.48342253064983348 0 -0.21852396914967101 0.47285401242330122 0 -0.2373192826940049 0.48342253064983348 0 -0.23001101257685119 0.46262354083324181 0 -0.21852396914967101 0.47285401242330122 0 -0.21585796601610141 0.48648558657266339 0 -0.2373192826940049 0.48342253064983348 0 -0.25474868654415728 0.48692894813519849 0 -0.25315469521642581 0.4750486889203015 0 -0.2373192826940049 0.48342253064983348 0 -0.25315469521642581 0.4750486889203015 0 -0.2373192826940049 0.48342253064983348 0 -0.23001101257685119 0.46262354083324181 0 -0.25397816739109252 0.5 0 -0.23053186602705439 0.5 0 -0.2373192826940049 0.48342253064983348 0 -0.25397816739109252 0.5 0 -0.25474868654415728 0.48692894813519849 0 -0.2373192826940049 0.48342253064983348 0 -0.26330490497154813 0.43976041958731371 0 -0.24129970279445639 0.44943490890582899 0 -0.24092688658692171 0.43286849171069308 0 -0.24129970279445639 0.44943490890582899 0 -0.2242493546558077 0.44235471361969553 0 -0.24092688658692171 0.43286849171069308 0 -0.25345677561811758 0.46036691342989022 0 -0.23001101257685119 0.46262354083324181 0 -0.25345677561811758 0.46036691342989022 0 -0.24129970279445639 0.44943490890582899 0 -0.23001101257685119 0.46262354083324181 0 -0.25345677561811758 0.46036691342989022 0 -0.25315469521642581 0.4750486889203015 0 -0.23001101257685119 0.46262354083324181 0 -0.24129970279445639 0.44943490890582899 0 -0.23001101257685119 0.46262354083324181 0 -0.2242493546558077 0.44235471361969553 0 -0.23001101257685119 0.46262354083324181 0 -0.2242493546558077 0.44235471361969553 0 -0.2144914677851314 0.45380351874251162 0 -0.2242493546558077 0.44235471361969553 0 -0.20880164963731279 0.443380440886459 0 -0.2144914677851314 0.45380351874251162 0 -0.20880164963731279 0.443380440886459 0 -0.2144914677851314 0.45380351874251162 0 -0.20415969833182021 0.45549933815243238 0 -0.23001101257685119 0.46262354083324181 0 -0.2144914677851314 0.45380351874251162 0 -0.20656524953558469 0.46488016823659339 0 -0.21852396914967101 0.47285401242330122 0 -0.23001101257685119 0.46262354083324181 0 -0.20656524953558469 0.46488016823659339 0 -0.23001101257685119 0.46262354083324181 0 -0.20656524953558469 0.46488016823659339 0 -0.2144914677851314 0.45380351874251162 0 -0.20415969833182021 0.45549933815243238 0 -0.20656524953558469 0.46488016823659339 0 -0.1829865290739871 0.45873048193697258 0 -0.1829590266345629 0.45699162349075462 0 -0.20415969833182021 0.45549933815243238 0 -0.1829865290739871 0.45873048193697258 0 -0.20415969833182021 0.45549933815243238 0 -0.18311948649431831 0.46713679563994498 0 -0.20415969833182021 0.45549933815243238 0 -0.20656524953558469 0.46488016823659339 0 -0.1829865290739871 0.45873048193697258 0 -0.18311948649431831 0.46713679563994498 0 -0.20415969833182021 0.45549933815243238 0 -0.18311948649431831 0.46713679563994498 0 -0.20656524953558469 0.46488016823659339 0 -0.1829590266345629 0.45699162349075462 0 -0.19557533522393281 0.44055915781337712 0 -0.1829590266345629 0.45699162349075462 0 -0.20415969833182021 0.45549933815243238 0 -0.19557533522393281 0.44055915781337712 0 -0.20880164963731279 0.443380440886459 0 -0.20415969833182021 0.45549933815243238 0 -0.19557533522393281 0.44055915781337712 0 -0.19557533522393281 0.44055915781337712 0 -0.20819164381331129 0.42412669213600601 0 -0.19557533522393281 0.44055915781337712 0 -0.19413142888046839 0.4217351031076268 0 -0.18255950863604661 0.43173185523385532 0 -0.19557533522393281 0.44055915781337712 0 -0.19413142888046839 0.4217351031076268 0 -0.20819164381331129 0.42412669213600601 0 -0.19413142888046839 0.4217351031076268 0 -0.20819164381331129 0.42412669213600601 0 -0.2021706660915297 0.40578572337793972 0 -0.19413142888046839 0.4217351031076268 0 -0.2021706660915297 0.40578572337793972 0 -0.18215999063752189 0.40647208697695608 0 -0.20819164381331129 0.42412669213600601 0 -0.22405449890785839 0.40643558214578251 0 -0.2021706660915297 0.40578572337793972 0 -0.20880164963731279 0.443380440886459 0 -0.19557533522393281 0.44055915781337712 0 -0.20819164381331129 0.42412669213600601 0 -0.2242493546558077 0.44235471361969553 0 -0.20880164963731279 0.443380440886459 0 -0.20819164381331129 0.42412669213600601 0 -0.2242493546558077 0.44235471361969553 0 -0.20819164381331129 0.42412669213600601 0 -0.22600929792909111 0.42518400498706249 0 -0.2242493546558077 0.44235471361969553 0 -0.22600929792909111 0.42518400498706249 0 -0.24092688658692171 0.43286849171069308 0 -0.20819164381331129 0.42412669213600601 0 -0.22600929792909111 0.42518400498706249 0 -0.22405449890785839 0.40643558214578251 0 -0.22600929792909111 0.42518400498706249 0 -0.22405449890785839 0.40643558214578251 0 -0.2382988550227183 0.41778448946306668 0 -0.2572482915111563 0.42152384209731297 0 -0.2382988550227183 0.41778448946306668 0 -0.2490618870264745 0.40647588616764979 0 -0.22405449890785839 0.40643558214578251 0 -0.2382988550227183 0.41778448946306668 0 -0.2490618870264745 0.40647588616764979 0 -0.2572482915111563 0.42152384209731297 0 -0.2382988550227183 0.41778448946306668 0 -0.24092688658692171 0.43286849171069308 0 -0.22600929792909111 0.42518400498706249 0 -0.2382988550227183 0.41778448946306668 0 -0.24092688658692171 0.43286849171069308 0 -0.24000210142933509 0.37809552861286783 0 -0.23801773827758249 0.39392053259368742 0 -0.22567210936962789 0.38582584627882549 0 -0.25152819264859128 0.38883491631829081 0 -0.24000210142933509 0.37809552861286783 0 -0.23801773827758249 0.39392053259368742 0 -0.25213085833087667 0.37355178257669552 0 -0.25152819264859128 0.38883491631829081 0 -0.24000210142933509 0.37809552861286783 0 -0.25152819264859128 0.38883491631829081 0 -0.2490618870264745 0.40647588616764979 0 -0.23801773827758249 0.39392053259368742 0 -0.22405449890785839 0.40643558214578251 0 -0.2490618870264745 0.40647588616764979 0 -0.23801773827758249 0.39392053259368742 0 -0.22405449890785839 0.40643558214578251 0 -0.22567210936962789 0.38582584627882549 0 -0.2099895612515065 0.38861519238670661 0 -0.22405449890785839 0.40643558214578251 0 -0.23801773827758249 0.39392053259368742 0 -0.22567210936962789 0.38582584627882549 0 -0.22567210936962789 0.38582584627882549 0 -0.21752164111765379 0.37637519474985792 0 -0.23054114355980421 0.3681661286558337 0 -0.24000210142933509 0.37809552861286783 0 -0.22567210936962789 0.38582584627882549 0 -0.23054114355980421 0.3681661286558337 0 -0.22567210936962789 0.38582584627882549 0 -0.21752164111765379 0.37637519474985792 0 -0.2099895612515065 0.38861519238670661 0 -0.21752164111765379 0.37637519474985792 0 -0.2099895612515065 0.38861519238670661 0 -0.20825127389149589 0.37038948781896619 0 -0.2099895612515065 0.38861519238670661 0 -0.1956253707180633 0.37355818799515828 0 -0.20825127389149589 0.37038948781896619 0 -0.22405449890785839 0.40643558214578251 0 -0.2099895612515065 0.38861519238670661 0 -0.2021706660915297 0.40578572337793972 0 -0.2021706660915297 0.40578572337793972 0 -0.19434121226752371 0.39112870189136351 0 -0.18215999063752189 0.40647208697695608 0 -0.2099895612515065 0.38861519238670661 0 -0.2021706660915297 0.40578572337793972 0 -0.19434121226752371 0.39112870189136351 0 -0.2099895612515065 0.38861519238670661 0 -0.19434121226752371 0.39112870189136351 0 -0.1956253707180633 0.37355818799515828 0 -0.19434121226752371 0.39112870189136351 0 -0.18176047263899719 0.38121231872005679 0 -0.1956253707180633 0.37355818799515828 0 -0.18176047263899719 0.38121231872005679 0 -0.16585623702428451 0.39107516703040651 0 -0.16689278400863089 0.37048631692620287 0 -0.16585623702428451 0.39107516703040651 0 -0.1532541744773912 0.375434017343177 0 -0.15169756500005979 0.38990146883471011 0 -0.16585623702428451 0.39107516703040651 0 -0.1532541744773912 0.375434017343177 0 -0.16689278400863089 0.37048631692620287 0 -0.16585623702428451 0.39107516703040651 0 -0.1665369108918931 0.40914444316194981 0 -0.1556916669008335 0.40278409093046019 0 -0.16585623702428451 0.39107516703040651 0 -0.18215999063752189 0.40647208697695608 0 -0.1665369108918931 0.40914444316194981 0 -0.16585623702428451 0.39107516703040651 0 -0.15169756500005979 0.38990146883471011 0 -0.1556916669008335 0.40278409093046019 0 -0.18176047263899719 0.38121231872005679 0 -0.16585623702428451 0.39107516703040651 0 -0.18215999063752189 0.40647208697695608 0 -0.18176047263899719 0.38121231872005679 0 -0.18215999063752189 0.40647208697695608 0 -0.19434121226752371 0.39112870189136351 0 -0.18176047263899719 0.38121231872005679 0 -0.18215999063752189 0.40647208697695608 0 -0.18215999063752189 0.40647208697695608 0 -0.18255950863604661 0.43173185523385532 0 -0.18215999063752189 0.40647208697695608 0 -0.16958367679162159 0.42493542776846188 0 -0.1665369108918931 0.40914444316194981 0 -0.19413142888046839 0.4217351031076268 0 -0.18215999063752189 0.40647208697695608 0 -0.18255950863604661 0.43173185523385532 0 -0.18215999063752189 0.40647208697695608 0 -0.18255950863604661 0.43173185523385532 0 -0.16958367679162159 0.42493542776846188 0 -0.16940388650370539 0.44815354093755089 0 -0.18255950863604661 0.43173185523385532 0 -0.16958367679162159 0.42493542776846188 0 -0.16940388650370539 0.44815354093755089 0 -0.16958367679162159 0.42493542776846188 0 -0.15912083936695831 0.4347249498771325 0 -0.16958367679162159 0.42493542776846188 0 -0.15912083936695831 0.4347249498771325 0 -0.15604886632200479 0.41831593774319042 0 -0.16958367679162159 0.42493542776846188 0 -0.1665369108918931 0.40914444316194981 0 -0.15604886632200479 0.41831593774319042 0 -0.1665369108918931 0.40914444316194981 0 -0.15604886632200479 0.41831593774319042 0 -0.1556916669008335 0.40278409093046019 0 -0.15604886632200479 0.41831593774319042 0 -0.14768726638806501 0.40958107086639878 0 -0.1556916669008335 0.40278409093046019 0 -0.15604886632200479 0.41831593774319042 0 -0.1455440964649429 0.41771164433310332 0 -0.14575226394851429 0.42876386523653243 0 -0.15604886632200479 0.41831593774319042 0 -0.1455440964649429 0.41771164433310332 0 -0.14768726638806501 0.40958107086639878 0 -0.1455440964649429 0.41771164433310332 0 -0.14768726638806501 0.40958107086639878 0 -0.13820848934052041 0.41088683445876423 0 -0.15912083936695831 0.4347249498771325 0 -0.15604886632200479 0.41831593774319042 0 -0.14575226394851429 0.42876386523653243 0 -0.14949031039727409 0.43903968606904947 0 -0.15912083936695831 0.4347249498771325 0 -0.14575226394851429 0.42876386523653243 0 -0.1455440964649429 0.41771164433310332 0 -0.14575226394851429 0.42876386523653243 0 -0.13557398954387551 0.42076075412316039 0 -0.13973201497409549 0.44099892737807922 0 -0.14949031039727409 0.43903968606904947 0 -0.14575226394851429 0.42876386523653243 0 -0.13491063247587859 0.43073185275000708 0 -0.1242188050129694 0.42501783294758849 0 -0.1248743097581413 0.44162978393037222 0 -0.13973201497409549 0.44099892737807922 0 -0.14575226394851429 0.42876386523653243 0 -0.13491063247587859 0.43073185275000708 0 -0.14575226394851429 0.42876386523653243 0 -0.13491063247587859 0.43073185275000708 0 -0.13557398954387551 0.42076075412316039 0 -0.13491063247587859 0.43073185275000708 0 -0.13557398954387551 0.42076075412316039 0 -0.1242188050129694 0.42501783294758849 0 -0.13820848934052041 0.41088683445876423 0 -0.13557398954387551 0.42076075412316039 0 -0.12623023605756489 0.41143854881348008 0 -0.1455440964649429 0.41771164433310332 0 -0.13820848934052041 0.41088683445876423 0 -0.13557398954387551 0.42076075412316039 0 -0.13557398954387551 0.42076075412316039 0 -0.12623023605756489 0.41143854881348008 0 -0.1242188050129694 0.42501783294758849 0 -0.13820848934052041 0.41088683445876423 0 -0.12623023605756489 0.41143854881348008 0 -0.13398515235888339 0.40371564514020769 0 -0.12997925716256209 0.39431640422262348 0 -0.14074253368576661 0.38200722200303072 0 -0.1429432129120235 0.39820684686647628 0 -0.12623023605756489 0.41143854881348008 0 -0.13398515235888339 0.40371564514020769 0 -0.12997925716256209 0.39431640422262348 0 -0.13398515235888339 0.40371564514020769 0 -0.12997925716256209 0.39431640422262348 0 -0.1429432129120235 0.39820684686647628 0 -0.13820848934052041 0.41088683445876423 0 -0.13398515235888339 0.40371564514020769 0 -0.1429432129120235 0.39820684686647628 0 -0.12997925716256209 0.39431640422262348 0 -0.14074253368576661 0.38200722200303072 0 -0.12523428666698541 0.37069662222368049 0 -0.12997925716256209 0.39431640422262348 0 -0.12523428666698541 0.37069662222368049 0 -0.12103247972044499 0.39311621374447298 0 -0.14074253368576661 0.38200722200303072 0 -0.15169756500005979 0.38990146883471011 0 -0.1429432129120235 0.39820684686647628 0 -0.14074253368576661 0.38200722200303072 0 -0.1532541744773912 0.375434017343177 0 -0.15169756500005979 0.38990146883471011 0 -0.15169756500005979 0.38990146883471011 0 -0.1556916669008335 0.40278409093046019 0 -0.1429432129120235 0.39820684686647628 0 -0.14768726638806501 0.40958107086639878 0 -0.1556916669008335 0.40278409093046019 0 -0.1429432129120235 0.39820684686647628 0 -0.14768726638806501 0.40958107086639878 0 -0.13820848934052041 0.41088683445876423 0 -0.1429432129120235 0.39820684686647628 0 -0.14407255521749979 0.34403263722221961 0 -0.15504053286571459 0.3545366000593369 0 -0.14129669608781389 0.36249735492572199 0 -0.14407255521749979 0.34403263722221961 0 -0.15504053286571459 0.3545366000593369 0 -0.1549481930100888 0.34056708499864929 0 -0.14074253368576661 0.38200722200303072 0 -0.1532541744773912 0.375434017343177 0 -0.14129669608781389 0.36249735492572199 0 -0.1532541744773912 0.375434017343177 0 -0.15504053286571459 0.3545366000593369 0 -0.14129669608781389 0.36249735492572199 0 -0.14129669608781389 0.36249735492572199 0 -0.12523428666698541 0.37069662222368049 0 -0.1294360936135257 0.3482770307028879 0 -0.12523428666698541 0.37069662222368049 0 -0.1294360936135257 0.3482770307028879 0 -0.14074253368576661 0.38200722200303072 0 -0.14129669608781389 0.36249735492572199 0 -0.12523428666698541 0.37069662222368049 0 -0.14407255521749979 0.34403263722221961 0 -0.14129669608781389 0.36249735492572199 0 -0.1294360936135257 0.3482770307028879 0 -0.1294360936135257 0.3482770307028879 0 -0.13363790056006589 0.32585743918209531 0 -0.14407255521749979 0.34403263722221961 0 -0.1294360936135257 0.3482770307028879 0 -0.13363790056006589 0.32585743918209531 0 -0.1294360936135257 0.3482770307028879 0 -0.13363790056006589 0.32585743918209531 0 -0.1154499742120704 0.34086754873962172 0 -0.12722248981549561 0.3181430308760943 0 -0.13363790056006589 0.32585743918209531 0 -0.1360408951285694 0.3130357752318072 0 -0.12722248981549561 0.3181430308760943 0 -0.1360408951285694 0.3130357752318072 0 -0.12136448477009221 0.30951812845445109 0 -0.12722248981549561 0.3181430308760943 0 -0.13363790056006589 0.32585743918209531 0 -0.12142985306419619 0.32461006626398298 0 -0.13363790056006589 0.32585743918209531 0 -0.12142985306419619 0.32461006626398298 0 -0.13363790056006589 0.32585743918209531 0 -0.1360408951285694 0.3130357752318072 0 -0.14290423209994971 0.32095809222069871 0 -0.13363790056006589 0.32585743918209531 0 -0.1360408951285694 0.3130357752318072 0 -0.14290423209994971 0.32095809222069871 0 -0.1532404752523272 0.32269894785805692 0 -0.1464174014568787 0.29836992735667278 0 -0.13363790056006589 0.32585743918209531 0 -0.14290423209994971 0.32095809222069871 0 -0.15729966860100811 0.32827511069417059 0 -0.13363790056006589 0.32585743918209531 0 -0.15729966860100811 0.32827511069417059 0 -0.14290423209994971 0.32095809222069871 0 -0.1532404752523272 0.32269894785805692 0 -0.15729966860100811 0.32827511069417059 0 -0.1532404752523272 0.32269894785805692 0 -0.15943794807189979 0.31595908059817063 0 -0.1547819877644892 0.3091453549012102 0 -0.14407255521749979 0.34403263722221961 0 -0.13363790056006589 0.32585743918209531 0 -0.14748957934716561 0.33468306802428371 0 -0.13363790056006589 0.32585743918209531 0 -0.14748957934716561 0.33468306802428371 0 -0.15729966860100811 0.32827511069417059 0 -0.14748957934716561 0.33468306802428371 0 -0.1549481930100888 0.34056708499864929 0 -0.15729966860100811 0.32827511069417059 0 -0.14407255521749979 0.34403263722221961 0 -0.14748957934716561 0.33468306802428371 0 -0.1549481930100888 0.34056708499864929 0 -0.15729966860100811 0.32827511069417059 0 -0.18096143664194889 0.33069278220625808 0 -0.1549481930100888 0.34056708499864929 0 -0.15729966860100811 0.32827511069417059 0 -0.16781010436956259 0.34240718275037813 0 -0.15729966860100811 0.32827511069417059 0 -0.16781010436956259 0.34240718275037813 0 -0.18096143664194889 0.33069278220625808 0 -0.15729966860100811 0.32827511069417059 0 -0.17028988351433311 0.32233995817617028 0 -0.18096143664194889 0.33069278220625808 0 -0.15943794807189979 0.31595908059817063 0 -0.16495134068588049 0.31685297469802859 0 -0.1638395481514221 0.30983277085387728 0 -0.1532404752523272 0.32269894785805692 0 -0.15943794807189979 0.31595908059817063 0 -0.16037638850537991 0.32126535467967993 0 -0.15943794807189979 0.31595908059817063 0 -0.16037638850537991 0.32126535467967993 0 -0.16495134068588049 0.31685297469802859 0 -0.15729966860100811 0.32827511069417059 0 -0.16037638850537991 0.32126535467967993 0 -0.17028988351433311 0.32233995817617028 0 -0.1532404752523272 0.32269894785805692 0 -0.15729966860100811 0.32827511069417059 0 -0.16037638850537991 0.32126535467967993 0 -0.16495134068588049 0.31685297469802859 0 -0.17285953122972289 0.31090601179704258 0 -0.1638395481514221 0.30983277085387728 0 -0.17028988351433311 0.32233995817617028 0 -0.16495134068588049 0.31685297469802859 0 -0.17285953122972289 0.31090601179704258 0 -0.16037638850537991 0.32126535467967993 0 -0.17028988351433311 0.32233995817617028 0 -0.16495134068588049 0.31685297469802859 0 -0.18077272512400111 0.31876138179813301 0 -0.17285953122972289 0.31090601179704258 0 -0.17028988351433311 0.32233995817617028 0 -0.18077272512400111 0.31876138179813301 0 -0.17285953122972289 0.31090601179704258 0 -0.17028988351433311 0.32233995817617028 0 -0.18077272512400111 0.31876138179813301 0 -0.18096143664194889 0.33069278220625808 0 -0.18077272512400111 0.31876138179813301 0 -0.19386790912735871 0.33176087567547108 0 -0.18077272512400111 0.31876138179813301 0 -0.18096143664194889 0.33069278220625808 0 -0.18077272512400111 0.31876138179813301 0 -0.18096143664194889 0.33069278220625808 0 -0.19386790912735871 0.33176087567547108 0 -0.18096143664194889 0.33069278220625808 0 -0.1813609546404725 0.35595255046315749 0 -0.18096143664194889 0.33069278220625808 0 -0.1813609546404725 0.35595255046315749 0 -0.19258948339875709 0.33633707034479371 0 -0.16781010436956259 0.34240718275037813 0 -0.18096143664194889 0.33069278220625808 0 -0.1813609546404725 0.35595255046315749 0 -0.18096143664194889 0.33069278220625808 0 -0.19386790912735871 0.33176087567547108 0 -0.15504053286571459 0.3545366000593369 0 -0.16781010436956259 0.34240718275037813 0 -0.1813609546404725 0.35595255046315749 0 -0.15504053286571459 0.3545366000593369 0 -0.1549481930100888 0.34056708499864929 0 -0.16781010436956259 0.34240718275037813 0 -0.1532541744773912 0.375434017343177 0 -0.15504053286571459 0.3545366000593369 0 -0.16689278400863089 0.37048631692620287 0 -0.15504053286571459 0.3545366000593369 0 -0.1813609546404725 0.35595255046315749 0 -0.16689278400863089 0.37048631692620287 0 -0.18176047263899719 0.38121231872005679 0 -0.1813609546404725 0.35595255046315749 0 -0.18176047263899719 0.38121231872005679 0 -0.1813609546404725 0.35595255046315749 0 -0.1956253707180633 0.37355818799515828 0 -0.18176047263899719 0.38121231872005679 0 -0.1813609546404725 0.35595255046315749 0 -0.16689278400863089 0.37048631692620287 0 -0.1813609546404725 0.35595255046315749 0 -0.1956253707180633 0.37355818799515828 0 -0.2000380028121157 0.35856944723279938 0 -0.1956253707180633 0.37355818799515828 0 -0.2000380028121157 0.35856944723279938 0 -0.20825127389149589 0.37038948781896619 0 -0.1813609546404725 0.35595255046315749 0 -0.1951678646333711 0.34883535218340811 0 -0.19258948339875709 0.33633707034479371 0 -0.1813609546404725 0.35595255046315749 0 -0.1951678646333711 0.34883535218340811 0 -0.2000380028121157 0.35856944723279938 0 -0.1951678646333711 0.34883535218340811 0 -0.2000380028121157 0.35856944723279938 0 -0.20668301768213909 0.34448234069288158 0 -0.20668301768213909 0.34448234069288158 0 -0.2120127789660084 0.36084248239747968 0 -0.21921666942493959 0.3569244055809645 0 -0.2000380028121157 0.35856944723279938 0 -0.20668301768213909 0.34448234069288158 0 -0.2120127789660084 0.36084248239747968 0 -0.2120127789660084 0.36084248239747968 0 -0.21921666942493959 0.3569244055809645 0 -0.20668301768213909 0.34448234069288158 0 -0.21921666942493959 0.3569244055809645 0 -0.22158808080033929 0.34557455345049992 0 -0.20668301768213909 0.34448234069288158 0 -0.21921666942493959 0.3569244055809645 0 -0.2000380028121157 0.35856944723279938 0 -0.20825127389149589 0.37038948781896619 0 -0.2120127789660084 0.36084248239747968 0 -0.2120127789660084 0.36084248239747968 0 -0.2199937556016836 0.36693485901855288 0 -0.21921666942493959 0.3569244055809645 0 -0.20825127389149589 0.37038948781896619 0 -0.2120127789660084 0.36084248239747968 0 -0.2199937556016836 0.36693485901855288 0 -0.21752164111765379 0.37637519474985792 0 -0.20825127389149589 0.37038948781896619 0 -0.2199937556016836 0.36693485901855288 0 -0.21752164111765379 0.37637519474985792 0 -0.23054114355980421 0.3681661286558337 0 -0.2199937556016836 0.36693485901855288 0 -0.23054114355980421 0.3681661286558337 0 -0.21921666942493959 0.3569244055809645 0 -0.23305195790672301 0.35812934693154008 0 -0.23054114355980421 0.3681661286558337 0 -0.2199937556016836 0.36693485901855288 0 -0.21921666942493959 0.3569244055809645 0 -0.23054114355980421 0.3681661286558337 0 -0.21921666942493959 0.3569244055809645 0 -0.21921666942493959 0.3569244055809645 0 -0.22158808080033929 0.34557455345049992 0 -0.23915963598069589 0.34607775607121571 0 -0.21921666942493959 0.3569244055809645 0 -0.23915963598069589 0.34607775607121571 0 -0.21921666942493959 0.3569244055809645 0 -0.23305195790672301 0.35812934693154008 0 -0.23915963598069589 0.34607775607121571 0 -0.23305195790672301 0.35812934693154008 0 -0.23915963598069589 0.34607775607121571 0 -0.24329038266145239 0.36134909741814653 0 -0.25407523553642281 0.3497448278934856 0 -0.23915963598069589 0.34607775607121571 0 -0.24329038266145239 0.36134909741814653 0 -0.25213085833087667 0.37355178257669552 0 -0.24000210142933509 0.37809552861286783 0 -0.24329038266145239 0.36134909741814653 0 -0.24000210142933509 0.37809552861286783 0 -0.23054114355980421 0.3681661286558337 0 -0.24329038266145239 0.36134909741814653 0 -0.23054114355980421 0.3681661286558337 0 -0.23305195790672301 0.35812934693154008 0 -0.24329038266145239 0.36134909741814653 0 -0.23582541811145999 0.32679902143390172 0 -0.24885494741763489 0.31718848033418301 0 -0.23189508169276829 0.30076725351495531 0 -0.23582541811145999 0.32679902143390172 0 -0.24885494741763489 0.31718848033418301 0 -0.24633099797708269 0.32737693631841108 0 -0.25451497659773847 0.32559442806853028 0 -0.24885494741763489 0.31718848033418301 0 -0.24633099797708269 0.32737693631841108 0 -0.24843663428782739 0.33758714710907461 0 -0.22129300011358269 0.33481371145693772 0 -0.25451497659773847 0.32559442806853028 0 -0.24633099797708269 0.32737693631841108 0 -0.24843663428782739 0.33758714710907461 0 -0.25910260253645218 0.33523110656146687 0 -0.23915963598069589 0.34607775607121571 0 -0.23582541811145999 0.32679902143390172 0 -0.24633099797708269 0.32737693631841108 0 -0.24843663428782739 0.33758714710907461 0 -0.25910260253645218 0.33523110656146687 0 -0.23915963598069589 0.34607775607121571 0 -0.24843663428782739 0.33758714710907461 0 -0.23582541811145999 0.32679902143390172 0 -0.24843663428782739 0.33758714710907461 0 -0.22129300011358269 0.33481371145693772 0 -0.23915963598069589 0.34607775607121571 0 -0.24843663428782739 0.33758714710907461 0 -0.22129300011358269 0.33481371145693772 0 -0.22158808080033929 0.34557455345049992 0 -0.23915963598069589 0.34607775607121571 0 -0.22129300011358269 0.33481371145693772 0 -0.23582541811145999 0.32679902143390172 0 -0.21954464392232159 0.31820766509236142 0 -0.23189508169276829 0.30076725351495531 0 -0.23582541811145999 0.32679902143390172 0 -0.22129300011358269 0.33481371145693772 0 -0.21954464392232159 0.31820766509236142 0 -0.21954464392232159 0.31820766509236142 0 -0.20492818889453221 0.32276220977772679 0 -0.20060783596013981 0.3076349397264902 0 -0.22129300011358269 0.33481371145693772 0 -0.21954464392232159 0.31820766509236142 0 -0.20492818889453221 0.32276220977772679 0 -0.22129300011358269 0.33481371145693772 0 -0.20492818889453221 0.32276220977772679 0 -0.19386790912735871 0.33176087567547108 0 -0.22129300011358269 0.33481371145693772 0 -0.19386790912735871 0.33176087567547108 0 -0.20668301768213909 0.34448234069288158 0 -0.22129300011358269 0.33481371145693772 0 -0.19386790912735871 0.33176087567547108 0 -0.20668301768213909 0.34448234069288158 0 -0.22158808080033929 0.34557455345049992 0 -0.22129300011358269 0.33481371145693772 0 -0.20668301768213909 0.34448234069288158 0 -0.19386790912735871 0.33176087567547108 0 -0.19258948339875709 0.33633707034479371 0 -0.20668301768213909 0.34448234069288158 0 -0.19386790912735871 0.33176087567547108 0 -0.1951678646333711 0.34883535218340811 0 -0.20668301768213909 0.34448234069288158 0 -0.19258948339875709 0.33633707034479371 0 -0.18096143664194889 0.33069278220625808 0 -0.19386790912735871 0.33176087567547108 0 -0.19258948339875709 0.33633707034479371 0 -0.19386790912735871 0.33176087567547108 0 -0.19258948339875709 0.33633707034479371 0 -0.18077272512400111 0.31876138179813301 0 -0.19386790912735871 0.33176087567547108 0 -0.20060783596013981 0.3076349397264902 0 -0.20492818889453221 0.32276220977772679 0 -0.19386790912735871 0.33176087567547108 0 -0.20060783596013981 0.3076349397264902 0 -0.19386790912735871 0.33176087567547108 0 -0.20060783596013981 0.3076349397264902 0 -0.20060783596013981 0.3076349397264902 0 -0.20734776279292019 0.28350900377750898 0 -0.23189508169276829 0.30076725351495531 0 -0.21954464392232159 0.31820766509236142 0 -0.20060783596013981 0.3076349397264902 0 -0.23189508169276829 0.30076725351495531 0 -0.20060783596013981 0.3076349397264902 0 -0.20734776279292019 0.28350900377750898 0 -0.18034630435624241 0.29180066960649809 0 -0.20734776279292019 0.28350900377750898 0 -0.19375927737912041 0.2730469699042487 0 -0.18034630435624241 0.29180066960649809 0 -0.20060783596013981 0.3076349397264902 0 -0.20734776279292019 0.28350900377750898 0 -0.20734776279292019 0.28350900377750898 0 -0.23189508169276829 0.30076725351495531 0 -0.22396762922540969 0.27514125130055722 0 -0.23189508169276829 0.30076725351495531 0 -0.2378434694439332 0.28391349183279069 0 -0.22396762922540969 0.27514125130055722 0 -0.25673188405007052 0.28646841290673969 0 -0.23189508169276829 0.30076725351495531 0 -0.2378434694439332 0.28391349183279069 0 -0.25673188405007052 0.28646841290673969 0 -0.23189508169276829 0.30076725351495531 0 -0.25505401324638421 0.30366623925853881 0 -0.25673188405007052 0.28646841290673969 0 -0.23189508169276829 0.30076725351495531 0 -0.25505401324638421 0.30366623925853881 0 -0.24885494741763489 0.31718848033418301 0 -0.23189508169276829 0.30076725351495531 0 -0.25265925142613249 0.26128234508680298 0 -0.23885305679183191 0.2684477152547543 0 -0.23951274761537589 0.2474853768326048 0 -0.23885305679183191 0.2684477152547543 0 -0.22811192938500721 0.25829645972706228 0 -0.23951274761537589 0.2474853768326048 0 -0.25621817608628389 0.2460965770837312 0 -0.25265925142613249 0.26128234508680298 0 -0.23951274761537589 0.2474853768326048 0 -0.25673188405007052 0.28646841290673969 0 -0.2378434694439332 0.28391349183279069 0 -0.23885305679183191 0.2684477152547543 0 -0.25265925142613249 0.26128234508680298 0 -0.25673188405007052 0.28646841290673969 0 -0.23885305679183191 0.2684477152547543 0 -0.23885305679183191 0.2684477152547543 0 -0.22396762922540969 0.27514125130055722 0 -0.22811192938500721 0.25829645972706228 0 -0.2378434694439332 0.28391349183279069 0 -0.23885305679183191 0.2684477152547543 0 -0.22396762922540969 0.27514125130055722 0 -0.22811192938500721 0.25829645972706228 0 -0.22371849106378741 0.2462845034026982 0 -0.23951274761537589 0.2474853768326048 0 -0.22396762922540969 0.27514125130055722 0 -0.22811192938500721 0.25829645972706228 0 -0.21408768962570049 0.25938306782852782 0 -0.22811192938500721 0.25829645972706228 0 -0.21408768962570049 0.25938306782852782 0 -0.22371849106378741 0.2462845034026982 0 -0.21408768962570049 0.25938306782852782 0 -0.19928355658839081 0.25766712263582692 0 -0.2066863838603582 0.24242880758937649 0 -0.21408768962570049 0.25938306782852782 0 -0.20163280817849061 0.26608937016207479 0 -0.19928355658839081 0.25766712263582692 0 -0.20734776279292019 0.28350900377750898 0 -0.21408768962570049 0.25938306782852782 0 -0.20734776279292019 0.28350900377750898 0 -0.22396762922540969 0.27514125130055722 0 -0.21408768962570049 0.25938306782852782 0 -0.20734776279292019 0.28350900377750898 0 -0.21408768962570049 0.25938306782852782 0 -0.20163280817849061 0.26608937016207479 0 -0.20734776279292019 0.28350900377750898 0 -0.20163280817849061 0.26608937016207479 0 -0.19375927737912041 0.2730469699042487 0 -0.20163280817849061 0.26608937016207479 0 -0.19375927737912041 0.2730469699042487 0 -0.19160269433399771 0.26436194023610149 0 -0.19375927737912041 0.2730469699042487 0 -0.19160269433399771 0.26436194023610149 0 -0.17991988358848049 0.26483995741486333 0 -0.19928355658839081 0.25766712263582692 0 -0.18259587964237009 0.2606558300825601 0 -0.2066863838603582 0.24242880758937649 0 -0.18259587964237009 0.2606558300825601 0 -0.19333963139412971 0.24385714112684301 0 -0.19928355658839081 0.25766712263582692 0 -0.19160269433399771 0.26436194023610149 0 -0.18259587964237009 0.2606558300825601 0 -0.18259587964237009 0.2606558300825601 0 -0.2066863838603582 0.24242880758937649 0 -0.20163280817849061 0.26608937016207479 0 -0.19928355658839081 0.25766712263582692 0 -0.19160269433399771 0.26436194023610149 0 -0.17991988358848049 0.26483995741486333 0 -0.17951502337729761 0.2392424245160312 0 -0.17991988358848049 0.26483995741486333 0 -0.17042143569771079 0.26099360542817968 0 -0.17951502337729761 0.2392424245160312 0 -0.18259587964237009 0.2606558300825601 0 -0.17991988358848049 0.26483995741486333 0 -0.17951502337729761 0.2392424245160312 0 -0.19160269433399771 0.26436194023610149 0 -0.18259587964237009 0.2606558300825601 0 -0.17991988358848049 0.26483995741486333 0 -0.18259587964237009 0.2606558300825601 0 -0.17991988358848049 0.26483995741486333 0 -0.17991988358848049 0.26483995741486333 0 -0.17042143569771079 0.26099360542817968 0 -0.17716480609589361 0.26914773470870201 0 -0.17042143569771079 0.26099360542817968 0 -0.1627301728603629 0.26968240911070368 0 -0.1532221513837192 0.25419418888983192 0 -0.17042143569771079 0.26099360542817968 0 -0.1532221513837192 0.25419418888983192 0 -0.17951502337729761 0.2392424245160312 0 -0.1627301728603629 0.26968240911070368 0 -0.1620479085915319 0.28265904931380531 0 -0.15271877240598841 0.27446820953958367 0 -0.17042143569771079 0.26099360542817968 0 -0.1627301728603629 0.26968240911070368 0 -0.1699765768805111 0.26885491792894611 0 -0.1627301728603629 0.26968240911070368 0 -0.1699765768805111 0.26885491792894611 0 -0.16860704672851359 0.27535934789532951 0 -0.1627301728603629 0.26968240911070368 0 -0.16860704672851359 0.27535934789532951 0 -0.1620479085915319 0.28265904931380531 0 -0.16860704672851359 0.27535934789532951 0 -0.17077339862397739 0.28423195702734899 0 -0.1620479085915319 0.28265904931380531 0 -0.17991988358848049 0.26483995741486333 0 -0.18034630435624241 0.29180066960649809 0 -0.17991988358848049 0.26483995741486333 0 -0.17716480609589361 0.26914773470870201 0 -0.18034630435624241 0.29180066960649809 0 -0.16860704672851359 0.27535934789532951 0 -0.17716480609589361 0.26914773470870201 0 -0.17077339862397739 0.28423195702734899 0 -0.19375927737912041 0.2730469699042487 0 -0.17991988358848049 0.26483995741486333 0 -0.18034630435624241 0.29180066960649809 0 -0.17042143569771079 0.26099360542817968 0 -0.1699765768805111 0.26885491792894611 0 -0.17716480609589361 0.26914773470870201 0 -0.1699765768805111 0.26885491792894611 0 -0.16860704672851359 0.27535934789532951 0 -0.17716480609589361 0.26914773470870201 0 -0.17991988358848049 0.26483995741486333 0 -0.17716480609589361 0.26914773470870201 0 -0.17716480609589361 0.26914773470870201 0 -0.18034630435624241 0.29180066960649809 0 -0.17077339862397739 0.28423195702734899 0 -0.18034630435624241 0.29180066960649809 0 -0.16501618616712291 0.29775164083812761 0 -0.17077339862397739 0.28423195702734899 0 -0.18077272512400111 0.31876138179813301 0 -0.18034630435624241 0.29180066960649809 0 -0.18077272512400111 0.31876138179813301 0 -0.18034630435624241 0.29180066960649809 0 -0.17285953122972289 0.31090601179704258 0 -0.18034630435624241 0.29180066960649809 0 -0.17285953122972289 0.31090601179704258 0 -0.16501618616712291 0.29775164083812761 0 -0.18077272512400111 0.31876138179813301 0 -0.20060783596013981 0.3076349397264902 0 -0.18034630435624241 0.29180066960649809 0 -0.16501618616712291 0.29775164083812761 0 -0.15329008091572741 0.28945008379417048 0 -0.1547819877644892 0.3091453549012102 0 -0.17285953122972289 0.31090601179704258 0 -0.16501618616712291 0.29775164083812761 0 -0.1638395481514221 0.30983277085387728 0 -0.16501618616712291 0.29775164083812761 0 -0.1638395481514221 0.30983277085387728 0 -0.1547819877644892 0.3091453549012102 0 -0.15943794807189979 0.31595908059817063 0 -0.1638395481514221 0.30983277085387728 0 -0.1547819877644892 0.3091453549012102 0 -0.16501618616712291 0.29775164083812761 0 -0.17077339862397739 0.28423195702734899 0 -0.1620479085915319 0.28265904931380531 0 -0.16501618616712291 0.29775164083812761 0 -0.1620479085915319 0.28265904931380531 0 -0.15329008091572741 0.28945008379417048 0 -0.1464174014568787 0.29836992735667278 0 -0.13959432766143021 0.2740409068552887 0 -0.1620479085915319 0.28265904931380531 0 -0.15329008091572741 0.28945008379417048 0 -0.15271877240598841 0.27446820953958367 0 -0.15329008091572741 0.28945008379417048 0 -0.1464174014568787 0.29836992735667278 0 -0.13959432766143021 0.2740409068552887 0 -0.15329008091572741 0.28945008379417048 0 -0.1464174014568787 0.29836992735667278 0 -0.1547819877644892 0.3091453549012102 0 -0.1532404752523272 0.32269894785805692 0 -0.1464174014568787 0.29836992735667278 0 -0.1360408951285694 0.3130357752318072 0 -0.14290423209994971 0.32095809222069871 0 -0.1464174014568787 0.29836992735667278 0 -0.1532404752523272 0.32269894785805692 0 -0.1464174014568787 0.29836992735667278 0 -0.1547819877644892 0.3091453549012102 0 -0.1360408951285694 0.3130357752318072 0 -0.1264253840414637 0.29528772621663357 0 -0.12136448477009221 0.30951812845445109 0 -0.1360408951285694 0.3130357752318072 0 -0.1464174014568787 0.29836992735667278 0 -0.1264253840414637 0.29528772621663357 0 -0.1464174014568787 0.29836992735667278 0 -0.1264253840414637 0.29528772621663357 0 -0.13959432766143021 0.2740409068552887 0 -0.1264253840414637 0.29528772621663357 0 -0.13959432766143021 0.2740409068552887 0 -0.1185373796182298 0.27837978510360878 0 -0.13959432766143021 0.2740409068552887 0 -0.1327712538659816 0.24971188635390451 0 -0.13959432766143021 0.2740409068552887 0 -0.116744543106582 0.25728181003509248 0 -0.1327712538659816 0.24971188635390451 0 -0.13959432766143021 0.2740409068552887 0 -0.1532221513837192 0.25419418888983192 0 -0.1327712538659816 0.24971188635390451 0 -0.1627301728603629 0.26968240911070368 0 -0.1532221513837192 0.25419418888983192 0 -0.15271877240598841 0.27446820953958367 0 -0.13959432766143021 0.2740409068552887 0 -0.1532221513837192 0.25419418888983192 0 -0.15271877240598841 0.27446820953958367 0 -0.15329008091572741 0.28945008379417048 0 -0.13959432766143021 0.2740409068552887 0 -0.15271877240598841 0.27446820953958367 0 -0.1061606963602142 0.26761343855331338 0 -0.1001789302111205 0.27974269320078388 0 -0.1185373796182298 0.27837978510360878 0 -0.1061606963602142 0.26761343855331338 0 -0.1001789302111205 0.27974269320078388 0 -0.092613028744971265 0.26767711662392979 0 -0.1061606963602142 0.26761343855331338 0 -0.10005120432924321 0.25626016583208688 0 -0.116744543106582 0.25728181003509248 0 -0.1061606963602142 0.26761343855331338 0 -0.10005120432924321 0.25626016583208688 0 -0.092613028744971265 0.26767711662392979 0 -0.10005120432924321 0.25626016583208688 0 -0.116744543106582 0.25728181003509248 0 -0.1045487088169635 0.24438495162540061 0 -0.13959432766143021 0.2740409068552887 0 -0.116744543106582 0.25728181003509248 0 -0.1185373796182298 0.27837978510360878 0 -0.1061606963602142 0.26761343855331338 0 -0.116744543106582 0.25728181003509248 0 -0.1185373796182298 0.27837978510360878 0 -0.1264253840414637 0.29528772621663357 0 -0.1127724140037699 0.30190213115774378 0 -0.1091517300735869 0.29135078386346752 0 -0.1264253840414637 0.29528772621663357 0 -0.1185373796182298 0.27837978510360878 0 -0.1091517300735869 0.29135078386346752 0 -0.1264253840414637 0.29528772621663357 0 -0.12136448477009221 0.30951812845445109 0 -0.1127724140037699 0.30190213115774378 0 -0.12136448477009221 0.30951812845445109 0 -0.1127724140037699 0.30190213115774378 0 -0.1061991548417472 0.31213959050036899 0 -0.1127724140037699 0.30190213115774378 0 -0.1061991548417472 0.31213959050036899 0 -0.1005146973405663 0.30141191014932889 0 -0.1127724140037699 0.30190213115774378 0 -0.1005146973405663 0.30141191014932889 0 -0.1091517300735869 0.29135078386346752 0 -0.1005146973405663 0.30141191014932889 0 -0.094430836728355921 0.29177030977787999 0 -0.089068024122243669 0.30112896568664949 0 -0.1061991548417472 0.31213959050036899 0 -0.1005146973405663 0.30141191014932889 0 -0.090928135519314904 0.31087631578889069 0 -0.1001789302111205 0.27974269320078388 0 -0.1185373796182298 0.27837978510360878 0 -0.1091517300735869 0.29135078386346752 0 -0.1005146973405663 0.30141191014932889 0 -0.1091517300735869 0.29135078386346752 0 -0.094430836728355921 0.29177030977787999 0 -0.1001789302111205 0.27974269320078388 0 -0.1091517300735869 0.29135078386346752 0 -0.094430836728355921 0.29177030977787999 0 -0.1001789302111205 0.27974269320078388 0 -0.094430836728355921 0.29177030977787999 0 -0.086145563619835275 0.2816538088019015 0 -0.094430836728355921 0.29177030977787999 0 -0.086145563619835275 0.2816538088019015 0 -0.081526075002782958 0.29533369696514911 0 -0.094430836728355921 0.29177030977787999 0 -0.081526075002782958 0.29533369696514911 0 -0.089068024122243669 0.30112896568664949 0 -0.086145563619835275 0.2816538088019015 0 -0.081526075002782958 0.29533369696514911 0 -0.070830210313899522 0.29195808219782299 0 -0.090928135519314904 0.31087631578889069 0 -0.079482369404140468 0.30560554845979909 0 -0.074915307566508993 0.31649039264194578 0 -0.090928135519314904 0.31087631578889069 0 -0.089068024122243669 0.30112896568664949 0 -0.079482369404140468 0.30560554845979909 0 -0.1005146973405663 0.30141191014932889 0 -0.090928135519314904 0.31087631578889069 0 -0.089068024122243669 0.30112896568664949 0 -0.081526075002782958 0.29533369696514911 0 -0.089068024122243669 0.30112896568664949 0 -0.079482369404140468 0.30560554845979909 0 -0.054647974243728172 0.30430181459310768 0 -0.074915307566508993 0.31649039264194578 0 -0.079482369404140468 0.30560554845979909 0 -0.068661557073843291 0.3005821027458685 0 -0.074915307566508993 0.31649039264194578 0 -0.068661557073843291 0.3005821027458685 0 -0.054647974243728172 0.30430181459310768 0 -0.074915307566508993 0.31649039264194578 0 -0.081526075002782958 0.29533369696514911 0 -0.079482369404140468 0.30560554845979909 0 -0.068661557073843291 0.3005821027458685 0 -0.070830210313899522 0.29195808219782299 0 -0.067453711470644842 0.27023673344429472 0 -0.052574645638654917 0.28480468584225688 0 -0.081526075002782958 0.29533369696514911 0 -0.068661557073843291 0.3005821027458685 0 -0.070830210313899522 0.29195808219782299 0 -0.068661557073843291 0.3005821027458685 0 -0.070830210313899522 0.29195808219782299 0 -0.068661557073843291 0.3005821027458685 0 -0.070830210313899522 0.29195808219782299 0 -0.059610011597539182 0.29372125904316332 0 -0.086145563619835275 0.2816538088019015 0 -0.070830210313899522 0.29195808219782299 0 -0.077256670317037021 0.26667642926106078 0 -0.070830210313899522 0.29195808219782299 0 -0.067453711470644842 0.27023673344429472 0 -0.070830210313899522 0.29195808219782299 0 -0.077256670317037021 0.26667642926106078 0 -0.070830210313899522 0.29195808219782299 0 -0.067453711470644842 0.27023673344429472 0 -0.077256670317037021 0.26667642926106078 0 -0.086145563619835275 0.2816538088019015 0 -0.077256670317037021 0.26667642926106078 0 -0.092613028744971265 0.26767711662392979 0 -0.1001789302111205 0.27974269320078388 0 -0.086145563619835275 0.2816538088019015 0 -0.092613028744971265 0.26767711662392979 0 -0.077256670317037021 0.26667642926106078 0 -0.086302411784292182 0.25447467192259482 0 -0.083666647235009842 0.24139059785004849 0 -0.077256670317037021 0.26667642926106078 0 -0.083666647235009842 0.24139059785004849 0 -0.10005120432924321 0.25626016583208688 0 -0.086302411784292182 0.25447467192259482 0 -0.094679029848152713 0.24609146959404629 0 -0.10005120432924321 0.25626016583208688 0 -0.092613028744971265 0.26767711662392979 0 -0.086302411784292182 0.25447467192259482 0 -0.077256670317037021 0.26667642926106078 0 -0.092613028744971265 0.26767711662392979 0 -0.086302411784292182 0.25447467192259482 0 -0.077256670317037021 0.26667642926106078 0 -0.064077212627390134 0.24851538469076631 0 -0.083666647235009842 0.24139059785004849 0 -0.067453711470644842 0.27023673344429472 0 -0.077256670317037021 0.26667642926106078 0 -0.064077212627390134 0.24851538469076631 0 -0.067453711470644842 0.27023673344429472 0 -0.064077212627390134 0.24851538469076631 0 -0.067453711470644842 0.27023673344429472 0 -0.04634179854296408 0.26632715615711849 0 -0.064077212627390134 0.24851538469076631 0 -0.04634179854296408 0.26632715615711849 0 -0.064077212627390134 0.24851538469076631 0 -0.046578861792199937 0.24361118962503389 0 -0.067453711470644842 0.27023673344429472 0 -0.04634179854296408 0.26632715615711849 0 -0.052574645638654917 0.28480468584225688 0 -0.04634179854296408 0.26632715615711849 0 -0.034380640920947357 0.29211323654426968 0 -0.052574645638654917 0.28480468584225688 0 -0.04634179854296408 0.26632715615711849 0 -0.022607631921228569 0.27169805167723737 0 -0.034380640920947357 0.29211323654426968 0 -0.04634179854296408 0.26632715615711849 0 -0.03068766995985707 0.25286978792993342 0 -0.022607631921228569 0.27169805167723737 0 -0.04634179854296408 0.26632715615711849 0 -0.03068766995985707 0.25286978792993342 0 -0.046578861792199937 0.24361118962503389 0 -0.03068766995985707 0.25286978792993342 0 -0.022607631921228569 0.27169805167723737 0 -0.0098044441781452579 0.25473951632571468 0 -0.022607631921228569 0.27169805167723737 0 -0.015153941911089409 0.29208252597919021 0 3.3590645499582607e-05 0.27236849017123349 0 -0.022607631921228569 0.27169805167723737 0 -0.0098044441781452579 0.25473951632571468 0 3.3590645499582607e-05 0.27236849017123349 0 -0.0098044441781452579 0.25473951632571468 0 0.0073806355134042019 0.25529449578482938 0 3.3590645499582607e-05 0.27236849017123349 0 -0.0088759444352828343 0.31092800175718183 0 -0.015153941911089409 0.29208252597919021 0 0.0083336089875100904 0.29343585490586271 0 -0.015153941911089409 0.29208252597919021 0 0.0083336089875100904 0.29343585490586271 0 3.3590645499582607e-05 0.27236849017123349 0 -0.022607631921228569 0.27169805167723737 0 -0.015153941911089409 0.29208252597919021 0 -0.034380640920947357 0.29211323654426968 0 -0.0088759444352828343 0.31092800175718183 0 -0.015153941911089409 0.29208252597919021 0 -0.03508050583840458 0.3127012881250415 0 -0.015153941911089409 0.29208252597919021 0 -0.034380640920947357 0.29211323654426968 0 -0.03508050583840458 0.3127012881250415 0 -0.034380640920947357 0.29211323654426968 0 -0.054647974243728172 0.30430181459310768 0 -0.034380640920947357 0.29211323654426968 0 -0.054647974243728172 0.30430181459310768 0 -0.03508050583840458 0.3127012881250415 0 -0.034380640920947357 0.29211323654426968 0 -0.052574645638654917 0.28480468584225688 0 -0.054647974243728172 0.30430181459310768 0 -0.052574645638654917 0.28480468584225688 0 -0.059610011597539182 0.29372125904316332 0 -0.054647974243728172 0.30430181459310768 0 -0.070830210313899522 0.29195808219782299 0 -0.052574645638654917 0.28480468584225688 0 -0.059610011597539182 0.29372125904316332 0 -0.068661557073843291 0.3005821027458685 0 -0.059610011597539182 0.29372125904316332 0 -0.054647974243728172 0.30430181459310768 0 -0.058679851530075752 0.32054224196392622 0 -0.045885169747561752 0.33132665820789581 0 -0.073191842414501496 0.33174208285196288 0 -0.054647974243728172 0.30430181459310768 0 -0.058679851530075752 0.32054224196392622 0 -0.03508050583840458 0.3127012881250415 0 -0.045885169747561752 0.33132665820789581 0 -0.067541502003893042 0.3482616942848048 0 -0.073191842414501496 0.33174208285196288 0 -0.045885169747561752 0.33132665820789581 0 -0.073191842414501496 0.33174208285196288 0 -0.045885169747561752 0.33132665820789581 0 -0.018578497080621779 0.33091123356382868 0 -0.045885169747561752 0.33132665820789581 0 -0.03508050583840458 0.3127012881250415 0 -0.018578497080621779 0.33091123356382868 0 -0.058679851530075752 0.32054224196392622 0 -0.045885169747561752 0.33132665820789581 0 -0.03508050583840458 0.3127012881250415 0 -0.0088759444352828343 0.31092800175718183 0 -0.03508050583840458 0.3127012881250415 0 -0.018578497080621779 0.33091123356382868 0 -0.018578497080621779 0.33091123356382868 0 -0.0050552824635438226 0.34569829691311771 0 -0.02749858990914332 0.35301881799134821 0 -0.045885169747561752 0.33132665820789581 0 -0.018578497080621779 0.33091123356382868 0 -0.02749858990914332 0.35301881799134821 0 -0.018578497080621779 0.33091123356382868 0 -0.0050552824635438226 0.34569829691311771 0 0.0064742168078369342 0.3347740657525386 0 -0.018578497080621779 0.33091123356382868 0 0.0087281755863181168 0.33049580891976171 0 -0.018578497080621779 0.33091123356382868 0 0.0064742168078369342 0.3347740657525386 0 0.0087281755863181168 0.33049580891976171 0 -0.018578497080621779 0.33091123356382868 0 -0.003280447873963227 0.32161399115684158 0 0.0087281755863181168 0.33049580891976171 0 -0.0088759444352828343 0.31092800175718183 0 -0.018578497080621779 0.33091123356382868 0 -0.003280447873963227 0.32161399115684158 0 -0.0088759444352828343 0.31092800175718183 0 -0.003280447873963227 0.32161399115684158 0 0.0056044744337335906 0.31412092038659428 0 -0.0052616759920083916 0.36132776784546622 0 -0.0045342830833226501 0.3863935686212247 0 -0.0052616759920083916 0.36132776784546622 0 -0.024169526760701381 0.37267007813580277 0 -0.0045342830833226501 0.3863935686212247 0 -0.0052616759920083916 0.36132776784546622 0 -0.0045342830833226501 0.3863935686212247 0 0.0079023355216259559 0.37348921158265391 0 -0.0052616759920083916 0.36132776784546622 0 -0.0050552824635438226 0.34569829691311771 0 0.0061318462344260851 0.35417601161121459 0 -0.0052616759920083916 0.36132776784546622 0 -0.0050552824635438226 0.34569829691311771 0 -0.02749858990914332 0.35301881799134821 0 -0.02749858990914332 0.35301881799134821 0 -0.024169526760701381 0.37267007813580277 0 -0.04149310004589906 0.37124785083274592 0 -0.0052616759920083916 0.36132776784546622 0 -0.02749858990914332 0.35301881799134821 0 -0.024169526760701381 0.37267007813580277 0 -0.02749858990914332 0.35301881799134821 0 -0.04149310004589906 0.37124785083274592 0 -0.051818441616049399 0.35735321764765782 0 -0.045885169747561752 0.33132665820789581 0 -0.02749858990914332 0.35301881799134821 0 -0.051818441616049399 0.35735321764765782 0 -0.045885169747561752 0.33132665820789581 0 -0.051818441616049399 0.35735321764765782 0 -0.067541502003893042 0.3482616942848048 0 -0.04149310004589906 0.37124785083274592 0 -0.051818441616049399 0.35735321764765782 0 -0.056875823715872062 0.37631267096962301 0 -0.051818441616049399 0.35735321764765782 0 -0.069616273344600341 0.3650636543096733 0 -0.056875823715872062 0.37631267096962301 0 -0.069616273344600341 0.3650636543096733 0 -0.085055645225370236 0.37193713089684588 0 -0.071788917171084016 0.3809272333041443 0 -0.069616273344600341 0.3650636543096733 0 -0.071788917171084016 0.3809272333041443 0 -0.056875823715872062 0.37631267096962301 0 -0.069616273344600341 0.3650636543096733 0 -0.085055645225370236 0.37193713089684588 0 -0.084100884505446297 0.3554636863979832 0 -0.085055645225370236 0.37193713089684588 0 -0.084100884505446297 0.3554636863979832 0 -0.1008292236537022 0.36036332390371462 0 -0.084100884505446297 0.3554636863979832 0 -0.067541502003893042 0.3482616942848048 0 -0.085709514220790303 0.34113927750747819 0 -0.084100884505446297 0.3554636863979832 0 -0.085709514220790303 0.34113927750747819 0 -0.099722393067727538 0.34687368244968458 0 -0.069616273344600341 0.3650636543096733 0 -0.084100884505446297 0.3554636863979832 0 -0.067541502003893042 0.3482616942848048 0 -0.051818441616049399 0.35735321764765782 0 -0.069616273344600341 0.3650636543096733 0 -0.067541502003893042 0.3482616942848048 0 -0.067541502003893042 0.3482616942848048 0 -0.073191842414501496 0.33174208285196288 0 -0.085709514220790303 0.34113927750747819 0 -0.058679851530075752 0.32054224196392622 0 -0.073191842414501496 0.33174208285196288 0 -0.074915307566508993 0.31649039264194578 0 -0.054647974243728172 0.30430181459310768 0 -0.058679851530075752 0.32054224196392622 0 -0.074915307566508993 0.31649039264194578 0 -0.073191842414501496 0.33174208285196288 0 -0.074915307566508993 0.31649039264194578 0 -0.095182640889289766 0.32867897069078372 0 -0.090928135519314904 0.31087631578889069 0 -0.074915307566508993 0.31649039264194578 0 -0.095182640889289766 0.32867897069078372 0 -0.074915307566508993 0.31649039264194578 0 -0.095182640889289766 0.32867897069078372 0 -0.073191842414501496 0.33174208285196288 0 -0.085709514220790303 0.34113927750747819 0 -0.095182640889289766 0.32867897069078372 0 -0.085709514220790303 0.34113927750747819 0 -0.095182640889289766 0.32867897069078372 0 -0.099722393067727538 0.34687368244968458 0 -0.095182640889289766 0.32867897069078372 0 -0.1154499742120704 0.34086754873962172 0 -0.095182640889289766 0.32867897069078372 0 -0.1098512680755149 0.32470257897991811 0 -0.1154499742120704 0.34086754873962172 0 -0.095182640889289766 0.32867897069078372 0 -0.1154499742120704 0.34086754873962172 0 -0.099722393067727538 0.34687368244968458 0 -0.1061991548417472 0.31213959050036899 0 -0.090928135519314904 0.31087631578889069 0 -0.095182640889289766 0.32867897069078372 0 -0.1061991548417472 0.31213959050036899 0 -0.095182640889289766 0.32867897069078372 0 -0.1098512680755149 0.32470257897991811 0 -0.1061991548417472 0.31213959050036899 0 -0.115330384384618 0.31728312261503783 0 -0.1098512680755149 0.32470257897991811 0 -0.12136448477009221 0.30951812845445109 0 -0.1061991548417472 0.31213959050036899 0 -0.115330384384618 0.31728312261503783 0 -0.115330384384618 0.31728312261503783 0 -0.1098512680755149 0.32470257897991811 0 -0.12142985306419619 0.32461006626398298 0 -0.12722248981549561 0.3181430308760943 0 -0.115330384384618 0.31728312261503783 0 -0.12142985306419619 0.32461006626398298 0 -0.12722248981549561 0.3181430308760943 0 -0.12136448477009221 0.30951812845445109 0 -0.115330384384618 0.31728312261503783 0 -0.1098512680755149 0.32470257897991811 0 -0.12142985306419619 0.32461006626398298 0 -0.1154499742120704 0.34086754873962172 0 -0.13363790056006589 0.32585743918209531 0 -0.12142985306419619 0.32461006626398298 0 -0.1154499742120704 0.34086754873962172 0 -0.12523428666698541 0.37069662222368049 0 -0.1294360936135257 0.3482770307028879 0 -0.1154159689866658 0.35521970897278921 0 -0.1154499742120704 0.34086754873962172 0 -0.1154159689866658 0.35521970897278921 0 -0.099722393067727538 0.34687368244968458 0 -0.1294360936135257 0.3482770307028879 0 -0.1154499742120704 0.34086754873962172 0 -0.1154159689866658 0.35521970897278921 0 -0.12523428666698541 0.37069662222368049 0 -0.1154159689866658 0.35521970897278921 0 -0.11117961403065831 0.36839673047223442 0 -0.12523428666698541 0.37069662222368049 0 -0.11117961403065831 0.36839673047223442 0 -0.1123930043347208 0.38073562172137532 0 -0.11117961403065831 0.36839673047223442 0 -0.1008292236537022 0.36036332390371462 0 -0.09970079949094271 0.37763208900548878 0 -0.1154159689866658 0.35521970897278921 0 -0.11117961403065831 0.36839673047223442 0 -0.1008292236537022 0.36036332390371462 0 -0.085055645225370236 0.37193713089684588 0 -0.1008292236537022 0.36036332390371462 0 -0.09970079949094271 0.37763208900548878 0 -0.084100884505446297 0.3554636863979832 0 -0.1008292236537022 0.36036332390371462 0 -0.099722393067727538 0.34687368244968458 0 -0.1154159689866658 0.35521970897278921 0 -0.1008292236537022 0.36036332390371462 0 -0.099722393067727538 0.34687368244968458 0 -0.1036554482544351 0.39516830989393792 0 -0.1102807352191843 0.41378788895710661 0 -0.09259379641793411 0.40948313349934218 0 -0.1036554482544351 0.39516830989393792 0 -0.09970079949094271 0.37763208900548878 0 -0.1123930043347208 0.38073562172137532 0 -0.1036554482544351 0.39516830989393792 0 -0.09970079949094271 0.37763208900548878 0 -0.084297773186445962 0.39217279846007119 0 -0.11117961403065831 0.36839673047223442 0 -0.09970079949094271 0.37763208900548878 0 -0.1123930043347208 0.38073562172137532 0 -0.12523428666698541 0.37069662222368049 0 -0.1123930043347208 0.38073562172137532 0 -0.12103247972044499 0.39311621374447298 0 -0.1036554482544351 0.39516830989393792 0 -0.1123930043347208 0.38073562172137532 0 -0.12103247972044499 0.39311621374447298 0 -0.12523428666698541 0.37069662222368049 0 -0.12103247972044499 0.39311621374447298 0 -0.1036554482544351 0.39516830989393792 0 -0.12103247972044499 0.39311621374447298 0 -0.1102807352191843 0.41378788895710661 0 -0.12997925716256209 0.39431640422262348 0 -0.1102807352191843 0.41378788895710661 0 -0.12997925716256209 0.39431640422262348 0 -0.12103247972044499 0.39311621374447298 0 -0.1102807352191843 0.41378788895710661 0 -0.12623023605756489 0.41143854881348008 0 -0.1102807352191843 0.41378788895710661 0 -0.1242188050129694 0.42501783294758849 0 -0.12623023605756489 0.41143854881348008 0 -0.12997925716256209 0.39431640422262348 0 -0.1102807352191843 0.41378788895710661 0 -0.1102807352191843 0.41378788895710661 0 -0.1104760497445479 0.43296770510105842 0 -0.1242188050129694 0.42501783294758849 0 -0.1104760497445479 0.43296770510105842 0 -0.1242188050129694 0.42501783294758849 0 -0.1248743097581413 0.44162978393037222 0 -0.1102807352191843 0.41378788895710661 0 -0.090582213275806372 0.43325937369158968 0 -0.1102807352191843 0.41378788895710661 0 -0.1104760497445479 0.43296770510105842 0 -0.090582213275806372 0.43325937369158968 0 -0.1102807352191843 0.41378788895710661 0 -0.09259379641793411 0.40948313349934218 0 -0.090582213275806372 0.43325937369158968 0 -0.09259379641793411 0.40948313349934218 0 -0.090582213275806372 0.43325937369158968 0 -0.074152812153798875 0.41302729649400538 0 -0.090582213275806372 0.43325937369158968 0 -0.066022972602334681 0.42956105407568013 0 -0.074152812153798875 0.41302729649400538 0 -0.066022972602334681 0.42956105407568013 0 -0.074152812153798875 0.41302729649400538 0 -0.049329429094603867 0.41198700835812702 0 -0.074152812153798875 0.41302729649400538 0 -0.063154715464804681 0.39516467689365731 0 -0.084297773186445962 0.39217279846007119 0 -0.09259379641793411 0.40948313349934218 0 -0.074152812153798875 0.41302729649400538 0 -0.084297773186445962 0.39217279846007119 0 -0.1036554482544351 0.39516830989393792 0 -0.09259379641793411 0.40948313349934218 0 -0.084297773186445962 0.39217279846007119 0 -0.085055645225370236 0.37193713089684588 0 -0.09970079949094271 0.37763208900548878 0 -0.084297773186445962 0.39217279846007119 0 -0.085055645225370236 0.37193713089684588 0 -0.084297773186445962 0.39217279846007119 0 -0.071788917171084016 0.3809272333041443 0 -0.063154715464804681 0.39516467689365731 0 -0.084297773186445962 0.39217279846007119 0 -0.071788917171084016 0.3809272333041443 0 -0.063154715464804681 0.39516467689365731 0 -0.071788917171084016 0.3809272333041443 0 -0.056875823715872062 0.37631267096962301 0 -0.04149310004589906 0.37124785083274592 0 -0.056875823715872062 0.37631267096962301 0 -0.04338349465279491 0.38811939282985902 0 -0.063154715464804681 0.39516467689365731 0 -0.056875823715872062 0.37631267096962301 0 -0.04338349465279491 0.38811939282985902 0 -0.063154715464804681 0.39516467689365731 0 -0.04338349465279491 0.38811939282985902 0 -0.049329429094603867 0.41198700835812702 0 -0.04338349465279491 0.38811939282985902 0 -0.024844401122877391 0.39948633252540261 0 -0.049329429094603867 0.41198700835812702 0 -0.024169526760701381 0.37267007813580277 0 -0.04149310004589906 0.37124785083274592 0 -0.04338349465279491 0.38811939282985902 0 -0.024169526760701381 0.37267007813580277 0 -0.04338349465279491 0.38811939282985902 0 -0.024844401122877391 0.39948633252540261 0 -0.024169526760701381 0.37267007813580277 0 -0.024844401122877391 0.39948633252540261 0 -0.0045342830833226501 0.3863935686212247 0 -0.024844401122877391 0.39948633252540261 0 -0.0045342830833226501 0.3863935686212247 0 -0.0038092142255275289 0.41137928311071797 0 -0.0045342830833226501 0.3863935686212247 0 -0.0038092142255275289 0.41137928311071797 0 -0.024169526760701381 0.37267007813580277 0 -0.0045342830833226501 0.3863935686212247 0 -0.0030841453677343121 0.43636499760021141 0 -0.0038092142255275289 0.41137928311071797 0 -0.026324668085478481 0.42779129271708288 0 -0.0030841453677343121 0.43636499760021141 0 -0.0038092142255275289 0.41137928311071797 0 -0.024844401122877391 0.39948633252540261 0 -0.0038092142255275289 0.41137928311071797 0 -0.026324668085478481 0.42779129271708288 0 -0.026324668085478481 0.42779129271708288 0 -0.049329429094603867 0.41198700835812702 0 -0.049413859365407042 0.43472239834070731 0 -0.024844401122877391 0.39948633252540261 0 -0.026324668085478481 0.42779129271708288 0 -0.049329429094603867 0.41198700835812702 0 -0.074152812153798875 0.41302729649400538 0 -0.063154715464804681 0.39516467689365731 0 -0.049329429094603867 0.41198700835812702 0 -0.066022972602334681 0.42956105407568013 0 -0.049329429094603867 0.41198700835812702 0 -0.049413859365407042 0.43472239834070731 0 -0.066022972602334681 0.42956105407568013 0 -0.049413859365407042 0.43472239834070731 0 -0.0708836913324285 0.45273085842607269 0 -0.0393713920190637 0.45112048084748302 0 -0.052402143273794041 0.47435943831340011 0 -0.0708836913324285 0.45273085842607269 0 -0.049413859365407042 0.43472239834070731 0 -0.0393713920190637 0.45112048084748302 0 -0.0708836913324285 0.45273085842607269 0 -0.0393713920190637 0.45112048084748302 0 -0.02876560419008364 0.47203163756026523 0 -0.052402143273794041 0.47435943831340011 0 -0.026324668085478481 0.42779129271708288 0 -0.049413859365407042 0.43472239834070731 0 -0.0393713920190637 0.45112048084748302 0 -0.0030841453677343121 0.43636499760021141 0 -0.026324668085478481 0.42779129271708288 0 -0.01888650882967766 0.45329231687868837 0 -0.026324668085478481 0.42779129271708288 0 -0.0393713920190637 0.45112048084748302 0 -0.01888650882967766 0.45329231687868837 0 -0.0393713920190637 0.45112048084748302 0 -0.01888650882967766 0.45329231687868837 0 -0.02876560419008364 0.47203163756026523 0 -0.01888650882967766 0.45329231687868837 0 -0.01341416680576474 0.47109478045738301 0 -0.02876560419008364 0.47203163756026523 0 -0.01888650882967766 0.45329231687868837 0 -0.002359076509941094 0.46135071208970457 0 -0.01341416680576474 0.47109478045738301 0 -0.0030841453677343121 0.43636499760021141 0 -0.01888650882967766 0.45329231687868837 0 -0.002359076509941094 0.46135071208970457 0 -0.0030841453677343121 0.43636499760021141 0 -0.002359076509941094 0.46135071208970457 0 -0.0090346539348886701 0.5 0 -0.0016340076521478781 0.48633642657919801 0 -0.017460482120078509 0.48648722646036041 0 -0.0016340076521478781 0.48633642657919801 0 -0.01341416680576474 0.47109478045738301 0 -0.017460482120078509 0.48648722646036041 0 -0.002359076509941094 0.46135071208970457 0 -0.0016340076521478781 0.48633642657919801 0 -0.01341416680576474 0.47109478045738301 0 -0.002359076509941094 0.46135071208970457 0 -0.0016340076521478781 0.48633642657919801 0 -0.002359076509941094 0.46135071208970457 0 -0.0016340076521478781 0.48633642657919801 0 0.0036787250480955699 0.47408322248379448 0 -0.01341416680576474 0.47109478045738301 0 -0.02876560419008364 0.47203163756026523 0 -0.017460482120078509 0.48648722646036041 0 -0.02876560419008364 0.47203163756026523 0 -0.017460482120078509 0.48648722646036041 0 -0.038135422162237087 0.5 0 -0.0090346539348886701 0.5 0 -0.017460482120078509 0.48648722646036041 0 -0.038135422162237087 0.5 0 -0.02876560419008364 0.47203163756026523 0 -0.038135422162237087 0.5 0 -0.052402143273794041 0.47435943831340011 0 -0.038135422162237087 0.5 0 -0.052402143273794041 0.47435943831340011 0 -0.067236190389585393 0.5 0 -0.052402143273794041 0.47435943831340011 0 -0.067236190389585393 0.5 0 -0.073349005429332273 0.47921852398434828 0 -0.067236190389585393 0.5 0 -0.073349005429332273 0.47921852398434828 0 -0.096336958616933588 0.5 0 -0.073349005429332273 0.47921852398434828 0 -0.096336958616933588 0.5 0 -0.093805091172543903 0.47224368257650851 0 -0.052402143273794041 0.47435943831340011 0 -0.073349005429332273 0.47921852398434828 0 -0.0708836913324285 0.45273085842607269 0 -0.0708836913324285 0.45273085842607269 0 -0.1043361340672995 0.45358667135048331 0 -0.093805091172543903 0.47224368257650851 0 -0.090582213275806372 0.43325937369158968 0 -0.0708836913324285 0.45273085842607269 0 -0.1043361340672995 0.45358667135048331 0 -0.090582213275806372 0.43325937369158968 0 -0.066022972602334681 0.42956105407568013 0 -0.0708836913324285 0.45273085842607269 0 -0.090582213275806372 0.43325937369158968 0 -0.0708836913324285 0.45273085842607269 0 -0.073349005429332273 0.47921852398434828 0 -0.0708836913324285 0.45273085842607269 0 -0.093805091172543903 0.47224368257650851 0 -0.1043361340672995 0.45358667135048331 0 -0.12052644250191399 0.4682622397032008 0 -0.093805091172543903 0.47224368257650851 0 -0.1104760497445479 0.43296770510105842 0 -0.090582213275806372 0.43325937369158968 0 -0.1043361340672995 0.45358667135048331 0 -0.12618187852634369 0.45882241462805679 0 -0.1043361340672995 0.45358667135048331 0 -0.1248743097581413 0.44162978393037222 0 -0.1104760497445479 0.43296770510105842 0 -0.1043361340672995 0.45358667135048331 0 -0.1248743097581413 0.44162978393037222 0 -0.12618187852634369 0.45882241462805679 0 -0.1043361340672995 0.45358667135048331 0 -0.12052644250191399 0.4682622397032008 0 -0.1317912103042716 0.47600940211286807 0 -0.12052644250191399 0.4682622397032008 0 -0.11642361318749669 0.48420448820259387 0 -0.12052644250191399 0.4682622397032008 0 -0.11642361318749669 0.48420448820259387 0 -0.093805091172543903 0.47224368257650851 0 -0.12543772684428189 0.5 0 -0.11642361318749669 0.48420448820259387 0 -0.096336958616933588 0.5 0 -0.12543772684428189 0.5 0 -0.13178312884530541 0.48627570230508688 0 -0.11642361318749669 0.48420448820259387 0 -0.11642361318749669 0.48420448820259387 0 -0.096336958616933588 0.5 0 -0.093805091172543903 0.47224368257650851 0 -0.1693268494853358 0.079538523923443544 0 -0.16945340910355561 0.089496265134995978 0 -0.1618062267740645 0.07958177760614682 0 -0.16945340910355561 0.089496265134995978 0 -0.1618062267740645 0.07958177760614682 0 -0.1616157516695074 0.095139316102685473 0 -0.1618062267740645 0.07958177760614682 0 -0.1616157516695074 0.095139316102685473 0 -0.14767322655010931 0.084806545451415583 0 -0.1618062267740645 0.07958177760614682 0 -0.16640070467345031 0.07104807823334372 0 -0.15517576509654349 0.068304766057398533 0 -0.16640070467345031 0.07104807823334372 0 -0.15517576509654349 0.068304766057398533 0 -0.16451238623864939 0.061110077383343737 0 -0.16640070467345031 0.07104807823334372 0 -0.17354141001077031 0.063798093567348918 0 -0.16451238623864939 0.061110077383343737 0 -0.17157411485926041 0.074087910936242465 0 -0.16640070467345031 0.07104807823334372 0 -0.17354141001077031 0.063798093567348918 0 -0.1693268494853358 0.079538523923443544 0 -0.17157411485926041 0.074087910936242465 0 -0.16640070467345031 0.07104807823334372 0 -0.1693268494853358 0.079538523923443544 0 -0.1618062267740645 0.07958177760614682 0 -0.16640070467345031 0.07104807823334372 0 -0.17354141001077031 0.063798093567348918 0 -0.17702749526748529 0.081966948020833708 0 -0.17656426821359539 0.052679136019797047 0 -0.18185637422210199 0.067243003367259677 0 -0.17702749526748529 0.081966948020833708 0 -0.17656426821359539 0.052679136019797047 0 -0.17702749526748529 0.081966948020833708 0 -0.17656426821359539 0.052679136019797047 0 -0.17157411485926041 0.074087910936242465 0 -0.17354141001077031 0.063798093567348918 0 -0.17702749526748529 0.081966948020833708 0 -0.18185637422210199 0.067243003367259677 0 -0.1853153676200878 0.058850167416455039 0 -0.18892740292417859 0.064703221589215376 0 -0.18185637422210199 0.067243003367259677 0 -0.19050021368002351 0.072419239531055349 0 -0.18892740292417859 0.064703221589215376 0 -0.18185637422210199 0.067243003367259677 0 -0.18141962227324601 0.075216957450553817 0 -0.17702749526748529 0.081966948020833708 0 -0.18185637422210199 0.067243003367259677 0 -0.18141962227324601 0.075216957450553817 0 -0.19050021368002351 0.072419239531055349 0 -0.18141962227324601 0.075216957450553817 0 -0.1867192510276118 0.077748512173410014 0 -0.19050021368002351 0.072419239531055349 0 -0.18141962227324601 0.075216957450553817 0 -0.1867192510276118 0.077748512173410014 0 -0.1819129998543452 0.079414551687582866 0 -0.18248563084903771 0.082725789105533951 0 -0.17702749526748529 0.081966948020833708 0 -0.17749072232138041 0.1112547600218704 0 -0.1867192510276118 0.077748512173410014 0 -0.18248563084903771 0.082725789105533951 0 -0.1819129998543452 0.079414551687582866 0 -0.18141962227324601 0.075216957450553817 0 -0.1819129998543452 0.079414551687582866 0 -0.17702749526748529 0.081966948020833708 0 -0.18248563084903771 0.082725789105533951 0 -0.1819129998543452 0.079414551687582866 0 -0.17702749526748529 0.081966948020833708 0 -0.1693268494853358 0.079538523923443544 0 -0.16945340910355561 0.089496265134995978 0 -0.17702749526748529 0.081966948020833708 0 -0.1693268494853358 0.079538523923443544 0 -0.17157411485926041 0.074087910936242465 0 -0.17702749526748529 0.081966948020833708 0 -0.17702749526748529 0.081966948020833708 0 -0.17749072232138041 0.1112547600218704 0 -0.16945340910355561 0.089496265134995978 0 -0.17702749526748529 0.081966948020833708 0 -0.17749072232138041 0.1112547600218704 0 -0.17749072232138041 0.1112547600218704 0 -0.1951643137470572 0.093770439387570487 0 -0.18248563084903771 0.082725789105533951 0 -0.17749072232138041 0.1112547600218704 0 -0.1951643137470572 0.093770439387570487 0 -0.17749072232138041 0.1112547600218704 0 -0.19150979458678249 0.1243728737611647 0 -0.17789558253256721 0.1368522929207025 0 -0.17749072232138041 0.1112547600218704 0 -0.17789558253256721 0.1368522929207025 0 -0.17749072232138041 0.1112547600218704 0 -0.16113979031376621 0.12743058591966341 0 -0.17749072232138041 0.1112547600218704 0 -0.15084139672814201 0.110160429760413 0 -0.16113979031376621 0.12743058591966341 0 -0.17749072232138041 0.1112547600218704 0 -0.1616157516695074 0.095139316102685473 0 -0.15084139672814201 0.110160429760413 0 -0.16945340910355561 0.089496265134995978 0 -0.17749072232138041 0.1112547600218704 0 -0.1616157516695074 0.095139316102685473 0 -0.1616157516695074 0.095139316102685473 0 -0.15084139672814201 0.110160429760413 0 -0.14767322655010931 0.084806545451415583 0 -0.15084139672814201 0.110160429760413 0 -0.1348328660863515 0.097215266237156234 0 -0.14767322655010931 0.084806545451415583 0 -0.15084139672814201 0.110160429760413 0 -0.13137241316615089 0.11357835761918721 0 -0.14300315410871919 0.1253406317882016 0 -0.15084139672814201 0.110160429760413 0 -0.16113979031376621 0.12743058591966341 0 -0.14300315410871919 0.1253406317882016 0 -0.13137241316615089 0.11357835761918721 0 -0.14300315410871919 0.1253406317882016 0 -0.12687331202938101 0.13192737382428379 0 -0.13137241316615089 0.11357835761918721 0 -0.1348328660863515 0.097215266237156234 0 -0.1198812247159142 0.095002477965890675 0 -0.15084139672814201 0.110160429760413 0 -0.13137241316615089 0.11357835761918721 0 -0.1348328660863515 0.097215266237156234 0 -0.1348328660863515 0.097215266237156234 0 -0.12533951967512769 0.078274991835817334 0 -0.1198812247159142 0.095002477965890675 0 -0.1348328660863515 0.097215266237156234 0 -0.12533951967512769 0.078274991835817334 0 -0.14767322655010931 0.084806545451415583 0 -0.1618062267740645 0.07958177760614682 0 -0.14767322655010931 0.084806545451415583 0 -0.15517576509654349 0.068304766057398533 0 -0.14767322655010931 0.084806545451415583 0 -0.15517576509654349 0.068304766057398533 0 -0.14001017723872511 0.063978020277280875 0 -0.12533951967512769 0.078274991835817334 0 -0.14767322655010931 0.084806545451415583 0 -0.14001017723872511 0.063978020277280875 0 -0.12533951967512769 0.078274991835817334 0 -0.14001017723872511 0.063978020277280875 0 -0.1248745965026067 0.059896082918310993 0 -0.14001017723872511 0.063978020277280875 0 -0.13626681081840961 0.042829268155062397 0 -0.1248745965026067 0.059896082918310993 0 -0.13626681081840961 0.042829268155062397 0 -0.1339340902388827 0.022300844741854581 0 -0.1180188049733784 0.030804183747700629 0 -0.13626681081840961 0.042829268155062397 0 -0.1339340902388827 0.022300844741854581 0 -0.15968783393996419 0.037567277286728401 0 -0.13626681081840961 0.042829268155062397 0 -0.15351002702878311 0.053877414325468623 0 -0.15968783393996419 0.037567277286728401 0 -0.13626681081840961 0.042829268155062397 0 -0.15968783393996419 0.037567277286728401 0 -0.14001017723872511 0.063978020277280875 0 -0.13626681081840961 0.042829268155062397 0 -0.15351002702878311 0.053877414325468623 0 -0.15517576509654349 0.068304766057398533 0 -0.14001017723872511 0.063978020277280875 0 -0.15351002702878311 0.053877414325468623 0 -0.12735709500343681 0.004015926865657337 0 -0.15177498865293759 0.016606981474429749 0 -0.12735709500343681 0.004015926865657337 0 -0.1339340902388827 0.022300844741854581 0 -0.15177498865293759 0.016606981474429749 0 -0.12735709500343681 0.004015926865657337 0 -0.1339340902388827 0.022300844741854581 0 -0.11835839359799651 0.016938700943610479 0 -0.1339340902388827 0.022300844741854581 0 -0.15177498865293759 0.016606981474429749 0 -0.15968783393996419 0.037567277286728401 0 -0.1339340902388827 0.022300844741854581 0 -0.15968783393996419 0.037567277286728401 0 -0.12735709500343681 0.004015926865657337 0 -0.15177498865293759 0.016606981474429749 0 -0.14801408494475049 0.0031182785745780331 0 -0.15177498865293759 0.016606981474429749 0 -0.14801408494475049 0.0031182785745780331 0 -0.1619193683370386 0.0066468078375689294 0 -0.15773416148281841 -0.0035868741371463562 0 -0.14801408494475049 0.0031182785745780331 0 -0.1619193683370386 0.0066468078375689294 0 -0.15177498865293759 0.016606981474429749 0 -0.1619193683370386 0.0066468078375689294 0 -0.16760309597538539 0.015861310899326669 0 -0.16716832075785379 -0.0032078365625175 0 -0.1619193683370386 0.0066468078375689294 0 -0.17584419881677341 0.0071523107965592754 0 -0.1619193683370386 0.0066468078375689294 0 -0.16760309597538539 0.015861310899326669 0 -0.17584419881677341 0.0071523107965592754 0 -0.15177498865293759 0.016606981474429749 0 -0.17619288230243149 0.029198036083215671 0 -0.15177498865293759 0.016606981474429749 0 -0.17619288230243149 0.029198036083215671 0 -0.15968783393996419 0.037567277286728401 0 -0.15177498865293759 0.016606981474429749 0 -0.16760309597538539 0.015861310899326669 0 -0.17619288230243149 0.029198036083215671 0 -0.17619288230243149 0.029198036083215671 0 -0.1852069371874478 0.015311100034367831 0 -0.17584419881677341 0.0071523107965592754 0 -0.17619288230243149 0.029198036083215671 0 -0.17584419881677341 0.0071523107965592754 0 -0.16760309597538539 0.015861310899326669 0 -0.17619288230243149 0.029198036083215671 0 -0.17584419881677341 0.0071523107965592754 0 -0.17619288230243149 0.029198036083215671 0 -0.19572946351785711 0.039272048382664133 0 -0.19029700863621521 0.024089069561314659 0 -0.17619288230243149 0.029198036083215671 0 -0.1852069371874478 0.015311100034367831 0 -0.19029700863621521 0.024089069561314659 0 -0.1852069371874478 0.015311100034367831 0 -0.18717715497560061 0.0062623078557712403 0 -0.17584419881677341 0.0071523107965592754 0 -0.18154179604087481 -0.0036104187285780349 0 -0.18717715497560061 0.0062623078557712403 0 -0.17584419881677341 0.0071523107965592754 0 -0.15351002702878311 0.053877414325468623 0 -0.1659033968134131 0.050269055427132232 0 -0.15968783393996419 0.037567277286728401 0 -0.1659033968134131 0.050269055427132232 0 -0.16451238623864939 0.061110077383343737 0 -0.17656426821359539 0.052679136019797047 0 -0.17354141001077031 0.063798093567348918 0 -0.16451238623864939 0.061110077383343737 0 -0.17656426821359539 0.052679136019797047 0 -0.16451238623864939 0.061110077383343737 0 -0.17656426821359539 0.052679136019797047 0 -0.15351002702878311 0.053877414325468623 0 -0.1659033968134131 0.050269055427132232 0 -0.16451238623864939 0.061110077383343737 0 -0.15517576509654349 0.068304766057398533 0 -0.15351002702878311 0.053877414325468623 0 -0.16451238623864939 0.061110077383343737 0 -0.15968783393996419 0.037567277286728401 0 -0.1762663423330757 0.033842591165095401 0 -0.1659033968134131 0.050269055427132232 0 -0.15968783393996419 0.037567277286728401 0 -0.1764827173319595 0.047523031967639129 0 -0.17619288230243149 0.029198036083215671 0 -0.15968783393996419 0.037567277286728401 0 -0.1762663423330757 0.033842591165095401 0 -0.15968783393996419 0.037567277286728401 0 -0.1764827173319595 0.047523031967639129 0 -0.15968783393996419 0.037567277286728401 0 -0.1762663423330757 0.033842591165095401 0 -0.1764827173319595 0.047523031967639129 0 -0.17619288230243149 0.029198036083215671 0 -0.19572946351785711 0.039272048382664133 0 -0.181281627628781 0.040827380692469641 0 -0.18051660755046151 0.049914261515807259 0 -0.1764827173319595 0.047523031967639129 0 -0.17619288230243149 0.029198036083215671 0 -0.1762663423330757 0.033842591165095401 0 -0.19572946351785711 0.039272048382664133 0 -0.1762663423330757 0.033842591165095401 0 -0.181281627628781 0.040827380692469641 0 -0.19572946351785711 0.039272048382664133 0 -0.1762663423330757 0.033842591165095401 0 -0.181281627628781 0.040827380692469641 0 -0.1764827173319595 0.047523031967639129 0 -0.1762663423330757 0.033842591165095401 0 -0.1764827173319595 0.047523031967639129 0 -0.17619288230243149 0.029198036083215671 0 -0.1762663423330757 0.033842591165095401 0 -0.181281627628781 0.040827380692469641 0 -0.18051660755046151 0.049914261515807259 0 -0.19572946351785711 0.039272048382664133 0 -0.18051660755046151 0.049914261515807259 0 -0.17656426821359539 0.052679136019797047 0 -0.1853153676200878 0.058850167416455039 0 -0.18051660755046151 0.049914261515807259 0 -0.1764827173319595 0.047523031967639129 0 -0.1764827173319595 0.047523031967639129 0 -0.17656426821359539 0.052679136019797047 0 -0.1659033968134131 0.050269055427132232 0 -0.1764827173319595 0.047523031967639129 0 -0.17656426821359539 0.052679136019797047 0 -0.18051660755046151 0.049914261515807259 0 -0.1764827173319595 0.047523031967639129 0 -0.17656426821359539 0.052679136019797047 0 -0.18051660755046151 0.049914261515807259 0 -0.17656426821359539 0.052679136019797047 0 -0.18185637422210199 0.067243003367259677 0 -0.17656426821359539 0.052679136019797047 0 -0.1853153676200878 0.058850167416455039 0 -0.1853153676200878 0.058850167416455039 0 -0.19803765617450109 0.060300476042091433 0 -0.18892740292417859 0.064703221589215376 0 -0.18051660755046151 0.049914261515807259 0 -0.19803765617450109 0.060300476042091433 0 -0.1977866825790292 0.05007637869738242 0 -0.18051660755046151 0.049914261515807259 0 -0.1853153676200878 0.058850167416455039 0 -0.19803765617450109 0.060300476042091433 0 -0.18051660755046151 0.049914261515807259 0 -0.19803765617450109 0.060300476042091433 0 -0.19803765617450109 0.060300476042091433 0 -0.1977866825790292 0.05007637869738242 0 -0.2066297839190599 0.054855205218219752 0 -0.18051660755046151 0.049914261515807259 0 -0.1977866825790292 0.05007637869738242 0 -0.19572946351785711 0.039272048382664133 0 -0.18051660755046151 0.049914261515807259 0 -0.19572946351785711 0.039272048382664133 0 -0.19572946351785711 0.039272048382664133 0 -0.2098237389609823 0.029412342647955388 0 -0.1977866825790292 0.05007637869738242 0 -0.19572946351785711 0.039272048382664133 0 -0.2073344650466164 0.045256152092875389 0 -0.19572946351785711 0.039272048382664133 0 -0.2073344650466164 0.045256152092875389 0 -0.2073344650466164 0.045256152092875389 0 -0.21702036639386221 0.038769314305699548 0 -0.2098237389609823 0.029412342647955388 0 -0.19572946351785711 0.039272048382664133 0 -0.2073344650466164 0.045256152092875389 0 -0.2098237389609823 0.029412342647955388 0 -0.21702036639386221 0.038769314305699548 0 -0.2098237389609823 0.029412342647955388 0 -0.2284051488343061 0.035137669629428533 0 -0.2073344650466164 0.045256152092875389 0 -0.21702036639386221 0.038769314305699548 0 -0.22251811273354419 0.045271092852538893 0 -0.2073344650466164 0.045256152092875389 0 -0.21769334509658461 0.055951218203848879 0 -0.22251811273354419 0.045271092852538893 0 -0.21769334509658461 0.055951218203848879 0 -0.20947987249717179 0.060448397508133619 0 -0.2066297839190599 0.054855205218219752 0 -0.21769334509658461 0.055951218203848879 0 -0.20947987249717179 0.060448397508133619 0 -0.2155587047985415 0.070686690568374386 0 -0.19803765617450109 0.060300476042091433 0 -0.20947987249717179 0.060448397508133619 0 -0.2066297839190599 0.054855205218219752 0 -0.1977866825790292 0.05007637869738242 0 -0.2073344650466164 0.045256152092875389 0 -0.2066297839190599 0.054855205218219752 0 -0.2073344650466164 0.045256152092875389 0 -0.21769334509658461 0.055951218203848879 0 -0.2066297839190599 0.054855205218219752 0 -0.1989264366345522 -0.0080023544535597537 0 -0.1965234412062255 0.0098537758749781944 0 -0.20713549204565579 6.5395444916274768e-05 0 -0.19066530249761049 -0.0041303576494283751 0 -0.18717715497560061 0.0062623078557712403 0 -0.1965234412062255 0.0098537758749781944 0 -0.1852069371874478 0.015311100034367831 0 -0.18717715497560061 0.0062623078557712403 0 -0.1965234412062255 0.0098537758749781944 0 -0.1965234412062255 0.0098537758749781944 0 -0.20113962024173071 0.02227838771243261 0 -0.2107847094499361 0.011405203725301251 0 -0.19572946351785711 0.039272048382664133 0 -0.20113962024173071 0.02227838771243261 0 -0.2098237389609823 0.029412342647955388 0 -0.19572946351785711 0.039272048382664133 0 -0.20113962024173071 0.02227838771243261 0 -0.19029700863621521 0.024089069561314659 0 -0.1965234412062255 0.0098537758749781944 0 -0.20113962024173071 0.02227838771243261 0 -0.19029700863621521 0.024089069561314659 0 -0.1852069371874478 0.015311100034367831 0 -0.1965234412062255 0.0098537758749781944 0 -0.19029700863621521 0.024089069561314659 0 -0.2098237389609823 0.029412342647955388 0 -0.2107847094499361 0.011405203725301251 0 -0.22391801440410891 0.019552636913248388 0 -0.20113962024173071 0.02227838771243261 0 -0.2098237389609823 0.029412342647955388 0 -0.2107847094499361 0.011405203725301251 0 -0.2098237389609823 0.029412342647955388 0 -0.22391801440410891 0.019552636913248388 0 -0.21702438745170211 -0.0043907958627755336 0 -0.2107847094499361 0.011405203725301251 0 -0.20713549204565579 6.5395444916274768e-05 0 -0.21702438745170211 -0.0043907958627755336 0 -0.2107847094499361 0.011405203725301251 0 -0.22391801440410891 0.019552636913248388 0 -0.1965234412062255 0.0098537758749781944 0 -0.2107847094499361 0.011405203725301251 0 -0.20713549204565579 6.5395444916274768e-05 0 -0.22867745033346079 0.0038692188645070222 0 -0.22391801440410891 0.019552636913248388 0 -0.2344599051246074 0.012178015861532989 0 -0.21702438745170211 -0.0043907958627755336 0 -0.22391801440410891 0.019552636913248388 0 -0.21702438745170211 -0.0043907958627755336 0 -0.22867745033346079 0.0038692188645070222 0 -0.22391801440410891 0.019552636913248388 0 -0.22391801440410891 0.019552636913248388 0 -0.2403792472176362 0.02548084658656756 0 -0.2344599051246074 0.012178015861532989 0 -0.2098237389609823 0.029412342647955388 0 -0.22391801440410891 0.019552636913248388 0 -0.2284051488343061 0.035137669629428533 0 -0.22391801440410891 0.019552636913248388 0 -0.2403792472176362 0.02548084658656756 0 -0.2284051488343061 0.035137669629428533 0 -0.22391801440410891 0.019552636913248388 0 -0.2344599051246074 0.012178015861532989 0 -0.22391801440410891 0.019552636913248388 0 -0.2284051488343061 0.035137669629428533 0 -0.2522816967992324 0.037264740289820159 0 -0.25157722050270093 0.012682655753942951 0 -0.2403792472176362 0.02548084658656756 0 -0.25157722050270093 0.012682655753942951 0 -0.2403792472176362 0.02548084658656756 0 -0.2344599051246074 0.012178015861532989 0 -0.25267499080189931 -0.0034516002120552492 0 -0.25157722050270093 0.012682655753942951 0 -0.2401015516947359 0.00075261550232862703 0 -0.25157722050270093 0.012682655753942951 0 -0.2344599051246074 0.012178015861532989 0 -0.2401015516947359 0.00075261550232862703 0 -0.22867745033346079 0.0038692188645070222 0 -0.2344599051246074 0.012178015861532989 0 -0.2401015516947359 0.00075261550232862703 0 -0.21769334509658461 0.055951218203848879 0 -0.23255980098598539 0.056775429521547523 0 -0.2155587047985415 0.070686690568374386 0 -0.23289228326450309 0.050722702345608793 0 -0.22641588552015429 0.052180110730886013 0 -0.22251811273354419 0.045271092852538893 0 -0.23289228326450309 0.050722702345608793 0 -0.23255980098598539 0.056775429521547523 0 -0.22641588552015429 0.052180110730886013 0 -0.21769334509658461 0.055951218203848879 0 -0.23255980098598539 0.056775429521547523 0 -0.22641588552015429 0.052180110730886013 0 -0.21769334509658461 0.055951218203848879 0 -0.22641588552015429 0.052180110730886013 0 -0.22251811273354419 0.045271092852538893 0 -0.21702036639386221 0.038769314305699548 0 -0.22251811273354419 0.045271092852538893 0 -0.2284051488343061 0.035137669629428533 0 -0.23289228326450309 0.050722702345608793 0 -0.22251811273354419 0.045271092852538893 0 -0.2284051488343061 0.035137669629428533 0 -0.23289228326450309 0.050722702345608793 0 -0.2284051488343061 0.035137669629428533 0 -0.2522816967992324 0.037264740289820159 0 -0.2403792472176362 0.02548084658656756 0 -0.2284051488343061 0.035137669629428533 0 -0.2522816967992324 0.037264740289820159 0 -0.23289228326450309 0.050722702345608793 0 -0.2284051488343061 0.035137669629428533 0 -0.2522816967992324 0.037264740289820159 0 -0.23289228326450309 0.050722702345608793 0 -0.23255980098598539 0.056775429521547523 0 -0.2522816967992324 0.037264740289820159 0 -0.23255980098598539 0.056775429521547523 0 -0.2522816967992324 0.037264740289820159 0 -0.23255980098598539 0.056775429521547523 0 -0.24906194248509719 0.058488871325365822 0 -0.23255980098598539 0.056775429521547523 0 -0.24906194248509719 0.058488871325365822 0 -0.23770452364983391 0.071010308971772351 0 -0.26257114212692878 0.06573449919026883 0 -0.24906194248509719 0.058488871325365822 0 -0.23770452364983391 0.071010308971772351 0 -0.25261226255175379 0.080423606239198905 0 -0.23770452364983391 0.071010308971772351 0 -0.23158356521460469 0.085326977986282804 0 -0.25261226255175379 0.080423606239198905 0 -0.23158356521460469 0.085326977986282804 0 -0.24377998071086901 0.096378574065869249 0 -0.23158356521460469 0.085326977986282804 0 -0.21283790517273879 0.076286118753275345 0 -0.22135706029896429 0.097751395037259853 0 -0.23158356521460469 0.085326977986282804 0 -0.22135706029896429 0.097751395037259853 0 -0.24377998071086901 0.096378574065869249 0 -0.23255980098598539 0.056775429521547523 0 -0.21283790517273879 0.076286118753275345 0 -0.23770452364983391 0.071010308971772351 0 -0.23158356521460469 0.085326977986282804 0 -0.21283790517273879 0.076286118753275345 0 -0.23255980098598539 0.056775429521547523 0 -0.23770452364983391 0.071010308971772351 0 -0.21283790517273879 0.076286118753275345 0 -0.23255980098598539 0.056775429521547523 0 -0.21283790517273879 0.076286118753275345 0 -0.2155587047985415 0.070686690568374386 0 -0.23770452364983391 0.071010308971772351 0 -0.21283790517273879 0.076286118753275345 0 -0.19803765617450109 0.060300476042091433 0 -0.20947987249717179 0.060448397508133619 0 -0.2155587047985415 0.070686690568374386 0 -0.19803765617450109 0.060300476042091433 0 -0.20333782300263301 0.070680183335342567 0 -0.2155587047985415 0.070686690568374386 0 -0.19803765617450109 0.060300476042091433 0 -0.2155587047985415 0.070686690568374386 0 -0.21283790517273879 0.076286118753275345 0 -0.19766176801088831 0.079505953929404904 0 -0.20333782300263301 0.070680183335342567 0 -0.21283790517273879 0.076286118753275345 0 -0.19766176801088831 0.079505953929404904 0 -0.20333782300263301 0.070680183335342567 0 -0.21283790517273879 0.076286118753275345 0 -0.2155587047985415 0.070686690568374386 0 -0.21283790517273879 0.076286118753275345 0 -0.1951643137470572 0.093770439387570487 0 -0.22135706029896429 0.097751395037259853 0 -0.21283790517273879 0.076286118753275345 0 -0.1951643137470572 0.093770439387570487 0 -0.21283790517273879 0.076286118753275345 0 -0.19766176801088831 0.079505953929404904 0 -0.1951643137470572 0.093770439387570487 0 -0.18248563084903771 0.082725789105533951 0 -0.19766176801088831 0.079505953929404904 0 -0.1951643137470572 0.093770439387570487 0 -0.1867192510276118 0.077748512173410014 0 -0.18248563084903771 0.082725789105533951 0 -0.19766176801088831 0.079505953929404904 0 -0.18248563084903771 0.082725789105533951 0 -0.19766176801088831 0.079505953929404904 0 -0.1867192510276118 0.077748512173410014 0 -0.19766176801088831 0.079505953929404904 0 -0.19050021368002351 0.072419239531055349 0 -0.19803765617450109 0.060300476042091433 0 -0.19050021368002351 0.072419239531055349 0 -0.18892740292417859 0.064703221589215376 0 -0.19803765617450109 0.060300476042091433 0 -0.20333782300263301 0.070680183335342567 0 -0.19050021368002351 0.072419239531055349 0 -0.20333782300263301 0.070680183335342567 0 -0.19766176801088831 0.079505953929404904 0 -0.19050021368002351 0.072419239531055349 0 -0.17749072232138041 0.1112547600218704 0 -0.19150979458678249 0.1243728737611647 0 -0.1951643137470572 0.093770439387570487 0 -0.19150979458678249 0.1243728737611647 0 -0.1951643137470572 0.093770439387570487 0 -0.20994497012605751 0.11823125198409511 0 -0.1951643137470572 0.093770439387570487 0 -0.20994497012605751 0.11823125198409511 0 -0.22135706029896429 0.097751395037259853 0 -0.20994497012605751 0.11823125198409511 0 -0.2348316268224595 0.11651500804646669 0 -0.2235388627286797 0.12965651036182041 0 -0.20994497012605751 0.11823125198409511 0 -0.22135706029896429 0.097751395037259853 0 -0.2348316268224595 0.11651500804646669 0 -0.22135706029896429 0.097751395037259853 0 -0.24377998071086901 0.096378574065869249 0 -0.2348316268224595 0.11651500804646669 0 -0.25136603029008331 0.1103208693098497 0 -0.24377998071086901 0.096378574065869249 0 -0.2348316268224595 0.11651500804646669 0 -0.25922316449870308 0.12628093809151891 0 -0.25136603029008331 0.1103208693098497 0 -0.2348316268224595 0.11651500804646669 0 -0.25922316449870308 0.12628093809151891 0 -0.2348316268224595 0.11651500804646669 0 -0.2369615480924761 0.1404602413506009 0 -0.2369615480924761 0.1404602413506009 0 -0.2235388627286797 0.12965651036182041 0 -0.2124173058737257 0.14341954006611901 0 -0.2348316268224595 0.11651500804646669 0 -0.2369615480924761 0.1404602413506009 0 -0.2235388627286797 0.12965651036182041 0 -0.2369615480924761 0.1404602413506009 0 -0.22679867445049531 0.16064067306310431 0 -0.2124173058737257 0.14341954006611901 0 -0.2369615480924761 0.1404602413506009 0 -0.247018622616726 0.15992587597476091 0 -0.22679867445049531 0.16064067306310431 0 -0.25846103874104392 0.14702121199507179 0 -0.2369615480924761 0.1404602413506009 0 -0.247018622616726 0.15992587597476091 0 -0.247018622616726 0.15992587597476091 0 -0.23359887481107691 0.1809086922627815 0 -0.247018622616726 0.15992587597476091 0 -0.23359887481107691 0.1809086922627815 0 -0.22679867445049531 0.16064067306310431 0 -0.26439180367967152 0.18225540552070321 0 -0.247018622616726 0.15992587597476091 0 -0.23359887481107691 0.1809086922627815 0 -0.23359887481107691 0.1809086922627815 0 -0.20517995294037331 0.17379218369948349 0 -0.2201791270054278 0.2018915085508021 0 -0.23359887481107691 0.1809086922627815 0 -0.22679867445049531 0.16064067306310431 0 -0.20517995294037331 0.17379218369948349 0 -0.22679867445049531 0.16064067306310431 0 -0.20517995294037331 0.17379218369948349 0 -0.2124173058737257 0.14341954006611901 0 -0.20517995294037331 0.17379218369948349 0 -0.19274338499996449 0.14807478539393409 0 -0.17830044274374979 0.16244982581953471 0 -0.19150979458678249 0.1243728737611647 0 -0.19274338499996449 0.14807478539393409 0 -0.2124173058737257 0.14341954006611901 0 -0.20994497012605751 0.11823125198409511 0 -0.2235388627286797 0.12965651036182041 0 -0.2124173058737257 0.14341954006611901 0 -0.19150979458678249 0.1243728737611647 0 -0.20994497012605751 0.11823125198409511 0 -0.2124173058737257 0.14341954006611901 0 -0.20517995294037331 0.17379218369948349 0 -0.19274338499996449 0.14807478539393409 0 -0.2124173058737257 0.14341954006611901 0 -0.22371849106378741 0.2462845034026982 0 -0.23019370483249479 0.22382880503591951 0 -0.2066863838603582 0.24242880758937649 0 -0.22371849106378741 0.2462845034026982 0 -0.23951274761537589 0.2474853768326048 0 -0.23019370483249479 0.22382880503591951 0 -0.25272375818517617 0.22994970808158929 0 -0.25621817608628389 0.2460965770837312 0 -0.23951274761537589 0.2474853768326048 0 -0.25370102580463139 0.2052288024824625 0 -0.25272375818517617 0.22994970808158929 0 -0.23019370483249479 0.22382880503591951 0 -0.25272375818517617 0.22994970808158929 0 -0.23951274761537589 0.2474853768326048 0 -0.23019370483249479 0.22382880503591951 0 -0.25370102580463139 0.2052288024824625 0 -0.23359887481107691 0.1809086922627815 0 -0.2201791270054278 0.2018915085508021 0 -0.25370102580463139 0.2052288024824625 0 -0.23019370483249479 0.22382880503591951 0 -0.2201791270054278 0.2018915085508021 0 -0.23019370483249479 0.22382880503591951 0 -0.2201791270054278 0.2018915085508021 0 -0.20675937919977869 0.22287432483882261 0 -0.25370102580463139 0.2052288024824625 0 -0.23019370483249479 0.22382880503591951 0 -0.23359887481107691 0.1809086922627815 0 -0.2201791270054278 0.2018915085508021 0 -0.20517995294037331 0.17379218369948349 0 -0.2201791270054278 0.2018915085508021 0 -0.19686056424972551 0.20437535499954981 0 -0.20517995294037331 0.17379218369948349 0 -0.19686056424972551 0.20437535499954981 0 -0.17870530295493239 0.18804735871836689 0 -0.19686056424972551 0.20437535499954981 0 -0.20675937919977869 0.22287432483882261 0 -0.19122946023172571 0.22600186257262461 0 -0.19686056424972551 0.20437535499954981 0 -0.19122946023172571 0.22600186257262461 0 -0.179110163166115 0.21364489161719899 0 -0.2201791270054278 0.2018915085508021 0 -0.19686056424972551 0.20437535499954981 0 -0.20675937919977869 0.22287432483882261 0 -0.2201791270054278 0.2018915085508021 0 -0.20675937919977869 0.22287432483882261 0 -0.23019370483249479 0.22382880503591951 0 -0.2066863838603582 0.24242880758937649 0 -0.23019370483249479 0.22382880503591951 0 -0.20675937919977869 0.22287432483882261 0 -0.2066863838603582 0.24242880758937649 0 -0.20675937919977869 0.22287432483882261 0 -0.19333963139412971 0.24385714112684301 0 -0.20675937919977869 0.22287432483882261 0 -0.19122946023172571 0.22600186257262461 0 -0.19333963139412971 0.24385714112684301 0 -0.19122946023172571 0.22600186257262461 0 -0.19333963139412971 0.24385714112684301 0 -0.17951502337729761 0.2392424245160312 0 -0.20675937919977869 0.22287432483882261 0 -0.19333963139412971 0.24385714112684301 0 -0.2066863838603582 0.24242880758937649 0 -0.18259587964237009 0.2606558300825601 0 -0.19333963139412971 0.24385714112684301 0 -0.2066863838603582 0.24242880758937649 0 -0.21408768962570049 0.25938306782852782 0 -0.22371849106378741 0.2462845034026982 0 -0.2066863838603582 0.24242880758937649 0 -0.1532221513837192 0.25419418888983192 0 -0.17951502337729761 0.2392424245160312 0 -0.15110003921584569 0.22881829817408891 0 -0.18259587964237009 0.2606558300825601 0 -0.19333963139412971 0.24385714112684301 0 -0.17951502337729761 0.2392424245160312 0 -0.17951502337729761 0.2392424245160312 0 -0.1619547442009632 0.2162214427956837 0 -0.179110163166115 0.21364489161719899 0 -0.19122946023172571 0.22600186257262461 0 -0.17951502337729761 0.2392424245160312 0 -0.179110163166115 0.21364489161719899 0 -0.17951502337729761 0.2392424245160312 0 -0.179110163166115 0.21364489161719899 0 -0.17951502337729761 0.2392424245160312 0 -0.1619547442009632 0.2162214427956837 0 -0.15110003921584569 0.22881829817408891 0 -0.1619547442009632 0.2162214427956837 0 -0.179110163166115 0.21364489161719899 0 -0.17870530295493239 0.18804735871836689 0 -0.19686056424972551 0.20437535499954981 0 -0.179110163166115 0.21364489161719899 0 -0.17870530295493239 0.18804735871836689 0 -0.179110163166115 0.21364489161719899 0 -0.17870530295493239 0.18804735871836689 0 -0.1619547442009632 0.2162214427956837 0 -0.17870530295493239 0.18804735871836689 0 -0.15775407484820861 0.18727827749961631 0 -0.14804225966403101 0.20585853828705919 0 -0.15775407484820861 0.18727827749961631 0 -0.13876353146598761 0.18223131465273959 0 -0.1619547442009632 0.2162214427956837 0 -0.14804225966403101 0.20585853828705919 0 -0.15775407484820861 0.18727827749961631 0 -0.13876353146598761 0.18223131465273959 0 -0.1245765098090509 0.17966052017845999 0 -0.1190175871807343 0.20067046473278771 0 -0.14804225966403101 0.20585853828705919 0 -0.13876353146598761 0.18223131465273959 0 -0.1190175871807343 0.20067046473278771 0 -0.14804225966403101 0.20585853828705919 0 -0.13479108425045189 0.2189379304695287 0 -0.1190175871807343 0.20067046473278771 0 -0.13479108425045189 0.2189379304695287 0 -0.12594818007053379 0.2253828658525201 0 -0.1190175871807343 0.20067046473278771 0 -0.1619547442009632 0.2162214427956837 0 -0.14804225966403101 0.20585853828705919 0 -0.15110003921584569 0.22881829817408891 0 -0.14804225966403101 0.20585853828705919 0 -0.15110003921584569 0.22881829817408891 0 -0.13479108425045189 0.2189379304695287 0 -0.15110003921584569 0.22881829817408891 0 -0.13479108425045189 0.2189379304695287 0 -0.1378537507735782 0.22769286600650679 0 -0.15110003921584569 0.22881829817408891 0 -0.1378537507735782 0.22769286600650679 0 -0.13827307027013019 0.2362506378269415 0 -0.13479108425045189 0.2189379304695287 0 -0.12594818007053379 0.2253828658525201 0 -0.1378537507735782 0.22769286600650679 0 -0.12594818007053379 0.2253828658525201 0 -0.1378537507735782 0.22769286600650679 0 -0.13827307027013019 0.2362506378269415 0 -0.12594818007053379 0.2253828658525201 0 -0.13827307027013019 0.2362506378269415 0 -0.1327712538659816 0.24971188635390451 0 -0.12594818007053379 0.2253828658525201 0 -0.1327712538659816 0.24971188635390451 0 -0.1532221513837192 0.25419418888983192 0 -0.15110003921584569 0.22881829817408891 0 -0.13827307027013019 0.2362506378269415 0 -0.1532221513837192 0.25419418888983192 0 -0.13827307027013019 0.2362506378269415 0 -0.1327712538659816 0.24971188635390451 0 -0.16317411874061041 0.14897554401654969 0 -0.16113979031376621 0.12743058591966341 0 -0.1447888583061562 0.1436064118174607 0 -0.16317411874061041 0.14897554401654969 0 -0.16113979031376621 0.12743058591966341 0 -0.17789558253256721 0.1368522929207025 0 -0.17749072232138041 0.1112547600218704 0 -0.16113979031376621 0.12743058591966341 0 -0.17789558253256721 0.1368522929207025 0 -0.19150979458678249 0.1243728737611647 0 -0.19274338499996449 0.14807478539393409 0 -0.17789558253256721 0.1368522929207025 0 -0.16317411874061041 0.14897554401654969 0 -0.17789558253256721 0.1368522929207025 0 -0.17830044274374979 0.16244982581953471 0 -0.17789558253256721 0.1368522929207025 0 -0.17830044274374979 0.16244982581953471 0 -0.19274338499996449 0.14807478539393409 0 -0.17789558253256721 0.1368522929207025 0 -0.17830044274374979 0.16244982581953471 0 -0.20517995294037331 0.17379218369948349 0 -0.17870530295493239 0.18804735871836689 0 -0.17830044274374979 0.16244982581953471 0 -0.17870530295493239 0.18804735871836689 0 -0.17830044274374979 0.16244982581953471 0 -0.17870530295493239 0.18804735871836689 0 -0.17830044274374979 0.16244982581953471 0 -0.15775407484820861 0.18727827749961631 0 -0.17830044274374979 0.16244982581953471 0 -0.15775407484820861 0.18727827749961631 0 -0.15245232938168229 0.1648839185887534 0 -0.16317411874061041 0.14897554401654969 0 -0.17830044274374979 0.16244982581953471 0 -0.15245232938168229 0.1648839185887534 0 -0.15775407484820861 0.18727827749961631 0 -0.15245232938168229 0.1648839185887534 0 -0.13876353146598761 0.18223131465273959 0 -0.13876353146598761 0.18223131465273959 0 -0.12843792629854631 0.15978223771525801 0 -0.1245765098090509 0.17966052017845999 0 -0.15245232938168229 0.1648839185887534 0 -0.13876353146598761 0.18223131465273959 0 -0.12843792629854631 0.15978223771525801 0 -0.12843792629854631 0.15978223771525801 0 -0.1447888583061562 0.1436064118174607 0 -0.12843792629854631 0.15978223771525801 0 -0.1447888583061562 0.1436064118174607 0 -0.1204435081575875 0.14623213693654391 0 -0.16317411874061041 0.14897554401654969 0 -0.15245232938168229 0.1648839185887534 0 -0.1447888583061562 0.1436064118174607 0 -0.15245232938168229 0.1648839185887534 0 -0.12843792629854631 0.15978223771525801 0 -0.1447888583061562 0.1436064118174607 0 -0.16113979031376621 0.12743058591966341 0 -0.1447888583061562 0.1436064118174607 0 -0.14300315410871919 0.1253406317882016 0 -0.16113979031376621 0.12743058591966341 0 -0.1447888583061562 0.1436064118174607 0 -0.1447888583061562 0.1436064118174607 0 -0.12687331202938101 0.13192737382428379 0 -0.1204435081575875 0.14623213693654391 0 -0.1447888583061562 0.1436064118174607 0 -0.14300315410871919 0.1253406317882016 0 -0.12687331202938101 0.13192737382428379 0 -0.12687331202938101 0.13192737382428379 0 -0.1130049083687871 0.13722853083192951 0 -0.10667563132183119 0.1260080396076822 0 -0.12687331202938101 0.13192737382428379 0 -0.1130049083687871 0.13722853083192951 0 -0.1204435081575875 0.14623213693654391 0 -0.10667563132183119 0.1260080396076822 0 -0.081978849477511453 0.1384377215961772 0 -0.096577670607123245 0.1239972751083621 0 -0.10667563132183119 0.1260080396076822 0 -0.1008242758955458 0.1385116675773613 0 -0.081978849477511453 0.1384377215961772 0 -0.10667563132183119 0.1260080396076822 0 -0.081978849477511453 0.1384377215961772 0 -0.1130049083687871 0.13722853083192951 0 -0.10667563132183119 0.1260080396076822 0 -0.1008242758955458 0.1385116675773613 0 -0.1130049083687871 0.13722853083192951 0 -0.1008242758955458 0.1385116675773613 0 -0.1078791741402548 0.14587794917826699 0 -0.094422293866394627 0.1556947047027778 0 -0.094582816169344081 0.14500609667275041 0 -0.1078791741402548 0.14587794917826699 0 -0.1008242758955458 0.1385116675773613 0 -0.094582816169344081 0.14500609667275041 0 -0.1078791741402548 0.14587794917826699 0 -0.12843792629854631 0.15978223771525801 0 -0.1204435081575875 0.14623213693654391 0 -0.1073217141416921 0.15896651377475199 0 -0.1078791741402548 0.14587794917826699 0 -0.1204435081575875 0.14623213693654391 0 -0.1073217141416921 0.15896651377475199 0 -0.1130049083687871 0.13722853083192951 0 -0.1078791741402548 0.14587794917826699 0 -0.1204435081575875 0.14623213693654391 0 -0.12843792629854631 0.15978223771525801 0 -0.1245765098090509 0.17966052017845999 0 -0.1120869942909358 0.17595806361305491 0 -0.1120869942909358 0.17595806361305491 0 -0.1073217141416921 0.15896651377475199 0 -0.12843792629854631 0.15978223771525801 0 -0.1120869942909358 0.17595806361305491 0 -0.12843792629854631 0.15978223771525801 0 -0.1120869942909358 0.17595806361305491 0 -0.1073217141416921 0.15896651377475199 0 -0.1245765098090509 0.17966052017845999 0 -0.1120869942909358 0.17595806361305491 0 -0.1190175871807343 0.20067046473278771 0 -0.1120869942909358 0.17595806361305491 0 -0.1020860412129876 0.1687304780430319 0 -0.095149617161195271 0.19271405424946009 0 -0.1020860412129876 0.1687304780430319 0 -0.095149617161195271 0.19271405424946009 0 -0.1120869942909358 0.17595806361305491 0 -0.095149617161195271 0.19271405424946009 0 -0.1020860412129876 0.1687304780430319 0 -0.093279947424905002 0.17994671451597891 0 -0.095149617161195271 0.19271405424946009 0 -0.1020860412129876 0.1687304780430319 0 -0.089956478385260899 0.16811851343374709 0 -0.093279947424905002 0.17994671451597891 0 -0.094422293866394627 0.1556947047027778 0 -0.1078791741402548 0.14587794917826699 0 -0.1020860412129876 0.1687304780430319 0 -0.1078791741402548 0.14587794917826699 0 -0.1073217141416921 0.15896651377475199 0 -0.1020860412129876 0.1687304780430319 0 -0.1120869942909358 0.17595806361305491 0 -0.1073217141416921 0.15896651377475199 0 -0.1020860412129876 0.1687304780430319 0 -0.1078791741402548 0.14587794917826699 0 -0.1020860412129876 0.1687304780430319 0 -0.094422293866394627 0.1556947047027778 0 -0.1020860412129876 0.1687304780430319 0 -0.089956478385260899 0.16811851343374709 0 -0.094422293866394627 0.1556947047027778 0 -0.089956478385260899 0.16811851343374709 0 -0.084742563178951485 0.15922574422532609 0 -0.089956478385260899 0.16811851343374709 0 -0.080023232193096983 0.1657260639694961 0 -0.084742563178951485 0.15922574422532609 0 -0.089956478385260899 0.16811851343374709 0 -0.080023232193096983 0.1657260639694961 0 -0.081293191825158789 0.17801619480298669 0 -0.080023232193096983 0.1657260639694961 0 -0.084742563178951485 0.15922574422532609 0 -0.074930767296401246 0.15918989644816289 0 -0.081293191825158789 0.17801619480298669 0 -0.095149617161195271 0.19271405424946009 0 -0.073474196407973841 0.19079473501472519 0 -0.081293191825158789 0.17801619480298669 0 -0.095149617161195271 0.19271405424946009 0 -0.093279947424905002 0.17994671451597891 0 -0.081293191825158789 0.17801619480298669 0 -0.095149617161195271 0.19271405424946009 0 -0.089956478385260899 0.16811851343374709 0 -0.093279947424905002 0.17994671451597891 0 -0.081293191825158789 0.17801619480298669 0 -0.064604308801312821 0.18244611143699499 0 -0.069549912031587807 0.17131438064227461 0 -0.073474196407973841 0.19079473501472519 0 -0.081293191825158789 0.17801619480298669 0 -0.069549912031587807 0.17131438064227461 0 -0.073474196407973841 0.19079473501472519 0 -0.069549912031587807 0.17131438064227461 0 -0.073474196407973841 0.19079473501472519 0 -0.064604308801312821 0.18244611143699499 0 -0.069549912031587807 0.17131438064227461 0 -0.062041409668937363 0.1723934095439342 0 -0.084742563178951485 0.15922574422532609 0 -0.074930767296401246 0.15918989644816289 0 -0.074588176879671189 0.15080810715310269 0 -0.080023232193096983 0.1657260639694961 0 -0.074930767296401246 0.15918989644816289 0 -0.06743676648912228 0.16331833535651319 0 -0.081293191825158789 0.17801619480298669 0 -0.069549912031587807 0.17131438064227461 0 -0.06743676648912228 0.16331833535651319 0 -0.080023232193096983 0.1657260639694961 0 -0.081293191825158789 0.17801619480298669 0 -0.06743676648912228 0.16331833535651319 0 -0.081293191825158789 0.17801619480298669 0 -0.06743676648912228 0.16331833535651319 0 -0.069549912031587807 0.17131438064227461 0 -0.062031688412593149 0.16441565219234799 0 -0.062041409668937363 0.1723934095439342 0 -0.069549912031587807 0.17131438064227461 0 -0.06743676648912228 0.16331833535651319 0 -0.062031688412593149 0.16441565219234799 0 -0.06743676648912228 0.16331833535651319 0 -0.06725389334219653 0.15771987894696021 0 -0.062031688412593149 0.16441565219234799 0 -0.074930767296401246 0.15918989644816289 0 -0.06743676648912228 0.16331833535651319 0 -0.06725389334219653 0.15771987894696021 0 -0.081978849477511453 0.1384377215961772 0 -0.05728206763319247 0.1508674035846734 0 -0.06725389334219653 0.15771987894696021 0 -0.074588176879671189 0.15080810715310269 0 -0.05728206763319247 0.1508674035846734 0 -0.074588176879671189 0.15080810715310269 0 -0.081978849477511453 0.1384377215961772 0 -0.05728206763319247 0.1508674035846734 0 -0.081978849477511453 0.1384377215961772 0 -0.06070043620975589 0.134524720015781 0 -0.05728206763319247 0.1508674035846734 0 -0.074930767296401246 0.15918989644816289 0 -0.06725389334219653 0.15771987894696021 0 -0.074588176879671189 0.15080810715310269 0 -0.071786582042575819 0.1280585334591178 0 -0.081978849477511453 0.1384377215961772 0 -0.08034823769671974 0.121089655777625 0 -0.071786582042575819 0.1280585334591178 0 -0.081978849477511453 0.1384377215961772 0 -0.06070043620975589 0.134524720015781 0 -0.071786582042575819 0.1280585334591178 0 -0.06070043620975589 0.134524720015781 0 -0.06411880478631618 0.11818203644688791 0 -0.081978849477511453 0.1384377215961772 0 -0.08034823769671974 0.121089655777625 0 -0.096577670607123245 0.1239972751083621 0 -0.1008242758955458 0.1385116675773613 0 -0.094582816169344081 0.14500609667275041 0 -0.081978849477511453 0.1384377215961772 0 -0.094582816169344081 0.14500609667275041 0 -0.081978849477511453 0.1384377215961772 0 -0.0854808471676783 0.14892295327365951 0 -0.094422293866394627 0.1556947047027778 0 -0.084742563178951485 0.15922574422532609 0 -0.0854808471676783 0.14892295327365951 0 -0.094422293866394627 0.1556947047027778 0 -0.094582816169344081 0.14500609667275041 0 -0.0854808471676783 0.14892295327365951 0 -0.084742563178951485 0.15922574422532609 0 -0.074588176879671189 0.15080810715310269 0 -0.0854808471676783 0.14892295327365951 0 -0.074588176879671189 0.15080810715310269 0 -0.081978849477511453 0.1384377215961772 0 -0.0854808471676783 0.14892295327365951 0 -0.1045487088169635 0.24438495162540061 0 -0.11455994162881621 0.23631135170566109 0 -0.098826177075254387 0.23394696074010041 0 -0.10005120432924321 0.25626016583208688 0 -0.094679029848152713 0.24609146959404629 0 -0.1045487088169635 0.24438495162540061 0 -0.094679029848152713 0.24609146959404629 0 -0.1045487088169635 0.24438495162540061 0 -0.098826177075254387 0.23394696074010041 0 -0.116744543106582 0.25728181003509248 0 -0.1045487088169635 0.24438495162540061 0 -0.11455994162881621 0.23631135170566109 0 -0.116744543106582 0.25728181003509248 0 -0.1327712538659816 0.24971188635390451 0 -0.11455994162881621 0.23631135170566109 0 -0.12594818007053379 0.2253828658525201 0 -0.1327712538659816 0.24971188635390451 0 -0.11455994162881621 0.23631135170566109 0 -0.11455994162881621 0.23631135170566109 0 -0.1144435087069731 0.2232582902708152 0 -0.1063794885369051 0.22193246116811141 0 -0.12594818007053379 0.2253828658525201 0 -0.1144435087069731 0.2232582902708152 0 -0.1108864245916369 0.20940648235696879 0 -0.12594818007053379 0.2253828658525201 0 -0.11455994162881621 0.23631135170566109 0 -0.1144435087069731 0.2232582902708152 0 -0.11455994162881621 0.23631135170566109 0 -0.1063794885369051 0.22193246116811141 0 -0.098826177075254387 0.23394696074010041 0 -0.1063794885369051 0.22193246116811141 0 -0.098826177075254387 0.23394696074010041 0 -0.089950704149474564 0.21660149084549701 0 -0.1063794885369051 0.22193246116811141 0 -0.089950704149474564 0.21660149084549701 0 -0.10053720550511509 0.21148400771379949 0 -0.095149617161195271 0.19271405424946009 0 -0.089950704149474564 0.21660149084549701 0 -0.1063794885369051 0.22193246116811141 0 -0.10053720550511509 0.21148400771379949 0 -0.089950704149474564 0.21660149084549701 0 -0.10053720550511509 0.21148400771379949 0 -0.1108864245916369 0.20940648235696879 0 -0.095149617161195271 0.19271405424946009 0 -0.1063794885369051 0.22193246116811141 0 -0.10053720550511509 0.21148400771379949 0 -0.1108864245916369 0.20940648235696879 0 -0.12594818007053379 0.2253828658525201 0 -0.1190175871807343 0.20067046473278771 0 -0.12594818007053379 0.2253828658525201 0 -0.1108864245916369 0.20940648235696879 0 -0.1190175871807343 0.20067046473278771 0 -0.12594818007053379 0.2253828658525201 0 -0.1108864245916369 0.20940648235696879 0 -0.1144435087069731 0.2232582902708152 0 -0.1063794885369051 0.22193246116811141 0 -0.1108864245916369 0.20940648235696879 0 -0.1120869942909358 0.17595806361305491 0 -0.1190175871807343 0.20067046473278771 0 -0.1108864245916369 0.20940648235696879 0 -0.1190175871807343 0.20067046473278771 0 -0.10682171669235439 0.1942096232944058 0 -0.1120869942909358 0.17595806361305491 0 -0.1190175871807343 0.20067046473278771 0 -0.10682171669235439 0.1942096232944058 0 -0.1108864245916369 0.20940648235696879 0 -0.095149617161195271 0.19271405424946009 0 -0.1108864245916369 0.20940648235696879 0 -0.10682171669235439 0.1942096232944058 0 -0.095149617161195271 0.19271405424946009 0 -0.1120869942909358 0.17595806361305491 0 -0.10682171669235439 0.1942096232944058 0 -0.095149617161195271 0.19271405424946009 0 -0.095149617161195271 0.19271405424946009 0 -0.077398480784349299 0.2102750893871779 0 -0.095149617161195271 0.19271405424946009 0 -0.073474196407973841 0.19079473501472519 0 -0.077398480784349299 0.2102750893871779 0 -0.095149617161195271 0.19271405424946009 0 -0.077398480784349299 0.2102750893871779 0 -0.087241526055590657 0.20514135106535239 0 -0.073474196407973841 0.19079473501472519 0 -0.077398480784349299 0.2102750893871779 0 -0.073474196407973841 0.19079473501472519 0 -0.077398480784349299 0.2102750893871779 0 -0.068984895145132993 0.20348567813270921 0 -0.064604308801312821 0.18244611143699499 0 -0.073474196407973841 0.19079473501472519 0 -0.062951628171730722 0.19451437844324071 0 -0.073474196407973841 0.19079473501472519 0 -0.062951628171730722 0.19451437844324071 0 -0.068984895145132993 0.20348567813270921 0 -0.062951628171730722 0.19451437844324071 0 -0.068984895145132993 0.20348567813270921 0 -0.057478398324341332 0.20606456403591589 0 -0.068984895145132993 0.20348567813270921 0 -0.075683327299925024 0.21197187487555791 0 -0.057478398324341332 0.20606456403591589 0 -0.075683327299925024 0.21197187487555791 0 -0.060700713784132942 0.2267940359372384 0 -0.057478398324341332 0.20606456403591589 0 -0.075683327299925024 0.21197187487555791 0 -0.057478398324341332 0.20606456403591589 0 -0.077398480784349299 0.2102750893871779 0 -0.068984895145132993 0.20348567813270921 0 -0.075683327299925024 0.21197187487555791 0 -0.075683327299925024 0.21197187487555791 0 -0.077884159070199604 0.2126860219832131 0 -0.060700713784132942 0.2267940359372384 0 -0.075683327299925024 0.21197187487555791 0 -0.077884159070199604 0.2126860219832131 0 -0.077398480784349299 0.2102750893871779 0 -0.075683327299925024 0.21197187487555791 0 -0.077884159070199604 0.2126860219832131 0 -0.077398480784349299 0.2102750893871779 0 -0.077884159070199604 0.2126860219832131 0 -0.077398480784349299 0.2102750893871779 0 -0.075683327299925024 0.21197187487555791 0 -0.077884159070199604 0.2126860219832131 0 -0.089950704149474564 0.21660149084549701 0 -0.077884159070199604 0.2126860219832131 0 -0.087241526055590657 0.20514135106535239 0 -0.089950704149474564 0.21660149084549701 0 -0.095149617161195271 0.19271405424946009 0 -0.087241526055590657 0.20514135106535239 0 -0.089950704149474564 0.21660149084549701 0 -0.095149617161195271 0.19271405424946009 0 -0.089950704149474564 0.21660149084549701 0 -0.077398480784349299 0.2102750893871779 0 -0.077884159070199604 0.2126860219832131 0 -0.087241526055590657 0.20514135106535239 0 -0.077884159070199604 0.2126860219832131 0 -0.083666647235009842 0.24139059785004849 0 -0.089950704149474564 0.21660149084549701 0 -0.083666647235009842 0.24139059785004849 0 -0.077884159070199604 0.2126860219832131 0 -0.089950704149474564 0.21660149084549701 0 -0.083666647235009842 0.24139059785004849 0 -0.098826177075254387 0.23394696074010041 0 -0.089950704149474564 0.21660149084549701 0 -0.083666647235009842 0.24139059785004849 0 -0.077884159070199604 0.2126860219832131 0 -0.083666647235009842 0.24139059785004849 0 -0.060700713784132942 0.2267940359372384 0 -0.075683327299925024 0.21197187487555791 0 -0.060700713784132942 0.2267940359372384 0 -0.064077212627390134 0.24851538469076631 0 -0.083666647235009842 0.24139059785004849 0 -0.060700713784132942 0.2267940359372384 0 -0.086302411784292182 0.25447467192259482 0 -0.083666647235009842 0.24139059785004849 0 -0.094679029848152713 0.24609146959404629 0 -0.098826177075254387 0.23394696074010041 0 -0.083666647235009842 0.24139059785004849 0 -0.086302411784292182 0.25447467192259482 0 -0.094679029848152713 0.24609146959404629 0 -0.083666647235009842 0.24139059785004849 0 -0.03068766995985707 0.25286978792993342 0 -0.034335222642673788 0.23481172099035691 0 -0.046578861792199937 0.24361118962503389 0 -0.034335222642673788 0.23481172099035691 0 -0.046578861792199937 0.24361118962503389 0 -0.045510089746351297 0.2289623102588538 0 -0.064077212627390134 0.24851538469076631 0 -0.046578861792199937 0.24361118962503389 0 -0.055802081643016588 0.23164020743468811 0 -0.064077212627390134 0.24851538469076631 0 -0.055802081643016588 0.23164020743468811 0 -0.060700713784132942 0.2267940359372384 0 -0.064077212627390134 0.24851538469076631 0 -0.060700713784132942 0.2267940359372384 0 -0.046578861792199937 0.24361118962503389 0 -0.055802081643016588 0.23164020743468811 0 -0.045510089746351297 0.2289623102588538 0 -0.055802081643016588 0.23164020743468811 0 -0.053252725762674542 0.2222055350902031 0 -0.045510089746351297 0.2289623102588538 0 -0.055802081643016588 0.23164020743468811 0 -0.060700713784132942 0.2267940359372384 0 -0.053252725762674542 0.2222055350902031 0 -0.055802081643016588 0.23164020743468811 0 -0.060700713784132942 0.2267940359372384 0 -0.053252725762674542 0.2222055350902031 0 -0.045510089746351297 0.2289623102588538 0 -0.046772345315528908 0.21756655778431969 0 -0.045510089746351297 0.2289623102588538 0 -0.036443083940353373 0.22210497005765251 0 -0.046772345315528908 0.21756655778431969 0 -0.034335222642673788 0.23481172099035691 0 -0.045510089746351297 0.2289623102588538 0 -0.036443083940353373 0.22210497005765251 0 -0.034335222642673788 0.23481172099035691 0 -0.036443083940353373 0.22210497005765251 0 -0.024866254401544021 0.22078734426404351 0 -0.036443083940353373 0.22210497005765251 0 -0.046772345315528908 0.21756655778431969 0 -0.031637039445344017 0.19767931081015269 0 -0.046772345315528908 0.21756655778431969 0 -0.057478398324341332 0.20606456403591589 0 -0.031637039445344017 0.19767931081015269 0 -0.060700713784132942 0.2267940359372384 0 -0.053252725762674542 0.2222055350902031 0 -0.057478398324341332 0.20606456403591589 0 -0.060700713784132942 0.2267940359372384 0 -0.057478398324341332 0.20606456403591589 0 -0.053252725762674542 0.2222055350902031 0 -0.046772345315528908 0.21756655778431969 0 -0.057478398324341332 0.20606456403591589 0 -0.062951628171730722 0.19451437844324071 0 -0.057478398324341332 0.20606456403591589 0 -0.054948738746262903 0.1897910154656581 0 -0.057478398324341332 0.20606456403591589 0 -0.054948738746262903 0.1897910154656581 0 -0.031637039445344017 0.19767931081015269 0 -0.057478398324341332 0.20606456403591589 0 -0.054948738746262903 0.1897910154656581 0 -0.054948738746262903 0.1897910154656581 0 -0.031637039445344017 0.19767931081015269 0 -0.039999697082172873 0.18418677263352329 0 -0.057478398324341332 0.20606456403591589 0 -0.031637039445344017 0.19767931081015269 0 -0.031637039445344017 0.19767931081015269 0 -0.0057956805663459468 0.1892940575843915 0 -0.031637039445344017 0.19767931081015269 0 -0.0057956805663459468 0.1892940575843915 0 -0.024775833668462071 0.17590936267321361 0 -0.031637039445344017 0.19767931081015269 0 -0.0057956805663459468 0.1892940575843915 0 -0.01019634689217482 0.20814994011246479 0 -0.0057956805663459468 0.1892940575843915 0 -0.01019634689217482 0.20814994011246479 0 0.0090806704795409685 0.20996839310177981 0 -0.01019634689217482 0.20814994011246479 0 0.00014186162909880781 0.2338185852574263 0 0.0090806704795409685 0.20996839310177981 0 -0.036443083940353373 0.22210497005765251 0 -0.031637039445344017 0.19767931081015269 0 -0.024866254401544021 0.22078734426404351 0 -0.031637039445344017 0.19767931081015269 0 -0.01019634689217482 0.20814994011246479 0 -0.024866254401544021 0.22078734426404351 0 -0.034335222642673788 0.23481172099035691 0 -0.024866254401544021 0.22078734426404351 0 -0.01991034591062427 0.239405390953495 0 -0.024866254401544021 0.22078734426404351 0 0.00014186162909880781 0.2338185852574263 0 -0.024866254401544021 0.22078734426404351 0 -0.01991034591062427 0.239405390953495 0 0.00014186162909880781 0.2338185852574263 0 -0.01019634689217482 0.20814994011246479 0 -0.024866254401544021 0.22078734426404351 0 0.00014186162909880781 0.2338185852574263 0 -0.0098044441781452579 0.25473951632571468 0 0.00014186162909880781 0.2338185852574263 0 0.0073806355134042019 0.25529449578482938 0 -0.0098044441781452579 0.25473951632571468 0 -0.01991034591062427 0.239405390953495 0 0.00014186162909880781 0.2338185852574263 0 -0.03068766995985707 0.25286978792993342 0 -0.034335222642673788 0.23481172099035691 0 -0.01991034591062427 0.239405390953495 0 -0.03068766995985707 0.25286978792993342 0 -0.0098044441781452579 0.25473951632571468 0 -0.01991034591062427 0.239405390953495 0 -0.045513089216113363 0.1481501368583191 0 -0.039963318838929777 0.1583549670989208 0 -0.028048700007850699 0.14601834090005769 0 -0.045513089216113363 0.1481501368583191 0 -0.037584816749385713 0.12707105787504261 0 -0.028048700007850699 0.14601834090005769 0 -0.037584816749385713 0.12707105787504261 0 -0.028048700007850699 0.14601834090005769 0 -0.045513089216113363 0.1481501368583191 0 -0.037584816749385713 0.12707105787504261 0 -0.045513089216113363 0.1481501368583191 0 -0.037584816749385713 0.12707105787504261 0 -0.049753839012929922 0.13582205838018921 0 -0.037584816749385713 0.12707105787504261 0 -0.049753839012929922 0.13582205838018921 0 -0.051208231868337763 0.1260313133231428 0 -0.049753839012929922 0.13582205838018921 0 -0.06070043620975589 0.134524720015781 0 -0.052276118599972977 0.1457036522838337 0 -0.051208231868337763 0.1260313133231428 0 -0.06070043620975589 0.134524720015781 0 -0.06411880478631618 0.11818203644688791 0 -0.06070043620975589 0.134524720015781 0 -0.06411880478631618 0.11818203644688791 0 -0.049753839012929922 0.13582205838018921 0 -0.051208231868337763 0.1260313133231428 0 -0.06070043620975589 0.134524720015781 0 -0.06070043620975589 0.134524720015781 0 -0.052276118599972977 0.1457036522838337 0 -0.05728206763319247 0.1508674035846734 0 -0.06070043620975589 0.134524720015781 0 -0.05728206763319247 0.1508674035846734 0 -0.045513089216113363 0.1481501368583191 0 -0.049753839012929922 0.13582205838018921 0 -0.052276118599972977 0.1457036522838337 0 -0.045513089216113363 0.1481501368583191 0 -0.052276118599972977 0.1457036522838337 0 -0.053440893212920608 0.15280063427064891 0 -0.052276118599972977 0.1457036522838337 0 -0.053440893212920608 0.15280063427064891 0 -0.05728206763319247 0.1508674035846734 0 -0.053440893212920608 0.15280063427064891 0 -0.05728206763319247 0.1508674035846734 0 -0.05728206763319247 0.1508674035846734 0 -0.062031688412593149 0.16441565219234799 0 -0.053441361682841117 0.16922921584159559 0 -0.053440893212920608 0.15280063427064891 0 -0.05728206763319247 0.1508674035846734 0 -0.053441361682841117 0.16922921584159559 0 -0.045513089216113363 0.1481501368583191 0 -0.053440893212920608 0.15280063427064891 0 -0.053441361682841117 0.16922921584159559 0 -0.045513089216113363 0.1481501368583191 0 -0.053441361682841117 0.16922921584159559 0 -0.05728206763319247 0.1508674035846734 0 -0.053441361682841117 0.16922921584159559 0 -0.06725389334219653 0.15771987894696021 0 -0.05728206763319247 0.1508674035846734 0 -0.062031688412593149 0.16441565219234799 0 -0.062031688412593149 0.16441565219234799 0 -0.053441361682841117 0.16922921584159559 0 -0.062041409668937363 0.1723934095439342 0 -0.053441361682841117 0.16922921584159559 0 -0.047633738945979477 0.17108968717192211 0 -0.039963318838929777 0.1583549670989208 0 -0.052991971448818453 0.17137768000779441 0 -0.053441361682841117 0.16922921584159559 0 -0.047633738945979477 0.17108968717192211 0 -0.052991971448818453 0.17137768000779441 0 -0.053441361682841117 0.16922921584159559 0 -0.054948738746262903 0.1897910154656581 0 -0.052419079168185397 0.17351746689540021 0 -0.046888846475854867 0.17837904804597579 0 -0.062951628171730722 0.19451437844324071 0 -0.054948738746262903 0.1897910154656581 0 -0.052419079168185397 0.17351746689540021 0 -0.062951628171730722 0.19451437844324071 0 -0.052991971448818453 0.17137768000779441 0 -0.052419079168185397 0.17351746689540021 0 -0.064604308801312821 0.18244611143699499 0 -0.062951628171730722 0.19451437844324071 0 -0.053441361682841117 0.16922921584159559 0 -0.062951628171730722 0.19451437844324071 0 -0.052991971448818453 0.17137768000779441 0 -0.053441361682841117 0.16922921584159559 0 -0.054948738746262903 0.1897910154656581 0 -0.052419079168185397 0.17351746689540021 0 -0.062951628171730722 0.19451437844324071 0 -0.053441361682841117 0.16922921584159559 0 -0.064604308801312821 0.18244611143699499 0 -0.053441361682841117 0.16922921584159559 0 -0.062041409668937363 0.1723934095439342 0 -0.052991971448818453 0.17137768000779441 0 -0.047633738945979477 0.17108968717192211 0 -0.052419079168185397 0.17351746689540021 0 -0.047633738945979477 0.17108968717192211 0 -0.052419079168185397 0.17351746689540021 0 -0.046888846475854867 0.17837904804597579 0 -0.054948738746262903 0.1897910154656581 0 -0.046888846475854867 0.17837904804597579 0 -0.039999697082172873 0.18418677263352329 0 -0.031637039445344017 0.19767931081015269 0 -0.039999697082172873 0.18418677263352329 0 -0.024775833668462071 0.17590936267321361 0 -0.046888846475854867 0.17837904804597579 0 -0.039999697082172873 0.18418677263352329 0 -0.039442978436673673 0.17331029806337539 0 -0.047633738945979477 0.17108968717192211 0 -0.046888846475854867 0.17837904804597579 0 -0.039442978436673673 0.17331029806337539 0 -0.039442978436673673 0.17331029806337539 0 -0.032139483942643897 0.16694135859911591 0 -0.024775833668462071 0.17590936267321361 0 -0.039999697082172873 0.18418677263352329 0 -0.039442978436673673 0.17331029806337539 0 -0.024775833668462071 0.17590936267321361 0 -0.045513089216113363 0.1481501368583191 0 -0.053441361682841117 0.16922921584159559 0 -0.039963318838929777 0.1583549670989208 0 -0.039963318838929777 0.1583549670989208 0 -0.032139483942643897 0.16694135859911591 0 -0.02343924065842673 0.15869802647678349 0 -0.047633738945979477 0.17108968717192211 0 -0.039442978436673673 0.17331029806337539 0 -0.039963318838929777 0.1583549670989208 0 -0.039442978436673673 0.17331029806337539 0 -0.039963318838929777 0.1583549670989208 0 -0.032139483942643897 0.16694135859911591 0 -0.032139483942643897 0.16694135859911591 0 -0.02343924065842673 0.15869802647678349 0 -0.024775833668462071 0.17590936267321361 0 -0.02343924065842673 0.15869802647678349 0 -0.024775833668462071 0.17590936267321361 0 -0.0048034666842798916 0.1614245706846468 0 -0.0057956805663459468 0.1892940575843915 0 -0.024775833668462071 0.17590936267321361 0 -0.0048034666842798916 0.1614245706846468 0 -0.0048034666842798916 0.1614245706846468 0 -0.01090464080839405 0.14353955890474629 0 0.011098566836083609 0.13484946890849181 0 -0.02343924065842673 0.15869802647678349 0 -0.0048034666842798916 0.1614245706846468 0 -0.01090464080839405 0.14353955890474629 0 -0.039963318838929777 0.1583549670989208 0 -0.02343924065842673 0.15869802647678349 0 -0.028048700007850699 0.14601834090005769 0 -0.02343924065842673 0.15869802647678349 0 -0.01090464080839405 0.14353955890474629 0 -0.028048700007850699 0.14601834090005769 0 -0.037584816749385713 0.12707105787504261 0 -0.0187932077553963 0.1304023687453105 0 -0.02482114599867602 0.1199028763409456 0 -0.01090464080839405 0.14353955890474629 0 -0.028048700007850699 0.14601834090005769 0 -0.0187932077553963 0.1304023687453105 0 -0.037584816749385713 0.12707105787504261 0 -0.028048700007850699 0.14601834090005769 0 -0.0187932077553963 0.1304023687453105 0 -0.0064436606074630637 0.13109611639504981 0 -0.007175360702145514 0.1155930690216506 0 0.011098566836083609 0.13484946890849181 0 -0.01090464080839405 0.14353955890474629 0 -0.0064436606074630637 0.13109611639504981 0 0.011098566836083609 0.13484946890849181 0 -0.0187932077553963 0.1304023687453105 0 -0.0064436606074630637 0.13109611639504981 0 -0.007175360702145514 0.1155930690216506 0 -0.01090464080839405 0.14353955890474629 0 -0.0187932077553963 0.1304023687453105 0 -0.0064436606074630637 0.13109611639504981 0 -0.007175360702145514 0.1155930690216506 0 -0.0040088977147468936 0.097024336429998151 0 -0.013655752966245171 0.094180689311720855 0 -0.007175360702145514 0.1155930690216506 0 -0.0040088977147468936 0.097024336429998151 0 0.0025937760044158291 0.1064596481343341 0 -0.007175360702145514 0.1155930690216506 0 -0.013655752966245171 0.094180689311720855 0 -0.02544928824037461 0.096336669134809427 0 -0.029459919491476121 0.1011230655410132 0 -0.021580178673492881 0.1105609364200745 0 -0.037915498494119543 0.10215930426450601 0 -0.007175360702145514 0.1155930690216506 0 -0.02544928824037461 0.096336669134809427 0 -0.007175360702145514 0.1155930690216506 0 -0.02544928824037461 0.096336669134809427 0 -0.0241566231860777 0.1021061234229471 0 -0.02544928824037461 0.096336669134809427 0 -0.029459919491476121 0.1011230655410132 0 -0.035034026511796899 0.0954599165668297 0 -0.02544928824037461 0.096336669134809427 0 -0.029459919491476121 0.1011230655410132 0 -0.0241566231860777 0.1021061234229471 0 -0.02544928824037461 0.096336669134809427 0 -0.0241566231860777 0.1021061234229471 0 -0.029459919491476121 0.1011230655410132 0 -0.0241566231860777 0.1021061234229471 0 -0.021580178673492881 0.1105609364200745 0 -0.02482114599867602 0.1199028763409456 0 -0.021580178673492881 0.1105609364200745 0 -0.032585978911933711 0.11378053360982859 0 -0.007175360702145514 0.1155930690216506 0 -0.0241566231860777 0.1021061234229471 0 -0.021580178673492881 0.1105609364200745 0 -0.0187932077553963 0.1304023687453105 0 -0.007175360702145514 0.1155930690216506 0 -0.02482114599867602 0.1199028763409456 0 -0.007175360702145514 0.1155930690216506 0 -0.02482114599867602 0.1199028763409456 0 -0.021580178673492881 0.1105609364200745 0 -0.01109578586274463 0.07592966442077155 0 -0.01963881101933795 0.057650575484614511 0 -0.0089029190745683329 0.062319161291970238 0 -0.0031702267477386531 0.067180855403790804 0 -0.01109578586274463 0.07592966442077155 0 0.0065236609159091173 0.071671444604676282 0 -0.0031702267477386531 0.067180855403790804 0 -0.0089029190745683329 0.062319161291970238 0 0.00079413703044923156 0.058803151297745167 0 -0.0031702267477386531 0.067180855403790804 0 -0.01109578586274463 0.07592966442077155 0 -0.0089029190745683329 0.062319161291970238 0 -0.0040088977147468936 0.097024336429998151 0 -0.01109578586274463 0.07592966442077155 0 0.011643404763696401 0.092949868607662828 0 -0.0040088977147468936 0.097024336429998151 0 -0.013655752966245171 0.094180689311720855 0 -0.01109578586274463 0.07592966442077155 0 -0.013655752966245171 0.094180689311720855 0 -0.01109578586274463 0.07592966442077155 0 -0.02054943231121421 0.086019707551374502 0 -0.02544928824037461 0.096336669134809427 0 -0.02054943231121421 0.086019707551374502 0 -0.029642132364781061 0.077623064684345475 0 -0.02544928824037461 0.096336669134809427 0 -0.029642132364781061 0.077623064684345475 0 -0.036673455980692451 0.084509049595857907 0 -0.01109578586274463 0.07592966442077155 0 -0.02054943231121421 0.086019707551374502 0 -0.029642132364781061 0.077623064684345475 0 -0.02544928824037461 0.096336669134809427 0 -0.029642132364781061 0.077623064684345475 0 -0.013655752966245171 0.094180689311720855 0 -0.02544928824037461 0.096336669134809427 0 -0.02054943231121421 0.086019707551374502 0 -0.02544928824037461 0.096336669134809427 0 -0.036673455980692451 0.084509049595857907 0 -0.01109578586274463 0.07592966442077155 0 -0.033834976489186493 0.058909460233881362 0 -0.01109578586274463 0.07592966442077155 0 -0.029642132364781061 0.077623064684345475 0 -0.033834976489186493 0.058909460233881362 0 -0.01109578586274463 0.07592966442077155 0 -0.033834976489186493 0.058909460233881362 0 -0.01963881101933795 0.057650575484614511 0 -0.029642132364781061 0.077623064684345475 0 -0.033834976489186493 0.058909460233881362 0 -0.029642132364781061 0.077623064684345475 0 -0.036732086871232597 0.066761861307427367 0 -0.033834976489186493 0.058909460233881362 0 -0.042969512877196837 0.063698159366550891 0 -0.036732086871232597 0.066761861307427367 0 -0.038306240480512441 0.072768089837317376 0 -0.042969512877196837 0.063698159366550891 0 -0.038306240480512441 0.072768089837317376 0 -0.046136221960229658 0.070392563092827029 0 -0.042969512877196837 0.063698159366550891 0 -0.036732086871232597 0.066761861307427367 0 -0.038907572144486188 0.060810532415041758 0 -0.029642132364781061 0.077623064684345475 0 -0.036732086871232597 0.066761861307427367 0 -0.038306240480512441 0.072768089837317376 0 -0.038306240480512441 0.072768089837317376 0 -0.046136221960229658 0.070392563092827029 0 -0.043586306971417507 0.077534071189344175 0 -0.038306240480512441 0.072768089837317376 0 -0.043586306971417507 0.077534071189344175 0 -0.036673455980692451 0.084509049595857907 0 -0.043586306971417507 0.077534071189344175 0 -0.036673455980692451 0.084509049595857907 0 -0.046978765451358998 0.084182386091036676 0 -0.029642132364781061 0.077623064684345475 0 -0.038306240480512441 0.072768089837317376 0 -0.036673455980692451 0.084509049595857907 0 -0.02544928824037461 0.096336669134809427 0 -0.036673455980692451 0.084509049595857907 0 -0.035034026511796899 0.0954599165668297 0 -0.036673455980692451 0.084509049595857907 0 -0.044089979176562301 0.093675305350012283 0 -0.035034026511796899 0.0954599165668297 0 -0.036673455980692451 0.084509049595857907 0 -0.044089979176562301 0.093675305350012283 0 -0.046978765451358998 0.084182386091036676 0 -0.044089979176562301 0.093675305350012283 0 -0.057144835734191893 0.088207312209507505 0 -0.046978765451358998 0.084182386091036676 0 -0.057144835734191893 0.088207312209507505 0 -0.046978765451358998 0.084182386091036676 0 -0.053399249393930842 0.076986192110461482 0 -0.043586306971417507 0.077534071189344175 0 -0.046978765451358998 0.084182386091036676 0 -0.053399249393930842 0.076986192110461482 0 -0.053399249393930842 0.076986192110461482 0 -0.070406408885084593 0.061857930521202607 0 -0.059815066152941319 0.061788281472960463 0 -0.057144835734191893 0.088207312209507505 0 -0.053399249393930842 0.076986192110461482 0 -0.070406408885084593 0.061857930521202607 0 -0.046136221960229658 0.070392563092827029 0 -0.043586306971417507 0.077534071189344175 0 -0.053399249393930842 0.076986192110461482 0 -0.046136221960229658 0.070392563092827029 0 -0.053399249393930842 0.076986192110461482 0 -0.05257832837313995 0.068950164376806455 0 -0.053399249393930842 0.076986192110461482 0 -0.05257832837313995 0.068950164376806455 0 -0.059815066152941319 0.061788281472960463 0 -0.05257832837313995 0.068950164376806455 0 -0.052166049838275927 0.062310195238599278 0 -0.059815066152941319 0.061788281472960463 0 -0.046136221960229658 0.070392563092827029 0 -0.05257832837313995 0.068950164376806455 0 -0.052166049838275927 0.062310195238599278 0 -0.042969512877196837 0.063698159366550891 0 -0.046136221960229658 0.070392563092827029 0 -0.052166049838275927 0.062310195238599278 0 -0.021580178673492881 0.1105609364200745 0 -0.043883262583300407 0.11455669389781301 0 -0.021580178673492881 0.1105609364200745 0 -0.043883262583300407 0.11455669389781301 0 -0.032585978911933711 0.11378053360982859 0 -0.037584816749385713 0.12707105787504261 0 -0.051208231868337763 0.1260313133231428 0 -0.043883262583300407 0.11455669389781301 0 -0.037584816749385713 0.12707105787504261 0 -0.043883262583300407 0.11455669389781301 0 -0.037584816749385713 0.12707105787504261 0 -0.032585978911933711 0.11378053360982859 0 -0.037584816749385713 0.12707105787504261 0 -0.043883262583300407 0.11455669389781301 0 -0.032585978911933711 0.11378053360982859 0 -0.037584816749385713 0.12707105787504261 0 -0.02482114599867602 0.1199028763409456 0 -0.032585978911933711 0.11378053360982859 0 -0.021580178673492881 0.1105609364200745 0 -0.043883262583300407 0.11455669389781301 0 -0.037915498494119543 0.10215930426450601 0 -0.044089979176562301 0.093675305350012283 0 -0.043883262583300407 0.11455669389781301 0 -0.037915498494119543 0.10215930426450601 0 -0.044089979176562301 0.093675305350012283 0 -0.037915498494119543 0.10215930426450601 0 -0.035034026511796899 0.0954599165668297 0 -0.029459919491476121 0.1011230655410132 0 -0.037915498494119543 0.10215930426450601 0 -0.035034026511796899 0.0954599165668297 0 -0.044089979176562301 0.093675305350012283 0 -0.057144835734191893 0.088207312209507505 0 -0.043883262583300407 0.11455669389781301 0 -0.057144835734191893 0.088207312209507505 0 -0.043883262583300407 0.11455669389781301 0 -0.057144835734191893 0.088207312209507505 0 -0.043883262583300407 0.11455669389781301 0 -0.056175626513735713 0.104231459755559 0 -0.056175626513735713 0.104231459755559 0 -0.061770267295803899 0.1005995653590098 0 -0.06411880478631618 0.11818203644688791 0 -0.057144835734191893 0.088207312209507505 0 -0.056175626513735713 0.104231459755559 0 -0.061770267295803899 0.1005995653590098 0 -0.043883262583300407 0.11455669389781301 0 -0.06411880478631618 0.11818203644688791 0 -0.051208231868337763 0.1260313133231428 0 -0.043883262583300407 0.11455669389781301 0 -0.06411880478631618 0.11818203644688791 0 -0.043883262583300407 0.11455669389781301 0 -0.056175626513735713 0.104231459755559 0 -0.06411880478631618 0.11818203644688791 0 -0.071786582042575819 0.1280585334591178 0 -0.06411880478631618 0.11818203644688791 0 -0.08034823769671974 0.121089655777625 0 -0.06411880478631618 0.11818203644688791 0 -0.08034823769671974 0.121089655777625 0 -0.075381325115152609 0.106019298300689 0 -0.06411880478631618 0.11818203644688791 0 -0.08034823769671974 0.121089655777625 0 -0.08034823769671974 0.121089655777625 0 -0.096577670607123245 0.1239972751083621 0 -0.08034823769671974 0.121089655777625 0 -0.092569001324263961 0.1124699312803344 0 -0.096577670607123245 0.1239972751083621 0 -0.08034823769671974 0.121089655777625 0 -0.083967771981719092 0.1102844810624737 0 -0.092569001324263961 0.1124699312803344 0 -0.08034823769671974 0.121089655777625 0 -0.083967771981719092 0.1102844810624737 0 -0.075381325115152609 0.106019298300689 0 -0.087572523790740042 0.10155903889124659 0 -0.082071947835387321 0.094412947715560025 0 -0.09233625647768956 0.091651488650119919 0 -0.083967771981719092 0.1102844810624737 0 -0.092569001324263961 0.1124699312803344 0 -0.087572523790740042 0.10155903889124659 0 -0.083967771981719092 0.1102844810624737 0 -0.087572523790740042 0.10155903889124659 0 -0.075381325115152609 0.106019298300689 0 -0.087572523790740042 0.10155903889124659 0 -0.082071947835387321 0.094412947715560025 0 -0.075381325115152609 0.106019298300689 0 -0.06411880478631618 0.11818203644688791 0 -0.06964180214897181 0.091777453024084701 0 -0.082071947835387321 0.094412947715560025 0 -0.075381325115152609 0.106019298300689 0 -0.06964180214897181 0.091777453024084701 0 -0.06411880478631618 0.11818203644688791 0 -0.075381325115152609 0.106019298300689 0 -0.06964180214897181 0.091777453024084701 0 -0.061770267295803899 0.1005995653590098 0 -0.06411880478631618 0.11818203644688791 0 -0.06964180214897181 0.091777453024084701 0 -0.057144835734191893 0.088207312209507505 0 -0.061770267295803899 0.1005995653590098 0 -0.06964180214897181 0.091777453024084701 0 -0.06964180214897181 0.091777453024084701 0 -0.075164799511626648 0.065372869601281192 0 -0.057144835734191893 0.088207312209507505 0 -0.06964180214897181 0.091777453024084701 0 -0.068089461569968729 0.076803891339018993 0 -0.06964180214897181 0.091777453024084701 0 -0.068089461569968729 0.076803891339018993 0 -0.075164799511626648 0.065372869601281192 0 -0.057144835734191893 0.088207312209507505 0 -0.068089461569968729 0.076803891339018993 0 -0.070406408885084593 0.061857930521202607 0 -0.06964180214897181 0.091777453024084701 0 -0.075164799511626648 0.065372869601281192 0 -0.08073347634316104 0.073575546631144614 0 -0.057144835734191893 0.088207312209507505 0 -0.070406408885084593 0.061857930521202607 0 -0.068089461569968729 0.076803891339018993 0 -0.075164799511626648 0.065372869601281192 0 -0.070406408885084593 0.061857930521202607 0 -0.089923560922876636 0.068178037636278263 0 -0.08578586832533959 0.082170087930996366 0 -0.103675070998617 0.083967309240415983 0 -0.08073347634316104 0.073575546631144614 0 -0.089923560922876636 0.068178037636278263 0 -0.083186879645449088 0.059889597987781727 0 -0.075164799511626648 0.065372869601281192 0 -0.08073347634316104 0.073575546631144614 0 -0.083186879645449088 0.059889597987781727 0 -0.08073347634316104 0.073575546631144614 0 -0.089923560922876636 0.068178037636278263 0 -0.08578586832533959 0.082170087930996366 0 -0.06964180214897181 0.091777453024084701 0 -0.08073347634316104 0.073575546631144614 0 -0.08578586832533959 0.082170087930996366 0 -0.082071947835387321 0.094412947715560025 0 -0.06964180214897181 0.091777453024084701 0 -0.08578586832533959 0.082170087930996366 0 -0.082071947835387321 0.094412947715560025 0 -0.08578586832533959 0.082170087930996366 0 -0.09233625647768956 0.091651488650119919 0 -0.09233625647768956 0.091651488650119919 0 -0.103675070998617 0.083967309240415983 0 -0.10429444750695741 0.1014886749251958 0 -0.08578586832533959 0.082170087930996366 0 -0.09233625647768956 0.091651488650119919 0 -0.103675070998617 0.083967309240415983 0 -0.103675070998617 0.083967309240415983 0 -0.1198812247159142 0.095002477965890675 0 -0.10429444750695741 0.1014886749251958 0 -0.089923560922876636 0.068178037636278263 0 -0.103675070998617 0.083967309240415983 0 -0.10785209906359081 0.065371441260914459 0 -0.12533951967512769 0.078274991835817334 0 -0.103675070998617 0.083967309240415983 0 -0.10785209906359081 0.065371441260914459 0 -0.12533951967512769 0.078274991835817334 0 -0.10785209906359081 0.065371441260914459 0 -0.1248745965026067 0.059896082918310993 0 -0.12533951967512769 0.078274991835817334 0 -0.103675070998617 0.083967309240415983 0 -0.1198812247159142 0.095002477965890675 0 -0.13137241316615089 0.11357835761918721 0 -0.1198812247159142 0.095002477965890675 0 -0.10429444750695741 0.1014886749251958 0 -0.13137241316615089 0.11357835761918721 0 -0.12687331202938101 0.13192737382428379 0 -0.10667563132183119 0.1260080396076822 0 -0.13137241316615089 0.11357835761918721 0 -0.10667563132183119 0.1260080396076822 0 -0.1062978327852654 0.11550845570815239 0 -0.13137241316615089 0.11357835761918721 0 -0.1062978327852654 0.11550845570815239 0 -0.10429444750695741 0.1014886749251958 0 -0.13137241316615089 0.11357835761918721 0 -0.10667563132183119 0.1260080396076822 0 -0.10667563132183119 0.1260080396076822 0 -0.1062978327852654 0.11550845570815239 0 -0.096577670607123245 0.1239972751083621 0 -0.092569001324263961 0.1124699312803344 0 -0.1062978327852654 0.11550845570815239 0 -0.096577670607123245 0.1239972751083621 0 -0.092569001324263961 0.1124699312803344 0 -0.1062978327852654 0.11550845570815239 0 -0.10429444750695741 0.1014886749251958 0 -0.092569001324263961 0.1124699312803344 0 -0.087572523790740042 0.10155903889124659 0 -0.10429444750695741 0.1014886749251958 0 -0.087572523790740042 0.10155903889124659 0 -0.09233625647768956 0.091651488650119919 0 -0.10429444750695741 0.1014886749251958 0 -0.10370969952600501 0.019997694726909911 0 -0.098524362227562057 0.035744340183224317 0 -0.08645931971955316 0.02325136753113614 0 -0.10370969952600501 0.019997694726909911 0 -0.08645931971955316 0.02325136753113614 0 -0.091682611010439896 0.0063963380850077774 0 -0.10370969952600501 0.019997694726909911 0 -0.1180188049733784 0.030804183747700629 0 -0.098524362227562057 0.035744340183224317 0 -0.10370969952600501 0.019997694726909911 0 -0.10877227824827949 0.0075748546359299482 0 -0.091682611010439896 0.0063963380850077774 0 -0.1029392013539359 -0.0085751277431150782 0 -0.10877227824827949 0.0075748546359299482 0 -0.091682611010439896 0.0063963380850077774 0 -0.10370969952600501 0.019997694726909911 0 -0.10877227824827949 0.0075748546359299482 0 -0.11835839359799651 0.016938700943610479 0 -0.1029392013539359 -0.0085751277431150782 0 -0.12735709500343681 0.004015926865657337 0 -0.10877227824827949 0.0075748546359299482 0 -0.12735709500343681 0.004015926865657337 0 -0.10877227824827949 0.0075748546359299482 0 -0.11835839359799651 0.016938700943610479 0 -0.1339340902388827 0.022300844741854581 0 -0.11835839359799651 0.016938700943610479 0 -0.1180188049733784 0.030804183747700629 0 -0.10370969952600501 0.019997694726909911 0 -0.11835839359799651 0.016938700943610479 0 -0.1180188049733784 0.030804183747700629 0 -0.1180188049733784 0.030804183747700629 0 -0.1128457876968547 0.048091259023394652 0 -0.098524362227562057 0.035744340183224317 0 -0.13626681081840961 0.042829268155062397 0 -0.1128457876968547 0.048091259023394652 0 -0.13626681081840961 0.042829268155062397 0 -0.1180188049733784 0.030804183747700629 0 -0.1128457876968547 0.048091259023394652 0 -0.13626681081840961 0.042829268155062397 0 -0.1128457876968547 0.048091259023394652 0 -0.1248745965026067 0.059896082918310993 0 -0.10785209906359081 0.065371441260914459 0 -0.1128457876968547 0.048091259023394652 0 -0.1248745965026067 0.059896082918310993 0 -0.1128457876968547 0.048091259023394652 0 -0.089424764575299687 0.053353249891726941 0 -0.089923560922876636 0.068178037636278263 0 -0.10785209906359081 0.065371441260914459 0 -0.089424764575299687 0.053353249891726941 0 -0.10785209906359081 0.065371441260914459 0 -0.1128457876968547 0.048091259023394652 0 -0.089424764575299687 0.053353249891726941 0 -0.1128457876968547 0.048091259023394652 0 -0.098524362227562057 0.035744340183224317 0 -0.089424764575299687 0.053353249891726941 0 -0.098524362227562057 0.035744340183224317 0 -0.080687796874281473 0.038968286178477703 0 -0.08645931971955316 0.02325136753113614 0 -0.098524362227562057 0.035744340183224317 0 -0.080687796874281473 0.038968286178477703 0 -0.089424764575299687 0.053353249891726941 0 -0.080687796874281473 0.038968286178477703 0 -0.089424764575299687 0.053353249891726941 0 -0.083186879645449088 0.059889597987781727 0 -0.075164799511626648 0.065372869601281192 0 -0.080687796874281473 0.038968286178477703 0 -0.083186879645449088 0.059889597987781727 0 -0.089923560922876636 0.068178037636278263 0 -0.089424764575299687 0.053353249891726941 0 -0.083186879645449088 0.059889597987781727 0 -0.075164799511626648 0.065372869601281192 0 -0.080687796874281473 0.038968286178477703 0 -0.071303082845968715 0.053347503409362687 0 -0.075164799511626648 0.065372869601281192 0 -0.080687796874281473 0.038968286178477703 0 -0.075164799511626648 0.065372869601281192 0 -0.070406408885084593 0.061857930521202607 0 -0.071303082845968715 0.053347503409362687 0 -0.071303082845968715 0.053347503409362687 0 -0.064856269609628314 0.055117702274744398 0 -0.065400139349222536 0.045420728471107522 0 -0.070406408885084593 0.061857930521202607 0 -0.071303082845968715 0.053347503409362687 0 -0.064856269609628314 0.055117702274744398 0 -0.070406408885084593 0.061857930521202607 0 -0.064856269609628314 0.055117702274744398 0 -0.059815066152941319 0.061788281472960463 0 -0.080687796874281473 0.038968286178477703 0 -0.065400139349222536 0.045420728471107522 0 -0.063264057366842208 0.031259222641012697 0 -0.080687796874281473 0.038968286178477703 0 -0.063264057366842208 0.031259222641012697 0 -0.073460039823911166 0.024685388153665749 0 -0.080687796874281473 0.038968286178477703 0 -0.071303082845968715 0.053347503409362687 0 -0.065400139349222536 0.045420728471107522 0 -0.063264057366842208 0.031259222641012697 0 -0.073460039823911166 0.024685388153665749 0 -0.061440697951084179 0.017621877449499421 0 -0.073460039823911166 0.024685388153665749 0 -0.076769634387976737 0.01135693610240161 0 -0.061440697951084179 0.017621877449499421 0 -0.080687796874281473 0.038968286178477703 0 -0.073460039823911166 0.024685388153665749 0 -0.08645931971955316 0.02325136753113614 0 -0.073460039823911166 0.024685388153665749 0 -0.08645931971955316 0.02325136753113614 0 -0.076769634387976737 0.01135693610240161 0 -0.08645931971955316 0.02325136753113614 0 -0.091682611010439896 0.0063963380850077774 0 -0.076769634387976737 0.01135693610240161 0 -0.091682611010439896 0.0063963380850077774 0 -0.078933949510919491 0.00072378658541613432 0 -0.076769634387976737 0.01135693610240161 0 -0.086097875964997059 -0.0058870606910941042 0 -0.091682611010439896 0.0063963380850077774 0 -0.078933949510919491 0.00072378658541613432 0 -0.078933949510919491 0.00072378658541613432 0 -0.076769634387976737 0.01135693610240161 0 -0.068462160169621672 0.0025537029525893409 0 -0.068462160169621672 0.0025537029525893409 0 -0.057836245250817257 0.0062936453779614283 0 -0.061440697951084179 0.017621877449499421 0 -0.076769634387976737 0.01135693610240161 0 -0.068462160169621672 0.0025537029525893409 0 -0.061440697951084179 0.017621877449499421 0 -0.057836245250817257 0.0062936453779614283 0 -0.061440697951084179 0.017621877449499421 0 -0.042678209040760022 0.019440128409622049 0 -0.057836245250817257 0.0062936453779614283 0 -0.042678209040760022 0.019440128409622049 0 -0.044352522143416888 0.0050416822031405977 0 -0.063264057366842208 0.031259222641012697 0 -0.042678209040760022 0.019440128409622049 0 -0.05195897498334151 0.039592758420259042 0 -0.063264057366842208 0.031259222641012697 0 -0.061440697951084179 0.017621877449499421 0 -0.042678209040760022 0.019440128409622049 0 -0.042678209040760022 0.019440128409622049 0 -0.038256592764973757 0.039174794321751791 0 -0.042678209040760022 0.019440128409622049 0 -0.038256592764973757 0.039174794321751791 0 -0.027511467414372541 0.03001296694831072 0 -0.042678209040760022 0.019440128409622049 0 -0.028180513839983729 0.018098474401369 0 -0.027511467414372541 0.03001296694831072 0 -0.042678209040760022 0.019440128409622049 0 -0.032770024037711037 0.0084985419153508525 0 -0.028180513839983729 0.018098474401369 0 -0.032770024037711037 0.0084985419153508525 0 -0.03614709390981162 0.0015378833132510439 0 -0.044352522143416888 0.0050416822031405977 0 -0.029539197120254941 -0.00051038393964639519 0 -0.032770024037711037 0.0084985419153508525 0 -0.03614709390981162 0.0015378833132510439 0 -0.042678209040760022 0.019440128409622049 0 -0.032770024037711037 0.0084985419153508525 0 -0.044352522143416888 0.0050416822031405977 0 -0.042969512877196837 0.063698159366550891 0 -0.047980875447113908 0.056604040506729722 0 -0.052166049838275927 0.062310195238599278 0 -0.047980875447113908 0.056604040506729722 0 -0.052166049838275927 0.062310195238599278 0 -0.055804220694704088 0.051985500715961808 0 -0.064856269609628314 0.055117702274744398 0 -0.059815066152941319 0.061788281472960463 0 -0.055804220694704088 0.051985500715961808 0 -0.052166049838275927 0.062310195238599278 0 -0.059815066152941319 0.061788281472960463 0 -0.055804220694704088 0.051985500715961808 0 -0.064856269609628314 0.055117702274744398 0 -0.065400139349222536 0.045420728471107522 0 -0.055804220694704088 0.051985500715961808 0 -0.047980875447113908 0.056604040506729722 0 -0.055804220694704088 0.051985500715961808 0 -0.046350630683546529 0.050276175962098407 0 -0.055804220694704088 0.051985500715961808 0 -0.05195897498334151 0.039592758420259042 0 -0.046350630683546529 0.050276175962098407 0 -0.065400139349222536 0.045420728471107522 0 -0.055804220694704088 0.051985500715961808 0 -0.05195897498334151 0.039592758420259042 0 -0.065400139349222536 0.045420728471107522 0 -0.063264057366842208 0.031259222641012697 0 -0.05195897498334151 0.039592758420259042 0 -0.042678209040760022 0.019440128409622049 0 -0.05195897498334151 0.039592758420259042 0 -0.038256592764973757 0.039174794321751791 0 -0.05195897498334151 0.039592758420259042 0 -0.038256592764973757 0.039174794321751791 0 -0.046350630683546529 0.050276175962098407 0 -0.038256592764973757 0.039174794321751791 0 -0.033834976489186493 0.058909460233881362 0 -0.038256592764973757 0.039174794321751791 0 -0.038513274033404883 0.055407770980391423 0 -0.033834976489186493 0.058909460233881362 0 -0.038256592764973757 0.039174794321751791 0 -0.046350630683546529 0.050276175962098407 0 -0.038513274033404883 0.055407770980391423 0 -0.038256592764973757 0.039174794321751791 0 -0.033834976489186493 0.058909460233881362 0 -0.02879531395286377 0.050132256585483953 0 -0.046350630683546529 0.050276175962098407 0 -0.038513274033404883 0.055407770980391423 0 -0.042914570065583427 0.057802329486214707 0 -0.036732086871232597 0.066761861307427367 0 -0.033834976489186493 0.058909460233881362 0 -0.038907572144486188 0.060810532415041758 0 -0.038513274033404883 0.055407770980391423 0 -0.033834976489186493 0.058909460233881362 0 -0.038513274033404883 0.055407770980391423 0 -0.033834976489186493 0.058909460233881362 0 -0.038907572144486188 0.060810532415041758 0 -0.042969512877196837 0.063698159366550891 0 -0.038907572144486188 0.060810532415041758 0 -0.042914570065583427 0.057802329486214707 0 -0.038513274033404883 0.055407770980391423 0 -0.038907572144486188 0.060810532415041758 0 -0.042914570065583427 0.057802329486214707 0 -0.047980875447113908 0.056604040506729722 0 -0.046350630683546529 0.050276175962098407 0 -0.042914570065583427 0.057802329486214707 0 -0.042969512877196837 0.063698159366550891 0 -0.047980875447113908 0.056604040506729722 0 -0.042914570065583427 0.057802329486214707 0 -0.033834976489186493 0.058909460233881362 0 -0.01963881101933795 0.057650575484614511 0 -0.02879531395286377 0.050132256585483953 0 -0.01963881101933795 0.057650575484614511 0 -0.02879531395286377 0.050132256585483953 0 -0.02345087553795689 0.044794196301688183 0 -0.01963881101933795 0.057650575484614511 0 -0.02345087553795689 0.044794196301688183 0 -0.012175026131353321 0.050402421608982242 0 -0.02345087553795689 0.044794196301688183 0 -0.014695186475719159 0.0359408453649432 0 -0.012175026131353321 0.050402421608982242 0 -0.038256592764973757 0.039174794321751791 0 -0.02879531395286377 0.050132256585483953 0 -0.02345087553795689 0.044794196301688183 0 -0.038256592764973757 0.039174794321751791 0 -0.02345087553795689 0.044794196301688183 0 -0.027511467414372541 0.03001296694831072 0 -0.02345087553795689 0.044794196301688183 0 -0.014695186475719159 0.0359408453649432 0 -0.027511467414372541 0.03001296694831072 0 -0.014695186475719159 0.0359408453649432 0 -0.0023331541944977092 0.045311556235899067 0 0.00074240361007229996 0.028778475488121531 0 -0.014695186475719159 0.0359408453649432 0 -0.0023331541944977092 0.045311556235899067 0 -0.012175026131353321 0.050402421608982242 0 -0.0023331541944977092 0.045311556235899067 0 -0.012175026131353321 0.050402421608982242 0 0.00079413703044923156 0.058803151297745167 0 -0.012175026131353321 0.050402421608982242 0 -0.0089029190745683329 0.062319161291970238 0 0.00079413703044923156 0.058803151297745167 0 -0.01963881101933795 0.057650575484614511 0 -0.012175026131353321 0.050402421608982242 0 -0.0089029190745683329 0.062319161291970238 0 -0.021996997598287969 0.010981086364913869 0 -0.02112675760807068 0.0030512678310729521 0 -0.0083058662928979787 0.012079608812324741 0 -0.021996997598287969 0.010981086364913869 0 -0.01661374249992489 0.02103319015209278 0 -0.0083058662928979787 0.012079608812324741 0 -0.021996997598287969 0.010981086364913869 0 -0.02112675760807068 0.0030512678310729521 0 -0.02631380729169577 0.0053104208567875946 0 -0.029539197120254941 -0.00051038393964639519 0 -0.02112675760807068 0.0030512678310729521 0 -0.02631380729169577 0.0053104208567875946 0 -0.029539197120254941 -0.00051038393964639519 0 -0.032770024037711037 0.0084985419153508525 0 -0.02631380729169577 0.0053104208567875946 0 -0.032770024037711037 0.0084985419153508525 0 -0.021996997598287969 0.010981086364913869 0 -0.02631380729169577 0.0053104208567875946 0 -0.032770024037711037 0.0084985419153508525 0 -0.021996997598287969 0.010981086364913869 0 -0.028180513839983729 0.018098474401369 0 -0.028180513839983729 0.018098474401369 0 -0.027511467414372541 0.03001296694831072 0 -0.01661374249992489 0.02103319015209278 0 -0.014695186475719159 0.0359408453649432 0 -0.027511467414372541 0.03001296694831072 0 -0.01661374249992489 0.02103319015209278 0 -0.021996997598287969 0.010981086364913869 0 -0.028180513839983729 0.018098474401369 0 -0.01661374249992489 0.02103319015209278 0 -0.01661374249992489 0.02103319015209278 0 0.00074240361007229996 0.028778475488121531 0 -0.0083058662928979787 0.012079608812324741 0 0.0060294939382754481 0.01286563290641534 0 0.00074240361007229996 0.028778475488121531 0 -0.014695186475719159 0.0359408453649432 0 -0.01661374249992489 0.02103319015209278 0 0.00074240361007229996 0.028778475488121531 0 -0.0083058662928979787 0.012079608812324741 0 0.00074240361007229996 0.028778475488121531 0 -0.01661374249992489 0.02103319015209278 0 -0.0083058662928979787 0.012079608812324741 0 0.00074240361007229996 0.028778475488121531 0 -0.0072764121498596901 -0.0036325873431357339 0 -0.0083058662928979787 0.012079608812324741 0 0.0012074066645448821 -0.00065723147797176382 0 -0.0072764121498596901 -0.0036325873431357339 0 -0.013607688627124061 -0.00178224205395049 0 -0.0083058662928979787 0.012079608812324741 0 -0.017354136195868258 -0.0046192578634720229 0 -0.0083058662928979787 0.012079608812324741 0 -0.017354136195868258 -0.0046192578634720229 0 -0.013607688627124061 -0.00178224205395049 0 -0.0083058662928979787 0.012079608812324741 0 -0.0083058662928979787 0.012079608812324741 0 0.0060294939382754481 0.01286563290641534 0 0.0012074066645448821 -0.00065723147797176382 0 -0.017354136195868258 -0.0046192578634720229 0 -0.02112675760807068 0.0030512678310729521 0 -0.0083058662928979787 0.012079608812324741 0 0.0060294939382754481 0.01286563290641534 0 0.0012074066645448821 -0.00065723147797176382 0 0.01265631079038235 -0.01012693536007268 0 0.0060294939382754481 0.01286563290641534 0 0.020311547060899309 0.014329649790385431 0 0.01265631079038235 -0.01012693536007268 0 0.00074240361007229996 0.028778475488121531 0 0.015746539320639769 0.024046632949657649 0 0.022626785018342459 0.038544513255683338 0 0.0060294939382754481 0.01286563290641534 0 0.00074240361007229996 0.028778475488121531 0 0.015746539320639769 0.024046632949657649 0 0.0060294939382754481 0.01286563290641534 0 0.015746539320639769 0.024046632949657649 0 0.020311547060899309 0.014329649790385431 0 0.015746539320639769 0.024046632949657649 0 0.029022466975609298 0.02571489330768258 0 0.020311547060899309 0.014329649790385431 0 0.015746539320639769 0.024046632949657649 0 0.029022466975609298 0.02571489330768258 0 0.022626785018342459 0.038544513255683338 0 0.020311547060899309 0.014329649790385431 0 0.034885408484197772 0.0062912350017927032 0 0.01265631079038235 -0.01012693536007268 0 0.029022466975609298 0.02571489330768258 0 0.020311547060899309 0.014329649790385431 0 0.034885408484197772 0.0062912350017927032 0 0.00079413703044923156 0.058803151297745167 0 0.01366790099406239 0.052632887419703241 0 0.0065236609159091173 0.071671444604676282 0 -0.0023331541944977092 0.045311556235899067 0 0.00079413703044923156 0.058803151297745167 0 0.01366790099406239 0.052632887419703241 0 0.00074240361007229996 0.028778475488121531 0 0.01366790099406239 0.052632887419703241 0 0.022626785018342459 0.038544513255683338 0 0.00074240361007229996 0.028778475488121531 0 0.022626785018342459 0.038544513255683338 0 -0.0023331541944977092 0.045311556235899067 0 0.00074240361007229996 0.028778475488121531 0 0.01366790099406239 0.052632887419703241 0 0.00074240361007229996 0.028778475488121531 0 0.01366790099406239 0.052632887419703241 0 0.029022466975609298 0.02571489330768258 0 0.022626785018342459 0.038544513255683338 0 0.037630953216902623 0.033668105561091018 0 0.01366790099406239 0.052632887419703241 0 0.022626785018342459 0.038544513255683338 0 0.025434983742737761 0.055249644843112657 0 0.022626785018342459 0.038544513255683338 0 0.025434983742737761 0.055249644843112657 0 0.034616451435572633 0.051242168749322393 0 0.025434983742737761 0.055249644843112657 0 0.034062632092931817 0.061255223706808547 0 0.02703491536905472 0.067401080742933134 0 0.01366790099406239 0.052632887419703241 0 0.025434983742737761 0.055249644843112657 0 0.02703491536905472 0.067401080742933134 0 0.034616451435572633 0.051242168749322393 0 0.044511166426612833 0.04831055102324476 0 0.060132464308973767 0.062986029428160187 0 0.034616451435572633 0.051242168749322393 0 0.060132464308973767 0.062986029428160187 0 0.044258496001147778 0.063884183083345675 0 0.034062632092931817 0.061255223706808547 0 0.034616451435572633 0.051242168749322393 0 0.044258496001147778 0.063884183083345675 0 0.025434983742737761 0.055249644843112657 0 0.034062632092931817 0.061255223706808547 0 0.034616451435572633 0.051242168749322393 0 0.022626785018342459 0.038544513255683338 0 0.044511166426612833 0.04831055102324476 0 0.022626785018342459 0.038544513255683338 0 0.034616451435572633 0.051242168749322393 0 0.044511166426612833 0.04831055102324476 0 0.022626785018342459 0.038544513255683338 0 0.044511166426612833 0.04831055102324476 0 0.037630953216902623 0.033668105561091018 0 0.044511166426612833 0.04831055102324476 0 0.037630953216902623 0.033668105561091018 0 0.0484135161167236 0.034205204957136963 0 0.0484135161167236 0.034205204957136963 0 0.060669767880595721 0.038134724015348051 0 0.0518117103670514 0.042737821036878322 0 0.0484135161167236 0.034205204957136963 0 0.060669767880595721 0.038134724015348051 0 0.057623658326613529 0.02352368721002385 0 0.060669767880595721 0.038134724015348051 0 0.0518117103670514 0.042737821036878322 0 0.059559274975242667 0.047504887075434543 0 0.044511166426612833 0.04831055102324476 0 0.0518117103670514 0.042737821036878322 0 0.059559274975242667 0.047504887075434543 0 0.044511166426612833 0.04831055102324476 0 0.0484135161167236 0.034205204957136963 0 0.0518117103670514 0.042737821036878322 0 0.044511166426612833 0.04831055102324476 0 0.066395547834883203 0.05807658879080619 0 0.060132464308973767 0.062986029428160187 0 0.034616451435572633 0.051242168749322393 0 0.060132464308973767 0.062986029428160187 0 0.044511166426612833 0.04831055102324476 0 0.066395547834883203 0.05807658879080619 0 0.044511166426612833 0.04831055102324476 0 0.059559274975242667 0.047504887075434543 0 0.066395547834883203 0.05807658879080619 0 0.034885408484197772 0.0062912350017927032 0 0.052968053050369737 0.0090809173488315582 0 0.042517259973231587 -0.011683923625132649 0 0.034885408484197772 0.0062912350017927032 0 0.043580831547224863 0.021565365261707499 0 0.052968053050369737 0.0090809173488315582 0 0.029022466975609298 0.02571489330768258 0 0.034885408484197772 0.0062912350017927032 0 0.043580831547224863 0.021565365261707499 0 0.029022466975609298 0.02571489330768258 0 0.037630953216902623 0.033668105561091018 0 0.043580831547224863 0.021565365261707499 0 0.037630953216902623 0.033668105561091018 0 0.0484135161167236 0.034205204957136963 0 0.043580831547224863 0.021565365261707499 0 0.057623658326613529 0.02352368721002385 0 0.052968053050369737 0.0090809173488315582 0 0.071708216805815503 0.016768608491387289 0 0.043580831547224863 0.021565365261707499 0 0.057623658326613529 0.02352368721002385 0 0.052968053050369737 0.0090809173488315582 0 0.0484135161167236 0.034205204957136963 0 0.043580831547224863 0.021565365261707499 0 0.057623658326613529 0.02352368721002385 0 0.052968053050369737 0.0090809173488315582 0 0.071708216805815503 0.016768608491387289 0 0.067492943165135169 -0.0019794682467893379 0 0.083930998993742512 0.0059737405228527038 0 0.071708216805815503 0.016768608491387289 0 0.067492943165135169 -0.0019794682467893379 0 0.083930998993742512 0.0059737405228527038 0 0.098495163759696414 0.0029673617968291321 0 0.094917995650245529 0.021722354499223519 0 0.083930998993742512 0.0059737405228527038 0 0.071708216805815503 0.016768608491387289 0 0.094917995650245529 0.021722354499223519 0 0.071708216805815503 0.016768608491387289 0 0.07449934060461412 0.03258063005354956 0 0.094917995650245529 0.021722354499223519 0 0.07449934060461412 0.03258063005354956 0 0.087237150257314613 0.037926204838731957 0 0.094917995650245529 0.021722354499223519 0 0.057623658326613529 0.02352368721002385 0 0.071708216805815503 0.016768608491387289 0 0.07449934060461412 0.03258063005354956 0 0.060669767880595721 0.038134724015348051 0 0.057623658326613529 0.02352368721002385 0 0.07449934060461412 0.03258063005354956 0 0.060669767880595721 0.038134724015348051 0 0.069155187538762042 0.045022305850501279 0 0.07449934060461412 0.03258063005354956 0 0.060669767880595721 0.038134724015348051 0 0.059559274975242667 0.047504887075434543 0 0.069155187538762042 0.045022305850501279 0 0.069155187538762042 0.045022305850501279 0 0.07449934060461412 0.03258063005354956 0 0.079692196512252927 0.044953406994506007 0 0.059559274975242667 0.047504887075434543 0 0.069155187538762042 0.045022305850501279 0 0.067326156772233525 0.050603546620565112 0 0.059559274975242667 0.047504887075434543 0 0.066395547834883203 0.05807658879080619 0 0.067326156772233525 0.050603546620565112 0 0.066395547834883203 0.05807658879080619 0 0.067326156772233525 0.050603546620565112 0 0.074194616740046182 0.051810404765518438 0 0.069155187538762042 0.045022305850501279 0 0.067326156772233525 0.050603546620565112 0 0.074194616740046182 0.051810404765518438 0 0.069155187538762042 0.045022305850501279 0 0.074194616740046182 0.051810404765518438 0 0.079692196512252927 0.044953406994506007 0 0.066395547834883203 0.05807658879080619 0 0.074194616740046182 0.051810404765518438 0 0.080343143758095259 0.058335218209008277 0 0.066395547834883203 0.05807658879080619 0 0.080343143758095259 0.058335218209008277 0 0.08827992924315356 0.067842626558367619 0 0.080343143758095259 0.058335218209008277 0 0.083306510346727383 0.05351440315152866 0 0.090416084875221875 0.058235299142909973 0 0.074194616740046182 0.051810404765518438 0 0.083306510346727383 0.05351440315152866 0 0.079692196512252927 0.044953406994506007 0 0.083306510346727383 0.05351440315152866 0 0.089760373586053266 0.048866493307206167 0 0.079692196512252927 0.044953406994506007 0 0.074194616740046182 0.051810404765518438 0 0.080343143758095259 0.058335218209008277 0 0.083306510346727383 0.05351440315152866 0 0.083306510346727383 0.05351440315152866 0 0.089760373586053266 0.048866493307206167 0 0.090416084875221875 0.058235299142909973 0 0.089760373586053266 0.048866493307206167 0 0.090416084875221875 0.058235299142909973 0 0.099395501669828634 0.055681054702382278 0 0.080343143758095259 0.058335218209008277 0 0.090416084875221875 0.058235299142909973 0 0.08827992924315356 0.067842626558367619 0 0.087237150257314613 0.037926204838731957 0 0.098930039005792711 0.04227996871225087 0 0.094917995650245529 0.021722354499223519 0 0.07449934060461412 0.03258063005354956 0 0.079692196512252927 0.044953406994506007 0 0.087237150257314613 0.037926204838731957 0 0.089760373586053266 0.048866493307206167 0 0.079692196512252927 0.044953406994506007 0 0.087237150257314613 0.037926204838731957 0 0.089760373586053266 0.048866493307206167 0 0.087237150257314613 0.037926204838731957 0 0.098930039005792711 0.04227996871225087 0 0.10894092886672049 0.033503019923715648 0 0.098930039005792711 0.04227996871225087 0 0.11550376979223601 0.054551475820320147 0 0.10894092886672049 0.033503019923715648 0 0.098930039005792711 0.04227996871225087 0 0.094917995650245529 0.021722354499223519 0 0.098930039005792711 0.04227996871225087 0 0.099395501669828634 0.055681054702382278 0 0.11550376979223601 0.054551475820320147 0 0.099395501669828634 0.055681054702382278 0 0.11550376979223601 0.054551475820320147 0 0.10561354398445311 0.069921878226714862 0 0.090416084875221875 0.058235299142909973 0 0.099395501669828634 0.055681054702382278 0 0.095618088847860577 0.065038419849084594 0 0.089760373586053266 0.048866493307206167 0 0.098930039005792711 0.04227996871225087 0 0.099395501669828634 0.055681054702382278 0 0.10894092886672049 0.033503019923715648 0 0.11961069471150609 0.02296590295220987 0 0.12977361784467401 0.039215218793308727 0 0.10894092886672049 0.033503019923715648 0 0.11550376979223601 0.054551475820320147 0 0.12977361784467401 0.039215218793308727 0 0.11961069471150609 0.02296590295220987 0 0.1158546052028349 0.0064685721448778594 0 0.094917995650245529 0.021722354499223519 0 0.11961069471150609 0.02296590295220987 0 0.1158546052028349 0.0064685721448778594 0 0.13894824890776639 0.02136224913872127 0 0.1158546052028349 0.0064685721448778594 0 0.098495163759696414 0.0029673617968291321 0 0.094917995650245529 0.021722354499223519 0 0.10894092886672049 0.033503019923715648 0 0.11961069471150609 0.02296590295220987 0 0.094917995650245529 0.021722354499223519 0 0.097728221435088053 0.099184528615223033 0 0.110275064223293 0.10236359857942121 0 0.11116449005577619 0.086473750785835857 0 0.099894961061174667 0.1104201015940532 0 0.11150799601301251 0.1117412241471519 0 0.110275064223293 0.10236359857942121 0 0.097728221435088053 0.099184528615223033 0 0.099894961061174667 0.1104201015940532 0 0.110275064223293 0.10236359857942121 0 0.097728221435088053 0.099184528615223033 0 0.099894961061174667 0.1104201015940532 0 0.084925795867796111 0.1103515185161017 0 0.099894961061174667 0.1104201015940532 0 0.096984900528893664 0.1212489081817222 0 0.084925795867796111 0.1103515185161017 0 0.099894961061174667 0.1104201015940532 0 0.096984900528893664 0.1212489081817222 0 0.10712684862241641 0.1210429748963526 0 0.096984900528893664 0.1212489081817222 0 0.10712684862241641 0.1210429748963526 0 0.10589272808503949 0.13156516273042271 0 0.099894961061174667 0.1104201015940532 0 0.10712684862241641 0.1210429748963526 0 0.11150799601301251 0.1117412241471519 0 0.10712684862241641 0.1210429748963526 0 0.11150799601301251 0.1117412241471519 0 0.1187293914863337 0.1182846474287873 0 0.11150799601301251 0.1117412241471519 0 0.1187293914863337 0.1182846474287873 0 0.1197878353292403 0.1092484053650479 0 0.10712684862241641 0.1210429748963526 0 0.1187293914863337 0.1182846474287873 0 0.114987521205969 0.1268010028982309 0 0.1187293914863337 0.1182846474287873 0 0.12813823657366311 0.12049833089676459 0 0.12624189261331301 0.1140678077034443 0 0.1187293914863337 0.1182846474287873 0 0.12212988809696081 0.1249307776834532 0 0.12813823657366311 0.12049833089676459 0 0.1187293914863337 0.1182846474287873 0 0.12212988809696081 0.1249307776834532 0 0.114987521205969 0.1268010028982309 0 0.1187293914863337 0.1182846474287873 0 0.1197878353292403 0.1092484053650479 0 0.12624189261331301 0.1140678077034443 0 0.1216961693062274 0.1020981758197984 0 0.110275064223293 0.10236359857942121 0 0.11116449005577619 0.086473750785835857 0 0.1197878353292403 0.1092484053650479 0 0.1216961693062274 0.1020981758197984 0 0.1302764983332621 0.10693497851168419 0 0.1216961693062274 0.1020981758197984 0 0.11116449005577619 0.086473750785835857 0 0.13668050292917741 0.098217611464673699 0 0.1197878353292403 0.1092484053650479 0 0.1216961693062274 0.1020981758197984 0 0.110275064223293 0.10236359857942121 0 0.11150799601301251 0.1117412241471519 0 0.1197878353292403 0.1092484053650479 0 0.110275064223293 0.10236359857942121 0 0.11116449005577619 0.086473750785835857 0 0.1207366242219714 0.074251990558816788 0 0.1300820653953097 0.084166932106396392 0 0.11116449005577619 0.086473750785835857 0 0.13668050292917741 0.098217611464673699 0 0.11116449005577619 0.086473750785835857 0 0.1207366242219714 0.074251990558816788 0 0.10561354398445311 0.069921878226714862 0 0.11550376979223601 0.054551475820320147 0 0.1207366242219714 0.074251990558816788 0 0.13255022158949201 0.068763676371196639 0 0.11550376979223601 0.054551475820320147 0 0.1207366242219714 0.074251990558816788 0 0.10561354398445311 0.069921878226714862 0 0.11116449005577619 0.086473750785835857 0 0.10561354398445311 0.069921878226714862 0 0.085648477182374977 0.074729890106998029 0 0.10561354398445311 0.069921878226714862 0 0.095618088847860577 0.065038419849084594 0 0.085648477182374977 0.074729890106998029 0 0.099395501669828634 0.055681054702382278 0 0.10561354398445311 0.069921878226714862 0 0.095618088847860577 0.065038419849084594 0 0.11116449005577619 0.086473750785835857 0 0.085648477182374977 0.074729890106998029 0 0.11116449005577619 0.086473750785835857 0 0.090808031879269946 0.087622927320568048 0 0.085648477182374977 0.074729890106998029 0 0.097728221435088053 0.099184528615223033 0 0.11116449005577619 0.086473750785835857 0 0.090808031879269946 0.087622927320568048 0 0.097728221435088053 0.099184528615223033 0 0.090808031879269946 0.087622927320568048 0 0.080235742217082393 0.093435287859391092 0 0.090808031879269946 0.087622927320568048 0 0.078675001300488379 0.083882301042573534 0 0.085648477182374977 0.074729890106998029 0 0.090808031879269946 0.087622927320568048 0 0.078675001300488379 0.083882301042573534 0 0.080235742217082393 0.093435287859391092 0 0.066395547834883203 0.05807658879080619 0 0.08827992924315356 0.067842626558367619 0 0.085648477182374977 0.074729890106998029 0 0.095618088847860577 0.065038419849084594 0 0.08827992924315356 0.067842626558367619 0 0.085648477182374977 0.074729890106998029 0 0.090416084875221875 0.058235299142909973 0 0.095618088847860577 0.065038419849084594 0 0.08827992924315356 0.067842626558367619 0 0.066395547834883203 0.05807658879080619 0 0.085648477182374977 0.074729890106998029 0 0.060132464308973767 0.062986029428160187 0 0.066395547834883203 0.05807658879080619 0 0.08827992924315356 0.067842626558367619 0 0.085648477182374977 0.074729890106998029 0 0.068637102026180674 0.07792917868559901 0 0.060132464308973767 0.062986029428160187 0 0.085648477182374977 0.074729890106998029 0 0.060132464308973767 0.062986029428160187 0 0.078675001300488379 0.083882301042573534 0 0.085648477182374977 0.074729890106998029 0 0.068637102026180674 0.07792917868559901 0 0.080235742217082393 0.093435287859391092 0 0.069503799956795384 0.087722797055870286 0 0.068523875558259784 0.095111972458496966 0 0.078675001300488379 0.083882301042573534 0 0.080235742217082393 0.093435287859391092 0 0.069503799956795384 0.087722797055870286 0 0.078675001300488379 0.083882301042573534 0 0.068637102026180674 0.07792917868559901 0 0.069503799956795384 0.087722797055870286 0 0.068637102026180674 0.07792917868559901 0 0.069503799956795384 0.087722797055870286 0 0.060111091978902922 0.083782113849914977 0 0.069503799956795384 0.087722797055870286 0 0.06135777996986308 0.093915161513068182 0 0.060111091978902922 0.083782113849914977 0 0.069503799956795384 0.087722797055870286 0 0.068523875558259784 0.095111972458496966 0 0.06135777996986308 0.093915161513068182 0 0.068523875558259784 0.095111972458496966 0 0.071520258741129425 0.10189571548122769 0 0.062413973273008162 0.1018934272394761 0 0.068523875558259784 0.095111972458496966 0 0.062413973273008162 0.1018934272394761 0 0.06135777996986308 0.093915161513068182 0 0.071520258741129425 0.10189571548122769 0 0.072821304814728441 0.1108529925529516 0 0.063718101814298073 0.11016590081819259 0 0.071520258741129425 0.10189571548122769 0 0.063718101814298073 0.11016590081819259 0 0.062413973273008162 0.1018934272394761 0 0.071520258741129425 0.10189571548122769 0 0.084925795867796111 0.1103515185161017 0 0.072821304814728441 0.1108529925529516 0 0.080235742217082393 0.093435287859391092 0 0.068523875558259784 0.095111972458496966 0 0.071520258741129425 0.10189571548122769 0 0.097728221435088053 0.099184528615223033 0 0.080235742217082393 0.093435287859391092 0 0.084925795867796111 0.1103515185161017 0 0.080235742217082393 0.093435287859391092 0 0.071520258741129425 0.10189571548122769 0 0.084925795867796111 0.1103515185161017 0 0.084925795867796111 0.1103515185161017 0 0.074154959480044275 0.1204842858357125 0 0.087075880893963842 0.12621803440601359 0 0.096984900528893664 0.1212489081817222 0 0.084925795867796111 0.1103515185161017 0 0.087075880893963842 0.12621803440601359 0 0.084925795867796111 0.1103515185161017 0 0.074154959480044275 0.1204842858357125 0 0.072821304814728441 0.1108529925529516 0 0.074154959480044275 0.1204842858357125 0 0.072821304814728441 0.1108529925529516 0 0.063718101814298073 0.11016590081819259 0 0.074154959480044275 0.1204842858357125 0 0.063718101814298073 0.11016590081819259 0 0.060124536552058239 0.11864948812996751 0 0.074154959480044275 0.1204842858357125 0 0.060124536552058239 0.11864948812996751 0 0.061109117960118017 0.12720913792676911 0 0.060124536552058239 0.11864948812996751 0 0.052595679859244633 0.1236025024456274 0 0.054913207086597561 0.11271600588853189 0 0.060124536552058239 0.11864948812996751 0 0.052595679859244633 0.1236025024456274 0 0.061109117960118017 0.12720913792676911 0 0.052595679859244633 0.1236025024456274 0 0.054913207086597561 0.11271600588853189 0 0.046771683079868627 0.1089772416004138 0 0.063718101814298073 0.11016590081819259 0 0.060124536552058239 0.11864948812996751 0 0.054913207086597561 0.11271600588853189 0 0.063718101814298073 0.11016590081819259 0 0.062413973273008162 0.1018934272394761 0 0.053620768430252298 0.1031656988462608 0 0.063718101814298073 0.11016590081819259 0 0.054913207086597561 0.11271600588853189 0 0.053620768430252298 0.1031656988462608 0 0.06135777996986308 0.093915161513068182 0 0.053620768430252298 0.1031656988462608 0 0.051535176025136201 0.090416251810209708 0 0.062413973273008162 0.1018934272394761 0 0.06135777996986308 0.093915161513068182 0 0.053620768430252298 0.1031656988462608 0 0.053620768430252298 0.1031656988462608 0 0.042875633238578528 0.09739353282270094 0 0.051535176025136201 0.090416251810209708 0 0.053620768430252298 0.1031656988462608 0 0.046771683079868627 0.1089772416004138 0 0.042875633238578528 0.09739353282270094 0 0.054913207086597561 0.11271600588853189 0 0.053620768430252298 0.1031656988462608 0 0.046771683079868627 0.1089772416004138 0 0.046771683079868627 0.1089772416004138 0 0.042875633238578528 0.09739353282270094 0 0.034382595390138257 0.1099700727945534 0 0.042875633238578528 0.09739353282270094 0 0.034382595390138257 0.1099700727945534 0 0.030708755379597181 0.088685576768743155 0 0.034382595390138257 0.1099700727945534 0 0.030708755379597181 0.088685576768743155 0 0.052595679859244633 0.1236025024456274 0 0.046771683079868627 0.1089772416004138 0 0.034382595390138257 0.1099700727945534 0 0.034382595390138257 0.1099700727945534 0 0.02520709702204247 0.1232263280856261 0 0.037354296692750887 0.12718670835402709 0 0.052595679859244633 0.1236025024456274 0 0.034382595390138257 0.1099700727945534 0 0.037354296692750887 0.12718670835402709 0 0.034382595390138257 0.1099700727945534 0 0.037354296692750887 0.12718670835402709 0 0.052595679859244633 0.1236025024456274 0 0.034382595390138257 0.1099700727945534 0 0.060132464308973767 0.062986029428160187 0 0.051537231586459821 0.0703604747810012 0 0.044258496001147778 0.063884183083345675 0 0.051537231586459821 0.0703604747810012 0 0.045053238281461433 0.071665999821029613 0 0.044258496001147778 0.063884183083345675 0 0.060132464308973767 0.062986029428160187 0 0.058160070023191839 0.074213970699792686 0 0.051537231586459821 0.0703604747810012 0 0.068637102026180674 0.07792917868559901 0 0.060132464308973767 0.062986029428160187 0 0.058160070023191839 0.074213970699792686 0 0.051537231586459821 0.0703604747810012 0 0.049495561811348857 0.078896267932753172 0 0.045053238281461433 0.071665999821029613 0 0.058160070023191839 0.074213970699792686 0 0.051537231586459821 0.0703604747810012 0 0.049495561811348857 0.078896267932753172 0 0.049495561811348857 0.078896267932753172 0 0.051535176025136201 0.090416251810209708 0 0.041750220721871581 0.085344735896560275 0 0.049495561811348857 0.078896267932753172 0 0.060111091978902922 0.083782113849914977 0 0.051535176025136201 0.090416251810209708 0 0.068637102026180674 0.07792917868559901 0 0.058160070023191839 0.074213970699792686 0 0.060111091978902922 0.083782113849914977 0 0.058160070023191839 0.074213970699792686 0 0.049495561811348857 0.078896267932753172 0 0.060111091978902922 0.083782113849914977 0 0.06135777996986308 0.093915161513068182 0 0.060111091978902922 0.083782113849914977 0 0.051535176025136201 0.090416251810209708 0 0.042875633238578528 0.09739353282270094 0 0.051535176025136201 0.090416251810209708 0 0.041750220721871581 0.085344735896560275 0 0.042875633238578528 0.09739353282270094 0 0.041750220721871581 0.085344735896560275 0 0.030708755379597181 0.088685576768743155 0 0.041750220721871581 0.085344735896560275 0 0.037489048909448763 0.07466528487264068 0 0.030708755379597181 0.088685576768743155 0 0.049495561811348857 0.078896267932753172 0 0.041750220721871581 0.085344735896560275 0 0.037489048909448763 0.07466528487264068 0 0.037489048909448763 0.07466528487264068 0 0.02703491536905472 0.067401080742933134 0 0.030708755379597181 0.088685576768743155 0 0.049495561811348857 0.078896267932753172 0 0.045053238281461433 0.071665999821029613 0 0.037489048909448763 0.07466528487264068 0 0.045053238281461433 0.071665999821029613 0 0.037489048909448763 0.07466528487264068 0 0.037579666130808903 0.067774354445351542 0 0.034062632092931817 0.061255223706808547 0 0.037579666130808903 0.067774354445351542 0 0.02703491536905472 0.067401080742933134 0 0.037489048909448763 0.07466528487264068 0 0.037579666130808903 0.067774354445351542 0 0.02703491536905472 0.067401080742933134 0 0.034062632092931817 0.061255223706808547 0 0.037579666130808903 0.067774354445351542 0 0.044258496001147778 0.063884183083345675 0 0.045053238281461433 0.071665999821029613 0 0.037579666130808903 0.067774354445351542 0 0.044258496001147778 0.063884183083345675 0 0.02703491536905472 0.067401080742933134 0 0.030708755379597181 0.088685576768743155 0 0.01366790099406239 0.052632887419703241 0 0.026593398378051959 0.076487299351285121 0 0.01366790099406239 0.052632887419703241 0 0.02703491536905472 0.067401080742933134 0 0.026593398378051959 0.076487299351285121 0 0.02703491536905472 0.067401080742933134 0 0.026593398378051959 0.076487299351285121 0 0.030708755379597181 0.088685576768743155 0 0.01366790099406239 0.052632887419703241 0 0.026593398378051959 0.076487299351285121 0 0.01611389888654503 0.070322973248010373 0 0.026593398378051959 0.076487299351285121 0 0.01611389888654503 0.070322973248010373 0 0.01767063525815666 0.080500261616376856 0 0.01767063525815666 0.080500261616376856 0 0.030708755379597181 0.088685576768743155 0 0.011643404763696401 0.092949868607662828 0 0.026593398378051959 0.076487299351285121 0 0.01767063525815666 0.080500261616376856 0 0.030708755379597181 0.088685576768743155 0 0.01767063525815666 0.080500261616376856 0 0.011643404763696401 0.092949868607662828 0 0.0065236609159091173 0.071671444604676282 0 -0.01109578586274463 0.07592966442077155 0 0.011643404763696401 0.092949868607662828 0 0.0065236609159091173 0.071671444604676282 0 -0.01109578586274463 0.07592966442077155 0 0.011643404763696401 0.092949868607662828 0 0.01366790099406239 0.052632887419703241 0 0.01611389888654503 0.070322973248010373 0 0.0065236609159091173 0.071671444604676282 0 0.01611389888654503 0.070322973248010373 0 0.01767063525815666 0.080500261616376856 0 0.0065236609159091173 0.071671444604676282 0 -0.0031702267477386531 0.067180855403790804 0 0.00079413703044923156 0.058803151297745167 0 0.0065236609159091173 0.071671444604676282 0 0.034382595390138257 0.1099700727945534 0 0.02520709702204247 0.1232263280856261 0 0.01356063639681436 0.11371506303709419 0 0.02520709702204247 0.1232263280856261 0 0.01356063639681436 0.11371506303709419 0 0.011098566836083609 0.13484946890849181 0 0.034382595390138257 0.1099700727945534 0 0.011643404763696401 0.092949868607662828 0 0.01356063639681436 0.11371506303709419 0 0.034382595390138257 0.1099700727945534 0 0.011643404763696401 0.092949868607662828 0 0.034382595390138257 0.1099700727945534 0 0.030708755379597181 0.088685576768743155 0 0.011643404763696401 0.092949868607662828 0 -0.0040088977147468936 0.097024336429998151 0 0.011643404763696401 0.092949868607662828 0 0.0025937760044158291 0.1064596481343341 0 0.011643404763696401 0.092949868607662828 0 0.0025937760044158291 0.1064596481343341 0 0.01356063639681436 0.11371506303709419 0 -0.007175360702145514 0.1155930690216506 0 0.0025937760044158291 0.1064596481343341 0 0.01356063639681436 0.11371506303709419 0 -0.007175360702145514 0.1155930690216506 0 0.01356063639681436 0.11371506303709419 0 0.011098566836083609 0.13484946890849181 0 -0.007175360702145514 0.1155930690216506 0 0.011098566836083609 0.13484946890849181 0 0.02520709702204247 0.1232263280856261 0 0.011098566836083609 0.13484946890849181 0 0.028759663239593541 0.13617761485890201 0 0.02520709702204247 0.1232263280856261 0 0.028759663239593541 0.13617761485890201 0 0.037354296692750887 0.12718670835402709 0 0.011098566836083609 0.13484946890849181 0 0.029372494374312729 0.15410586879533311 0 0.013538337341477229 0.1636201682865295 0 0.011098566836083609 0.13484946890849181 0 0.028759663239593541 0.13617761485890201 0 0.029372494374312729 0.15410586879533311 0 0.011098566836083609 0.13484946890849181 0 0.029372494374312729 0.15410586879533311 0 -0.0048034666842798916 0.1614245706846468 0 0.011098566836083609 0.13484946890849181 0 0.013538337341477229 0.1636201682865295 0 -0.0057956805663459468 0.1892940575843915 0 -0.0048034666842798916 0.1614245706846468 0 0.013538337341477229 0.1636201682865295 0 -0.0057956805663459468 0.1892940575843915 0 0.013538337341477229 0.1636201682865295 0 0.020045678312652242 0.18090880435863019 0 -0.0057956805663459468 0.1892940575843915 0 0.020045678312652242 0.18090880435863019 0 0.029372494374312729 0.15410586879533311 0 0.013538337341477229 0.1636201682865295 0 0.020045678312652242 0.18090880435863019 0 0.029372494374312729 0.15410586879533311 0 0.045887037191650451 0.17252355113286891 0 0.04813315871709322 0.1541455757588851 0 0.029372494374312729 0.15410586879533311 0 0.020045678312652242 0.18090880435863019 0 0.045887037191650451 0.17252355113286891 0 0.020045678312652242 0.18090880435863019 0 0.045887037191650451 0.17252355113286891 0 0.020045678312652242 0.18090880435863019 0 0.045887037191650451 0.17252355113286891 0 0.041991232206495782 0.1919910870650737 0 0.045887037191650451 0.17252355113286891 0 0.060802696405823108 0.1787365445376432 0 0.041991232206495782 0.1919910870650737 0 0.045887037191650451 0.17252355113286891 0 0.071728396070648653 0.1641382979071076 0 0.045887037191650451 0.17252355113286891 0 0.060802696405823108 0.1787365445376432 0 0.071728396070648653 0.1641382979071076 0 0.045887037191650451 0.17252355113286891 0 0.059657673584757237 0.15824269734654939 0 0.04813315871709322 0.1541455757588851 0 0.045887037191650451 0.17252355113286891 0 0.059657673584757237 0.15824269734654939 0 0.071728396070648653 0.1641382979071076 0 0.059657673584757237 0.15824269734654939 0 0.04813315871709322 0.1541455757588851 0 0.060329678829100349 0.1474246815113264 0 0.04813315871709322 0.1541455757588851 0 0.050215372913412007 0.1458935282758238 0 0.060329678829100349 0.1474246815113264 0 0.050215372913412007 0.1458935282758238 0 0.060329678829100349 0.1474246815113264 0 0.052072656112092337 0.13760051191958289 0 0.050215372913412007 0.1458935282758238 0 0.052072656112092337 0.13760051191958289 0 0.040325997995362128 0.14440334391350099 0 0.060329678829100349 0.1474246815113264 0 0.062159468211553673 0.13737243366585769 0 0.052072656112092337 0.13760051191958289 0 0.062159468211553673 0.13737243366585769 0 0.054733357378362921 0.13083888414419281 0 0.052072656112092337 0.13760051191958289 0 0.052595679859244633 0.1236025024456274 0 0.054733357378362921 0.13083888414419281 0 0.061109117960118017 0.12720913792676911 0 0.062159468211553673 0.13737243366585769 0 0.054733357378362921 0.13083888414419281 0 0.061109117960118017 0.12720913792676911 0 0.052595679859244633 0.1236025024456274 0 0.054733357378362921 0.13083888414419281 0 0.046346625143134958 0.1312929959830558 0 0.054733357378362921 0.13083888414419281 0 0.052072656112092337 0.13760051191958289 0 0.046346625143134958 0.1312929959830558 0 0.037354296692750887 0.12718670835402709 0 0.040325997995362128 0.14440334391350099 0 0.046346625143134958 0.1312929959830558 0 0.037354296692750887 0.12718670835402709 0 0.040325997995362128 0.14440334391350099 0 0.028759663239593541 0.13617761485890201 0 0.037354296692750887 0.12718670835402709 0 0.040325997995362128 0.14440334391350099 0 0.052072656112092337 0.13760051191958289 0 0.046346625143134958 0.1312929959830558 0 0.040325997995362128 0.14440334391350099 0 0.052595679859244633 0.1236025024456274 0 0.046346625143134958 0.1312929959830558 0 0.037354296692750887 0.12718670835402709 0 0.028759663239593541 0.13617761485890201 0 0.029372494374312729 0.15410586879533311 0 0.040325997995362128 0.14440334391350099 0 0.029372494374312729 0.15410586879533311 0 0.04813315871709322 0.1541455757588851 0 0.040325997995362128 0.14440334391350099 0 0.04813315871709322 0.1541455757588851 0 0.050215372913412007 0.1458935282758238 0 0.040325997995362128 0.14440334391350099 0 0.025149977659741599 0.24684982625080901 0 0.00014186162909880781 0.2338185852574263 0 0.02177620002751179 0.22559840920251981 0 0.025149977659741599 0.24684982625080901 0 0.00014186162909880781 0.2338185852574263 0 0.025149977659741599 0.24684982625080901 0 0.00014186162909880781 0.2338185852574263 0 0.0073806355134042019 0.25529449578482938 0 0.00014186162909880781 0.2338185852574263 0 0.02177620002751179 0.22559840920251981 0 0.0090806704795409685 0.20996839310177981 0 0.025149977659741599 0.24684982625080901 0 0.02177620002751179 0.22559840920251981 0 0.039960986899899173 0.22780444499479169 0 0.02177620002751179 0.22559840920251981 0 0.0090806704795409685 0.20996839310177981 0 0.034547503469278373 0.20955079640779209 0 0.0090806704795409685 0.20996839310177981 0 0.02162293693503077 0.1981024475624624 0 0.034547503469278373 0.20955079640779209 0 -0.0057956805663459468 0.1892940575843915 0 0.0090806704795409685 0.20996839310177981 0 0.02162293693503077 0.1981024475624624 0 -0.0057956805663459468 0.1892940575843915 0 0.020045678312652242 0.18090880435863019 0 0.02162293693503077 0.1981024475624624 0 0.020045678312652242 0.18090880435863019 0 0.02162293693503077 0.1981024475624624 0 0.041991232206495782 0.1919910870650737 0 0.02162293693503077 0.1981024475624624 0 0.041991232206495782 0.1919910870650737 0 0.034547503469278373 0.20955079640779209 0 0.041991232206495782 0.1919910870650737 0 0.05849467095877426 0.1965416733816682 0 0.050764695011206777 0.20916964222725651 0 0.060802696405823108 0.1787365445376432 0 0.041991232206495782 0.1919910870650737 0 0.05849467095877426 0.1965416733816682 0 0.050764695011206777 0.20916964222725651 0 0.066981886553135278 0.20878848804672309 0 0.05849467095877426 0.1965416733816682 0 0.050764695011206777 0.20916964222725651 0 0.066981886553135278 0.20878848804672309 0 0.050764695011206777 0.20916964222725651 0 0.061514006406540499 0.23071042489022231 0 0.066981886553135278 0.20878848804672309 0 0.050764695011206777 0.20916964222725651 0 0.034547503469278373 0.20955079640779209 0 0.039960986899899173 0.22780444499479169 0 0.050764695011206777 0.20916964222725651 0 0.034547503469278373 0.20955079640779209 0 0.041991232206495782 0.1919910870650737 0 0.050764695011206777 0.20916964222725651 0 0.034547503469278373 0.20955079640779209 0 0.02177620002751179 0.22559840920251981 0 0.034547503469278373 0.20955079640779209 0 0.039960986899899173 0.22780444499479169 0 0.039960986899899173 0.22780444499479169 0 0.061514006406540499 0.23071042489022231 0 0.045472231705318063 0.24424317023843681 0 0.050764695011206777 0.20916964222725651 0 0.039960986899899173 0.22780444499479169 0 0.061514006406540499 0.23071042489022231 0 0.061514006406540499 0.23071042489022231 0 0.056046126259945157 0.25263236173372139 0 0.061514006406540499 0.23071042489022231 0 0.056046126259945157 0.25263236173372139 0 0.067905867336300579 0.25358800162702 0 0.061514006406540499 0.23071042489022231 0 0.045472231705318063 0.24424317023843681 0 0.056046126259945157 0.25263236173372139 0 0.025149977659741599 0.24684982625080901 0 0.039960986899899173 0.22780444499479169 0 0.045472231705318063 0.24424317023843681 0 0.092857250133516089 0.24175825718487831 0 0.078525547080241467 0.2465942846531784 0 0.093798877441032588 0.2579700649065903 0 0.092857250133516089 0.24175825718487831 0 0.078525547080241467 0.2465942846531784 0 0.081986142109724491 0.22560265144644431 0 0.061514006406540499 0.23071042489022231 0 0.078525547080241467 0.2465942846531784 0 0.067905867336300579 0.25358800162702 0 0.061514006406540499 0.23071042489022231 0 0.078525547080241467 0.2465942846531784 0 0.081986142109724491 0.22560265144644431 0 0.061514006406540499 0.23071042489022231 0 0.081986142109724491 0.22560265144644431 0 0.066981886553135278 0.20878848804672309 0 0.061514006406540499 0.23071042489022231 0 0.066981886553135278 0.20878848804672309 0 0.081986142109724491 0.22560265144644431 0 0.09236794217301933 0.20819183719001669 0 0.066981886553135278 0.20878848804672309 0 0.09236794217301933 0.20819183719001669 0 0.066981886553135278 0.20878848804672309 0 0.09236794217301933 0.20819183719001669 0 0.066981886553135278 0.20878848804672309 0 0.071445073857882777 0.19089458628000441 0 0.060802696405823108 0.1787365445376432 0 0.05849467095877426 0.1965416733816682 0 0.071445073857882777 0.19089458628000441 0 0.066981886553135278 0.20878848804672309 0 0.071445073857882777 0.19089458628000441 0 0.05849467095877426 0.1965416733816682 0 0.066981886553135278 0.20878848804672309 0 0.071445073857882777 0.19089458628000441 0 0.09236794217301933 0.20819183719001669 0 0.071445073857882777 0.19089458628000441 0 0.086464584236575506 0.1862285865309723 0 0.09236794217301933 0.20819183719001669 0 0.086464584236575506 0.1862285865309723 0 0.1023855527362314 0.18749689463882899 0 0.09236794217301933 0.20819183719001669 0 0.11775399779290339 0.20759518633331239 0 0.1023855527362314 0.18749689463882899 0 0.11775399779290339 0.20759518633331239 0 0.1023855527362314 0.18749689463882899 0 0.12550986450034471 0.186594373040398 0 0.09236794217301933 0.20819183719001669 0 0.11775399779290339 0.20759518633331239 0 0.09236794217301933 0.20819183719001669 0 0.11775399779290339 0.20759518633331239 0 0.10906069526472741 0.22998953009969161 0 0.092857250133516089 0.24175825718487831 0 0.081986142109724491 0.22560265144644431 0 0.10906069526472741 0.22998953009969161 0 0.081986142109724491 0.22560265144644431 0 0.09236794217301933 0.20819183719001669 0 0.10906069526472741 0.22998953009969161 0 0.11775399779290339 0.20759518633331239 0 0.10906069526472741 0.22998953009969161 0 0.1382648444377183 0.22719855966067881 0 0.10906069526472741 0.22998953009969161 0 0.12787711237058769 0.24521089126939841 0 0.1100607559553454 0.25396994184181759 0 0.092857250133516089 0.24175825718487831 0 0.10906069526472741 0.22998953009969161 0 0.1100607559553454 0.25396994184181759 0 0.081151633673542972 0.15313158297098389 0 0.083920606388658545 0.14050817004821939 0 0.0975697549496468 0.15575304468134629 0 0.081151633673542972 0.15313158297098389 0 0.083920606388658545 0.14050817004821939 0 0.071387777285217918 0.15212681924726251 0 0.074154959480044275 0.1204842858357125 0 0.087075880893963842 0.12621803440601359 0 0.083920606388658545 0.14050817004821939 0 0.087075880893963842 0.12621803440601359 0 0.083920606388658545 0.14050817004821939 0 0.097906888154765004 0.1362305538396491 0 0.062159468211553673 0.13737243366585769 0 0.061109117960118017 0.12720913792676911 0 0.083920606388658545 0.14050817004821939 0 0.074154959480044275 0.1204842858357125 0 0.061109117960118017 0.12720913792676911 0 0.083920606388658545 0.14050817004821939 0 0.061109117960118017 0.12720913792676911 0 0.083920606388658545 0.14050817004821939 0 0.062159468211553673 0.13737243366585769 0 0.083920606388658545 0.14050817004821939 0 0.069449382678632612 0.1443580261181665 0 0.060329678829100349 0.1474246815113264 0 0.062159468211553673 0.13737243366585769 0 0.069449382678632612 0.1443580261181665 0 0.060329678829100349 0.1474246815113264 0 0.069449382678632612 0.1443580261181665 0 0.071387777285217918 0.15212681924726251 0 0.083920606388658545 0.14050817004821939 0 0.069449382678632612 0.1443580261181665 0 0.071387777285217918 0.15212681924726251 0 0.059657673584757237 0.15824269734654939 0 0.060329678829100349 0.1474246815113264 0 0.071387777285217918 0.15212681924726251 0 0.059657673584757237 0.15824269734654939 0 0.071387777285217918 0.15212681924726251 0 0.071728396070648653 0.1641382979071076 0 0.081151633673542972 0.15313158297098389 0 0.071387777285217918 0.15212681924726251 0 0.071728396070648653 0.1641382979071076 0 0.071445073857882777 0.19089458628000441 0 0.075908261162629706 0.17300068451328551 0 0.086464584236575506 0.1862285865309723 0 0.060802696405823108 0.1787365445376432 0 0.071445073857882777 0.19089458628000441 0 0.075908261162629706 0.17300068451328551 0 0.071445073857882777 0.19089458628000441 0 0.075908261162629706 0.17300068451328551 0 0.060802696405823108 0.1787365445376432 0 0.071728396070648653 0.1641382979071076 0 0.075908261162629706 0.17300068451328551 0 0.086464584236575506 0.1862285865309723 0 0.090216091253114361 0.17155893003272579 0 0.1023855527362314 0.18749689463882899 0 0.075908261162629706 0.17300068451328551 0 0.086464584236575506 0.1862285865309723 0 0.090216091253114361 0.17155893003272579 0 0.081151633673542972 0.15313158297098389 0 0.071728396070648653 0.1641382979071076 0 0.0975697549496468 0.15575304468134629 0 0.071728396070648653 0.1641382979071076 0 0.090216091253114361 0.17155893003272579 0 0.0975697549496468 0.15575304468134629 0 0.071728396070648653 0.1641382979071076 0 0.075908261162629706 0.17300068451328551 0 0.090216091253114361 0.17155893003272579 0 0.071728396070648653 0.1641382979071076 0 0.0975697549496468 0.15575304468134629 0 0.090216091253114361 0.17155893003272579 0 0.1064810698159025 0.16893633516972181 0 0.0975697549496468 0.15575304468134629 0 0.1064810698159025 0.16893633516972181 0 0.1067320948171991 0.1538072021696697 0 0.0975697549496468 0.15575304468134629 0 0.090216091253114361 0.17155893003272579 0 0.1064810698159025 0.16893633516972181 0 0.1023855527362314 0.18749689463882899 0 0.1064810698159025 0.16893633516972181 0 0.12954358324573961 0.16710623429112001 0 0.12550986450034471 0.186594373040398 0 0.1064810698159025 0.16893633516972181 0 0.1023855527362314 0.18749689463882899 0 0.12550986450034471 0.186594373040398 0 0.1064810698159025 0.16893633516972181 0 0.1067320948171991 0.1538072021696697 0 0.12954358324573961 0.16710623429112001 0 0.1067320948171991 0.1538072021696697 0 0.1262856736452258 0.1537478882528979 0 0.12954358324573961 0.16710623429112001 0 0.1067320948171991 0.1538072021696697 0 0.12954358324573961 0.16710623429112001 0 0.1148569119608701 0.14824987142416859 0 0.1067320948171991 0.1538072021696697 0 0.1262856736452258 0.1537478882528979 0 0.118317888191051 0.14254191757659121 0 0.1148569119608701 0.14824987142416859 0 0.1262856736452258 0.1537478882528979 0 0.118317888191051 0.14254191757659121 0 0.12756241452120801 0.13893694775055651 0 0.1262856736452258 0.1537478882528979 0 0.1148569119608701 0.14824987142416859 0 0.1067320948171991 0.1538072021696697 0 0.1080919911900045 0.14290247769751591 0 0.118317888191051 0.14254191757659121 0 0.1148569119608701 0.14824987142416859 0 0.1080919911900045 0.14290247769751591 0 0.083920606388658545 0.14050817004821939 0 0.1067320948171991 0.1538072021696697 0 0.1067320948171991 0.1538072021696697 0 0.1080919911900045 0.14290247769751591 0 0.097906888154765004 0.1362305538396491 0 0.083920606388658545 0.14050817004821939 0 0.1067320948171991 0.1538072021696697 0 0.097906888154765004 0.1362305538396491 0 0.083920606388658545 0.14050817004821939 0 0.1067320948171991 0.1538072021696697 0 0.0975697549496468 0.15575304468134629 0 0.096984900528893664 0.1212489081817222 0 0.097906888154765004 0.1362305538396491 0 0.10589272808503949 0.13156516273042271 0 0.096984900528893664 0.1212489081817222 0 0.087075880893963842 0.12621803440601359 0 0.097906888154765004 0.1362305538396491 0 0.1080919911900045 0.14290247769751591 0 0.097906888154765004 0.1362305538396491 0 0.10589272808503949 0.13156516273042271 0 0.1080919911900045 0.14290247769751591 0 0.10589272808503949 0.13156516273042271 0 0.11327312463209829 0.13597294690712769 0 0.10712684862241641 0.1210429748963526 0 0.10589272808503949 0.13156516273042271 0 0.114987521205969 0.1268010028982309 0 0.10589272808503949 0.13156516273042271 0 0.114987521205969 0.1268010028982309 0 0.11327312463209829 0.13597294690712769 0 0.114987521205969 0.1268010028982309 0 0.11327312463209829 0.13597294690712769 0 0.1203000125167645 0.13336293759413789 0 0.118317888191051 0.14254191757659121 0 0.1080919911900045 0.14290247769751591 0 0.11327312463209829 0.13597294690712769 0 0.118317888191051 0.14254191757659121 0 0.1203000125167645 0.13336293759413789 0 0.12756241452120801 0.13893694775055651 0 0.118317888191051 0.14254191757659121 0 0.11327312463209829 0.13597294690712769 0 0.1203000125167645 0.13336293759413789 0 0.12212988809696081 0.1249307776834532 0 0.114987521205969 0.1268010028982309 0 0.1203000125167645 0.13336293759413789 0 0.12212988809696081 0.1249307776834532 0 0.1203000125167645 0.13336293759413789 0 0.12788127083107459 0.1291064789800366 0 0.12788127083107459 0.1291064789800366 0 0.13409394305489639 0.1257339851238449 0 0.12813823657366311 0.12049833089676459 0 0.12788127083107459 0.1291064789800366 0 0.13410827310584911 0.13282331674432049 0 0.13409394305489639 0.1257339851238449 0 0.12788127083107459 0.1291064789800366 0 0.12756241452120801 0.13893694775055651 0 0.13410827310584911 0.13282331674432049 0 0.1203000125167645 0.13336293759413789 0 0.12788127083107459 0.1291064789800366 0 0.12756241452120801 0.13893694775055651 0 0.13410827310584911 0.13282331674432049 0 0.14295710802469111 0.12768772724150559 0 0.13848136883728299 0.14203914735535511 0 0.12756241452120801 0.13893694775055651 0 0.13410827310584911 0.13282331674432049 0 0.13848136883728299 0.14203914735535511 0 0.13410827310584911 0.13282331674432049 0 0.13409394305489639 0.1257339851238449 0 0.14295710802469111 0.12768772724150559 0 0.14295710802469111 0.12768772724150559 0 0.15698787762036359 0.14007723406829989 0 0.15364605026385231 0.1227496740475859 0 0.14295710802469111 0.12768772724150559 0 0.13848136883728299 0.14203914735535511 0 0.15698787762036359 0.14007723406829989 0 0.13848136883728299 0.14203914735535511 0 0.1441447949138806 0.1573716891147208 0 0.15698787762036359 0.14007723406829989 0 0.1441447949138806 0.1573716891147208 0 0.1598153361361678 0.15982657838785511 0 0.15698787762036359 0.14007723406829989 0 0.13848136883728299 0.14203914735535511 0 0.1262856736452258 0.1537478882528979 0 0.1441447949138806 0.1573716891147208 0 0.12756241452120801 0.13893694775055651 0 0.13848136883728299 0.14203914735535511 0 0.1262856736452258 0.1537478882528979 0 0.1262856736452258 0.1537478882528979 0 0.12954358324573961 0.16710623429112001 0 0.1441447949138806 0.1573716891147208 0 0.12954358324573961 0.16710623429112001 0 0.12550986450034471 0.186594373040398 0 0.15375492999850379 0.1814330523327968 0 0.12954358324573961 0.16710623429112001 0 0.15375492999850379 0.1814330523327968 0 0.1441447949138806 0.1573716891147208 0 0.15375492999850379 0.1814330523327968 0 0.1441447949138806 0.1573716891147208 0 0.1598153361361678 0.15982657838785511 0 0.1598153361361678 0.15982657838785511 0 0.17205847002769489 0.1711246398383999 0 0.17247097746626519 0.1464629757798975 0 0.15375492999850379 0.1814330523327968 0 0.1598153361361678 0.15982657838785511 0 0.17205847002769489 0.1711246398383999 0 0.15375492999850379 0.1814330523327968 0 0.17205847002769489 0.1711246398383999 0 0.18411838942066619 0.18828130780555291 0 0.17205847002769489 0.1711246398383999 0 0.18411838942066619 0.18828130780555291 0 0.19050902449260759 0.164433536692701 0 0.17205847002769489 0.1711246398383999 0 0.17247097746626519 0.1464629757798975 0 0.19050902449260759 0.164433536692701 0 0.17247097746626519 0.1464629757798975 0 0.1903693880120208 0.14015559280000461 0 0.19050902449260759 0.164433536692701 0 0.17247097746626519 0.1464629757798975 0 0.18002451345814399 0.12716596121819479 0 0.1903693880120208 0.14015559280000461 0 0.17247097746626519 0.1464629757798975 0 0.18002451345814399 0.12716596121819479 0 0.16417220099380411 0.12505127510387981 0 0.15698787762036359 0.14007723406829989 0 0.16417220099380411 0.12505127510387981 0 0.15364605026385231 0.1227496740475859 0 0.17247097746626519 0.1464629757798975 0 0.15698787762036359 0.14007723406829989 0 0.16417220099380411 0.12505127510387981 0 0.1598153361361678 0.15982657838785511 0 0.17247097746626519 0.1464629757798975 0 0.15698787762036359 0.14007723406829989 0 0.14702044576598061 0.2478904659134552 0 0.1382648444377183 0.22719855966067881 0 0.15828943790025421 0.22969507774947781 0 0.14702044576598061 0.2478904659134552 0 0.12787711237058769 0.24521089126939841 0 0.1382648444377183 0.22719855966067881 0 0.10906069526472741 0.22998953009969161 0 0.12787711237058769 0.24521089126939841 0 0.1382648444377183 0.22719855966067881 0 0.1382648444377183 0.22719855966067881 0 0.14314005341278749 0.20699853547660821 0 0.15828943790025421 0.22969507774947781 0 0.14314005341278749 0.20699853547660821 0 0.16852610903267151 0.206401884619904 0 0.11775399779290339 0.20759518633331239 0 0.1382648444377183 0.22719855966067881 0 0.14314005341278749 0.20699853547660821 0 0.11775399779290339 0.20759518633331239 0 0.14314005341278749 0.20699853547660821 0 0.11775399779290339 0.20759518633331239 0 0.12550986450034471 0.186594373040398 0 0.14314005341278749 0.20699853547660821 0 0.15375492999850379 0.1814330523327968 0 0.14314005341278749 0.20699853547660821 0 0.16852610903267151 0.206401884619904 0 0.12550986450034471 0.186594373040398 0 0.15375492999850379 0.1814330523327968 0 0.14314005341278749 0.20699853547660821 0 0.15375492999850379 0.1814330523327968 0 0.18411838942066619 0.18828130780555291 0 0.16852610903267151 0.206401884619904 0 0.18411838942066619 0.18828130780555291 0 0.16852610903267151 0.206401884619904 0 0.1878214256448299 0.20672411698152671 0 0.16852610903267151 0.206401884619904 0 0.17766068788986381 0.23020170431202469 0 0.1878214256448299 0.20672411698152671 0 0.14314005341278749 0.20699853547660821 0 0.16852610903267151 0.206401884619904 0 0.15828943790025421 0.22969507774947781 0 0.16852610903267151 0.206401884619904 0 0.15828943790025421 0.22969507774947781 0 0.17766068788986381 0.23020170431202469 0 0.17766068788986381 0.23020170431202469 0 0.19353513124668931 0.22246748781277501 0 0.1878214256448299 0.20672411698152671 0 0.17766068788986381 0.23020170431202469 0 0.18692125413578081 0.24552837502103991 0 0.19379669244916639 0.23440003217329089 0 0.17766068788986381 0.23020170431202469 0 0.18692125413578081 0.24552837502103991 0 0.16774616909827719 0.2460930353984315 0 0.15828943790025421 0.22969507774947781 0 0.17766068788986381 0.23020170431202469 0 0.16774616909827719 0.2460930353984315 0 0.14702044576598061 0.2478904659134552 0 0.15828943790025421 0.22969507774947781 0 0.16774616909827719 0.2460930353984315 0 0.21557305570370441 0.24515722135805329 0 0.2029257889591993 0.24295866219667439 0 0.23007231546290949 0.2334513308517342 0 0.2029257889591993 0.24295866219667439 0 0.23007231546290949 0.2334513308517342 0 0.21557305570370441 0.24515722135805329 0 0.2029257889591993 0.24295866219667439 0 0.20107379594449931 0.25686311186437227 0 0.18692125413578081 0.24552837502103991 0 0.2029257889591993 0.24295866219667439 0 0.20107379594449931 0.25686311186437227 0 0.18692125413578081 0.24552837502103991 0 0.19379669244916639 0.23440003217329089 0 0.2029257889591993 0.24295866219667439 0 0.17766068788986381 0.23020170431202469 0 0.19379669244916639 0.23440003217329089 0 0.19353513124668931 0.22246748781277501 0 0.19379669244916639 0.23440003217329089 0 0.2029257889591993 0.24295866219667439 0 0.20920449219815451 0.22515354045629349 0 0.19379669244916639 0.23440003217329089 0 0.19353513124668931 0.22246748781277501 0 0.20920449219815451 0.22515354045629349 0 0.2029257889591993 0.24295866219667439 0 0.20920449219815451 0.22515354045629349 0 0.23007231546290949 0.2334513308517342 0 0.19353513124668931 0.22246748781277501 0 0.20920449219815451 0.22515354045629349 0 0.20732414099141369 0.20672295990195361 0 0.20920449219815451 0.22515354045629349 0 0.20732414099141369 0.20672295990195361 0 0.22783619495118521 0.20973527166224001 0 0.19353513124668931 0.22246748781277501 0 0.20732414099141369 0.20672295990195361 0 0.1878214256448299 0.20672411698152671 0 0.18411838942066619 0.18828130780555291 0 0.1878214256448299 0.20672411698152671 0 0.20343121377691101 0.18825927067945539 0 0.20732414099141369 0.20672295990195361 0 0.1878214256448299 0.20672411698152671 0 0.20343121377691101 0.18825927067945539 0 0.20732414099141369 0.20672295990195361 0 0.20343121377691101 0.18825927067945539 0 0.2219787971027708 0.18678942035429349 0 0.20732414099141369 0.20672295990195361 0 0.22783619495118521 0.20973527166224001 0 0.2219787971027708 0.18678942035429349 0 0.24528107816237801 0.1907036486386274 0 0.22783619495118521 0.20973527166224001 0 0.2219787971027708 0.18678942035429349 0 0.24528107816237801 0.1907036486386274 0 0.25242827713160498 0.21540237912569379 0 0.24528107816237801 0.1907036486386274 0 0.22783619495118521 0.20973527166224001 0 0.25242827713160498 0.21540237912569379 0 0.20920449219815451 0.22515354045629349 0 0.22783619495118521 0.20973527166224001 0 0.23007231546290949 0.2334513308517342 0 0.23007231546290949 0.2334513308517342 0 0.25242827713160498 0.21540237912569379 0 0.23007231546290949 0.2334513308517342 0 0.25511338863332461 0.22468137717712711 0 0.25242827713160498 0.21540237912569379 0 0.23007231546290949 0.2334513308517342 0 0.25511338863332461 0.22468137717712711 0 0.23007231546290949 0.2334513308517342 0 0.2457442494512444 0.24022391879071339 0 0.25511338863332461 0.22468137717712711 0 0.22783619495118521 0.20973527166224001 0 0.23007231546290949 0.2334513308517342 0 0.25242827713160498 0.21540237912569379 0 0.2457442494512444 0.24022391879071339 0 0.23628031136540401 0.25597328662156199 0 0.26221447651104962 0.2479993693513689 0 0.23007231546290949 0.2334513308517342 0 0.2457442494512444 0.24022391879071339 0 0.23628031136540401 0.25597328662156199 0 0.21557305570370441 0.24515722135805329 0 0.23007231546290949 0.2334513308517342 0 0.23628031136540401 0.25597328662156199 0 0.21557305570370441 0.24515722135805329 0 0.23007231546290949 0.2334513308517342 0 0.21023583046185859 0.14706018503428281 0 0.22521494488481819 0.12557893006429149 0 0.2001236667938262 0.1180422718546187 0 0.18002451345814399 0.12716596121819479 0 0.1903693880120208 0.14015559280000461 0 0.2001236667938262 0.1180422718546187 0 0.21023583046185859 0.14706018503428281 0 0.1903693880120208 0.14015559280000461 0 0.2001236667938262 0.1180422718546187 0 0.21023583046185859 0.14706018503428281 0 0.1903693880120208 0.14015559280000461 0 0.19050902449260759 0.164433536692701 0 0.18411838942066619 0.18828130780555291 0 0.20343121377691101 0.18825927067945539 0 0.19050902449260759 0.164433536692701 0 0.20343121377691101 0.18825927067945539 0 0.19050902449260759 0.164433536692701 0 0.20962662881846919 0.1707346457134423 0 0.20343121377691101 0.18825927067945539 0 0.20962662881846919 0.1707346457134423 0 0.2219787971027708 0.18678942035429349 0 0.21023583046185859 0.14706018503428281 0 0.20962662881846919 0.1707346457134423 0 0.2254160648188453 0.164078398330023 0 0.21023583046185859 0.14706018503428281 0 0.19050902449260759 0.164433536692701 0 0.20962662881846919 0.1707346457134423 0 0.20962662881846919 0.1707346457134423 0 0.2254160648188453 0.164078398330023 0 0.2219787971027708 0.18678942035429349 0 0.2254160648188453 0.164078398330023 0 0.2219787971027708 0.18678942035429349 0 0.23714843650665229 0.1758398884969993 0 0.24528107816237801 0.1907036486386274 0 0.2219787971027708 0.18678942035429349 0 0.23714843650665229 0.1758398884969993 0 0.24528107816237801 0.1907036486386274 0 0.23714843650665229 0.1758398884969993 0 0.25292738168467233 0.17649485219682931 0 0.2254160648188453 0.164078398330023 0 0.24653130607993951 0.16237692388552691 0 0.23688534306575301 0.1458043597726891 0 0.23714843650665229 0.1758398884969993 0 0.24653130607993951 0.16237692388552691 0 0.25292738168467233 0.17649485219682931 0 0.2254160648188453 0.164078398330023 0 0.23714843650665229 0.1758398884969993 0 0.24653130607993951 0.16237692388552691 0 0.24653130607993951 0.16237692388552691 0 0.2496536413094039 0.15044712256699261 0 0.23688534306575301 0.1458043597726891 0 0.2496536413094039 0.15044712256699261 0 0.23688534306575301 0.1458043597726891 0 0.25004344172447263 0.14019424959050239 0 0.21023583046185859 0.14706018503428281 0 0.2254160648188453 0.164078398330023 0 0.23688534306575301 0.1458043597726891 0 0.21023583046185859 0.14706018503428281 0 0.23688534306575301 0.1458043597726891 0 0.22521494488481819 0.12557893006429149 0 0.22521494488481819 0.12557893006429149 0 0.25030622297580962 0.13311558827396619 0 0.23688534306575301 0.1458043597726891 0 0.22521494488481819 0.12557893006429149 0 0.25030622297580962 0.13311558827396619 0 0.23688534306575301 0.1458043597726891 0 0.25004344172447263 0.14019424959050239 0 0.25030622297580962 0.13311558827396619 0 0.22521494488481819 0.12557893006429149 0 0.2369469616243938 0.1144798656387125 0 0.25030622297580962 0.13311558827396619 0 0.2369469616243938 0.1144798656387125 0 0.25094552198087999 0.11589449234768209 0 0.25030622297580962 0.13311558827396619 0 0.2369469616243938 0.1144798656387125 0 0.25158482098595109 0.098673396421397969 0 0.25094552198087999 0.11589449234768209 0 0.2369469616243938 0.1144798656387125 0 0.2308580048349978 0.09939168424622695 0 0.25158482098595109 0.098673396421397969 0 0.2308580048349978 0.09939168424622695 0 0.2177667053289645 0.10879872465146249 0 0.21723881235993189 0.092441087960636145 0 0.2369469616243938 0.1144798656387125 0 0.2308580048349978 0.09939168424622695 0 0.2177667053289645 0.10879872465146249 0 0.22521494488481819 0.12557893006429149 0 0.2369469616243938 0.1144798656387125 0 0.2177667053289645 0.10879872465146249 0 0.2177667053289645 0.10879872465146249 0 0.1970849337058638 0.1019164286603922 0 0.2001236667938262 0.1180422718546187 0 0.22521494488481819 0.12557893006429149 0 0.2177667053289645 0.10879872465146249 0 0.2001236667938262 0.1180422718546187 0 0.22521494488481819 0.12557893006429149 0 0.2001236667938262 0.1180422718546187 0 0.1970849337058638 0.1019164286603922 0 0.20420713705815571 0.090978010823124941 0 0.21723881235993189 0.092441087960636145 0 0.1970849337058638 0.1019164286603922 0 0.21723881235993189 0.092441087960636145 0 0.2177667053289645 0.10879872465146249 0 0.1970849337058638 0.1019164286603922 0 0.21723881235993189 0.092441087960636145 0 0.1970849337058638 0.1019164286603922 0 0.1916307843626972 0.08827444688259839 0 0.17503238870283441 0.11050561364494491 0 0.2001236667938262 0.1180422718546187 0 0.17503238870283441 0.11050561364494491 0 0.1970849337058638 0.1019164286603922 0 0.2001236667938262 0.1180422718546187 0 0.17503238870283441 0.11050561364494491 0 0.1916307843626972 0.08827444688259839 0 0.2082291800225603 0.066043280120252124 0 0.19067723801237901 0.065525043857756982 0 0.1916307843626972 0.08827444688259839 0 0.2082291800225603 0.066043280120252124 0 0.1916307843626972 0.08827444688259839 0 0.21087401780412959 0.081280079788873041 0 0.20420713705815571 0.090978010823124941 0 0.1970849337058638 0.1019164286603922 0 0.1916307843626972 0.08827444688259839 0 0.20420713705815571 0.090978010823124941 0 0.1916307843626972 0.08827444688259839 0 0.21087401780412959 0.081280079788873041 0 0.2082291800225603 0.066043280120252124 0 0.21087401780412959 0.081280079788873041 0 0.20420713705815571 0.090978010823124941 0 0.21723881235993189 0.092441087960636145 0 0.21087401780412959 0.081280079788873041 0 0.21723881235993189 0.092441087960636145 0 0.22613356481757629 0.0775902723280468 0 0.21087401780412959 0.081280079788873041 0 0.2082291800225603 0.066043280120252124 0 0.22613356481757629 0.0775902723280468 0 0.2082291800225603 0.066043280120252124 0 0.22613356481757629 0.0775902723280468 0 0.2082291800225603 0.066043280120252124 0 0.2259496113806885 0.070300708218039992 0 0.21450653174737461 0.057635669175196122 0 0.2259496113806885 0.070300708218039992 0 0.21450653174737461 0.057635669175196122 0 0.2082291800225603 0.066043280120252124 0 0.2259496113806885 0.070300708218039992 0 0.22613356481757629 0.0775902723280468 0 0.2259496113806885 0.070300708218039992 0 0.2248665156508784 0.061611733455129589 0 0.21450653174737461 0.057635669175196122 0 0.2259496113806885 0.070300708218039992 0 0.22613356481757629 0.0775902723280468 0 0.23739269101400209 0.082965747260884265 0 0.2259496113806885 0.070300708218039992 0 0.23739269101400209 0.082965747260884265 0 0.237967452106535 0.070105640596903412 0 0.2259496113806885 0.070300708218039992 0 0.23739269101400209 0.082965747260884265 0 0.2259496113806885 0.070300708218039992 0 0.2330718446673557 0.064441819436705627 0 0.2248665156508784 0.061611733455129589 0 0.2259496113806885 0.070300708218039992 0 0.2330718446673557 0.064441819436705627 0 0.237967452106535 0.070105640596903412 0 0.2308580048349978 0.09939168424622695 0 0.21723881235993189 0.092441087960636145 0 0.23739269101400209 0.082965747260884265 0 0.21723881235993189 0.092441087960636145 0 0.22613356481757629 0.0775902723280468 0 0.23739269101400209 0.082965747260884265 0 0.21723881235993189 0.092441087960636145 0 0.23739269101400209 0.082965747260884265 0 0.23739269101400209 0.082965747260884265 0 0.25158482098595109 0.098673396421397969 0 0.23739269101400209 0.082965747260884265 0 0.25243039498113262 0.075895774732197205 0 0.25158482098595109 0.098673396421397969 0 0.2308580048349978 0.09939168424622695 0 0.23739269101400209 0.082965747260884265 0 0.25158482098595109 0.098673396421397969 0 0.23739269101400209 0.082965747260884265 0 0.25243039498113262 0.075895774732197205 0 0.23934469018649959 0.064583282500140851 0 0.237967452106535 0.070105640596903412 0 0.24496427956833819 0.066036472520138348 0 0.2330718446673557 0.064441819436705627 0 0.23934469018649959 0.064583282500140851 0 0.2376257901407148 0.059976102198904507 0 0.2330718446673557 0.064441819436705627 0 0.23934469018649959 0.064583282500140851 0 0.237967452106535 0.070105640596903412 0 0.23739269101400209 0.082965747260884265 0 0.237967452106535 0.070105640596903412 0 0.24429048066179679 0.072622021298478806 0 0.24429048066179679 0.072622021298478806 0 0.24842415088314279 0.069033451464499671 0 0.25243039498113262 0.075895774732197205 0 0.23739269101400209 0.082965747260884265 0 0.24429048066179679 0.072622021298478806 0 0.25243039498113262 0.075895774732197205 0 0.24842415088314279 0.069033451464499671 0 0.24853219730195361 0.063845178725116872 0 0.25274476311700622 0.067427493409812952 0 0.237967452106535 0.070105640596903412 0 0.24429048066179679 0.072622021298478806 0 0.24496427956833819 0.066036472520138348 0 0.24429048066179679 0.072622021298478806 0 0.24842415088314279 0.069033451464499671 0 0.24496427956833819 0.066036472520138348 0 0.23934469018649959 0.064583282500140851 0 0.24496427956833819 0.066036472520138348 0 0.24309408444955441 0.062356377748052388 0 0.24496427956833819 0.066036472520138348 0 0.24602681454492631 0.062964227281045088 0 0.24309408444955441 0.062356377748052388 0 0.24496427956833819 0.066036472520138348 0 0.24602681454492631 0.062964227281045088 0 0.24853219730195361 0.063845178725116872 0 0.24842415088314279 0.069033451464499671 0 0.24496427956833819 0.066036472520138348 0 0.24853219730195361 0.063845178725116872 0 0.24751669685985911 0.059618880130872708 0 0.24309408444955441 0.062356377748052388 0 0.2376257901407148 0.059976102198904507 0 0.24751669685985911 0.059618880130872708 0 0.24426241142214139 0.049994713685017962 0 0.2310385276818335 0.053106641608170198 0 0.24751669685985911 0.059618880130872708 0 0.2376257901407148 0.059976102198904507 0 0.2310385276818335 0.053106641608170198 0 0.24751669685985911 0.059618880130872708 0 0.2310385276818335 0.053106641608170198 0 0.24853219730195361 0.063845178725116872 0 0.24751669685985911 0.059618880130872708 0 0.2530174900015254 0.0600809219264858 0 0.24602681454492631 0.062964227281045088 0 0.24853219730195361 0.063845178725116872 0 0.24751669685985911 0.059618880130872708 0 0.24602681454492631 0.062964227281045088 0 0.24751669685985911 0.059618880130872708 0 0.24309408444955441 0.062356377748052388 0 0.23934469018649959 0.064583282500140851 0 0.24309408444955441 0.062356377748052388 0 0.2376257901407148 0.059976102198904507 0 0.24426241142214139 0.049994713685017962 0 0.23928634064401511 0.040096757013566242 0 0.2310385276818335 0.053106641608170198 0 0.24751669685985911 0.059618880130872708 0 0.24426241142214139 0.049994713685017962 0 0.25102243244437311 0.053297338652025752 0 0.24426241142214139 0.049994713685017962 0 0.25174039047255609 0.044464402284776217 0 0.25102243244437311 0.053297338652025752 0 0.23928634064401511 0.040096757013566242 0 0.2320502206633881 0.021165953515508481 0 0.25044211127373811 0.032849993626191502 0 0.23928634064401511 0.040096757013566242 0 0.25044211127373811 0.032849993626191502 0 0.25174039047255609 0.044464402284776217 0 0.24426241142214139 0.049994713685017962 0 0.23928634064401511 0.040096757013566242 0 0.25174039047255609 0.044464402284776217 0 0.22618438235043381 0.038998837361733103 0 0.2320502206633881 0.021165953515508481 0 0.20963369093729961 0.03941564640516447 0 0.23928634064401511 0.040096757013566242 0 0.22618438235043381 0.038998837361733103 0 0.2320502206633881 0.021165953515508481 0 0.22618438235043381 0.038998837361733103 0 0.2310385276818335 0.053106641608170198 0 0.21456035850380811 0.046594403085467223 0 0.23928634064401511 0.040096757013566242 0 0.22618438235043381 0.038998837361733103 0 0.2310385276818335 0.053106641608170198 0 0.2310385276818335 0.053106641608170198 0 0.21456035850380811 0.046594403085467223 0 0.2248665156508784 0.061611733455129589 0 0.2310385276818335 0.053106641608170198 0 0.21456035850380811 0.046594403085467223 0 0.2248665156508784 0.061611733455129589 0 0.21456035850380811 0.046594403085467223 0 0.2330718446673557 0.064441819436705627 0 0.2248665156508784 0.061611733455129589 0 0.23150027442910881 0.059501590197602497 0 0.2248665156508784 0.061611733455129589 0 0.23150027442910881 0.059501590197602497 0 0.2310385276818335 0.053106641608170198 0 0.2330718446673557 0.064441819436705627 0 0.2376257901407148 0.059976102198904507 0 0.23150027442910881 0.059501590197602497 0 0.2376257901407148 0.059976102198904507 0 0.23150027442910881 0.059501590197602497 0 0.2310385276818335 0.053106641608170198 0 0.2320502206633881 0.021165953515508481 0 0.22999165343287109 0.0038227322559807589 0 0.25446675038947358 0.0029162606258486688 0 0.2320502206633881 0.021165953515508481 0 0.2600935707136679 0.019574361616358959 0 0.25446675038947358 0.0029162606258486688 0 0.22999165343287109 0.0038227322559807589 0 0.25446675038947358 0.0029162606258486688 0 0.24138147174972829 -0.0061427828714447699 0 0.2320502206633881 0.021165953515508481 0 0.25446675038947358 0.0029162606258486688 0 0.2320502206633881 0.021165953515508481 0 0.2600935707136679 0.019574361616358959 0 0.25044211127373811 0.032849993626191502 0 0.2320502206633881 0.021165953515508481 0 0.20963369093729961 0.03941564640516447 0 0.22999165343287109 0.0038227322559807589 0 0.21340461703840111 0.0096506044731711187 0 0.21351355446813719 -0.0021103410187178909 0 0.2320502206633881 0.021165953515508481 0 0.22999165343287109 0.0038227322559807589 0 0.21340461703840111 0.0096506044731711187 0 0.21340461703840111 0.0096506044731711187 0 0.1998105265397013 0.00335350757378736 0 0.21351355446813719 -0.0021103410187178909 0 0.21340461703840111 0.0096506044731711187 0 0.20371525389429951 0.01279949030761077 0 0.2082588668535221 0.02245160931237615 0 0.21340461703840111 0.0096506044731711187 0 0.20371525389429951 0.01279949030761077 0 0.1998105265397013 0.00335350757378736 0 0.2320502206633881 0.021165953515508481 0 0.2082588668535221 0.02245160931237615 0 0.20963369093729961 0.03941564640516447 0 0.2320502206633881 0.021165953515508481 0 0.21340461703840111 0.0096506044731711187 0 0.2082588668535221 0.02245160931237615 0 0.2082588668535221 0.02245160931237615 0 0.19338700514557339 0.015742239871108451 0 0.20963369093729961 0.03941564640516447 0 0.19338700514557339 0.015742239871108451 0 0.1989601287501698 0.040429129743079398 0 0.18048502430789731 0.01998114488410483 0 0.1989601287501698 0.040429129743079398 0 0.18048502430789731 0.01998114488410483 0 0.19338700514557339 0.015742239871108451 0 0.20963369093729961 0.03941564640516447 0 0.20371525389429951 0.01279949030761077 0 0.2082588668535221 0.02245160931237615 0 0.19338700514557339 0.015742239871108451 0 0.19338700514557339 0.015742239871108451 0 0.1998105265397013 0.00335350757378736 0 0.17714031935384769 -0.0079311666629475405 0 0.20371525389429951 0.01279949030761077 0 0.19338700514557339 0.015742239871108451 0 0.1998105265397013 0.00335350757378736 0 0.21450653174737461 0.057635669175196122 0 0.2029561920580818 0.044851916216142339 0 0.21450653174737461 0.057635669175196122 0 0.2029561920580818 0.044851916216142339 0 0.2021088015620611 0.053433964061651712 0 0.21450653174737461 0.057635669175196122 0 0.21456035850380811 0.046594403085467223 0 0.2029561920580818 0.044851916216142339 0 0.2082291800225603 0.066043280120252124 0 0.21450653174737461 0.057635669175196122 0 0.2021088015620611 0.053433964061651712 0 0.2248665156508784 0.061611733455129589 0 0.21450653174737461 0.057635669175196122 0 0.21456035850380811 0.046594403085467223 0 0.2082291800225603 0.066043280120252124 0 0.21450653174737461 0.057635669175196122 0 0.22618438235043381 0.038998837361733103 0 0.21456035850380811 0.046594403085467223 0 0.20963369093729961 0.03941564640516447 0 0.21456035850380811 0.046594403085467223 0 0.20963369093729961 0.03941564640516447 0 0.21456035850380811 0.046594403085467223 0 0.20530753189452691 0.042937648913457381 0 0.2029561920580818 0.044851916216142339 0 0.20963369093729961 0.03941564640516447 0 0.20530753189452691 0.042937648913457381 0 0.1989601287501698 0.040429129743079398 0 0.21456035850380811 0.046594403085467223 0 0.20530753189452691 0.042937648913457381 0 0.21456035850380811 0.046594403085467223 0 0.20963369093729961 0.03941564640516447 0 0.20530753189452691 0.042937648913457381 0 0.20963369093729961 0.03941564640516447 0 0.20530753189452691 0.042937648913457381 0 0.20530753189452691 0.042937648913457381 0 0.2029561920580818 0.044851916216142339 0 0.1989601287501698 0.040429129743079398 0 0.1774654858828027 0.031934360706524292 0 0.2029561920580818 0.044851916216142339 0 0.1989601287501698 0.040429129743079398 0 0.19971656766465989 0.047489351670260083 0 0.1989601287501698 0.040429129743079398 0 0.19133087755196571 0.045131483978966998 0 0.19971656766465989 0.047489351670260083 0 0.2029561920580818 0.044851916216142339 0 0.19971656766465989 0.047489351670260083 0 0.19338700514557339 0.015742239871108451 0 0.20963369093729961 0.03941564640516447 0 0.1989601287501698 0.040429129743079398 0 0.1989601287501698 0.040429129743079398 0 0.19133087755196571 0.045131483978966998 0 0.18298678422305309 0.040980100737508622 0 0.20530753189452691 0.042937648913457381 0 0.2029561920580818 0.044851916216142339 0 0.1989601287501698 0.040429129743079398 0 0.20530753189452691 0.042937648913457381 0 0.1989601287501698 0.040429129743079398 0 0.2029561920580818 0.044851916216142339 0 0.1989601287501698 0.040429129743079398 0 0.2082291800225603 0.066043280120252124 0 0.18513553631762919 0.051149603126408108 0 0.2021088015620611 0.053433964061651712 0 0.19971656766465989 0.047489351670260083 0 0.18513553631762919 0.051149603126408108 0 0.2082291800225603 0.066043280120252124 0 0.2021088015620611 0.053433964061651712 0 0.18513553631762919 0.051149603126408108 0 0.19067723801237901 0.065525043857756982 0 0.2082291800225603 0.066043280120252124 0 0.18513553631762919 0.051149603126408108 0 0.19133087755196571 0.045131483978966998 0 0.19971656766465989 0.047489351670260083 0 0.18513553631762919 0.051149603126408108 0 0.2029561920580818 0.044851916216142339 0 0.2021088015620611 0.053433964061651712 0 0.19971656766465989 0.047489351670260083 0 0.17734631865053521 0.060730067185729229 0 0.18513553631762919 0.051149603126408108 0 0.16725106424272049 0.052894846580172288 0 0.19067723801237901 0.065525043857756982 0 0.17734631865053521 0.060730067185729229 0 0.18513553631762919 0.051149603126408108 0 0.18298678422305309 0.040980100737508622 0 0.1774654858828027 0.031934360706524292 0 0.1620418926126978 0.036255926132564682 0 0.19133087755196571 0.045131483978966998 0 0.18513553631762919 0.051149603126408108 0 0.18298678422305309 0.040980100737508622 0 0.18513553631762919 0.051149603126408108 0 0.18298678422305309 0.040980100737508622 0 0.1620418926126978 0.036255926132564682 0 0.1989601287501698 0.040429129743079398 0 0.18298678422305309 0.040980100737508622 0 0.1774654858828027 0.031934360706524292 0 0.18513553631762919 0.051149603126408108 0 0.1620418926126978 0.036255926132564682 0 0.1620418926126978 0.036255926132564682 0 0.16725106424272049 0.052894846580172288 0 0.15541952745182569 0.04677658384696623 0 0.18513553631762919 0.051149603126408108 0 0.1620418926126978 0.036255926132564682 0 0.16725106424272049 0.052894846580172288 0 0.16725106424272049 0.052894846580172288 0 0.15507694825043991 0.057889849327421902 0 0.15541952745182569 0.04677658384696623 0 0.16725106424272049 0.052894846580172288 0 0.15507694825043991 0.057889849327421902 0 0.1653937448538241 0.067538194789913991 0 0.17734631865053521 0.060730067185729229 0 0.16725106424272049 0.052894846580172288 0 0.1653937448538241 0.067538194789913991 0 0.18048502430789731 0.01998114488410483 0 0.1657030786406338 0.0084270166623369204 0 0.17714031935384769 -0.0079311666629475405 0 0.19338700514557339 0.015742239871108451 0 0.17714031935384769 -0.0079311666629475405 0 0.19338700514557339 0.015742239871108451 0 0.18048502430789731 0.01998114488410483 0 0.17714031935384769 -0.0079311666629475405 0 0.1989601287501698 0.040429129743079398 0 0.1774654858828027 0.031934360706524292 0 0.18048502430789731 0.01998114488410483 0 0.1774654858828027 0.031934360706524292 0 0.18048502430789731 0.01998114488410483 0 0.16935520337559401 0.020657770454092759 0 0.1774654858828027 0.031934360706524292 0 0.15597084301543529 0.02343959166996953 0 0.1774654858828027 0.031934360706524292 0 0.1620418926126978 0.036255926132564682 0 0.15597084301543529 0.02343959166996953 0 0.1774654858828027 0.031934360706524292 0 0.16935520337559401 0.020657770454092759 0 0.15597084301543529 0.02343959166996953 0 0.16935520337559401 0.020657770454092759 0 0.1657030786406338 0.0084270166623369204 0 0.15597084301543529 0.02343959166996953 0 0.18048502430789731 0.01998114488410483 0 0.16935520337559401 0.020657770454092759 0 0.1657030786406338 0.0084270166623369204 0 0.1657030786406338 0.0084270166623369204 0 0.14883794818754281 0.01110572894874149 0 0.15480995508657039 -0.001084596553268768 0 0.1657030786406338 0.0084270166623369204 0 0.14883794818754281 0.01110572894874149 0 0.15597084301543529 0.02343959166996953 0 0.14883794818754281 0.01110572894874149 0 0.13464870039648349 0.00080453217212592717 0 0.15480995508657039 -0.001084596553268768 0 0.14883794818754281 0.01110572894874149 0 0.13894824890776639 0.02136224913872127 0 0.13464870039648349 0.00080453217212592717 0 0.1620418926126978 0.036255926132564682 0 0.13894824890776639 0.02136224913872127 0 0.14883794818754281 0.01110572894874149 0 0.15597084301543529 0.02343959166996953 0 0.13894824890776639 0.02136224913872127 0 0.1620418926126978 0.036255926132564682 0 0.15597084301543529 0.02343959166996953 0 0.13894824890776639 0.02136224913872127 0 0.11961069471150609 0.02296590295220987 0 0.13894824890776639 0.02136224913872127 0 0.12977361784467401 0.039215218793308727 0 0.1158546052028349 0.0064685721448778594 0 0.13894824890776639 0.02136224913872127 0 0.1158546052028349 0.0064685721448778594 0 0.13894824890776639 0.02136224913872127 0 0.13464870039648349 0.00080453217212592717 0 0.14278372382386809 0.048416123664777412 0 0.1428601767931531 0.062084067640591357 0 0.15507694825043991 0.057889849327421902 0 0.14278372382386809 0.048416123664777412 0 0.15507694825043991 0.057889849327421902 0 0.15541952745182569 0.04677658384696623 0 0.1620418926126978 0.036255926132564682 0 0.13894824890776639 0.02136224913872127 0 0.14579340212816641 0.038405220315267663 0 0.1620418926126978 0.036255926132564682 0 0.15541952745182569 0.04677658384696623 0 0.14579340212816641 0.038405220315267663 0 0.14278372382386809 0.048416123664777412 0 0.15541952745182569 0.04677658384696623 0 0.14579340212816641 0.038405220315267663 0 0.14278372382386809 0.048416123664777412 0 0.14579340212816641 0.038405220315267663 0 0.12977361784467401 0.039215218793308727 0 0.13894824890776639 0.02136224913872127 0 0.14579340212816641 0.038405220315267663 0 0.12977361784467401 0.039215218793308727 0 0.11550376979223601 0.054551475820320147 0 0.12977361784467401 0.039215218793308727 0 0.1326943019686847 0.054606112458038862 0 0.11550376979223601 0.054551475820320147 0 0.1326943019686847 0.054606112458038862 0 0.13255022158949201 0.068763676371196639 0 0.14278372382386809 0.048416123664777412 0 0.12977361784467401 0.039215218793308727 0 0.1326943019686847 0.054606112458038862 0 0.14278372382386809 0.048416123664777412 0 0.1428601767931531 0.062084067640591357 0 0.1326943019686847 0.054606112458038862 0 0.1428601767931531 0.062084067640591357 0 0.1326943019686847 0.054606112458038862 0 0.13255022158949201 0.068763676371196639 0 0.1207366242219714 0.074251990558816788 0 0.13255022158949201 0.068763676371196639 0 0.13578085374332971 0.077614708003019631 0 0.13255022158949201 0.068763676371196639 0 0.13578085374332971 0.077614708003019631 0 0.1430759120552613 0.073085192731263071 0 0.1428601767931531 0.062084067640591357 0 0.13255022158949201 0.068763676371196639 0 0.1430759120552613 0.073085192731263071 0 0.1428601767931531 0.062084067640591357 0 0.1430759120552613 0.073085192731263071 0 0.15260580868734391 0.069203578475014266 0 0.1430759120552613 0.073085192731263071 0 0.14969883640752091 0.076610515579137797 0 0.14563192422462459 0.083183778073064013 0 0.13578085374332971 0.077614708003019631 0 0.1430759120552613 0.073085192731263071 0 0.14563192422462459 0.083183778073064013 0 0.1430759120552613 0.073085192731263071 0 0.14969883640752091 0.076610515579137797 0 0.15260580868734391 0.069203578475014266 0 0.14969883640752091 0.076610515579137797 0 0.15260580868734391 0.069203578475014266 0 0.15677919641446331 0.080277826610221981 0 0.1428601767931531 0.062084067640591357 0 0.15507694825043991 0.057889849327421902 0 0.15260580868734391 0.069203578475014266 0 0.1506819444987289 0.088437751930635633 0 0.14868901735932749 0.09586058707093438 0 0.157853861938485 0.092527754269896317 0 0.1506819444987289 0.088437751930635633 0 0.15677919641446331 0.080277826610221981 0 0.157853861938485 0.092527754269896317 0 0.14969883640752091 0.076610515579137797 0 0.14563192422462459 0.083183778073064013 0 0.15677919641446331 0.080277826610221981 0 0.1506819444987289 0.088437751930635633 0 0.14563192422462459 0.083183778073064013 0 0.15677919641446331 0.080277826610221981 0 0.14563192422462459 0.083183778073064013 0 0.1444557225567443 0.090338813629061501 0 0.13888671887288589 0.088270852986767859 0 0.1506819444987289 0.088437751930635633 0 0.14563192422462459 0.083183778073064013 0 0.1444557225567443 0.090338813629061501 0 0.1444557225567443 0.090338813629061501 0 0.14209274384079601 0.094639397504520467 0 0.14868901735932749 0.09586058707093438 0 0.1506819444987289 0.088437751930635633 0 0.1444557225567443 0.090338813629061501 0 0.14868901735932749 0.09586058707093438 0 0.1444557225567443 0.090338813629061501 0 0.13888671887288589 0.088270852986767859 0 0.14209274384079601 0.094639397504520467 0 0.13888671887288589 0.088270852986767859 0 0.13668050292917741 0.098217611464673699 0 0.14209274384079601 0.094639397504520467 0 0.13888671887288589 0.088270852986767859 0 0.1300820653953097 0.084166932106396392 0 0.13668050292917741 0.098217611464673699 0 0.11116449005577619 0.086473750785835857 0 0.1300820653953097 0.084166932106396392 0 0.13668050292917741 0.098217611464673699 0 0.13578085374332971 0.077614708003019631 0 0.13888671887288589 0.088270852986767859 0 0.1300820653953097 0.084166932106396392 0 0.13578085374332971 0.077614708003019631 0 0.14563192422462459 0.083183778073064013 0 0.13888671887288589 0.088270852986767859 0 0.1207366242219714 0.074251990558816788 0 0.13578085374332971 0.077614708003019631 0 0.1300820653953097 0.084166932106396392 0 0.1216961693062274 0.1020981758197984 0 0.1302764983332621 0.10693497851168419 0 0.13668050292917741 0.098217611464673699 0 0.1302764983332621 0.10693497851168419 0 0.13758713408363871 0.1043360441680015 0 0.13668050292917741 0.098217611464673699 0 0.1302764983332621 0.10693497851168419 0 0.1360833458267342 0.1084620534226548 0 0.13758713408363871 0.1043360441680015 0 0.1360833458267342 0.1084620534226548 0 0.13758713408363871 0.1043360441680015 0 0.14314356584317489 0.10755645506983 0 0.13758713408363871 0.1043360441680015 0 0.13668050292917741 0.098217611464673699 0 0.14175175748584509 0.1005091223711649 0 0.13668050292917741 0.098217611464673699 0 0.14209274384079601 0.094639397504520467 0 0.14175175748584509 0.1005091223711649 0 0.12813823657366311 0.12049833089676459 0 0.13246275659848361 0.1130811342378658 0 0.13708322035591489 0.118794437000363 0 0.12212988809696081 0.1249307776834532 0 0.12788127083107459 0.1291064789800366 0 0.12813823657366311 0.12049833089676459 0 0.1197878353292403 0.1092484053650479 0 0.1302764983332621 0.10693497851168419 0 0.12624189261331301 0.1140678077034443 0 0.12813823657366311 0.12049833089676459 0 0.12624189261331301 0.1140678077034443 0 0.13246275659848361 0.1130811342378658 0 0.1302764983332621 0.10693497851168419 0 0.12624189261331301 0.1140678077034443 0 0.13246275659848361 0.1130811342378658 0 0.138866780176991 0.11235807520418389 0 0.13708322035591489 0.118794437000363 0 0.14572099158606311 0.1154247658161887 0 0.1360833458267342 0.1084620534226548 0 0.13246275659848361 0.1130811342378658 0 0.138866780176991 0.11235807520418389 0 0.1302764983332621 0.10693497851168419 0 0.1360833458267342 0.1084620534226548 0 0.13246275659848361 0.1130811342378658 0 0.1360833458267342 0.1084620534226548 0 0.138866780176991 0.11235807520418389 0 0.14314356584317489 0.10755645506983 0 0.13246275659848361 0.1130811342378658 0 0.138866780176991 0.11235807520418389 0 0.13708322035591489 0.118794437000363 0 0.13409394305489639 0.1257339851238449 0 0.14295710802469111 0.12768772724150559 0 0.13708322035591489 0.118794437000363 0 0.13409394305489639 0.1257339851238449 0 0.12813823657366311 0.12049833089676459 0 0.13708322035591489 0.118794437000363 0 0.14572099158606311 0.1154247658161887 0 0.15364605026385231 0.1227496740475859 0 0.15839207309433961 0.10550736800805539 0 0.14295710802469111 0.12768772724150559 0 0.13708322035591489 0.118794437000363 0 0.14572099158606311 0.1154247658161887 0 0.14295710802469111 0.12768772724150559 0 0.14572099158606311 0.1154247658161887 0 0.15364605026385231 0.1227496740475859 0 0.138866780176991 0.11235807520418389 0 0.14572099158606311 0.1154247658161887 0 0.14314356584317489 0.10755645506983 0 0.14572099158606311 0.1154247658161887 0 0.14314356584317489 0.10755645506983 0 0.15839207309433961 0.10550736800805539 0 0.14175175748584509 0.1005091223711649 0 0.15839207309433961 0.10550736800805539 0 0.14175175748584509 0.1005091223711649 0 0.14314356584317489 0.10755645506983 0 0.15839207309433961 0.10550736800805539 0 0.14175175748584509 0.1005091223711649 0 0.14868901735932749 0.09586058707093438 0 0.15839207309433961 0.10550736800805539 0 0.14209274384079601 0.094639397504520467 0 0.14175175748584509 0.1005091223711649 0 0.14868901735932749 0.09586058707093438 0 0.13758713408363871 0.1043360441680015 0 0.14175175748584509 0.1005091223711649 0 0.14314356584317489 0.10755645506983 0 0.14868901735932749 0.09586058707093438 0 0.15839207309433961 0.10550736800805539 0 0.157853861938485 0.092527754269896317 0 0.15839207309433961 0.10550736800805539 0 0.17503238870283441 0.11050561364494491 0 0.15839207309433961 0.10550736800805539 0 0.1705578526620479 0.095927182961129481 0 0.157853861938485 0.092527754269896317 0 0.15839207309433961 0.10550736800805539 0 0.1705578526620479 0.095927182961129481 0 0.17503238870283441 0.11050561364494491 0 0.16417220099380411 0.12505127510387981 0 0.15839207309433961 0.10550736800805539 0 0.17503238870283441 0.11050561364494491 0 0.16417220099380411 0.12505127510387981 0 0.15364605026385231 0.1227496740475859 0 0.15839207309433961 0.10550736800805539 0 0.16417220099380411 0.12505127510387981 0 0.17503238870283441 0.11050561364494491 0 0.18002451345814399 0.12716596121819479 0 0.16417220099380411 0.12505127510387981 0 0.17503238870283441 0.11050561364494491 0 0.18002451345814399 0.12716596121819479 0 0.2001236667938262 0.1180422718546187 0 0.17503238870283441 0.11050561364494491 0 0.1916307843626972 0.08827444688259839 0 0.1705578526620479 0.095927182961129481 0 0.17503238870283441 0.11050561364494491 0 0.1916307843626972 0.08827444688259839 0 0.17503238870283441 0.11050561364494491 0 0.1916307843626972 0.08827444688259839 0 0.17935943521264269 0.07135827912697662 0 0.16988015521188329 0.08282073200015258 0 0.1916307843626972 0.08827444688259839 0 0.1705578526620479 0.095927182961129481 0 0.16988015521188329 0.08282073200015258 0 0.19067723801237901 0.065525043857756982 0 0.1916307843626972 0.08827444688259839 0 0.17935943521264269 0.07135827912697662 0 0.19067723801237901 0.065525043857756982 0 0.17734631865053521 0.060730067185729229 0 0.17935943521264269 0.07135827912697662 0 0.17734631865053521 0.060730067185729229 0 0.17935943521264269 0.07135827912697662 0 0.1653937448538241 0.067538194789913991 0 0.17935943521264269 0.07135827912697662 0 0.1653937448538241 0.067538194789913991 0 0.16988015521188329 0.08282073200015258 0 0.15507694825043991 0.057889849327421902 0 0.15260580868734391 0.069203578475014266 0 0.1653937448538241 0.067538194789913991 0 0.15260580868734391 0.069203578475014266 0 0.1653937448538241 0.067538194789913991 0 0.15677919641446331 0.080277826610221981 0 0.1653937448538241 0.067538194789913991 0 0.15677919641446331 0.080277826610221981 0 0.16988015521188329 0.08282073200015258 0 0.15677919641446331 0.080277826610221981 0 0.157853861938485 0.092527754269896317 0 0.16988015521188329 0.08282073200015258 0 0.1705578526620479 0.095927182961129481 0 0.157853861938485 0.092527754269896317 0 0.16988015521188329 0.08282073200015258 0 0.099456207782380623 0.4822659283708195 0 0.1141892196830592 0.48396198267476093 0 0.11304725129434449 0.46767028325629811 0 0.099456207782380623 0.4822659283708195 0 0.11304725129434449 0.46767028325629811 0 0.096803680563272876 0.46646214520586099 0 0.099456207782380623 0.4822659283708195 0 0.10782601469385079 0.5 0 0.078267650747156567 0.50000000000000133 0 0.099456207782380623 0.4822659283708195 0 0.10782601469385079 0.5 0 0.1141892196830592 0.48396198267476093 0 0.10782601469385079 0.5 0 0.1249193769550877 0.49369376296818718 0 0.1141892196830592 0.48396198267476093 0 0.1249193769550877 0.49369376296818718 0 0.1141892196830592 0.48396198267476093 0 0.12569724768963239 0.47617993877849962 0 0.10782601469385079 0.5 0 0.1249193769550877 0.49369376296818718 0 0.13738437864054501 0.5 0 0.1141892196830592 0.48396198267476093 0 0.11304725129434449 0.46767028325629811 0 0.12569724768963239 0.47617993877849962 0 0.11304725129434449 0.46767028325629811 0 0.1267882431275838 0.46370707134437261 0 0.12569724768963239 0.47617993877849962 0 0.11304725129434449 0.46767028325629811 0 0.1221607865463437 0.4507156547582637 0 0.1004821270038239 0.44949914822431608 0 0.11304725129434449 0.46767028325629811 0 0.1221607865463437 0.4507156547582637 0 0.1267882431275838 0.46370707134437261 0 0.1221607865463437 0.4507156547582637 0 0.1004821270038239 0.44949914822431608 0 0.12259086230274099 0.42947812748907283 0 0.1004821270038239 0.44949914822431608 0 0.096803680563272876 0.46646214520586099 0 0.084307548883437972 0.45862843933572522 0 0.11304725129434449 0.46767028325629811 0 0.1004821270038239 0.44949914822431608 0 0.096803680563272876 0.46646214520586099 0 0.084307548883437972 0.45862843933572522 0 0.070120974899159305 0.46867166915081548 0 0.08254081050968877 0.47642281665818748 0 0.096803680563272876 0.46646214520586099 0 0.084307548883437972 0.45862843933572522 0 0.08254081050968877 0.47642281665818748 0 0.084307548883437972 0.45862843933572522 0 0.083205653112744402 0.44008551456546158 0 0.070599818540594342 0.45171728711773013 0 0.1004821270038239 0.44949914822431608 0 0.084307548883437972 0.45862843933572522 0 0.083205653112744402 0.44008551456546158 0 0.1004821270038239 0.44949914822431608 0 0.083205653112744402 0.44008551456546158 0 0.095892719888732866 0.42453745382262881 0 0.070599818540594342 0.45171728711773013 0 0.057347956450285731 0.44480695268810438 0 0.068330088192809502 0.43602814955066621 0 0.083205653112744402 0.44008551456546158 0 0.070599818540594342 0.45171728711773013 0 0.068330088192809502 0.43602814955066621 0 0.070599818540594342 0.45171728711773013 0 0.070120974899159305 0.46867166915081548 0 0.05832870883015126 0.45973880463956351 0 0.084307548883437972 0.45862843933572522 0 0.070599818540594342 0.45171728711773013 0 0.070120974899159305 0.46867166915081548 0 0.070120974899159305 0.46867166915081548 0 0.08254081050968877 0.47642281665818748 0 0.061557047466102868 0.48310025102256282 0 0.070120974899159305 0.46867166915081548 0 0.061557047466102868 0.48310025102256282 0 0.05832870883015126 0.45973880463956351 0 0.099456207782380623 0.4822659283708195 0 0.096803680563272876 0.46646214520586099 0 0.08254081050968877 0.47642281665818748 0 0.099456207782380623 0.4822659283708195 0 0.08254081050968877 0.47642281665818748 0 0.078267650747156567 0.50000000000000133 0 0.078267650747156567 0.50000000000000133 0 0.049166882519808157 0.5 0 0.061557047466102868 0.48310025102256282 0 0.08254081050968877 0.47642281665818748 0 0.078267650747156567 0.50000000000000133 0 0.061557047466102868 0.48310025102256282 0 0.078267650747156567 0.50000000000000133 0 0.061557047466102868 0.48310025102256282 0 0.049166882519808157 0.5 0 0.061557047466102868 0.48310025102256282 0 0.038208171894904559 0.48286056860770488 0 0.061557047466102868 0.48310025102256282 0 0.044846444185049857 0.46620050204512359 0 0.05832870883015126 0.45973880463956351 0 0.061557047466102868 0.48310025102256282 0 0.044846444185049857 0.46620050204512359 0 0.061557047466102868 0.48310025102256282 0 0.038208171894904559 0.48286056860770488 0 0.044846444185049857 0.46620050204512359 0 0.038208171894904559 0.48286056860770488 0 0.029572045059576241 0.469060477695939 0 0.044846444185049857 0.46620050204512359 0 0.049166882519808157 0.5 0 0.038208171894904559 0.48286056860770488 0 0.020066114292459799 0.5 0 0.038208171894904559 0.48286056860770488 0 0.020066114292459799 0.5 0 0.021055159894441029 0.48095839664786189 0 0.038208171894904559 0.48286056860770488 0 0.029572045059576241 0.469060477695939 0 0.021055159894441029 0.48095839664786189 0 0.029572045059576241 0.469060477695939 0 0.021055159894441029 0.48095839664786189 0 0.01561460841948897 0.46598216811131982 0 0.021055159894441029 0.48095839664786189 0 0.0030933759349822849 0.48266358315495572 0 0.01561460841948897 0.46598216811131982 0 0.0030933759349822849 0.48266358315495572 0 0.01561460841948897 0.46598216811131982 0 0.0036787250480955699 0.47408322248379448 0 0.0030933759349822849 0.48266358315495572 0 0.01561460841948897 0.46598216811131982 0 -0.0016340076521478781 0.48633642657919801 0 0.0036787250480955699 0.47408322248379448 0 0.0030933759349822849 0.48266358315495572 0 0.020066114292459799 0.5 0 0.021055159894441029 0.48095839664786189 0 0.0030933759349822849 0.48266358315495572 0 -0.0090346539348886701 0.5 0 -0.0016340076521478781 0.48633642657919801 0 0.020066114292459799 0.5 0 -0.0016340076521478781 0.48633642657919801 0 0.020066114292459799 0.5 0 0.0030933759349822849 0.48266358315495572 0 -0.0030841453677343121 0.43636499760021141 0 -0.002359076509941094 0.46135071208970457 0 0.010470448459028871 0.45111158928184719 0 -0.0030841453677343121 0.43636499760021141 0 0.010470448459028871 0.45111158928184719 0 0.017893296784651399 0.43894227458572882 0 -0.002359076509941094 0.46135071208970457 0 0.010470448459028871 0.45111158928184719 0 0.01561460841948897 0.46598216811131982 0 -0.002359076509941094 0.46135071208970457 0 0.0036787250480955699 0.47408322248379448 0 0.01561460841948897 0.46598216811131982 0 0.010470448459028871 0.45111158928184719 0 0.01561460841948897 0.46598216811131982 0 0.0281358409039968 0.44930075306768458 0 0.029572045059576241 0.469060477695939 0 0.01561460841948897 0.46598216811131982 0 0.0281358409039968 0.44930075306768458 0 0.01561460841948897 0.46598216811131982 0 0.0281358409039968 0.44930075306768458 0 0.010470448459028871 0.45111158928184719 0 0.0281358409039968 0.44930075306768458 0 0.017893296784651399 0.43894227458572882 0 0.0281358409039968 0.44930075306768458 0 0.017893296784651399 0.43894227458572882 0 0.03800042812263172 0.43615865433005307 0 0.0281358409039968 0.44930075306768458 0 0.017893296784651399 0.43894227458572882 0 0.0281358409039968 0.44930075306768458 0 0.04587361322417214 0.448769157871174 0 0.03800042812263172 0.43615865433005307 0 0.0281358409039968 0.44930075306768458 0 0.03800042812263172 0.43615865433005307 0 0.04587361322417214 0.448769157871174 0 0.049411209704934803 0.43621283219101809 0 0.03800042812263172 0.43615865433005307 0 0.029572045059576241 0.469060477695939 0 0.0281358409039968 0.44930075306768458 0 0.044846444185049857 0.46620050204512359 0 0.0281358409039968 0.44930075306768458 0 0.04587361322417214 0.448769157871174 0 0.044846444185049857 0.46620050204512359 0 0.0281358409039968 0.44930075306768458 0 0.044846444185049857 0.46620050204512359 0 0.04587361322417214 0.448769157871174 0 0.044846444185049857 0.46620050204512359 0 0.05832870883015126 0.45973880463956351 0 0.04587361322417214 0.448769157871174 0 0.057347956450285731 0.44480695268810438 0 0.049411209704934803 0.43621283219101809 0 0.04587361322417214 0.448769157871174 0 0.05832870883015126 0.45973880463956351 0 0.057347956450285731 0.44480695268810438 0 0.070599818540594342 0.45171728711773013 0 0.05832870883015126 0.45973880463956351 0 0.057347956450285731 0.44480695268810438 0 0.057347956450285731 0.44480695268810438 0 0.058238482531349368 0.43512174465279091 0 0.068330088192809502 0.43602814955066621 0 0.057347956450285731 0.44480695268810438 0 0.058238482531349368 0.43512174465279091 0 0.049411209704934803 0.43621283219101809 0 0.058238482531349368 0.43512174465279091 0 0.05412352915042095 0.42739076434297479 0 0.063786863135573219 0.4234822836218442 0 0.05412352915042095 0.42739076434297479 0 0.047865015341267358 0.42301655559242213 0 0.049411209704934803 0.43621283219101809 0 0.05412352915042095 0.42739076434297479 0 0.047865015341267358 0.42301655559242213 0 0.058238482531349368 0.43512174465279091 0 0.05412352915042095 0.42739076434297479 0 0.049411209704934803 0.43621283219101809 0 0.047865015341267358 0.42301655559242213 0 0.055388731832649349 0.41299308245440008 0 0.044385004541519633 0.40583709082877739 0 0.055388731832649349 0.41299308245440008 0 0.057103340742871267 0.4006394318358022 0 0.0691327228978319 0.40699071288372829 0 0.05412352915042095 0.42739076434297479 0 0.055388731832649349 0.41299308245440008 0 0.063786863135573219 0.4234822836218442 0 0.047865015341267358 0.42301655559242213 0 0.055388731832649349 0.41299308245440008 0 0.05412352915042095 0.42739076434297479 0 0.047865015341267358 0.42301655559242213 0 0.055388731832649349 0.41299308245440008 0 0.055388731832649349 0.41299308245440008 0 0.044385004541519633 0.40583709082877739 0 0.057103340742871267 0.4006394318358022 0 0.047865015341267358 0.42301655559242213 0 0.030398582533070099 0.41080889326869052 0 0.044385004541519633 0.40583709082877739 0 0.047865015341267358 0.42301655559242213 0 0.035686717363660143 0.42423985257235269 0 0.030398582533070099 0.41080889326869052 0 0.047865015341267358 0.42301655559242213 0 0.030398582533070099 0.41080889326869052 0 0.047865015341267358 0.42301655559242213 0 0.049411209704934803 0.43621283219101809 0 0.03800042812263172 0.43615865433005307 0 0.047865015341267358 0.42301655559242213 0 0.03800042812263172 0.43615865433005307 0 0.047865015341267358 0.42301655559242213 0 0.035686717363660143 0.42423985257235269 0 0.03800042812263172 0.43615865433005307 0 0.035686717363660143 0.42423985257235269 0 0.03800042812263172 0.43615865433005307 0 0.0264828434576714 0.42697530709824522 0 0.017893296784651399 0.43894227458572882 0 0.0264828434576714 0.42697530709824522 0 0.013451351612083251 0.42022136891186163 0 0.017893296784651399 0.43894227458572882 0 0.03800042812263172 0.43615865433005307 0 0.0264828434576714 0.42697530709824522 0 0.030398582533070099 0.41080889326869052 0 0.013451351612083251 0.42022136891186163 0 0.012932149724872831 0.39860123094495892 0 0.0264828434576714 0.42697530709824522 0 0.030398582533070099 0.41080889326869052 0 0.013451351612083251 0.42022136891186163 0 0.035686717363660143 0.42423985257235269 0 0.0264828434576714 0.42697530709824522 0 0.030398582533070099 0.41080889326869052 0 -0.0038092142255275289 0.41137928311071797 0 0.013451351612083251 0.42022136891186163 0 0.012932149724872831 0.39860123094495892 0 -0.0030841453677343121 0.43636499760021141 0 0.017893296784651399 0.43894227458572882 0 0.013451351612083251 0.42022136891186163 0 -0.0030841453677343121 0.43636499760021141 0 -0.0038092142255275289 0.41137928311071797 0 0.013451351612083251 0.42022136891186163 0 -0.0045342830833226501 0.3863935686212247 0 0.012932149724872831 0.39860123094495892 0 0.0079023355216259559 0.37348921158265391 0 0.012932149724872831 0.39860123094495892 0 0.025375843575522711 0.38021681034322929 0 0.0079023355216259559 0.37348921158265391 0 -0.0045342830833226501 0.3863935686212247 0 0.012932149724872831 0.39860123094495892 0 -0.0045342830833226501 0.3863935686212247 0 -0.0038092142255275289 0.41137928311071797 0 0.012932149724872831 0.39860123094495892 0 0.030398582533070099 0.41080889326869052 0 0.012932149724872831 0.39860123094495892 0 0.030398582533070099 0.41080889326869052 0 0.012932149724872831 0.39860123094495892 0 0.030218872497922818 0.39559608178221078 0 0.012932149724872831 0.39860123094495892 0 0.030218872497922818 0.39559608178221078 0 0.025375843575522711 0.38021681034322929 0 0.025375843575522711 0.38021681034322929 0 0.045236422390978262 0.39339421550307069 0 0.045418656597819553 0.37354288132317159 0 0.030218872497922818 0.39559608178221078 0 0.025375843575522711 0.38021681034322929 0 0.045236422390978262 0.39339421550307069 0 0.030398582533070099 0.41080889326869052 0 0.030218872497922818 0.39559608178221078 0 0.044385004541519633 0.40583709082877739 0 0.030218872497922818 0.39559608178221078 0 0.045236422390978262 0.39339421550307069 0 0.044385004541519633 0.40583709082877739 0 0.045236422390978262 0.39339421550307069 0 0.057103340742871267 0.4006394318358022 0 0.06607043693335328 0.38973814947632979 0 0.045236422390978262 0.39339421550307069 0 0.044385004541519633 0.40583709082877739 0 0.057103340742871267 0.4006394318358022 0 0.045236422390978262 0.39339421550307069 0 0.06607043693335328 0.38973814947632979 0 0.045418656597819553 0.37354288132317159 0 0.06607043693335328 0.38973814947632979 0 0.066778362586220691 0.36264744131756171 0 0.045418656597819553 0.37354288132317159 0 0.06607043693335328 0.38973814947632979 0 0.086713905658550791 0.37461406501925459 0 0.066778362586220691 0.36264744131756171 0 0.091303312773641829 0.3995757594209417 0 0.1025776524751303 0.38486691706586951 0 0.086713905658550791 0.37461406501925459 0 0.06607043693335328 0.38973814947632979 0 0.091303312773641829 0.3995757594209417 0 0.086713905658550791 0.37461406501925459 0 0.091303312773641829 0.3995757594209417 0 0.086713905658550791 0.37461406501925459 0 0.06607043693335328 0.38973814947632979 0 0.091303312773641829 0.3995757594209417 0 0.0691327228978319 0.40699071288372829 0 0.057103340742871267 0.4006394318358022 0 0.06607043693335328 0.38973814947632979 0 0.0691327228978319 0.40699071288372829 0 0.055388731832649349 0.41299308245440008 0 0.0691327228978319 0.40699071288372829 0 0.063786863135573219 0.4234822836218442 0 0.0691327228978319 0.40699071288372829 0 0.077714875811277062 0.4214876261871765 0 0.063786863135573219 0.4234822836218442 0 0.083205653112744402 0.44008551456546158 0 0.077714875811277062 0.4214876261871765 0 0.068330088192809502 0.43602814955066621 0 0.058238482531349368 0.43512174465279091 0 0.068330088192809502 0.43602814955066621 0 0.063786863135573219 0.4234822836218442 0 0.077714875811277062 0.4214876261871765 0 0.068330088192809502 0.43602814955066621 0 0.063786863135573219 0.4234822836218442 0 0.083205653112744402 0.44008551456546158 0 0.077714875811277062 0.4214876261871765 0 0.095892719888732866 0.42453745382262881 0 0.091303312773641829 0.3995757594209417 0 0.0691327228978319 0.40699071288372829 0 0.077714875811277062 0.4214876261871765 0 0.091303312773641829 0.3995757594209417 0 0.095892719888732866 0.42453745382262881 0 0.091303312773641829 0.3995757594209417 0 0.077714875811277062 0.4214876261871765 0 0.095892719888732866 0.42453745382262881 0 0.091303312773641829 0.3995757594209417 0 0.095892719888732866 0.42453745382262881 0 0.115428724103706 0.40267530492779557 0 0.1004821270038239 0.44949914822431608 0 0.095892719888732866 0.42453745382262881 0 0.12259086230274099 0.42947812748907283 0 0.1004821270038239 0.44949914822431608 0 0.095892719888732866 0.42453745382262881 0 0.095892719888732866 0.42453745382262881 0 0.12259086230274099 0.42947812748907283 0 0.115428724103706 0.40267530492779557 0 0.115428724103706 0.40267530492779557 0 0.119448870245615 0.38256434187866972 0 0.13692284990477191 0.38930777957628943 0 0.119448870245615 0.38256434187866972 0 0.1025776524751303 0.38486691706586951 0 0.1087205780393706 0.3656269003386084 0 0.115428724103706 0.40267530492779557 0 0.119448870245615 0.38256434187866972 0 0.1025776524751303 0.38486691706586951 0 0.1025776524751303 0.38486691706586951 0 0.1087205780393706 0.3656269003386084 0 0.086713905658550791 0.37461406501925459 0 0.091303312773641829 0.3995757594209417 0 0.115428724103706 0.40267530492779557 0 0.1025776524751303 0.38486691706586951 0 0.1087205780393706 0.3656269003386084 0 0.1202868522871179 0.34060046584014031 0 0.0915497208986496 0.34709204532757532 0 0.1087205780393706 0.3656269003386084 0 0.0915497208986496 0.34709204532757532 0 0.086713905658550791 0.37461406501925459 0 0.119448870245615 0.38256434187866972 0 0.1087205780393706 0.3656269003386084 0 0.13274728415341139 0.36410634055334368 0 0.1087205780393706 0.3656269003386084 0 0.1202868522871179 0.34060046584014031 0 0.13274728415341139 0.36410634055334368 0 0.1202868522871179 0.34060046584014031 0 0.1104734498024164 0.31171603628350752 0 0.14183880654046921 0.32250528078568202 0 0.1202868522871179 0.34060046584014031 0 0.1016552612267161 0.33013161519950079 0 0.1104734498024164 0.31171603628350752 0 0.1016552612267161 0.33013161519950079 0 0.081254576285268804 0.3210829637434266 0 0.1104734498024164 0.31171603628350752 0 0.1202868522871179 0.34060046584014031 0 0.1016552612267161 0.33013161519950079 0 0.0915497208986496 0.34709204532757532 0 0.081254576285268804 0.3210829637434266 0 0.072654821413094289 0.33942743407960763 0 0.0915497208986496 0.34709204532757532 0 0.1016552612267161 0.33013161519950079 0 0.081254576285268804 0.3210829637434266 0 0.0915497208986496 0.34709204532757532 0 0.081254576285268804 0.3210829637434266 0 0.06358813508901956 0.32234581427363851 0 0.071244474661197085 0.3036312559279935 0 0.081254576285268804 0.3210829637434266 0 0.06358813508901956 0.32234581427363851 0 0.072654821413094289 0.33942743407960763 0 0.06358813508901956 0.32234581427363851 0 0.072654821413094289 0.33942743407960763 0 0.055199983679349987 0.34246375673151652 0 0.072654821413094289 0.33942743407960763 0 0.066778362586220691 0.36264744131756171 0 0.055199983679349987 0.34246375673151652 0 0.072654821413094289 0.33942743407960763 0 0.0915497208986496 0.34709204532757532 0 0.066778362586220691 0.36264744131756171 0 0.0915497208986496 0.34709204532757532 0 0.086713905658550791 0.37461406501925459 0 0.066778362586220691 0.36264744131756171 0 0.066778362586220691 0.36264744131756171 0 0.044951457965310811 0.3555124197003488 0 0.045418656597819553 0.37354288132317159 0 0.066778362586220691 0.36264744131756171 0 0.044951457965310811 0.3555124197003488 0 0.055199983679349987 0.34246375673151652 0 0.044951457965310811 0.3555124197003488 0 0.021903196078839001 0.35746348141110651 0 0.035457090884324839 0.34144453771838768 0 0.044951457965310811 0.3555124197003488 0 0.035457090884324839 0.34144453771838768 0 0.055199983679349987 0.34246375673151652 0 0.044951457965310811 0.3555124197003488 0 0.045418656597819553 0.37354288132317159 0 0.021903196078839001 0.35746348141110651 0 0.025375843575522711 0.38021681034322929 0 0.021903196078839001 0.35746348141110651 0 0.0079023355216259559 0.37348921158265391 0 0.025375843575522711 0.38021681034322929 0 0.045418656597819553 0.37354288132317159 0 0.021903196078839001 0.35746348141110651 0 0.021903196078839001 0.35746348141110651 0 0.017151683724365509 0.3376665205351736 0 0.035457090884324839 0.34144453771838768 0 0.021903196078839001 0.35746348141110651 0 0.0095650341834115256 0.34490192427506011 0 0.017151683724365509 0.3376665205351736 0 0.021903196078839001 0.35746348141110651 0 0.0095650341834115256 0.34490192427506011 0 0.0061318462344260851 0.35417601161121459 0 -0.0050552824635438226 0.34569829691311771 0 0.0095650341834115256 0.34490192427506011 0 0.0061318462344260851 0.35417601161121459 0 0.021903196078839001 0.35746348141110651 0 0.0061318462344260851 0.35417601161121459 0 0.0079023355216259559 0.37348921158265391 0 -0.0052616759920083916 0.36132776784546622 0 0.0061318462344260851 0.35417601161121459 0 0.0079023355216259559 0.37348921158265391 0 0.0087281755863181168 0.33049580891976171 0 0.020410497070949891 0.30832150289807031 0 0.0056044744337335906 0.31412092038659428 0 0.0087281755863181168 0.33049580891976171 0 0.020410497070949891 0.30832150289807031 0 -0.003280447873963227 0.32161399115684158 0 0.0056044744337335906 0.31412092038659428 0 0.0087281755863181168 0.33049580891976171 0 0.0064742168078369342 0.3347740657525386 0 0.0087281755863181168 0.33049580891976171 0 -0.0050552824635438226 0.34569829691311771 0 0.0095650341834115256 0.34490192427506011 0 0.0064742168078369342 0.3347740657525386 0 0.0095650341834115256 0.34490192427506011 0 0.0064742168078369342 0.3347740657525386 0 0.017151683724365509 0.3376665205351736 0 0.0064742168078369342 0.3347740657525386 0 0.0087281755863181168 0.33049580891976171 0 0.017151683724365509 0.3376665205351736 0 0.0087281755863181168 0.33049580891976171 0 0.025353163704189718 0.33024288796319817 0 0.017151683724365509 0.3376665205351736 0 0.0087281755863181168 0.33049580891976171 0 0.025353163704189718 0.33024288796319817 0 0.025353163704189718 0.33024288796319817 0 0.017151683724365509 0.3376665205351736 0 0.035457090884324839 0.34144453771838768 0 0.0087281755863181168 0.33049580891976171 0 0.025353163704189718 0.33024288796319817 0 0.020410497070949891 0.30832150289807031 0 0.025353163704189718 0.33024288796319817 0 0.038017806832533571 0.30672300381527179 0 0.020410497070949891 0.30832150289807031 0 0.025353163704189718 0.33024288796319817 0 0.045812945845809312 0.32351293560108041 0 0.038017806832533571 0.30672300381527179 0 0.025353163704189718 0.33024288796319817 0 0.045812945845809312 0.32351293560108041 0 0.035457090884324839 0.34144453771838768 0 0.045812945845809312 0.32351293560108041 0 0.035457090884324839 0.34144453771838768 0 0.055199983679349987 0.34246375673151652 0 0.06358813508901956 0.32234581427363851 0 0.045812945845809312 0.32351293560108041 0 0.055199983679349987 0.34246375673151652 0 0.06358813508901956 0.32234581427363851 0 0.045812945845809312 0.32351293560108041 0 0.055148108477292443 0.3057593846019967 0 0.055148108477292443 0.3057593846019967 0 0.047586914097201803 0.29032131063477928 0 0.038017806832533571 0.30672300381527179 0 0.055148108477292443 0.3057593846019967 0 0.047586914097201803 0.29032131063477928 0 0.066935962560195753 0.28615893812798288 0 0.047586914097201803 0.29032131063477928 0 0.050578246113349837 0.27455429857722041 0 0.066935962560195753 0.28615893812798288 0 0.047586914097201803 0.29032131063477928 0 0.032092818555581597 0.28614719687637868 0 0.038017806832533571 0.30672300381527179 0 0.047586914097201803 0.29032131063477928 0 0.032092818555581597 0.28614719687637868 0 0.050578246113349837 0.27455429857722041 0 0.045812945845809312 0.32351293560108041 0 0.055148108477292443 0.3057593846019967 0 0.038017806832533571 0.30672300381527179 0 0.032092818555581597 0.28614719687637868 0 0.038017806832533571 0.30672300381527179 0 0.020410497070949891 0.30832150289807031 0 0.032092818555581597 0.28614719687637868 0 0.020410497070949891 0.30832150289807031 0 0.032092818555581597 0.28614719687637868 0 0.020410497070949891 0.30832150289807031 0 0.0083336089875100904 0.29343585490586271 0 0.032092818555581597 0.28614719687637868 0 0.0083336089875100904 0.29343585490586271 0 0.021382191810826279 0.2686960609189637 0 -0.0088759444352828343 0.31092800175718183 0 0.0056044744337335906 0.31412092038659428 0 0.0083336089875100904 0.29343585490586271 0 0.0056044744337335906 0.31412092038659428 0 0.020410497070949891 0.30832150289807031 0 0.0083336089875100904 0.29343585490586271 0 0.0073806355134042019 0.25529449578482938 0 3.3590645499582607e-05 0.27236849017123349 0 0.021382191810826279 0.2686960609189637 0 0.0083336089875100904 0.29343585490586271 0 3.3590645499582607e-05 0.27236849017123349 0 0.021382191810826279 0.2686960609189637 0 0.025149977659741599 0.24684982625080901 0 0.0073806355134042019 0.25529449578482938 0 0.021382191810826279 0.2686960609189637 0 0.025149977659741599 0.24684982625080901 0 0.021382191810826279 0.2686960609189637 0 0.043775140040213267 0.26397289085468728 0 0.025149977659741599 0.24684982625080901 0 0.045472231705318063 0.24424317023843681 0 0.050158093690384618 0.2598810672441918 0 0.025149977659741599 0.24684982625080901 0 0.050158093690384618 0.2598810672441918 0 0.025149977659741599 0.24684982625080901 0 0.043775140040213267 0.26397289085468728 0 0.050158093690384618 0.2598810672441918 0 0.032092818555581597 0.28614719687637868 0 0.043775140040213267 0.26397289085468728 0 0.032092818555581597 0.28614719687637868 0 0.021382191810826279 0.2686960609189637 0 0.043775140040213267 0.26397289085468728 0 0.032092818555581597 0.28614719687637868 0 0.043775140040213267 0.26397289085468728 0 0.050578246113349837 0.27455429857722041 0 0.050578246113349837 0.27455429857722041 0 0.063875668081316214 0.2678607518654692 0 0.066935962560195753 0.28615893812798288 0 0.043775140040213267 0.26397289085468728 0 0.050578246113349837 0.27455429857722041 0 0.050158093690384618 0.2598810672441918 0 0.050578246113349837 0.27455429857722041 0 0.056046126259945157 0.25263236173372139 0 0.063875668081316214 0.2678607518654692 0 0.050578246113349837 0.27455429857722041 0 0.050158093690384618 0.2598810672441918 0 0.056046126259945157 0.25263236173372139 0 0.045472231705318063 0.24424317023843681 0 0.050158093690384618 0.2598810672441918 0 0.056046126259945157 0.25263236173372139 0 0.050578246113349837 0.27455429857722041 0 0.056046126259945157 0.25263236173372139 0 0.078525547080241467 0.2465942846531784 0 0.067905867336300579 0.25358800162702 0 0.079567988853459573 0.27014218499250892 0 0.067905867336300579 0.25358800162702 0 0.079567988853459573 0.27014218499250892 0 0.063875668081316214 0.2678607518654692 0 0.056046126259945157 0.25263236173372139 0 0.067905867336300579 0.25358800162702 0 0.063875668081316214 0.2678607518654692 0 0.078525547080241467 0.2465942846531784 0 0.079567988853459573 0.27014218499250892 0 0.093798877441032588 0.2579700649065903 0 0.079567988853459573 0.27014218499250892 0 0.063875668081316214 0.2678607518654692 0 0.066935962560195753 0.28615893812798288 0 0.079567988853459573 0.27014218499250892 0 0.066935962560195753 0.28615893812798288 0 0.087430381393448858 0.29852998767476718 0 0.066935962560195753 0.28615893812798288 0 0.071244474661197085 0.3036312559279935 0 0.087430381393448858 0.29852998767476718 0 0.055148108477292443 0.3057593846019967 0 0.066935962560195753 0.28615893812798288 0 0.071244474661197085 0.3036312559279935 0 0.06358813508901956 0.32234581427363851 0 0.055148108477292443 0.3057593846019967 0 0.071244474661197085 0.3036312559279935 0 0.081254576285268804 0.3210829637434266 0 0.087430381393448858 0.29852998767476718 0 0.1104734498024164 0.31171603628350752 0 0.081254576285268804 0.3210829637434266 0 0.071244474661197085 0.3036312559279935 0 0.087430381393448858 0.29852998767476718 0 0.079567988853459573 0.27014218499250892 0 0.087430381393448858 0.29852998767476718 0 0.1079828451826004 0.27738565586056829 0 0.087430381393448858 0.29852998767476718 0 0.1104734498024164 0.31171603628350752 0 0.1079828451826004 0.27738565586056829 0 0.1104734498024164 0.31171603628350752 0 0.1079828451826004 0.27738565586056829 0 0.13401849175413849 0.29214957311260448 0 0.1079828451826004 0.27738565586056829 0 0.13401849175413849 0.29214957311260448 0 0.1100607559553454 0.25396994184181759 0 0.1079828451826004 0.27738565586056829 0 0.13366986361514199 0.26692500362740812 0 0.12787711237058769 0.24521089126939841 0 0.1100607559553454 0.25396994184181759 0 0.13366986361514199 0.26692500362740812 0 0.092857250133516089 0.24175825718487831 0 0.1100607559553454 0.25396994184181759 0 0.093798877441032588 0.2579700649065903 0 0.1100607559553454 0.25396994184181759 0 0.093798877441032588 0.2579700649065903 0 0.1079828451826004 0.27738565586056829 0 0.079567988853459573 0.27014218499250892 0 0.093798877441032588 0.2579700649065903 0 0.1079828451826004 0.27738565586056829 0 0.13366986361514199 0.26692500362740812 0 0.1558685034792309 0.28595093384994291 0 0.15959452244756481 0.26367036214955358 0 0.14702044576598061 0.2478904659134552 0 0.13366986361514199 0.26692500362740812 0 0.15959452244756481 0.26367036214955358 0 0.14702044576598061 0.2478904659134552 0 0.12787711237058769 0.24521089126939841 0 0.13366986361514199 0.26692500362740812 0 0.1079828451826004 0.27738565586056829 0 0.13366986361514199 0.26692500362740812 0 0.13401849175413849 0.29214957311260448 0 0.1104734498024164 0.31171603628350752 0 0.13401849175413849 0.29214957311260448 0 0.14183880654046921 0.32250528078568202 0 0.13401849175413849 0.29214957311260448 0 0.16005413832567669 0.30691349036464077 0 0.14183880654046921 0.32250528078568202 0 0.13401849175413849 0.29214957311260448 0 0.16005413832567669 0.30691349036464077 0 0.13401849175413849 0.29214957311260448 0 0.1558685034792309 0.28595093384994291 0 0.16005413832567669 0.30691349036464077 0 0.13366986361514199 0.26692500362740812 0 0.13401849175413849 0.29214957311260448 0 0.1558685034792309 0.28595093384994291 0 0.1558685034792309 0.28595093384994291 0 0.1700220001876428 0.28782965529906401 0 0.16005413832567669 0.30691349036464077 0 0.1558685034792309 0.28595093384994291 0 0.1700220001876428 0.28782965529906401 0 0.17370236977615991 0.27502287964280692 0 0.1700220001876428 0.28782965529906401 0 0.16005413832567669 0.30691349036464077 0 0.1764196225356903 0.29880027385689728 0 0.16005413832567669 0.30691349036464077 0 0.1764196225356903 0.29880027385689728 0 0.18686192329242929 0.31378732528256248 0 0.1764196225356903 0.29880027385689728 0 0.18674031124236579 0.30201460306836742 0 0.19086383386244751 0.2907864273273883 0 0.1764196225356903 0.29880027385689728 0 0.18674031124236579 0.30201460306836742 0 0.18686192329242929 0.31378732528256248 0 0.1700220001876428 0.28782965529906401 0 0.18013512871176271 0.28566990799825959 0 0.17370236977615991 0.27502287964280692 0 0.1700220001876428 0.28782965529906401 0 0.1764196225356903 0.29880027385689728 0 0.18013512871176271 0.28566990799825959 0 0.1764196225356903 0.29880027385689728 0 0.18013512871176271 0.28566990799825959 0 0.19086383386244751 0.2907864273273883 0 0.18013512871176271 0.28566990799825959 0 0.1896678171968729 0.27591030386514148 0 0.19086383386244751 0.2907864273273883 0 0.18251379545819379 0.26835647973838378 0 0.17370236977615991 0.27502287964280692 0 0.1896678171968729 0.27591030386514148 0 0.18013512871176271 0.28566990799825959 0 0.17370236977615991 0.27502287964280692 0 0.1896678171968729 0.27591030386514148 0 0.18251379545819379 0.26835647973838378 0 0.17370236977615991 0.27502287964280692 0 0.17699066645021869 0.2595722272450377 0 0.17370236977615991 0.27502287964280692 0 0.15959452244756481 0.26367036214955358 0 0.17699066645021869 0.2595722272450377 0 0.1558685034792309 0.28595093384994291 0 0.17370236977615991 0.27502287964280692 0 0.15959452244756481 0.26367036214955358 0 0.16774616909827719 0.2460930353984315 0 0.15959452244756481 0.26367036214955358 0 0.17699066645021869 0.2595722272450377 0 0.14702044576598061 0.2478904659134552 0 0.16774616909827719 0.2460930353984315 0 0.15959452244756481 0.26367036214955358 0 0.18692125413578081 0.24552837502103991 0 0.16774616909827719 0.2460930353984315 0 0.17699066645021869 0.2595722272450377 0 0.18692125413578081 0.24552837502103991 0 0.17699066645021869 0.2595722272450377 0 0.19242781921148469 0.26384338938458129 0 0.18251379545819379 0.26835647973838378 0 0.17699066645021869 0.2595722272450377 0 0.19242781921148469 0.26384338938458129 0 0.18692125413578081 0.24552837502103991 0 0.19242781921148469 0.26384338938458129 0 0.20107379594449931 0.25686311186437227 0 0.18692125413578081 0.24552837502103991 0 0.20107379594449931 0.25686311186437227 0 0.19242781921148469 0.26384338938458129 0 0.20107379594449931 0.25686311186437227 0 0.2008998280478862 0.26959186196165702 0 0.19242781921148469 0.26384338938458129 0 0.20107379594449931 0.25686311186437227 0 0.19242781921148469 0.26384338938458129 0 0.1896678171968729 0.27591030386514148 0 0.2008998280478862 0.26959186196165702 0 0.18251379545819379 0.26835647973838378 0 0.19242781921148469 0.26384338938458129 0 0.1896678171968729 0.27591030386514148 0 0.1896678171968729 0.27591030386514148 0 0.2008998280478862 0.26959186196165702 0 0.20354188417430641 0.281093168015905 0 0.2008998280478862 0.26959186196165702 0 0.2177878237122676 0.27024933667828532 0 0.20354188417430641 0.281093168015905 0 0.2177878237122676 0.27024933667828532 0 0.20354188417430641 0.281093168015905 0 0.2166033006779626 0.28924568688104418 0 0.21557305570370441 0.24515722135805329 0 0.20107379594449931 0.25686311186437227 0 0.2177878237122676 0.27024933667828532 0 0.20107379594449931 0.25686311186437227 0 0.2177878237122676 0.27024933667828532 0 0.20107379594449931 0.25686311186437227 0 0.2008998280478862 0.26959186196165702 0 0.2177878237122676 0.27024933667828532 0 0.21557305570370441 0.24515722135805329 0 0.20107379594449931 0.25686311186437227 0 0.21557305570370441 0.24515722135805329 0 0.2177878237122676 0.27024933667828532 0 0.23628031136540401 0.25597328662156199 0 0.2177878237122676 0.27024933667828532 0 0.23628031136540401 0.25597328662156199 0 0.23450185148003599 0.28363556149219821 0 0.2177878237122676 0.27024933667828532 0 0.23450185148003599 0.28363556149219821 0 0.2166033006779626 0.28924568688104418 0 0.2177878237122676 0.27024933667828532 0 0.23450185148003599 0.28363556149219821 0 0.23628031136540401 0.25597328662156199 0 0.23450185148003599 0.28363556149219821 0 0.25102838231212438 0.26850893423506528 0 0.23450185148003599 0.28363556149219821 0 0.25953152444998728 0.28294166139542631 0 0.25102838231212438 0.26850893423506528 0 0.23628031136540401 0.25597328662156199 0 0.25102838231212438 0.26850893423506528 0 0.26221447651104962 0.2479993693513689 0 0.2297645605960125 0.30261029929826411 0 0.25121587924780342 0.29702178630611242 0 0.2484846271056145 0.31037308609574782 0 0.2297645605960125 0.30261029929826411 0 0.23798581837376781 0.31938142953188831 0 0.2484846271056145 0.31037308609574782 0 0.2297645605960125 0.30261029929826411 0 0.25121587924780342 0.29702178630611242 0 0.23450185148003599 0.28363556149219821 0 0.2297645605960125 0.30261029929826411 0 0.25121587924780342 0.29702178630611242 0 0.23450185148003599 0.28363556149219821 0 0.25121587924780342 0.29702178630611242 0 0.23450185148003599 0.28363556149219821 0 0.25953152444998728 0.28294166139542631 0 0.25121587924780342 0.29702178630611242 0 0.23450185148003599 0.28363556149219821 0 0.2297645605960125 0.30261029929826411 0 0.2166033006779626 0.28924568688104418 0 0.2297645605960125 0.30261029929826411 0 0.20831324194422091 0.30819881229041318 0 0.2297645605960125 0.30261029929826411 0 0.20831324194422091 0.30819881229041318 0 0.21977364325038071 0.31928170538083578 0 0.20831324194422091 0.30819881229041318 0 0.2166033006779626 0.28924568688104418 0 0.20288664267638859 0.29424953150154581 0 0.2297645605960125 0.30261029929826411 0 0.20831324194422091 0.30819881229041318 0 0.2166033006779626 0.28924568688104418 0 0.20354188417430641 0.281093168015905 0 0.2166033006779626 0.28924568688104418 0 0.20288664267638859 0.29424953150154581 0 0.20354188417430641 0.281093168015905 0 0.20288664267638859 0.29424953150154581 0 0.19086383386244751 0.2907864273273883 0 0.20288664267638859 0.29424953150154581 0 0.19086383386244751 0.2907864273273883 0 0.19511095272300569 0.3019235629929784 0 0.1896678171968729 0.27591030386514148 0 0.20354188417430641 0.281093168015905 0 0.19086383386244751 0.2907864273273883 0 0.20831324194422091 0.30819881229041318 0 0.18686192329242929 0.31378732528256248 0 0.20831324194422091 0.30819881229041318 0 0.19511095272300569 0.3019235629929784 0 0.18686192329242929 0.31378732528256248 0 0.20831324194422091 0.30819881229041318 0 0.20288664267638859 0.29424953150154581 0 0.19511095272300569 0.3019235629929784 0 0.18674031124236579 0.30201460306836742 0 0.19086383386244751 0.2907864273273883 0 0.19511095272300569 0.3019235629929784 0 0.18674031124236579 0.30201460306836742 0 0.19511095272300569 0.3019235629929784 0 0.18686192329242929 0.31378732528256248 0 0.20141288137377081 0.31920030670374799 0 0.18686192329242929 0.31378732528256248 0 0.18608978489721489 0.32167740761667712 0 0.20831324194422091 0.30819881229041318 0 0.20141288137377081 0.31920030670374799 0 0.18686192329242929 0.31378732528256248 0 0.20141288137377081 0.31920030670374799 0 0.21212543146875301 0.33644132486871342 0 0.18608978489721489 0.32167740761667712 0 0.21212543146875301 0.33644132486871342 0 0.18608978489721489 0.32167740761667712 0 0.19231113454718349 0.34165597013868199 0 0.21212543146875301 0.33644132486871342 0 0.18608978489721489 0.32167740761667712 0 0.20831324194422091 0.30819881229041318 0 0.20141288137377081 0.31920030670374799 0 0.21977364325038071 0.31928170538083578 0 0.20141288137377081 0.31920030670374799 0 0.21212543146875301 0.33644132486871342 0 0.21977364325038071 0.31928170538083578 0 0.21977364325038071 0.31928170538083578 0 0.2290399257457596 0.32985805959198788 0 0.23798581837376781 0.31938142953188831 0 0.2297645605960125 0.30261029929826411 0 0.21977364325038071 0.31928170538083578 0 0.23798581837376781 0.31938142953188831 0 0.21212543146875301 0.33644132486871342 0 0.21977364325038071 0.31928170538083578 0 0.2290399257457596 0.32985805959198788 0 0.21212543146875301 0.33644132486871342 0 0.23060518033342339 0.33807106122714048 0 0.2290399257457596 0.32985805959198788 0 0.21212543146875301 0.33644132486871342 0 0.23060518033342339 0.33807106122714048 0 0.23816107804029091 0.35120524212074949 0 0.23060518033342339 0.33807106122714048 0 0.2290399257457596 0.32985805959198788 0 0.2430942860788903 0.33477961832711151 0 0.23060518033342339 0.33807106122714048 0 0.2430942860788903 0.33477961832711151 0 0.23816107804029091 0.35120524212074949 0 0.2484846271056145 0.31037308609574782 0 0.23798581837376781 0.31938142953188831 0 0.25508783524565293 0.32209220201309929 0 0.2430942860788903 0.33477961832711151 0 0.23798581837376781 0.31938142953188831 0 0.25508783524565293 0.32209220201309929 0 0.2290399257457596 0.32985805959198788 0 0.2430942860788903 0.33477961832711151 0 0.23798581837376781 0.31938142953188831 0 0.23439037865920059 0.35560025357312369 0 0.2386764282036242 0.37725286527910618 0 0.24311907173897271 0.36013203008567057 0 0.23439037865920059 0.35560025357312369 0 0.2386764282036242 0.37725286527910618 0 0.2492643002430574 0.365916522193315 0 0.24311907173897271 0.36013203008567057 0 0.2386764282036242 0.37725286527910618 0 0.2492643002430574 0.365916522193315 0 0.2386764282036242 0.37725286527910618 0 0.25383912625151372 0.37755129754335942 0 0.24311907173897271 0.36013203008567057 0 0.23816107804029091 0.35120524212074949 0 0.2641967246118288 0.36596915937278562 0 0.2430942860788903 0.33477961832711151 0 0.23816107804029091 0.35120524212074949 0 0.26173146881309822 0.35734024057335978 0 0.24311907173897271 0.36013203008567057 0 0.23816107804029091 0.35120524212074949 0 0.23439037865920059 0.35560025357312369 0 0.21212543146875301 0.33644132486871342 0 0.23816107804029091 0.35120524212074949 0 0.21848510057545151 0.35453686872473111 0 0.23816107804029091 0.35120524212074949 0 0.23439037865920059 0.35560025357312369 0 0.21848510057545151 0.35453686872473111 0 0.21212543146875301 0.33644132486871342 0 0.23816107804029091 0.35120524212074949 0 0.23439037865920059 0.35560025357312369 0 0.22513916990612379 0.36868200325308897 0 0.2386764282036242 0.37725286527910618 0 0.23439037865920059 0.35560025357312369 0 0.22513916990612379 0.36868200325308897 0 0.21848510057545151 0.35453686872473111 0 0.22513916990612379 0.36868200325308897 0 0.20931495008602691 0.36890180222237801 0 0.21961872799640589 0.38146559318592133 0 0.22513916990612379 0.36868200325308897 0 0.20931495008602691 0.36890180222237801 0 0.21848510057545151 0.35453686872473111 0 0.20931495008602691 0.36890180222237801 0 0.21848510057545151 0.35453686872473111 0 0.2018014651714847 0.35413555731190122 0 0.21212543146875301 0.33644132486871342 0 0.21848510057545151 0.35453686872473111 0 0.2018014651714847 0.35413555731190122 0 0.19231113454718349 0.34165597013868199 0 0.2018014651714847 0.35413555731190122 0 0.1832131523033072 0.3569188224833833 0 0.19231113454718349 0.34165597013868199 0 0.21212543146875301 0.33644132486871342 0 0.2018014651714847 0.35413555731190122 0 0.20931495008602691 0.36890180222237801 0 0.2018014651714847 0.35413555731190122 0 0.19217836357317111 0.36996972767433872 0 0.20931495008602691 0.36890180222237801 0 0.19217836357317111 0.36996972767433872 0 0.20289108470775991 0.38370682355227331 0 0.2018014651714847 0.35413555731190122 0 0.19217836357317111 0.36996972767433872 0 0.1832131523033072 0.3569188224833833 0 0.19217836357317111 0.36996972767433872 0 0.17197644233242751 0.37002706837148541 0 0.1832131523033072 0.3569188224833833 0 0.17197644233242751 0.37002706837148541 0 0.16866852787741549 0.35230522619665788 0 0.1832131523033072 0.3569188224833833 0 0.17197644233242751 0.37002706837148541 0 0.16866852787741549 0.35230522619665788 0 0.15186920095361911 0.35620033980905319 0 0.17197644233242751 0.37002706837148541 0 0.15186920095361911 0.35620033980905319 0 0.15185568245476189 0.37707061606136422 0 0.16866852787741549 0.35230522619665788 0 0.1579580049025659 0.33927316190663209 0 0.15186920095361911 0.35620033980905319 0 0.16866852787741549 0.35230522619665788 0 0.1832131523033072 0.3569188224833833 0 0.17832583889515771 0.33910673841273542 0 0.19231113454718349 0.34165597013868199 0 0.1832131523033072 0.3569188224833833 0 0.17832583889515771 0.33910673841273542 0 0.17832583889515771 0.33910673841273542 0 0.18608978489721489 0.32167740761667712 0 0.16647560889869609 0.32578562508456149 0 0.19231113454718349 0.34165597013868199 0 0.17832583889515771 0.33910673841273542 0 0.18608978489721489 0.32167740761667712 0 0.16005413832567669 0.30691349036464077 0 0.18608978489721489 0.32167740761667712 0 0.16005413832567669 0.30691349036464077 0 0.18686192329242929 0.31378732528256248 0 0.18608978489721489 0.32167740761667712 0 0.16005413832567669 0.30691349036464077 0 0.18608978489721489 0.32167740761667712 0 0.16647560889869609 0.32578562508456149 0 0.17832583889515771 0.33910673841273542 0 0.16647560889869609 0.32578562508456149 0 0.1579580049025659 0.33927316190663209 0 0.16866852787741549 0.35230522619665788 0 0.17832583889515771 0.33910673841273542 0 0.1579580049025659 0.33927316190663209 0 0.16647560889869609 0.32578562508456149 0 0.1579580049025659 0.33927316190663209 0 0.14183880654046921 0.32250528078568202 0 0.1579580049025659 0.33927316190663209 0 0.14183880654046921 0.32250528078568202 0 0.14054269679001921 0.34363296691054102 0 0.16005413832567669 0.30691349036464077 0 0.16647560889869609 0.32578562508456149 0 0.14183880654046921 0.32250528078568202 0 0.1202868522871179 0.34060046584014031 0 0.14183880654046921 0.32250528078568202 0 0.14054269679001921 0.34363296691054102 0 0.1202868522871179 0.34060046584014031 0 0.14054269679001921 0.34363296691054102 0 0.13274728415341139 0.36410634055334368 0 0.13274728415341139 0.36410634055334368 0 0.15186920095361911 0.35620033980905319 0 0.15185568245476189 0.37707061606136422 0 0.14054269679001921 0.34363296691054102 0 0.13274728415341139 0.36410634055334368 0 0.15186920095361911 0.35620033980905319 0 0.1579580049025659 0.33927316190663209 0 0.14054269679001921 0.34363296691054102 0 0.15186920095361911 0.35620033980905319 0 0.15352992747694119 0.40026604784697911 0 0.13692284990477191 0.38930777957628943 0 0.1397509022148696 0.40843688002483958 0 0.15352992747694119 0.40026604784697911 0 0.15185568245476189 0.37707061606136422 0 0.13692284990477191 0.38930777957628943 0 0.13274728415341139 0.36410634055334368 0 0.15185568245476189 0.37707061606136422 0 0.13692284990477191 0.38930777957628943 0 0.119448870245615 0.38256434187866972 0 0.13274728415341139 0.36410634055334368 0 0.13692284990477191 0.38930777957628943 0 0.115428724103706 0.40267530492779557 0 0.13692284990477191 0.38930777957628943 0 0.1397509022148696 0.40843688002483958 0 0.12259086230274099 0.42947812748907283 0 0.1397509022148696 0.40843688002483958 0 0.14363603346764281 0.42707530835579988 0 0.12259086230274099 0.42947812748907283 0 0.115428724103706 0.40267530492779557 0 0.1397509022148696 0.40843688002483958 0 0.12259086230274099 0.42947812748907283 0 0.14363603346764281 0.42707530835579988 0 0.13510526379757609 0.44116740875256688 0 0.14363603346764281 0.42707530835579988 0 0.16526304614212209 0.42908608809292892 0 0.1507341445198021 0.44370602134863157 0 0.14363603346764281 0.42707530835579988 0 0.15527295380072001 0.4153931176925994 0 0.16526304614212209 0.42908608809292892 0 0.14363603346764281 0.42707530835579988 0 0.1507341445198021 0.44370602134863157 0 0.13510526379757609 0.44116740875256688 0 0.1397509022148696 0.40843688002483958 0 0.14363603346764281 0.42707530835579988 0 0.15527295380072001 0.4153931176925994 0 0.15352992747694119 0.40026604784697911 0 0.1397509022148696 0.40843688002483958 0 0.15527295380072001 0.4153931176925994 0 0.15527295380072001 0.4153931176925994 0 0.1711416470664554 0.41062619466687539 0 0.16526304614212209 0.42908608809292892 0 0.15352992747694119 0.40026604784697911 0 0.15527295380072001 0.4153931176925994 0 0.1711416470664554 0.41062619466687539 0 0.16526304614212209 0.42908608809292892 0 0.1809560021812836 0.43814832633623357 0 0.16598328874466911 0.44273574664910909 0 0.16526304614212209 0.42908608809292892 0 0.18469425222239219 0.42125941149134333 0 0.1809560021812836 0.43814832633623357 0 0.1711416470664554 0.41062619466687539 0 0.16526304614212209 0.42908608809292892 0 0.18469425222239219 0.42125941149134333 0 0.1711416470664554 0.41062619466687539 0 0.18469425222239219 0.42125941149134333 0 0.1843100454414533 0.40126956181167389 0 0.1711416470664554 0.41062619466687539 0 0.1843100454414533 0.40126956181167389 0 0.16952276405911931 0.3912061138884545 0 0.1843100454414533 0.40126956181167389 0 0.16952276405911931 0.3912061138884545 0 0.18589276442329861 0.38606835492789338 0 0.15352992747694119 0.40026604784697911 0 0.1711416470664554 0.41062619466687539 0 0.16952276405911931 0.3912061138884545 0 0.15352992747694119 0.40026604784697911 0 0.15185568245476189 0.37707061606136422 0 0.16952276405911931 0.3912061138884545 0 0.17197644233242751 0.37002706837148541 0 0.15185568245476189 0.37707061606136422 0 0.16952276405911931 0.3912061138884545 0 0.17197644233242751 0.37002706837148541 0 0.16952276405911931 0.3912061138884545 0 0.18589276442329861 0.38606835492789338 0 0.19217836357317111 0.36996972767433872 0 0.17197644233242751 0.37002706837148541 0 0.18589276442329861 0.38606835492789338 0 0.18589276442329861 0.38606835492789338 0 0.20289108470775991 0.38370682355227331 0 0.19700705340585539 0.39579078134538831 0 0.19217836357317111 0.36996972767433872 0 0.18589276442329861 0.38606835492789338 0 0.20289108470775991 0.38370682355227331 0 0.19700705340585539 0.39579078134538831 0 0.21316338490038089 0.39704202397260657 0 0.19877798755638451 0.41086714246249401 0 0.1843100454414533 0.40126956181167389 0 0.19700705340585539 0.39579078134538831 0 0.19877798755638451 0.41086714246249401 0 0.1843100454414533 0.40126956181167389 0 0.18589276442329861 0.38606835492789338 0 0.19700705340585539 0.39579078134538831 0 0.20289108470775991 0.38370682355227331 0 0.19700705340585539 0.39579078134538831 0 0.21316338490038089 0.39704202397260657 0 0.20931495008602691 0.36890180222237801 0 0.20289108470775991 0.38370682355227331 0 0.21961872799640589 0.38146559318592133 0 0.20289108470775991 0.38370682355227331 0 0.21316338490038089 0.39704202397260657 0 0.21961872799640589 0.38146559318592133 0 0.22513916990612379 0.36868200325308897 0 0.21961872799640589 0.38146559318592133 0 0.2386764282036242 0.37725286527910618 0 0.21961872799640589 0.38146559318592133 0 0.22852735017452019 0.39320804083607441 0 0.2386764282036242 0.37725286527910618 0 0.21316338490038089 0.39704202397260657 0 0.21961872799640589 0.38146559318592133 0 0.22852735017452019 0.39320804083607441 0 0.21316338490038089 0.39704202397260657 0 0.22852735017452019 0.39320804083607441 0 0.22983145469658259 0.40925978250573319 0 0.21316338490038089 0.39704202397260657 0 0.22983145469658259 0.40925978250573319 0 0.22852735017452019 0.39320804083607441 0 0.2429624777480478 0.39890547698508871 0 0.22983145469658259 0.40925978250573319 0 0.2429624777480478 0.39890547698508871 0 0.2386764282036242 0.37725286527910618 0 0.22852735017452019 0.39320804083607441 0 0.2429624777480478 0.39890547698508871 0 0.2386764282036242 0.37725286527910618 0 0.2429624777480478 0.39890547698508871 0 0.2386764282036242 0.37725286527910618 0 0.25341304662754638 0.38974012394171498 0 0.2386764282036242 0.37725286527910618 0 0.25383912625151372 0.37755129754335942 0 0.25341304662754638 0.38974012394171498 0 0.24649952449278431 0.42147754103885982 0 0.22996656543308741 0.44177288309861867 0 0.24946733303660301 0.43176723098649622 0 0.24649952449278431 0.42147754103885982 0 0.22996656543308741 0.44177288309861867 0 0.24649952449278431 0.42147754103885982 0 0.22738899126970491 0.42458926785457718 0 0.22996656543308741 0.44177288309861867 0 0.24946733303660301 0.43176723098649622 0 0.24649952449278431 0.42147754103885982 0 0.2429624777480478 0.39890547698508871 0 0.24649952449278431 0.42147754103885982 0 0.24649952449278431 0.42147754103885982 0 0.22983145469658259 0.40925978250573319 0 0.22738899126970491 0.42458926785457718 0 0.24649952449278431 0.42147754103885982 0 0.22983145469658259 0.40925978250573319 0 0.2429624777480478 0.39890547698508871 0 0.24649952449278431 0.42147754103885982 0 0.22983145469658259 0.40925978250573319 0 0.21316338490038089 0.39704202397260657 0 0.22983145469658259 0.40925978250573319 0 0.21370806227123909 0.41789950377956148 0 0.22983145469658259 0.40925978250573319 0 0.22738899126970491 0.42458926785457718 0 0.21370806227123909 0.41789950377956148 0 0.22738899126970491 0.42458926785457718 0 0.21739304288862979 0.43200563017257382 0 0.22996656543308741 0.44177288309861867 0 0.22738899126970491 0.42458926785457718 0 0.21739304288862979 0.43200563017257382 0 0.21370806227123909 0.41789950377956148 0 0.21739304288862979 0.43200563017257382 0 0.1999317510848099 0.43097584272053618 0 0.2111195299095035 0.44359306409302351 0 0.21739304288862979 0.43200563017257382 0 0.21370806227123909 0.41789950377956148 0 0.1999317510848099 0.43097584272053618 0 0.21370806227123909 0.41789950377956148 0 0.19877798755638451 0.41086714246249401 0 0.1999317510848099 0.43097584272053618 0 0.21316338490038089 0.39704202397260657 0 0.21370806227123909 0.41789950377956148 0 0.19877798755638451 0.41086714246249401 0 0.18469425222239219 0.42125941149134333 0 0.19877798755638451 0.41086714246249401 0 0.1999317510848099 0.43097584272053618 0 0.18469425222239219 0.42125941149134333 0 0.1843100454414533 0.40126956181167389 0 0.19877798755638451 0.41086714246249401 0 0.18469425222239219 0.42125941149134333 0 0.1999317510848099 0.43097584272053618 0 0.1809560021812836 0.43814832633623357 0 0.1999317510848099 0.43097584272053618 0 0.19479511809318301 0.4526549487178691 0 0.2111195299095035 0.44359306409302351 0 0.1999317510848099 0.43097584272053618 0 0.19479511809318301 0.4526549487178691 0 0.1809560021812836 0.43814832633623357 0 0.19479511809318301 0.4526549487178691 0 0.213169792932182 0.46047172596691099 0 0.19211155850092579 0.47790980627879082 0 0.19479511809318301 0.4526549487178691 0 0.19211155850092579 0.47790980627879082 0 0.18348770279874721 0.46143911161818069 0 0.213169792932182 0.46047172596691099 0 0.2111195299095035 0.44359306409302351 0 0.22996656543308741 0.44177288309861867 0 0.19479511809318301 0.4526549487178691 0 0.213169792932182 0.46047172596691099 0 0.2111195299095035 0.44359306409302351 0 0.21739304288862979 0.43200563017257382 0 0.2111195299095035 0.44359306409302351 0 0.22996656543308741 0.44177288309861867 0 0.22996656543308741 0.44177288309861867 0 0.22854105436186559 0.46372788353366717 0 0.24141841662185301 0.45603819576859073 0 0.213169792932182 0.46047172596691099 0 0.22854105436186559 0.46372788353366717 0 0.221321310837439 0.47674074212904899 0 0.213169792932182 0.46047172596691099 0 0.22996656543308741 0.44177288309861867 0 0.22854105436186559 0.46372788353366717 0 0.24141841662185301 0.45603819576859073 0 0.23645949407781469 0.47608243786178739 0 0.25047151807745072 0.47036873115219768 0 0.22854105436186559 0.46372788353366717 0 0.24141841662185301 0.45603819576859073 0 0.23645949407781469 0.47608243786178739 0 0.24141841662185301 0.45603819576859073 0 0.25047151807745072 0.47036873115219768 0 0.25477099823403621 0.45804476415031298 0 0.24141841662185301 0.45603819576859073 0 0.25282491994113748 0.44831200937164878 0 0.25477099823403621 0.45804476415031298 0 0.22996656543308741 0.44177288309861867 0 0.24141841662185301 0.45603819576859073 0 0.24583280085865111 0.44361242472787987 0 0.24946733303660301 0.43176723098649622 0 0.22996656543308741 0.44177288309861867 0 0.24583280085865111 0.44361242472787987 0 0.24141841662185301 0.45603819576859073 0 0.24583280085865111 0.44361242472787987 0 0.25282491994113748 0.44831200937164878 0 0.24904418528453851 0.48634810883828161 0 0.23645949407781469 0.47608243786178739 0 0.23352830384551029 0.49999999999999978 0 0.24904418528453851 0.48634810883828161 0 0.23352830384551029 0.49999999999999978 0 0.25181722630913472 0.5 0 0.24904418528453851 0.48634810883828161 0 0.23645949407781469 0.47608243786178739 0 0.25047151807745072 0.47036873115219768 0 0.23645949407781469 0.47608243786178739 0 0.221321310837439 0.47674074212904899 0 0.23352830384551029 0.49999999999999978 0 0.22854105436186559 0.46372788353366717 0 0.23645949407781469 0.47608243786178739 0 0.221321310837439 0.47674074212904899 0 0.23352830384551029 0.49999999999999978 0 0.2128199311732181 0.48895490313939532 0 0.21702906166474581 0.5 0 0.23352830384551029 0.49999999999999978 0 0.2128199311732181 0.48895490313939532 0 0.221321310837439 0.47674074212904899 0 0.23352830384551029 0.49999999999999978 0 0.2128199311732181 0.48895490313939532 0 0.2128199311732181 0.48895490313939532 0 0.21702906166474581 0.5 0 0.20052981948398141 0.49999999999999989 0 0.213169792932182 0.46047172596691099 0 0.221321310837439 0.47674074212904899 0 0.19211155850092579 0.47790980627879082 0 0.221321310837439 0.47674074212904899 0 0.2128199311732181 0.48895490313939532 0 0.19211155850092579 0.47790980627879082 0 0.2128199311732181 0.48895490313939532 0 0.19211155850092579 0.47790980627879082 0 0.2128199311732181 0.48895490313939532 0 0.20052981948398141 0.49999999999999989 0 0.19295831529489699 0.4905304616351287 0 0.2128199311732181 0.48895490313939532 0 0.19211155850092579 0.47790980627879082 0 0.19295831529489699 0.4905304616351287 0 0.20052981948398141 0.49999999999999989 0 0.1839227339461352 0.49861489743603538 0 0.20052981948398141 0.49999999999999989 0 0.19295831529489699 0.4905304616351287 0 0.1839227339461352 0.49861489743603538 0 0.19211155850092579 0.47790980627879082 0 0.19295831529489699 0.4905304616351287 0 0.1809625144841838 0.48570342190566712 0 0.1839227339461352 0.49861489743603538 0 0.1809625144841838 0.48570342190566712 0 0.16731564840828889 0.49722979487207219 0 0.1839227339461352 0.49861489743603538 0 0.16731564840828889 0.49722979487207219 0 0.1839227339461352 0.49861489743603538 0 0.1669427425872391 0.49999999999999922 0 0.16731564840828889 0.49722979487207219 0 0.19295831529489699 0.4905304616351287 0 0.1839227339461352 0.49861489743603538 0 0.1809625144841838 0.48570342190566712 0 0.1809625144841838 0.48570342190566712 0 0.16731564840828889 0.49722979487207219 0 0.16935941711846161 0.48204725214512889 0 0.16731564840828889 0.49722979487207219 0 0.157708884996551 0.48584061526662409 0 0.14611751268168829 0.49546177892012921 0 0.16731564840828889 0.49722979487207219 0 0.14611751268168829 0.49546177892012921 0 0.1669427425872391 0.49999999999999922 0 0.16731564840828889 0.49722979487207219 0 0.14611751268168829 0.49546177892012921 0 0.1669427425872391 0.49999999999999922 0 0.16731564840828889 0.49722979487207219 0 0.16731564840828889 0.49722979487207219 0 0.16935941711846161 0.48204725214512889 0 0.16731564840828889 0.49722979487207219 0 0.157708884996551 0.48584061526662409 0 0.16935941711846161 0.48204725214512889 0 0.16382575626869561 0.4735735187060508 0 0.15802571703479451 0.46684670821381258 0 0.1531189490294651 0.47544631339495541 0 0.157708884996551 0.48584061526662409 0 0.16382575626869561 0.4735735187060508 0 0.1531189490294651 0.47544631339495541 0 0.157708884996551 0.48584061526662409 0 0.16382575626869561 0.4735735187060508 0 0.16935941711846161 0.48204725214512889 0 0.16935941711846161 0.48204725214512889 0 0.17140318582863401 0.46686470941818559 0 0.16382575626869561 0.4735735187060508 0 0.16935941711846161 0.48204725214512889 0 0.17140318582863401 0.46686470941818559 0 0.1809625144841838 0.48570342190566712 0 0.16935941711846161 0.48204725214512889 0 0.17140318582863401 0.46686470941818559 0 0.19211155850092579 0.47790980627879082 0 0.1809625144841838 0.48570342190566712 0 0.17140318582863401 0.46686470941818559 0 0.19211155850092579 0.47790980627879082 0 0.17140318582863401 0.46686470941818559 0 0.19479511809318301 0.4526549487178691 0 0.18348770279874721 0.46143911161818069 0 0.17341546959919829 0.45191605883299152 0 0.19211155850092579 0.47790980627879082 0 0.18348770279874721 0.46143911161818069 0 0.17140318582863401 0.46686470941818559 0 0.18348770279874721 0.46143911161818069 0 0.17341546959919829 0.45191605883299152 0 0.17140318582863401 0.46686470941818559 0 0.17341546959919829 0.45191605883299152 0 0.17140318582863401 0.46686470941818559 0 0.19479511809318301 0.4526549487178691 0 0.1809560021812836 0.43814832633623357 0 0.17341546959919829 0.45191605883299152 0 0.1809560021812836 0.43814832633623357 0 0.17341546959919829 0.45191605883299152 0 0.16598328874466911 0.44273574664910909 0 0.17341546959919829 0.45191605883299152 0 0.16598328874466911 0.44273574664910909 0 0.15954778128093949 0.4508222386347599 0 0.16598328874466911 0.44273574664910909 0 0.15954778128093949 0.4508222386347599 0 0.1507341445198021 0.44370602134863157 0 0.16526304614212209 0.42908608809292892 0 0.16598328874466911 0.44273574664910909 0 0.1507341445198021 0.44370602134863157 0 0.16382575626869561 0.4735735187060508 0 0.1651762257979181 0.46354347419730452 0 0.17140318582863401 0.46686470941818559 0 0.1651762257979181 0.46354347419730452 0 0.17140318582863401 0.46686470941818559 0 0.17341546959919829 0.45191605883299152 0 0.1651762257979181 0.46354347419730452 0 0.17140318582863401 0.46686470941818559 0 0.17341546959919829 0.45191605883299152 0 0.15954778128093949 0.4508222386347599 0 0.1651762257979181 0.46354347419730452 0 0.15954778128093949 0.4508222386347599 0 0.1651762257979181 0.46354347419730452 0 0.1582471669695637 0.45974252444074731 0 0.16382575626869561 0.4735735187060508 0 0.1651762257979181 0.46354347419730452 0 0.15802571703479451 0.46684670821381258 0 0.1651762257979181 0.46354347419730452 0 0.1582471669695637 0.45974252444074731 0 0.15802571703479451 0.46684670821381258 0 0.14976048710833001 0.46192771033000529 0 0.1507341445198021 0.44370602134863157 0 0.136404492151351 0.45486193181106682 0 0.1582471669695637 0.45974252444074731 0 0.15802571703479451 0.46684670821381258 0 0.14976048710833001 0.46192771033000529 0 0.15802571703479451 0.46684670821381258 0 0.14976048710833001 0.46192771033000529 0 0.1531189490294651 0.47544631339495541 0 0.15954778128093949 0.4508222386347599 0 0.1582471669695637 0.45974252444074731 0 0.14976048710833001 0.46192771033000529 0 0.14976048710833001 0.46192771033000529 0 0.136404492151351 0.45486193181106682 0 0.13663143795624749 0.46910754811773492 0 0.15954778128093949 0.4508222386347599 0 0.14976048710833001 0.46192771033000529 0 0.1507341445198021 0.44370602134863157 0 0.1507341445198021 0.44370602134863157 0 0.13510526379757609 0.44116740875256688 0 0.136404492151351 0.45486193181106682 0 0.1221607865463437 0.4507156547582637 0 0.12259086230274099 0.42947812748907283 0 0.13510526379757609 0.44116740875256688 0 0.1221607865463437 0.4507156547582637 0 0.13510526379757609 0.44116740875256688 0 0.136404492151351 0.45486193181106682 0 0.136404492151351 0.45486193181106682 0 0.1267882431275838 0.46370707134437261 0 0.13663143795624749 0.46910754811773492 0 0.1221607865463437 0.4507156547582637 0 0.136404492151351 0.45486193181106682 0 0.1267882431275838 0.46370707134437261 0 0.1267882431275838 0.46370707134437261 0 0.12569724768963239 0.47617993877849962 0 0.13663143795624749 0.46910754811773492 0 0.12569724768963239 0.47617993877849962 0 0.13663143795624749 0.46910754811773492 0 0.1364132019148096 0.48384982340983701 0 0.13663143795624749 0.46910754811773492 0 0.1364132019148096 0.48384982340983701 0 0.14361111091913481 0.47574478002545789 0 0.1249193769550877 0.49369376296818718 0 0.1364132019148096 0.48384982340983701 0 0.14611751268168829 0.49546177892012921 0 0.1249193769550877 0.49369376296818718 0 0.14611751268168829 0.49546177892012921 0 0.1249193769550877 0.49369376296818718 0 0.12569724768963239 0.47617993877849962 0 0.1364132019148096 0.48384982340983701 0 0.1249193769550877 0.49369376296818718 0 0.13738437864054501 0.5 0 0.14611751268168829 0.49546177892012921 0 0.1364132019148096 0.48384982340983701 0 0.14611751268168829 0.49546177892012921 0 0.14718343377546941 0.48347361591025501 0 0.1669427425872391 0.49999999999999922 0 0.13738437864054501 0.5 0 0.14611751268168829 0.49546177892012921 0 0.157708884996551 0.48584061526662409 0 0.14611751268168829 0.49546177892012921 0 0.14718343377546941 0.48347361591025501 0 0.157708884996551 0.48584061526662409 0 0.1531189490294651 0.47544631339495541 0 0.14718343377546941 0.48347361591025501 0 0.14976048710833001 0.46192771033000529 0 0.1531189490294651 0.47544631339495541 0 0.14361111091913481 0.47574478002545789 0 0.14976048710833001 0.46192771033000529 0 0.13663143795624749 0.46910754811773492 0 0.14361111091913481 0.47574478002545789 0 0.1364132019148096 0.48384982340983701 0 0.14361111091913481 0.47574478002545789 0 0.14718343377546941 0.48347361591025501 0 0.1531189490294651 0.47544631339495541 0 0.14361111091913481 0.47574478002545789 0 0.14718343377546941 0.48347361591025501 0 0.35832214194920592 0.47929915408112939 0 0.34611268429232461 0.46591887339206078 0 0.3375369348076922 0.4829399206954248 0 0.35832214194920592 0.47929915408112939 0 0.35850557312216419 0.5 0 0.3375369348076922 0.4829399206954248 0 0.35850557312216419 0.5 0 0.37801407526051067 0.48065415083330842 0 0.38797204790529932 0.5 0 0.35832214194920592 0.47929915408112939 0 0.35850557312216419 0.5 0 0.37801407526051067 0.48065415083330842 0 0.35832214194920592 0.47929915408112939 0 0.36980735363827261 0.46050290225189661 0 0.37801407526051067 0.48065415083330842 0 0.36980735363827261 0.46050290225189661 0 0.34502769605759259 0.44546544446971242 0 0.36959298495063608 0.43610817863788948 0 0.35832214194920592 0.47929915408112939 0 0.36980735363827261 0.46050290225189661 0 0.34611268429232461 0.46591887339206078 0 0.36980735363827261 0.46050290225189661 0 0.34502769605759259 0.44546544446971242 0 0.34611268429232461 0.46591887339206078 0 0.36980735363827261 0.46050290225189661 0 0.34611268429232461 0.46591887339206078 0 0.34611268429232461 0.46591887339206078 0 0.3317687487832644 0.45597005559148451 0 0.32241801494637662 0.47133484453222518 0 0.34502769605759259 0.44546544446971242 0 0.34611268429232461 0.46591887339206078 0 0.3317687487832644 0.45597005559148451 0 0.34611268429232461 0.46591887339206078 0 0.32241801494637662 0.47133484453222518 0 0.34502769605759259 0.44546544446971242 0 0.3317687487832644 0.45597005559148451 0 0.32480939915707069 0.44218818576869201 0 0.34502769605759259 0.44546544446971242 0 0.32480939915707069 0.44218818576869201 0 0.33523501366627878 0.43221560569608392 0 0.3107318966111981 0.4514989769174147 0 0.3227404476219688 0.42624713816244092 0 0.3317687487832644 0.45597005559148451 0 0.32480939915707069 0.44218818576869201 0 0.3107318966111981 0.4514989769174147 0 0.32480939915707069 0.44218818576869201 0 0.3107318966111981 0.4514989769174147 0 0.3227404476219688 0.42624713816244092 0 0.3317687487832644 0.45597005559148451 0 0.32241801494637662 0.47133484453222518 0 0.3107318966111981 0.4514989769174147 0 0.32241801494637662 0.47133484453222518 0 0.3375369348076922 0.4829399206954248 0 0.31372501333874958 0.48784291822244708 0 0.34611268429232461 0.46591887339206078 0 0.32241801494637662 0.47133484453222518 0 0.3375369348076922 0.4829399206954248 0 0.35850557312216419 0.5 0 0.3375369348076922 0.4829399206954248 0 0.32903909833902928 0.5 0 0.32903909833902928 0.5 0 0.31372501333874958 0.48784291822244708 0 0.29957262355589431 0.5 0 0.3375369348076922 0.4829399206954248 0 0.32903909833902928 0.5 0 0.31372501333874958 0.48784291822244708 0 0.31372501333874958 0.48784291822244708 0 0.30130976803097798 0.48891801032572652 0 0.29957262355589431 0.5 0 0.31372501333874958 0.48784291822244708 0 0.30130976803097798 0.48891801032572652 0 0.29872334560042851 0.47675081567238892 0 0.30130976803097798 0.48891801032572652 0 0.29957262355589431 0.5 0 0.28978827390519868 0.49553967616935518 0 0.32241801494637662 0.47133484453222518 0 0.29872334560042851 0.47675081567238892 0 0.32241801494637662 0.47133484453222518 0 0.31372501333874958 0.48784291822244708 0 0.29872334560042851 0.47675081567238892 0 0.29872334560042851 0.47675081567238892 0 0.28397488520641462 0.48012192141307769 0 0.28978827390519868 0.49553967616935518 0 0.29872334560042851 0.47675081567238892 0 0.28929399795500932 0.47058792179259418 0 0.29703527816799058 0.46117092995693892 0 0.29872334560042851 0.47675081567238892 0 0.28929399795500932 0.47058792179259418 0 0.28397488520641462 0.48012192141307769 0 0.29872334560042851 0.47675081567238892 0 0.28397488520641462 0.48012192141307769 0 0.28929399795500932 0.47058792179259418 0 0.28397488520641462 0.48012192141307769 0 0.27920072977811172 0.47805830749059319 0 0.28397488520641462 0.48012192141307769 0 0.28978827390519868 0.49553967616935518 0 0.27010614877275918 0.50000000000000067 0 0.29957262355589431 0.5 0 0.28978827390519868 0.49553967616935518 0 0.27010614877275918 0.50000000000000067 0 0.30130976803097798 0.48891801032572652 0 0.29872334560042851 0.47675081567238892 0 0.28978827390519868 0.49553967616935518 0 0.29872334560042851 0.47675081567238892 0 0.28978827390519868 0.49553967616935518 0 0.28397488520641462 0.48012192141307769 0 0.27010614877275918 0.50000000000000067 0 0.27920072977811172 0.47805830749059319 0 0.27010614877275918 0.50000000000000067 0 0.26909437115437917 0.48384867389528768 0 0.26130641782501518 0.49139676135406141 0 0.27010614877275918 0.50000000000000067 0 0.27920072977811172 0.47805830749059319 0 0.26909437115437917 0.48384867389528768 0 0.27010614877275918 0.50000000000000067 0 0.27920072977811172 0.47805830749059319 0 0.27920072977811172 0.47805830749059319 0 0.27306774476234302 0.47644699960251641 0 0.26909437115437917 0.48384867389528768 0 0.27920072977811172 0.47805830749059319 0 0.27306774476234302 0.47644699960251641 0 0.27643472525740193 0.46726539210963169 0 0.26824582816420722 0.47348896141386071 0 0.27306774476234302 0.47644699960251641 0 0.27643472525740193 0.46726539210963169 0 0.26824582816420722 0.47348896141386071 0 0.26909437115437917 0.48384867389528768 0 0.25993240985832161 0.47939275616227872 0 0.26824582816420722 0.47348896141386071 0 0.27306774476234302 0.47644699960251641 0 0.26909437115437917 0.48384867389528768 0 0.24904418528453851 0.48634810883828161 0 0.25993240985832161 0.47939275616227872 0 0.25047151807745072 0.47036873115219768 0 0.26824582816420722 0.47348896141386071 0 0.25993240985832161 0.47939275616227872 0 0.26165523792153211 0.46576309323832682 0 0.25993240985832161 0.47939275616227872 0 0.25047151807745072 0.47036873115219768 0 0.26165523792153211 0.46576309323832682 0 0.27010614877275918 0.50000000000000067 0 0.25181722630913472 0.5 0 0.26130641782501518 0.49139676135406141 0 0.24904418528453851 0.48634810883828161 0 0.25993240985832161 0.47939275616227872 0 0.26130641782501518 0.49139676135406141 0 0.24904418528453851 0.48634810883828161 0 0.25181722630913472 0.5 0 0.26130641782501518 0.49139676135406141 0 0.26909437115437917 0.48384867389528768 0 0.25993240985832161 0.47939275616227872 0 0.26130641782501518 0.49139676135406141 0 0.26490489917960358 0.45079530358348557 0 0.25548676926057468 0.44017180441404491 0 0.26331147225899149 0.43380076267102891 0 0.24946733303660301 0.43176723098649622 0 0.24583280085865111 0.44361242472787987 0 0.25548676926057468 0.44017180441404491 0 0.24583280085865111 0.44361242472787987 0 0.25548676926057468 0.44017180441404491 0 0.25282491994113748 0.44831200937164878 0 0.26490489917960358 0.45079530358348557 0 0.25548676926057468 0.44017180441404491 0 0.25282491994113748 0.44831200937164878 0 0.26490489917960358 0.45079530358348557 0 0.25282491994113748 0.44831200937164878 0 0.25477099823403621 0.45804476415031298 0 0.25047151807745072 0.47036873115219768 0 0.25477099823403621 0.45804476415031298 0 0.26165523792153211 0.46576309323832682 0 0.26490489917960358 0.45079530358348557 0 0.25477099823403621 0.45804476415031298 0 0.26165523792153211 0.46576309323832682 0 0.26490489917960358 0.45079530358348557 0 0.27160577401557351 0.46248804296782559 0 0.27679169795675967 0.45600994403837303 0 0.26490489917960358 0.45079530358348557 0 0.26165523792153211 0.46576309323832682 0 0.27160577401557351 0.46248804296782559 0 0.26824582816420722 0.47348896141386071 0 0.27160577401557351 0.46248804296782559 0 0.27643472525740193 0.46726539210963169 0 0.26824582816420722 0.47348896141386071 0 0.26165523792153211 0.46576309323832682 0 0.27160577401557351 0.46248804296782559 0 0.27160577401557351 0.46248804296782559 0 0.27643472525740193 0.46726539210963169 0 0.27679169795675967 0.45600994403837303 0 0.27643472525740193 0.46726539210963169 0 0.27679169795675967 0.45600994403837303 0 0.28829531078346382 0.45611661498118572 0 0.27903440424894049 0.4453257315987294 0 0.26331147225899149 0.43380076267102891 0 0.26490489917960358 0.45079530358348557 0 0.27903440424894049 0.4453257315987294 0 0.26331147225899149 0.43380076267102891 0 0.26490489917960358 0.45079530358348557 0 0.27679169795675967 0.45600994403837303 0 0.27903440424894049 0.4453257315987294 0 0.27903440424894049 0.4453257315987294 0 0.2917470315179379 0.44281751567604499 0 0.28179675760275558 0.42932557237874241 0 0.27679169795675967 0.45600994403837303 0 0.27903440424894049 0.4453257315987294 0 0.28829531078346382 0.45611661498118572 0 0.27903440424894049 0.4453257315987294 0 0.2917470315179379 0.44281751567604499 0 0.28829531078346382 0.45611661498118572 0 0.2917470315179379 0.44281751567604499 0 0.28829531078346382 0.45611661498118572 0 0.29813183988985342 0.45090032042111128 0 0.27920072977811172 0.47805830749059319 0 0.27643472525740193 0.46726539210963169 0 0.28829531078346382 0.45611661498118572 0 0.28929399795500932 0.47058792179259418 0 0.27920072977811172 0.47805830749059319 0 0.28829531078346382 0.45611661498118572 0 0.27920072977811172 0.47805830749059319 0 0.28829531078346382 0.45611661498118572 0 0.28829531078346382 0.45611661498118572 0 0.29703527816799058 0.46117092995693892 0 0.29813183988985342 0.45090032042111128 0 0.28929399795500932 0.47058792179259418 0 0.28829531078346382 0.45611661498118572 0 0.29703527816799058 0.46117092995693892 0 0.29872334560042851 0.47675081567238892 0 0.29703527816799058 0.46117092995693892 0 0.3107318966111981 0.4514989769174147 0 0.29872334560042851 0.47675081567238892 0 0.3107318966111981 0.4514989769174147 0 0.32241801494637662 0.47133484453222518 0 0.29872334560042851 0.47675081567238892 0 0.3107318966111981 0.4514989769174147 0 0.29703527816799058 0.46117092995693892 0 0.29813183988985342 0.45090032042111128 0 0.3107318966111981 0.4514989769174147 0 0.30159082278473881 0.44219288247638061 0 0.3107318966111981 0.4514989769174147 0 0.30884109342504262 0.43428586920116352 0 0.2917470315179379 0.44281751567604499 0 0.30159082278473881 0.44219288247638061 0 0.29850225247966211 0.43146173016616862 0 0.2917470315179379 0.44281751567604499 0 0.30159082278473881 0.44219288247638061 0 0.29813183988985342 0.45090032042111128 0 0.30159082278473881 0.44219288247638061 0 0.29813183988985342 0.45090032042111128 0 0.3107318966111981 0.4514989769174147 0 0.30884109342504262 0.43428586920116352 0 0.29850225247966211 0.43146173016616862 0 0.30862162828234507 0.42004495563460759 0 0.29850225247966211 0.43146173016616862 0 0.30862162828234507 0.42004495563460759 0 0.29547148538100448 0.41817397575591742 0 0.30159082278473881 0.44219288247638061 0 0.30884109342504262 0.43428586920116352 0 0.29850225247966211 0.43146173016616862 0 0.30862162828234507 0.42004495563460759 0 0.30304430461131138 0.40735012112542651 0 0.3196782615082488 0.40265332564926309 0 0.30862162828234507 0.42004495563460759 0 0.30304430461131138 0.40735012112542651 0 0.29547148538100448 0.41817397575591742 0 0.30304430461131138 0.40735012112542651 0 0.29062365375375682 0.40708788978866228 0 0.29547148538100448 0.41817397575591742 0 0.29062365375375682 0.40708788978866228 0 0.29547148538100448 0.41817397575591742 0 0.28288479604298378 0.41446876034122271 0 0.29547148538100448 0.41817397575591742 0 0.28288479604298378 0.41446876034122271 0 0.28179675760275558 0.42932557237874241 0 0.29062365375375682 0.40708788978866228 0 0.28288479604298378 0.41446876034122271 0 0.28001120465417539 0.40182109974822727 0 0.29850225247966211 0.43146173016616862 0 0.29547148538100448 0.41817397575591742 0 0.28179675760275558 0.42932557237874241 0 0.2917470315179379 0.44281751567604499 0 0.29850225247966211 0.43146173016616862 0 0.28179675760275558 0.42932557237874241 0 0.28179675760275558 0.42932557237874241 0 0.27042562322166658 0.41684269204638819 0 0.26331147225899149 0.43380076267102891 0 0.27903440424894049 0.4453257315987294 0 0.28179675760275558 0.42932557237874241 0 0.26331147225899149 0.43380076267102891 0 0.27042562322166658 0.41684269204638819 0 0.26380858941988822 0.4002294757553399 0 0.28001120465417539 0.40182109974822727 0 0.28288479604298378 0.41446876034122271 0 0.28179675760275558 0.42932557237874241 0 0.27042562322166658 0.41684269204638819 0 0.28288479604298378 0.41446876034122271 0 0.27042562322166658 0.41684269204638819 0 0.28001120465417539 0.40182109974822727 0 0.24649952449278431 0.42147754103885982 0 0.25492995388566009 0.41993008507457552 0 0.26380858941988822 0.4002294757553399 0 0.27042562322166658 0.41684269204638819 0 0.25492995388566009 0.41993008507457552 0 0.26380858941988822 0.4002294757553399 0 0.24649952449278431 0.42147754103885982 0 0.26380858941988822 0.4002294757553399 0 0.2429624777480478 0.39890547698508871 0 0.24649952449278431 0.42147754103885982 0 0.26380858941988822 0.4002294757553399 0 0.24946733303660301 0.43176723098649622 0 0.24649952449278431 0.42147754103885982 0 0.26331147225899149 0.43380076267102891 0 0.24649952449278431 0.42147754103885982 0 0.25492995388566009 0.41993008507457552 0 0.26331147225899149 0.43380076267102891 0 0.24649952449278431 0.42147754103885982 0 0.26331147225899149 0.43380076267102891 0 0.27042562322166658 0.41684269204638819 0 0.25492995388566009 0.41993008507457552 0 0.26331147225899149 0.43380076267102891 0 0.24946733303660301 0.43176723098649622 0 0.25548676926057468 0.44017180441404491 0 0.26331147225899149 0.43380076267102891 0 0.26350653962281989 0.38010735630523079 0 0.25341304662754638 0.38974012394171498 0 0.26380858941988822 0.4002294757553399 0 0.26350653962281989 0.38010735630523079 0 0.25383912625151372 0.37755129754335942 0 0.25710864090743918 0.37145542319719338 0 0.26350653962281989 0.38010735630523079 0 0.25383912625151372 0.37755129754335942 0 0.25341304662754638 0.38974012394171498 0 0.2429624777480478 0.39890547698508871 0 0.25341304662754638 0.38974012394171498 0 0.26380858941988822 0.4002294757553399 0 0.26380858941988822 0.4002294757553399 0 0.28001120465417539 0.40182109974822727 0 0.28036865154730628 0.37990086281960789 0 0.26350653962281989 0.38010735630523079 0 0.28036865154730628 0.37990086281960789 0 0.2641967246118288 0.36596915937278562 0 0.26380858941988822 0.4002294757553399 0 0.28036865154730628 0.37990086281960789 0 0.26350653962281989 0.38010735630523079 0 0.26380858941988822 0.4002294757553399 0 0.28036865154730628 0.37990086281960789 0 0.28036865154730628 0.37990086281960789 0 0.29170647807930872 0.39362549197251728 0 0.2987730087010142 0.37934426936791982 0 0.28036865154730628 0.37990086281960789 0 0.29170647807930872 0.39362549197251728 0 0.28001120465417539 0.40182109974822727 0 0.28036865154730628 0.37990086281960789 0 0.29170647807930872 0.39362549197251728 0 0.29062365375375682 0.40708788978866228 0 0.28001120465417539 0.40182109974822727 0 0.29170647807930872 0.39362549197251728 0 0.30304430461131138 0.40735012112542651 0 0.29062365375375682 0.40708788978866228 0 0.29170647807930872 0.39362549197251728 0 0.30304430461131138 0.40735012112542651 0 0.30637452063024528 0.39219955594670219 0 0.3196782615082488 0.40265332564926309 0 0.30304430461131138 0.40735012112542651 0 0.29170647807930872 0.39362549197251728 0 0.30304430461131138 0.40735012112542651 0 0.29170647807930872 0.39362549197251728 0 0.30637452063024528 0.39219955594670219 0 0.30637452063024528 0.39219955594670219 0 0.2987730087010142 0.37934426936791982 0 0.31661607539452802 0.37905951313608538 0 0.29170647807930872 0.39362549197251728 0 0.30637452063024528 0.39219955594670219 0 0.2987730087010142 0.37934426936791982 0 0.31661607539452802 0.37905951313608538 0 0.32905198958534931 0.38831461949406398 0 0.3196782615082488 0.40265332564926309 0 0.31661607539452802 0.37905951313608538 0 0.32905198958534931 0.38831461949406398 0 0.33389487655237682 0.3658352592629312 0 0.32905198958534931 0.38831461949406398 0 0.34270248502322931 0.38427053755298168 0 0.33389487655237682 0.3658352592629312 0 0.32905198958534931 0.38831461949406398 0 0.34270248502322931 0.38427053755298168 0 0.33272146632259869 0.40525883785771122 0 0.34270248502322931 0.38427053755298168 0 0.33272146632259869 0.40525883785771122 0 0.34270248502322931 0.38427053755298168 0 0.33272146632259869 0.40525883785771122 0 0.34670895149724801 0.40816004440777182 0 0.31661607539452802 0.37905951313608538 0 0.3196782615082488 0.40265332564926309 0 0.32905198958534931 0.38831461949406398 0 0.33272146632259869 0.40525883785771122 0 0.3196782615082488 0.40265332564926309 0 0.30637452063024528 0.39219955594670219 0 0.31661607539452802 0.37905951313608538 0 0.3196782615082488 0.40265332564926309 0 0.3196782615082488 0.40265332564926309 0 0.3227404476219688 0.42624713816244092 0 0.30862162828234507 0.42004495563460759 0 0.3196782615082488 0.40265332564926309 0 0.3227404476219688 0.42624713816244092 0 0.33272146632259869 0.40525883785771122 0 0.3196782615082488 0.40265332564926309 0 0.3227404476219688 0.42624713816244092 0 0.33272146632259869 0.40525883785771122 0 0.3227404476219688 0.42624713816244092 0 0.32480939915707069 0.44218818576869201 0 0.3227404476219688 0.42624713816244092 0 0.3107318966111981 0.4514989769174147 0 0.30884109342504262 0.43428586920116352 0 0.3227404476219688 0.42624713816244092 0 0.32480939915707069 0.44218818576869201 0 0.3227404476219688 0.42624713816244092 0 0.33523501366627878 0.43221560569608392 0 0.30884109342504262 0.43428586920116352 0 0.30862162828234507 0.42004495563460759 0 0.3227404476219688 0.42624713816244092 0 0.34502769605759259 0.44546544446971242 0 0.33523501366627878 0.43221560569608392 0 0.34795858503051302 0.425881111768525 0 0.3227404476219688 0.42624713816244092 0 0.33523501366627878 0.43221560569608392 0 0.33659904832278342 0.4201421825902541 0 0.33523501366627878 0.43221560569608392 0 0.33659904832278342 0.4201421825902541 0 0.34795858503051302 0.425881111768525 0 0.33272146632259869 0.40525883785771122 0 0.3227404476219688 0.42624713816244092 0 0.33659904832278342 0.4201421825902541 0 0.33272146632259869 0.40525883785771122 0 0.33659904832278342 0.4201421825902541 0 0.34670895149724801 0.40816004440777182 0 0.33659904832278342 0.4201421825902541 0 0.34670895149724801 0.40816004440777182 0 0.34795858503051302 0.425881111768525 0 0.34670895149724801 0.40816004440777182 0 0.34795858503051302 0.425881111768525 0 0.36336601300371613 0.41450991002864218 0 0.34670895149724801 0.40816004440777182 0 0.36336601300371613 0.41450991002864218 0 0.35690611128064731 0.3988976866485166 0 0.34502769605759259 0.44546544446971242 0 0.34795858503051302 0.425881111768525 0 0.36959298495063608 0.43610817863788948 0 0.34795858503051302 0.425881111768525 0 0.36959298495063608 0.43610817863788948 0 0.36336601300371613 0.41450991002864218 0 0.36959298495063608 0.43610817863788948 0 0.36336601300371613 0.41450991002864218 0 0.38530342098431941 0.41064856824057122 0 0.36336601300371613 0.41450991002864218 0 0.3736470799201031 0.39378130610698531 0 0.38530342098431941 0.41064856824057122 0 0.3736470799201031 0.39378130610698531 0 0.3601059063978746 0.38125551426405008 0 0.35690611128064731 0.3988976866485166 0 0.36336601300371613 0.41450991002864218 0 0.3736470799201031 0.39378130610698531 0 0.35690611128064731 0.3988976866485166 0 0.3736470799201031 0.39378130610698531 0 0.3601059063978746 0.38125551426405008 0 0.37414389550204002 0.36898578533419818 0 0.34270248502322931 0.38427053755298168 0 0.3601059063978746 0.38125551426405008 0 0.35690611128064731 0.3988976866485166 0 0.34270248502322931 0.38427053755298168 0 0.3601059063978746 0.38125551426405008 0 0.35268350372385993 0.36328223724825232 0 0.34270248502322931 0.38427053755298168 0 0.34670895149724801 0.40816004440777182 0 0.35690611128064731 0.3988976866485166 0 0.35268350372385993 0.36328223724825232 0 0.36266452242448938 0.34229393694352239 0 0.35030182712711511 0.35130594720886232 0 0.35268350372385993 0.36328223724825232 0 0.36266452242448938 0.34229393694352239 0 0.35030182712711511 0.35130594720886232 0 0.35146565257524442 0.34420791440797271 0 0.36266452242448938 0.34229393694352239 0 0.35030182712711511 0.35130594720886232 0 0.35146565257524442 0.34420791440797271 0 0.34269927497721508 0.34493512072036142 0 0.35030182712711511 0.35130594720886232 0 0.35268350372385993 0.36328223724825232 0 0.33389487655237682 0.3658352592629312 0 0.34270248502322931 0.38427053755298168 0 0.35268350372385993 0.36328223724825232 0 0.3601059063978746 0.38125551426405008 0 0.35268350372385993 0.36328223724825232 0 0.37414389550204002 0.36898578533419818 0 0.35268350372385993 0.36328223724825232 0 0.37414389550204002 0.36898578533419818 0 0.36300645299402812 0.35604351837507042 0 0.37414389550204002 0.36898578533419818 0 0.37228166628853332 0.35471301169251829 0 0.36300645299402812 0.35604351837507042 0 0.35268350372385993 0.36328223724825232 0 0.36300645299402812 0.35604351837507042 0 0.36266452242448938 0.34229393694352239 0 0.37228166628853332 0.35471301169251829 0 0.36300645299402812 0.35604351837507042 0 0.36840829020790361 0.34668560051738673 0 0.36300645299402812 0.35604351837507042 0 0.36840829020790361 0.34668560051738673 0 0.36266452242448938 0.34229393694352239 0 0.36840829020790361 0.34668560051738673 0 0.36266452242448938 0.34229393694352239 0 0.36587418437400321 0.34278907974668538 0 0.37228166628853332 0.35471301169251829 0 0.36840829020790361 0.34668560051738673 0 0.37486749369974542 0.34694596905823039 0 0.37486749369974542 0.34694596905823039 0 0.37256750073976291 0.34304532959464751 0 0.37670219357667811 0.34177383067972761 0 0.36840829020790361 0.34668560051738673 0 0.37486749369974542 0.34694596905823039 0 0.37256750073976291 0.34304532959464751 0 0.36124897776362869 0.33531944770056321 0 0.36266452242448938 0.34229393694352239 0 0.36411885078159001 0.32644375487552563 0 0.37256750073976291 0.34304532959464751 0 0.36916640720496519 0.34145859007673351 0 0.37369311900952262 0.33836265764115908 0 0.37256750073976291 0.34304532959464751 0 0.37369311900952262 0.33836265764115908 0 0.37670219357667811 0.34177383067972761 0 0.36266452242448938 0.34229393694352239 0 0.37014896644917339 0.316543878568457 0 0.36770298492566261 0.33637877995368609 0 0.36266452242448938 0.34229393694352239 0 0.37368960646642962 0.31911015363466272 0 0.36770298492566261 0.33637877995368609 0 0.36985494237623989 0.33311962493185521 0 0.37368960646642962 0.31911015363466272 0 0.36266452242448938 0.34229393694352239 0 0.37368960646642962 0.31911015363466272 0 0.36266452242448938 0.34229393694352239 0 0.37014896644917339 0.316543878568457 0 0.36411885078159001 0.32644375487552563 0 0.36840829020790361 0.34668560051738673 0 0.36916640720496519 0.34145859007673351 0 0.36587418437400321 0.34278907974668538 0 0.36840829020790361 0.34668560051738673 0 0.37256750073976291 0.34304532959464751 0 0.36916640720496519 0.34145859007673351 0 0.36916640720496519 0.34145859007673351 0 0.36587418437400321 0.34278907974668538 0 0.36708394454210669 0.33994961910346172 0 0.36916640720496519 0.34145859007673351 0 0.37010024416019238 0.33739894816112592 0 0.36708394454210669 0.33994961910346172 0 0.36916640720496519 0.34145859007673351 0 0.37010024416019238 0.33739894816112592 0 0.37369311900952262 0.33836265764115908 0 0.36770298492566261 0.33637877995368609 0 0.37010024416019238 0.33739894816112592 0 0.36708394454210669 0.33994961910346172 0 0.37010024416019238 0.33739894816112592 0 0.37369311900952262 0.33836265764115908 0 0.3722735272100694 0.33425106354392481 0 0.3722735272100694 0.33425106354392481 0 0.37245621682226088 0.32924087979990557 0 0.375263113682131 0.33313320718557798 0 0.37369311900952262 0.33836265764115908 0 0.3722735272100694 0.33425106354392481 0 0.375263113682131 0.33313320718557798 0 0.3722735272100694 0.33425106354392481 0 0.37245621682226088 0.32924087979990557 0 0.36985494237623989 0.33311962493185521 0 0.37245621682226088 0.32924087979990557 0 0.37577016905582622 0.32787937856968757 0 0.375263113682131 0.33313320718557798 0 0.37010024416019238 0.33739894816112592 0 0.3722735272100694 0.33425106354392481 0 0.36985494237623989 0.33311962493185521 0 0.36770298492566261 0.33637877995368609 0 0.37010024416019238 0.33739894816112592 0 0.36985494237623989 0.33311962493185521 0 0.36128237795215928 0.33126347269122047 0 0.36124897776362869 0.33531944770056321 0 0.36411885078159001 0.32644375487552563 0 0.36150631125237548 0.32912422255951068 0 0.36128237795215928 0.33126347269122047 0 0.36411885078159001 0.32644375487552563 0 0.36150631125237548 0.32912422255951068 0 0.35994194411877378 0.32646204206530971 0 0.35835984371964152 0.33045614064968309 0 0.36128237795215928 0.33126347269122047 0 0.35899626180536931 0.33430086833413269 0 0.35835984371964152 0.33045614064968309 0 0.36150631125237548 0.32912422255951068 0 0.36128237795215928 0.33126347269122047 0 0.35835984371964152 0.33045614064968309 0 0.36128237795215928 0.33126347269122047 0 0.36124897776362869 0.33531944770056321 0 0.35899626180536931 0.33430086833413269 0 0.36124897776362869 0.33531944770056321 0 0.36001134864139028 0.33778823672905661 0 0.35899626180536931 0.33430086833413269 0 0.36124897776362869 0.33531944770056321 0 0.36001134864139028 0.33778823672905661 0 0.36266452242448938 0.34229393694352239 0 0.36001134864139028 0.33778823672905661 0 0.36266452242448938 0.34229393694352239 0 0.3582225103283424 0.33883319475427592 0 0.36266452242448938 0.34229393694352239 0 0.36587418437400321 0.34278907974668538 0 0.36708394454210669 0.33994961910346172 0 0.36770298492566261 0.33637877995368609 0 0.36266452242448938 0.34229393694352239 0 0.36708394454210669 0.33994961910346172 0 0.36266452242448938 0.34229393694352239 0 0.37368960646642962 0.31911015363466272 0 0.37014896644917339 0.316543878568457 0 0.37014896644917339 0.316543878568457 0 0.36604953812300478 0.31497278055865852 0 0.36630954626425261 0.31087512405144152 0 0.37499251130121058 0.31593455150060828 0 0.37014896644917339 0.316543878568457 0 0.37695808612291098 0.31120865645681561 0 0.37499251130121058 0.31593455150060828 0 0.37368960646642962 0.31911015363466272 0 0.37014896644917339 0.316543878568457 0 0.37014896644917339 0.316543878568457 0 0.36646072203027302 0.32009490443849897 0 0.3659238024377004 0.31770243144255911 0 0.37014896644917339 0.316543878568457 0 0.3659238024377004 0.31770243144255911 0 0.36604953812300478 0.31497278055865852 0 0.37245621682226088 0.32924087979990557 0 0.36985494237623989 0.33311962493185521 0 0.37368960646642962 0.31911015363466272 0 0.37245621682226088 0.32924087979990557 0 0.37368960646642962 0.31911015363466272 0 0.37506056064123422 0.32471797871916308 0 0.37245621682226088 0.32924087979990557 0 0.37577016905582622 0.32787937856968757 0 0.37506056064123422 0.32471797871916308 0 0.37014896644917339 0.316543878568457 0 0.36411885078159001 0.32644375487552563 0 0.36646072203027302 0.32009490443849897 0 0.36411885078159001 0.32644375487552563 0 0.35994194411877378 0.32646204206530971 0 0.36132202517978662 0.32303080634539388 0 0.36150631125237548 0.32912422255951068 0 0.36411885078159001 0.32644375487552563 0 0.35994194411877378 0.32646204206530971 0 0.36132202517978662 0.32303080634539388 0 0.36348301458407639 0.32047903077872458 0 0.35962675317161102 0.31893041505789499 0 0.36411885078159001 0.32644375487552563 0 0.36132202517978662 0.32303080634539388 0 0.36348301458407639 0.32047903077872458 0 0.36411885078159001 0.32644375487552563 0 0.36348301458407639 0.32047903077872458 0 0.36646072203027302 0.32009490443849897 0 0.36348301458407639 0.32047903077872458 0 0.36646072203027302 0.32009490443849897 0 0.3659238024377004 0.31770243144255911 0 0.3659238024377004 0.31770243144255911 0 0.36344593390349789 0.31667187251247519 0 0.36604953812300478 0.31497278055865852 0 0.36348301458407639 0.32047903077872458 0 0.3659238024377004 0.31770243144255911 0 0.36344593390349789 0.31667187251247519 0 0.36348301458407639 0.32047903077872458 0 0.36344593390349789 0.31667187251247519 0 0.35962675317161102 0.31893041505789499 0 0.36344593390349789 0.31667187251247519 0 0.35962675317161102 0.31893041505789499 0 0.35878641637012221 0.31305233625990619 0 0.36344593390349789 0.31667187251247519 0 0.36331333565659901 0.31283202127524651 0 0.35878641637012221 0.31305233625990619 0 0.36331333565659901 0.31283202127524651 0 0.36604953812300478 0.31497278055865852 0 0.36630954626425261 0.31087512405144152 0 0.36344593390349789 0.31667187251247519 0 0.36331333565659901 0.31283202127524651 0 0.36604953812300478 0.31497278055865852 0 0.35878641637012221 0.31305233625990619 0 0.35512602374864599 0.31718053618965047 0 0.35090510471213721 0.31152713165908658 0 0.35512602374864599 0.31718053618965047 0 0.34983435518440159 0.31943204998396652 0 0.35090510471213721 0.31152713165908658 0 0.35962675317161102 0.31893041505789499 0 0.35878641637012221 0.31305233625990619 0 0.35512602374864599 0.31718053618965047 0 0.35962675317161102 0.31893041505789499 0 0.35512602374864599 0.31718053618965047 0 0.35673455485560862 0.32229528426682241 0 0.35512602374864599 0.31718053618965047 0 0.35673455485560862 0.32229528426682241 0 0.34983435518440159 0.31943204998396652 0 0.35673455485560862 0.32229528426682241 0 0.35060422568955008 0.32587015674736058 0 0.34983435518440159 0.31943204998396652 0 0.35994194411877378 0.32646204206530971 0 0.36132202517978662 0.32303080634539388 0 0.35673455485560862 0.32229528426682241 0 0.36132202517978662 0.32303080634539388 0 0.35962675317161102 0.31893041505789499 0 0.35673455485560862 0.32229528426682241 0 0.35994194411877378 0.32646204206530971 0 0.35673455485560862 0.32229528426682241 0 0.35627338036128769 0.32705738058013539 0 0.35994194411877378 0.32646204206530971 0 0.35627338036128769 0.32705738058013539 0 0.35835984371964152 0.33045614064968309 0 0.35627338036128769 0.32705738058013539 0 0.35060422568955008 0.32587015674736058 0 0.35398721241228231 0.33095327650953749 0 0.35673455485560862 0.32229528426682241 0 0.35627338036128769 0.32705738058013539 0 0.35060422568955008 0.32587015674736058 0 0.35060422568955008 0.32587015674736058 0 0.34514221143703899 0.32919058107390442 0 0.34284551192874652 0.32364904383841531 0 0.35060422568955008 0.32587015674736058 0 0.34983435518440159 0.31943204998396652 0 0.34284551192874652 0.32364904383841531 0 0.34983435518440159 0.31943204998396652 0 0.34480088275632298 0.31606258733578418 0 0.35090510471213721 0.31152713165908658 0 0.34983435518440159 0.31943204998396652 0 0.34480088275632298 0.31606258733578418 0 0.34284551192874652 0.32364904383841531 0 0.35146565257524442 0.34420791440797271 0 0.36266452242448938 0.34229393694352239 0 0.35562031764263757 0.34031424282986023 0 0.35302683950207769 0.33602013814058929 0 0.35562031764263757 0.34031424282986023 0 0.35672120529774148 0.33684362974708199 0 0.35202203774268331 0.33965573310897551 0 0.35302683950207769 0.33602013814058929 0 0.35562031764263757 0.34031424282986023 0 0.35146565257524442 0.34420791440797271 0 0.35202203774268331 0.33965573310897551 0 0.35562031764263757 0.34031424282986023 0 0.36266452242448938 0.34229393694352239 0 0.35562031764263757 0.34031424282986023 0 0.3582225103283424 0.33883319475427592 0 0.35562031764263757 0.34031424282986023 0 0.3582225103283424 0.33883319475427592 0 0.35672120529774148 0.33684362974708199 0 0.36001134864139028 0.33778823672905661 0 0.3582225103283424 0.33883319475427592 0 0.35672120529774148 0.33684362974708199 0 0.36001134864139028 0.33778823672905661 0 0.35672120529774148 0.33684362974708199 0 0.35899626180536931 0.33430086833413269 0 0.35899626180536931 0.33430086833413269 0 0.35641212776078268 0.33381706902087938 0 0.35835984371964152 0.33045614064968309 0 0.35672120529774148 0.33684362974708199 0 0.35899626180536931 0.33430086833413269 0 0.35641212776078268 0.33381706902087938 0 0.35627338036128769 0.32705738058013539 0 0.35835984371964152 0.33045614064968309 0 0.35398721241228231 0.33095327650953749 0 0.35641212776078268 0.33381706902087938 0 0.35835984371964152 0.33045614064968309 0 0.35398721241228231 0.33095327650953749 0 0.35302683950207769 0.33602013814058929 0 0.35641212776078268 0.33381706902087938 0 0.35398721241228231 0.33095327650953749 0 0.35302683950207769 0.33602013814058929 0 0.35398721241228231 0.33095327650953749 0 0.34924685744035389 0.33249877391857741 0 0.35302683950207769 0.33602013814058929 0 0.35672120529774148 0.33684362974708199 0 0.35641212776078268 0.33381706902087938 0 0.35302683950207769 0.33602013814058929 0 0.34924685744035389 0.33249877391857741 0 0.34788509595764172 0.33882226599831611 0 0.35060422568955008 0.32587015674736058 0 0.34924685744035389 0.33249877391857741 0 0.34514221143703899 0.32919058107390442 0 0.35060422568955008 0.32587015674736058 0 0.35398721241228231 0.33095327650953749 0 0.34924685744035389 0.33249877391857741 0 0.34924685744035389 0.33249877391857741 0 0.34514221143703899 0.32919058107390442 0 0.34474234507332802 0.33433591834825649 0 0.34924685744035389 0.33249877391857741 0 0.34474234507332802 0.33433591834825649 0 0.34788509595764172 0.33882226599831611 0 0.34474234507332802 0.33433591834825649 0 0.34788509595764172 0.33882226599831611 0 0.34057592936449049 0.33809639891542392 0 0.35146565257524442 0.34420791440797271 0 0.34788509595764172 0.33882226599831611 0 0.34269927497721508 0.34493512072036142 0 0.35202203774268331 0.33965573310897551 0 0.35302683950207769 0.33602013814058929 0 0.34788509595764172 0.33882226599831611 0 0.35146565257524442 0.34420791440797271 0 0.35202203774268331 0.33965573310897551 0 0.34788509595764172 0.33882226599831611 0 0.34057592936449049 0.33809639891542392 0 0.33318390910610529 0.34358855052096038 0 0.34269927497721508 0.34493512072036142 0 0.34788509595764172 0.33882226599831611 0 0.34057592936449049 0.33809639891542392 0 0.34269927497721508 0.34493512072036142 0 0.34474234507332802 0.33433591834825649 0 0.34057592936449049 0.33809639891542392 0 0.33946855119551672 0.33096103471374028 0 0.34514221143703899 0.32919058107390442 0 0.34474234507332802 0.33433591834825649 0 0.33946855119551672 0.33096103471374028 0 0.34057592936449049 0.33809639891542392 0 0.33946855119551672 0.33096103471374028 0 0.33283637980140879 0.33469331179832718 0 0.33946855119551672 0.33096103471374028 0 0.33283637980140879 0.33469331179832718 0 0.33464693517381472 0.32630086361949601 0 0.33283637980140879 0.33469331179832718 0 0.33464693517381472 0.32630086361949601 0 0.3250964778074269 0.32978689602061512 0 0.34057592936449049 0.33809639891542392 0 0.33283637980140879 0.33469331179832718 0 0.33318390910610529 0.34358855052096038 0 0.33283637980140879 0.33469331179832718 0 0.33318390910610529 0.34358855052096038 0 0.32611481079287369 0.33974729713420021 0 0.34480088275632298 0.31606258733578418 0 0.33769186663180051 0.31814262317354819 0 0.34192449374142192 0.30753297203612773 0 0.34480088275632298 0.31606258733578418 0 0.33769186663180051 0.31814262317354819 0 0.34284551192874652 0.32364904383841531 0 0.33946855119551672 0.33096103471374028 0 0.34284551192874652 0.32364904383841531 0 0.33464693517381472 0.32630086361949601 0 0.33769186663180051 0.31814262317354819 0 0.34284551192874652 0.32364904383841531 0 0.33464693517381472 0.32630086361949601 0 0.34514221143703899 0.32919058107390442 0 0.33946855119551672 0.33096103471374028 0 0.34284551192874652 0.32364904383841531 0 0.33769186663180051 0.31814262317354819 0 0.33464693517381472 0.32630086361949601 0 0.32994282367798861 0.32057227217232959 0 0.33464693517381472 0.32630086361949601 0 0.32994282367798861 0.32057227217232959 0 0.3250964778074269 0.32978689602061512 0 0.33769186663180051 0.31814262317354819 0 0.32994282367798861 0.32057227217232959 0 0.32867162081685902 0.31028670060733149 0 0.32176892132522322 0.32006025561378759 0 0.31440941436971798 0.31242774502049953 0 0.32867162081685902 0.31028670060733149 0 0.32994282367798861 0.32057227217232959 0 0.32176892132522322 0.32006025561378759 0 0.32867162081685902 0.31028670060733149 0 0.32176892132522322 0.32006025561378759 0 0.31484893044661 0.32778579360563193 0 0.3250964778074269 0.32978689602061512 0 0.32994282367798861 0.32057227217232959 0 0.32176892132522322 0.32006025561378759 0 0.3250964778074269 0.32978689602061512 0 0.32176892132522322 0.32006025561378759 0 0.31484893044661 0.32778579360563193 0 0.31440941436971798 0.31242774502049953 0 0.32611481079287369 0.33974729713420021 0 0.3250964778074269 0.32978689602061512 0 0.31767498628904178 0.33862919533695518 0 0.32611481079287369 0.33974729713420021 0 0.31767498628904178 0.33862919533695518 0 0.32336406622478242 0.34852958887145069 0 0.33283637980140879 0.33469331179832718 0 0.32611481079287369 0.33974729713420021 0 0.3250964778074269 0.32978689602061512 0 0.31484893044661 0.32778579360563193 0 0.31767498628904178 0.33862919533695518 0 0.30654896287530792 0.34033791233229299 0 0.31484893044661 0.32778579360563193 0 0.3250964778074269 0.32978689602061512 0 0.31767498628904178 0.33862919533695518 0 0.31767498628904178 0.33862919533695518 0 0.31315570067328902 0.3464643712977632 0 0.32336406622478242 0.34852958887145069 0 0.31315570067328902 0.3464643712977632 0 0.31355388928080707 0.35546570062290778 0 0.32336406622478242 0.34852958887145069 0 0.32336406622478242 0.34852958887145069 0 0.33442175170730049 0.35218858713626039 0 0.32437013183195901 0.3602157298059272 0 0.31355388928080707 0.35546570062290778 0 0.32336406622478242 0.34852958887145069 0 0.32437013183195901 0.3602157298059272 0 0.33318390910610529 0.34358855052096038 0 0.32611481079287369 0.33974729713420021 0 0.32336406622478242 0.34852958887145069 0 0.35030182712711511 0.35130594720886232 0 0.33442175170730049 0.35218858713626039 0 0.33389487655237682 0.3658352592629312 0 0.33318390910610529 0.34358855052096038 0 0.32336406622478242 0.34852958887145069 0 0.33442175170730049 0.35218858713626039 0 0.35030182712711511 0.35130594720886232 0 0.33442175170730049 0.35218858713626039 0 0.34269927497721508 0.34493512072036142 0 0.33318390910610529 0.34358855052096038 0 0.33442175170730049 0.35218858713626039 0 0.34269927497721508 0.34493512072036142 0 0.34270248502322931 0.38427053755298168 0 0.35268350372385993 0.36328223724825232 0 0.33389487655237682 0.3658352592629312 0 0.33442175170730049 0.35218858713626039 0 0.33389487655237682 0.3658352592629312 0 0.32437013183195901 0.3602157298059272 0 0.31661607539452802 0.37905951313608538 0 0.33389487655237682 0.3658352592629312 0 0.32437013183195901 0.3602157298059272 0 0.31661607539452802 0.37905951313608538 0 0.31355388928080707 0.35546570062290778 0 0.32437013183195901 0.3602157298059272 0 0.31661607539452802 0.37905951313608538 0 0.31355388928080707 0.35546570062290778 0 0.31661607539452802 0.37905951313608538 0 0.31355388928080707 0.35546570062290778 0 0.30541822204374358 0.36584678197342768 0 0.2987730087010142 0.37934426936791982 0 0.31661607539452802 0.37905951313608538 0 0.30541822204374358 0.36584678197342768 0 0.30541822204374358 0.36584678197342768 0 0.30393955747459928 0.35096595789874813 0 0.29215410451095353 0.36543341035917859 0 0.2987730087010142 0.37934426936791982 0 0.30541822204374358 0.36584678197342768 0 0.29215410451095353 0.36543341035917859 0 0.31315570067328902 0.3464643712977632 0 0.30393955747459928 0.35096595789874813 0 0.30654896287530792 0.34033791233229299 0 0.31315570067328902 0.3464643712977632 0 0.31355388928080707 0.35546570062290778 0 0.30393955747459928 0.35096595789874813 0 0.31355388928080707 0.35546570062290778 0 0.30541822204374358 0.36584678197342768 0 0.30393955747459928 0.35096595789874813 0 0.30393955747459928 0.35096595789874813 0 0.29215410451095353 0.36543341035917859 0 0.30393955747459928 0.35096595789874813 0 0.29720735802849829 0.34424744790442102 0 0.29027641861796738 0.35164951467646482 0 0.30393955747459928 0.35096595789874813 0 0.29720735802849829 0.34424744790442102 0 0.30654896287530792 0.34033791233229299 0 0.29720735802849829 0.34424744790442102 0 0.29027641861796738 0.35164951467646482 0 0.28998304713239348 0.34105976447064218 0 0.30393955747459928 0.35096595789874813 0 0.29027641861796738 0.35164951467646482 0 0.29215410451095353 0.36543341035917859 0 0.29027641861796738 0.35164951467646482 0 0.29215410451095353 0.36543341035917859 0 0.27920137084664282 0.3573603676334649 0 0.29027641861796738 0.35164951467646482 0 0.27920137084664282 0.3573603676334649 0 0.28068773357058369 0.34198453751068081 0 0.29027641861796738 0.35164951467646482 0 0.28068773357058369 0.34198453751068081 0 0.28998304713239348 0.34105976447064218 0 0.28036865154730628 0.37990086281960789 0 0.29215410451095353 0.36543341035917859 0 0.27920137084664282 0.3573603676334649 0 0.28036865154730628 0.37990086281960789 0 0.2987730087010142 0.37934426936791982 0 0.29215410451095353 0.36543341035917859 0 0.28036865154730628 0.37990086281960789 0 0.29215410451095353 0.36543341035917859 0 0.28036865154730628 0.37990086281960789 0 0.27920137084664282 0.3573603676334649 0 0.26173146881309822 0.35734024057335978 0 0.28036865154730628 0.37990086281960789 0 0.26173146881309822 0.35734024057335978 0 0.28036865154730628 0.37990086281960789 0 0.26173146881309822 0.35734024057335978 0 0.2641967246118288 0.36596915937278562 0 0.27920137084664282 0.3573603676334649 0 0.27030047393074008 0.3474963096498429 0 0.26173146881309822 0.35734024057335978 0 0.27920137084664282 0.3573603676334649 0 0.27030047393074008 0.3474963096498429 0 0.28068773357058369 0.34198453751068081 0 0.2430942860788903 0.33477961832711151 0 0.26173146881309822 0.35734024057335978 0 0.27030047393074008 0.3474963096498429 0 0.26173146881309822 0.35734024057335978 0 0.26240083601839698 0.33727672217147331 0 0.23816107804029091 0.35120524212074949 0 0.26173146881309822 0.35734024057335978 0 0.2641967246118288 0.36596915937278562 0 0.23816107804029091 0.35120524212074949 0 0.2641967246118288 0.36596915937278562 0 0.2492643002430574 0.365916522193315 0 0.24311907173897271 0.36013203008567057 0 0.2641967246118288 0.36596915937278562 0 0.2492643002430574 0.365916522193315 0 0.25710864090743918 0.37145542319719338 0 0.2641967246118288 0.36596915937278562 0 0.2492643002430574 0.365916522193315 0 0.25383912625151372 0.37755129754335942 0 0.25710864090743918 0.37145542319719338 0 0.26350653962281989 0.38010735630523079 0 0.25710864090743918 0.37145542319719338 0 0.2641967246118288 0.36596915937278562 0 0.2484846271056145 0.31037308609574782 0 0.25508783524565293 0.32209220201309929 0 0.26836904206483531 0.31075971332937607 0 0.25508783524565293 0.32209220201309929 0 0.26240083601839698 0.33727672217147331 0 0.26677092012209491 0.32204036282613252 0 0.25508783524565293 0.32209220201309929 0 0.26677092012209491 0.32204036282613252 0 0.26836904206483531 0.31075971332937607 0 0.2430942860788903 0.33477961832711151 0 0.25508783524565293 0.32209220201309929 0 0.26240083601839698 0.33727672217147331 0 0.2430942860788903 0.33477961832711151 0 0.26173146881309822 0.35734024057335978 0 0.26240083601839698 0.33727672217147331 0 0.26240083601839698 0.33727672217147331 0 0.27184092000699639 0.33891315949469752 0 0.27388917516664008 0.32964775149744319 0 0.26240083601839698 0.33727672217147331 0 0.27388917516664008 0.32964775149744319 0 0.26677092012209491 0.32204036282613252 0 0.27030047393074008 0.3474963096498429 0 0.26240083601839698 0.33727672217147331 0 0.27184092000699639 0.33891315949469752 0 0.27030047393074008 0.3474963096498429 0 0.27184092000699639 0.33891315949469752 0 0.28068773357058369 0.34198453751068081 0 0.27184092000699639 0.33891315949469752 0 0.28068773357058369 0.34198453751068081 0 0.27388917516664008 0.32964775149744319 0 0.28068773357058369 0.34198453751068081 0 0.27388917516664008 0.32964775149744319 0 0.28570907475377572 0.33188311037056872 0 0.27388917516664008 0.32964775149744319 0 0.26677092012209491 0.32204036282613252 0 0.28178409254690689 0.31684790712797722 0 0.27388917516664008 0.32964775149744319 0 0.28178409254690689 0.31684790712797722 0 0.28570907475377572 0.33188311037056872 0 0.26677092012209491 0.32204036282613252 0 0.28178409254690689 0.31684790712797722 0 0.26836904206483531 0.31075971332937607 0 0.28178409254690689 0.31684790712797722 0 0.29262159606390598 0.32453461147271162 0 0.29660332646403359 0.30785121346786842 0 0.28178409254690689 0.31684790712797722 0 0.29262159606390598 0.32453461147271162 0 0.28570907475377572 0.33188311037056872 0 0.28068773357058369 0.34198453751068081 0 0.28570907475377572 0.33188311037056872 0 0.28998304713239348 0.34105976447064218 0 0.29262159606390598 0.32453461147271162 0 0.28570907475377572 0.33188311037056872 0 0.29603465069114282 0.33553421189107618 0 0.29720735802849829 0.34424744790442102 0 0.29603465069114282 0.33553421189107618 0 0.28998304713239348 0.34105976447064218 0 0.28570907475377572 0.33188311037056872 0 0.29603465069114282 0.33553421189107618 0 0.28998304713239348 0.34105976447064218 0 0.29720735802849829 0.34424744790442102 0 0.29603465069114282 0.33553421189107618 0 0.30654896287530792 0.34033791233229299 0 0.29603465069114282 0.33553421189107618 0 0.30654896287530792 0.34033791233229299 0 0.30445412428221041 0.32558903425911379 0 0.29262159606390598 0.32453461147271162 0 0.29603465069114282 0.33553421189107618 0 0.30445412428221041 0.32558903425911379 0 0.31484893044661 0.32778579360563193 0 0.30654896287530792 0.34033791233229299 0 0.30445412428221041 0.32558903425911379 0 0.31767498628904178 0.33862919533695518 0 0.31315570067328902 0.3464643712977632 0 0.30654896287530792 0.34033791233229299 0 0.30445412428221041 0.32558903425911379 0 0.29660332646403359 0.30785121346786842 0 0.31440941436971798 0.31242774502049953 0 0.29262159606390598 0.32453461147271162 0 0.30445412428221041 0.32558903425911379 0 0.29660332646403359 0.30785121346786842 0 0.31484893044661 0.32778579360563193 0 0.30445412428221041 0.32558903425911379 0 0.31440941436971798 0.31242774502049953 0 0.30822946874662033 0.29998271616579031 0 0.29660332646403359 0.30785121346786842 0 0.31440941436971798 0.31242774502049953 0 0.30822946874662033 0.29998271616579031 0 0.30055108247350393 0.28416894361273021 0 0.29660332646403359 0.30785121346786842 0 0.30822946874662033 0.29998271616579031 0 0.30055108247350393 0.28416894361273021 0 0.32109763140443309 0.29547610107375327 0 0.30055108247350393 0.28416894361273021 0 0.29660332646403359 0.30785121346786842 0 0.27430616976337108 0.29100628718303567 0 0.30055108247350393 0.28416894361273021 0 0.27430616976337108 0.29100628718303567 0 0.28443506245096839 0.27205148705280008 0 0.30055108247350393 0.28416894361273021 0 0.27430616976337108 0.29100628718303567 0 0.28178409254690689 0.31684790712797722 0 0.29660332646403359 0.30785121346786842 0 0.27430616976337108 0.29100628718303567 0 0.28178409254690689 0.31684790712797722 0 0.26836904206483531 0.31075971332937607 0 0.27430616976337108 0.29100628718303567 0 0.28178409254690689 0.31684790712797722 0 0.27430616976337108 0.29100628718303567 0 0.27430616976337108 0.29100628718303567 0 0.25121587924780342 0.29702178630611242 0 0.27430616976337108 0.29100628718303567 0 0.25953152444998728 0.28294166139542631 0 0.25121587924780342 0.29702178630611242 0 0.26836904206483531 0.31075971332937607 0 0.27430616976337108 0.29100628718303567 0 0.25121587924780342 0.29702178630611242 0 0.26836904206483531 0.31075971332937607 0 0.25121587924780342 0.29702178630611242 0 0.2484846271056145 0.31037308609574782 0 0.26836904206483531 0.31075971332937607 0 0.25121587924780342 0.29702178630611242 0 0.25102838231212438 0.26850893423506528 0 0.26790857605335527 0.26889798384773289 0 0.26221447651104962 0.2479993693513689 0 0.26790857605335527 0.26889798384773289 0 0.26221447651104962 0.2479993693513689 0 0.25953152444998728 0.28294166139542631 0 0.25102838231212438 0.26850893423506528 0 0.26790857605335527 0.26889798384773289 0 0.27430616976337108 0.29100628718303567 0 0.26790857605335527 0.26889798384773289 0 0.28443506245096839 0.27205148705280008 0 0.27430616976337108 0.29100628718303567 0 0.25953152444998728 0.28294166139542631 0 0.26790857605335527 0.26889798384773289 0 0.27430616976337108 0.29100628718303567 0 0.26790857605335527 0.26889798384773289 0 0.26790857605335527 0.26889798384773289 0 0.28119448123381058 0.25405304303149878 0 0.26221447651104962 0.2479993693513689 0 0.26790857605335527 0.26889798384773289 0 0.28119448123381058 0.25405304303149878 0 0.28443506245096839 0.27205148705280008 0 0.28119448123381058 0.25405304303149878 0 0.28443506245096839 0.27205148705280008 0 0.2982150027308012 0.26213117758900317 0 0.28119448123381058 0.25405304303149878 0 0.2982150027308012 0.26213117758900317 0 0.30328699804120918 0.24394477185791469 0 0.30055108247350393 0.28416894361273021 0 0.28443506245096839 0.27205148705280008 0 0.2982150027308012 0.26213117758900317 0 0.30055108247350393 0.28416894361273021 0 0.2982150027308012 0.26213117758900317 0 0.31879452400631653 0.25919465198291952 0 0.2982150027308012 0.26213117758900317 0 0.31879452400631653 0.25919465198291952 0 0.30328699804120918 0.24394477185791469 0 0.31879452400631653 0.25919465198291952 0 0.33092809789354199 0.24744869965648561 0 0.31845456220733243 0.24449663650262579 0 0.31879452400631653 0.25919465198291952 0 0.33565265393095528 0.25675142138279861 0 0.33982225619875311 0.26765994074234428 0 0.31879452400631653 0.25919465198291952 0 0.33982225619875311 0.26765994074234428 0 0.31879452400631653 0.25919465198291952 0 0.33565265393095528 0.25675142138279861 0 0.33092809789354199 0.24744869965648561 0 0.33565265393095528 0.25675142138279861 0 0.33982225619875311 0.26765994074234428 0 0.34536281311255052 0.25941060478944128 0 0.33565265393095528 0.25675142138279861 0 0.3433555784436142 0.25004320974280247 0 0.33092809789354199 0.24744869965648561 0 0.33565265393095528 0.25675142138279861 0 0.3433555784436142 0.25004320974280247 0 0.34536281311255052 0.25941060478944128 0 0.31879452400631653 0.25919465198291952 0 0.33982225619875311 0.26765994074234428 0 0.32679599518363661 0.27733160004242491 0 0.33982225619875311 0.26765994074234428 0 0.32679599518363661 0.27733160004242491 0 0.34056182851336592 0.28206143899133118 0 0.30055108247350393 0.28416894361273021 0 0.32679599518363661 0.27733160004242491 0 0.30055108247350393 0.28416894361273021 0 0.31879452400631653 0.25919465198291952 0 0.32679599518363661 0.27733160004242491 0 0.32679599518363661 0.27733160004242491 0 0.32109763140443309 0.29547610107375327 0 0.33248404658197278 0.28876668272462419 0 0.30055108247350393 0.28416894361273021 0 0.32679599518363661 0.27733160004242491 0 0.32109763140443309 0.29547610107375327 0 0.32109763140443309 0.29547610107375327 0 0.31440941436971798 0.31242774502049953 0 0.32867162081685902 0.31028670060733149 0 0.30822946874662033 0.29998271616579031 0 0.32109763140443309 0.29547610107375327 0 0.31440941436971798 0.31242774502049953 0 0.32867162081685902 0.31028670060733149 0 0.33472549883669622 0.29791121211074773 0 0.34192449374142192 0.30753297203612773 0 0.32109763140443309 0.29547610107375327 0 0.32867162081685902 0.31028670060733149 0 0.33472549883669622 0.29791121211074773 0 0.33472549883669622 0.29791121211074773 0 0.34281583705185747 0.29966479619329672 0 0.34192449374142192 0.30753297203612773 0 0.33769186663180051 0.31814262317354819 0 0.32867162081685902 0.31028670060733149 0 0.34192449374142192 0.30753297203612773 0 0.32679599518363661 0.27733160004242491 0 0.33248404658197278 0.28876668272462419 0 0.34056182851336592 0.28206143899133118 0 0.32109763140443309 0.29547610107375327 0 0.33472549883669622 0.29791121211074773 0 0.33248404658197278 0.28876668272462419 0 0.33472549883669622 0.29791121211074773 0 0.33248404658197278 0.28876668272462419 0 0.34417327957572558 0.29277050597204329 0 0.33472549883669622 0.29791121211074773 0 0.34281583705185747 0.29966479619329672 0 0.34417327957572558 0.29277050597204329 0 0.33248404658197278 0.28876668272462419 0 0.34056182851336592 0.28206143899133118 0 0.34417327957572558 0.29277050597204329 0 0.34056182851336592 0.28206143899133118 0 0.34979868535227071 0.28728326233729501 0 0.34417327957572558 0.29277050597204329 0 0.34056182851336592 0.28206143899133118 0 0.34979868535227071 0.28728326233729501 0 0.35183199075491411 0.27966461044832719 0 0.34417327957572558 0.29277050597204329 0 0.35334053836337709 0.29410458558147129 0 0.34972900846361488 0.30172704795696642 0 0.34979868535227071 0.28728326233729501 0 0.34417327957572558 0.29277050597204329 0 0.35334053836337709 0.29410458558147129 0 0.34979868535227071 0.28728326233729501 0 0.35334053836337709 0.29410458558147129 0 0.35722235408413222 0.28831366276426512 0 0.35334053836337709 0.29410458558147129 0 0.35826071325737319 0.3003277240158499 0 0.36091512844171192 0.29433704443458902 0 0.35334053836337709 0.29410458558147129 0 0.35722235408413222 0.28831366276426512 0 0.36091512844171192 0.29433704443458902 0 0.34979868535227071 0.28728326233729501 0 0.35722235408413222 0.28831366276426512 0 0.35183199075491411 0.27966461044832719 0 0.35722235408413222 0.28831366276426512 0 0.36152496379752869 0.28359539021876212 0 0.35183199075491411 0.27966461044832719 0 0.34480088275632298 0.31606258733578418 0 0.34192449374142192 0.30753297203612773 0 0.35090510471213721 0.31152713165908658 0 0.34192449374142192 0.30753297203612773 0 0.35090510471213721 0.31152713165908658 0 0.34972900846361488 0.30172704795696642 0 0.34281583705185747 0.29966479619329672 0 0.34417327957572558 0.29277050597204329 0 0.34972900846361488 0.30172704795696642 0 0.34281583705185747 0.29966479619329672 0 0.34192449374142192 0.30753297203612773 0 0.34972900846361488 0.30172704795696642 0 0.34972900846361488 0.30172704795696642 0 0.35826071325737319 0.3003277240158499 0 0.35721607615581658 0.30656573559573969 0 0.35334053836337709 0.29410458558147129 0 0.34972900846361488 0.30172704795696642 0 0.35826071325737319 0.3003277240158499 0 0.35090510471213721 0.31152713165908658 0 0.34972900846361488 0.30172704795696642 0 0.35721607615581658 0.30656573559573969 0 0.35878641637012221 0.31305233625990619 0 0.35090510471213721 0.31152713165908658 0 0.35721607615581658 0.30656573559573969 0 0.37014896644917339 0.316543878568457 0 0.37763341047385651 0.29079382019339128 0 0.37014896644917339 0.316543878568457 0 0.37108481648816682 0.30013899891886681 0 0.36845835323010317 0.30596496181531441 0 0.37014896644917339 0.316543878568457 0 0.37763341047385651 0.29079382019339128 0 0.37695808612291098 0.31120865645681561 0 0.37014896644917339 0.316543878568457 0 0.37108481648816682 0.30013899891886681 0 0.37763341047385651 0.29079382019339128 0 0.36630954626425261 0.31087512405144152 0 0.36228941999803421 0.30896529616435242 0 0.36543096483439103 0.3064802843427199 0 0.36331333565659901 0.31283202127524651 0 0.36630954626425261 0.31087512405144152 0 0.36228941999803421 0.30896529616435242 0 0.36331333565659901 0.31283202127524651 0 0.35878641637012221 0.31305233625990619 0 0.36228941999803421 0.30896529616435242 0 0.35878641637012221 0.31305233625990619 0 0.35721607615581658 0.30656573559573969 0 0.36228941999803421 0.30896529616435242 0 0.35721607615581658 0.30656573559573969 0 0.36228941999803421 0.30896529616435242 0 0.36268018070702418 0.30398627546106088 0 0.36630954626425261 0.31087512405144152 0 0.36543096483439103 0.3064802843427199 0 0.36845835323010317 0.30596496181531441 0 0.36228941999803421 0.30896529616435242 0 0.36543096483439103 0.3064802843427199 0 0.36268018070702418 0.30398627546106088 0 0.36543096483439103 0.3064802843427199 0 0.36607900901995372 0.30349396637540749 0 0.36845835323010317 0.30596496181531441 0 0.36607900901995372 0.30349396637540749 0 0.36268018070702418 0.30398627546106088 0 0.36558719123160882 0.29969948119116269 0 0.36607900901995372 0.30349396637540749 0 0.36558719123160882 0.29969948119116269 0 0.36823835509664099 0.30133882906677939 0 0.36543096483439103 0.3064802843427199 0 0.36607900901995372 0.30349396637540749 0 0.36268018070702418 0.30398627546106088 0 0.35826071325737319 0.3003277240158499 0 0.35721607615581658 0.30656573559573969 0 0.36268018070702418 0.30398627546106088 0 0.35826071325737319 0.3003277240158499 0 0.36268018070702418 0.30398627546106088 0 0.36558719123160882 0.29969948119116269 0 0.35826071325737319 0.3003277240158499 0 0.36558719123160882 0.29969948119116269 0 0.36091512844171192 0.29433704443458902 0 0.36871223371641282 0.29817542324200702 0 0.37108481648816682 0.30013899891886681 0 0.37014933742706652 0.29575476169949788 0 0.36558719123160882 0.29969948119116269 0 0.36871223371641282 0.29817542324200702 0 0.36734652779664789 0.29411680932906442 0 0.36558719123160882 0.29969948119116269 0 0.36871223371641282 0.29817542324200702 0 0.36823835509664099 0.30133882906677939 0 0.36871223371641282 0.29817542324200702 0 0.37108481648816682 0.30013899891886681 0 0.36823835509664099 0.30133882906677939 0 0.37108481648816682 0.30013899891886681 0 0.36823835509664099 0.30133882906677939 0 0.36845835323010317 0.30596496181531441 0 0.36607900901995372 0.30349396637540749 0 0.36823835509664099 0.30133882906677939 0 0.36845835323010317 0.30596496181531441 0 0.37014896644917339 0.316543878568457 0 0.36630954626425261 0.31087512405144152 0 0.36845835323010317 0.30596496181531441 0 0.36812955944888692 0.28419813691800921 0 0.36084998839118931 0.2761252295017701 0 0.37969218042614078 0.28371066929036243 0 0.36152496379752869 0.28359539021876212 0 0.36812955944888692 0.28419813691800921 0 0.36084998839118931 0.2761252295017701 0 0.36414496955441777 0.28941104037434479 0 0.36911771796651938 0.28986917351547109 0 0.36812955944888692 0.28419813691800921 0 0.36152496379752869 0.28359539021876212 0 0.36414496955441777 0.28941104037434479 0 0.36812955944888692 0.28419813691800921 0 0.35722235408413222 0.28831366276426512 0 0.36152496379752869 0.28359539021876212 0 0.36414496955441777 0.28941104037434479 0 0.35722235408413222 0.28831366276426512 0 0.36091512844171192 0.29433704443458902 0 0.36414496955441777 0.28941104037434479 0 0.36558719123160882 0.29969948119116269 0 0.36091512844171192 0.29433704443458902 0 0.36734652779664789 0.29411680932906442 0 0.36091512844171192 0.29433704443458902 0 0.36414496955441777 0.28941104037434479 0 0.36734652779664789 0.29411680932906442 0 0.36414496955441777 0.28941104037434479 0 0.36911771796651938 0.28986917351547109 0 0.36734652779664789 0.29411680932906442 0 0.36911771796651938 0.28986917351547109 0 0.37026464520563152 0.29279186409727531 0 0.36734652779664789 0.29411680932906442 0 0.37108481648816682 0.30013899891886681 0 0.37306860395079622 0.29341917559567809 0 0.37763341047385651 0.29079382019339128 0 0.36911771796651938 0.28986917351547109 0 0.37026464520563152 0.29279186409727531 0 0.37237913536365119 0.29056320862162688 0 0.36871223371641282 0.29817542324200702 0 0.36734652779664789 0.29411680932906442 0 0.37014933742706652 0.29575476169949788 0 0.37026464520563152 0.29279186409727531 0 0.36734652779664789 0.29411680932906442 0 0.37014933742706652 0.29575476169949788 0 0.37108481648816682 0.30013899891886681 0 0.37014933742706652 0.29575476169949788 0 0.37306860395079622 0.29341917559567809 0 0.37026464520563152 0.29279186409727531 0 0.37014933742706652 0.29575476169949788 0 0.37306860395079622 0.29341917559567809 0 0.36911771796651938 0.28986917351547109 0 0.37237913536365119 0.29056320862162688 0 0.37333201972158658 0.2878654242033048 0 0.37306860395079622 0.29341917559567809 0 0.37237913536365119 0.29056320862162688 0 0.37763341047385651 0.29079382019339128 0 0.37237913536365119 0.29056320862162688 0 0.37333201972158658 0.2878654242033048 0 0.37763341047385651 0.29079382019339128 0 0.37026464520563152 0.29279186409727531 0 0.37306860395079622 0.29341917559567809 0 0.37237913536365119 0.29056320862162688 0 0.37333201972158658 0.2878654242033048 0 0.36812955944888692 0.28419813691800921 0 0.37969218042614078 0.28371066929036243 0 0.36911771796651938 0.28986917351547109 0 0.37333201972158658 0.2878654242033048 0 0.36812955944888692 0.28419813691800921 0 0.36084998839118931 0.2761252295017701 0 0.37969218042614078 0.28371066929036243 0 0.36084998839118931 0.2761252295017701 0 0.37017340450925651 0.266060206293324 0 0.3539366042426153 0.26554047293381039 0 0.36084998839118931 0.2761252295017701 0 0.38460708535355081 0.26680105137204091 0 0.36084998839118931 0.2761252295017701 0 0.37017340450925651 0.266060206293324 0 0.38460708535355081 0.26680105137204091 0 0.3539366042426153 0.26554047293381039 0 0.38129994004966872 0.25577407136566988 0 0.37169426656027921 0.24972740256563611 0 0.37017340450925651 0.266060206293324 0 0.3539366042426153 0.26554047293381039 0 0.38129994004966872 0.25577407136566988 0 0.3539366042426153 0.26554047293381039 0 0.37169426656027921 0.24972740256563611 0 0.36205361842742478 0.24882498742118489 0 0.3539366042426153 0.26554047293381039 0 0.38129994004966872 0.25577407136566988 0 0.3539366042426153 0.26554047293381039 0 0.35175757775775729 0.2532797976346674 0 0.36205361842742478 0.24882498742118489 0 0.3433555784436142 0.25004320974280247 0 0.35175757775775729 0.2532797976346674 0 0.34536281311255052 0.25941060478944128 0 0.33982225619875311 0.26765994074234428 0 0.3539366042426153 0.26554047293381039 0 0.34536281311255052 0.25941060478944128 0 0.3539366042426153 0.26554047293381039 0 0.35175757775775729 0.2532797976346674 0 0.34536281311255052 0.25941060478944128 0 0.33982225619875311 0.26765994074234428 0 0.36084998839118931 0.2761252295017701 0 0.33982225619875311 0.26765994074234428 0 0.36084998839118931 0.2761252295017701 0 0.3539366042426153 0.26554047293381039 0 0.33982225619875311 0.26765994074234428 0 0.36084998839118931 0.2761252295017701 0 0.35183199075491411 0.27966461044832719 0 0.33982225619875311 0.26765994074234428 0 0.34056182851336592 0.28206143899133118 0 0.35183199075491411 0.27966461044832719 0 0.36152496379752869 0.28359539021876212 0 0.36084998839118931 0.2761252295017701 0 0.35183199075491411 0.27966461044832719 0 0.36084998839118931 0.2761252295017701 0 0.35183199075491411 0.27966461044832719 0 0.39945440726228237 0.27350419034528239 0 0.38460708535355081 0.26680105137204091 0 0.40768566828284042 0.25774317622192677 0 0.39945440726228237 0.27350419034528239 0 0.4092682188351508 0.26816031590002881 0 0.40768566828284042 0.25774317622192677 0 0.39945440726228237 0.27350419034528239 0 0.38460708535355081 0.26680105137204091 0 0.3904751567012596 0.27530993325585928 0 0.39945440726228237 0.27350419034528239 0 0.3904751567012596 0.27530993325585928 0 0.39488150240831521 0.28173053148540511 0 0.39945440726228237 0.27350419034528239 0 0.40366985246608472 0.28285995447659418 0 0.40929088926209078 0.279020096056181 0 0.39945440726228237 0.27350419034528239 0 0.4092682188351508 0.26816031590002881 0 0.40929088926209078 0.279020096056181 0 0.39945440726228237 0.27350419034528239 0 0.39488150240831521 0.28173053148540511 0 0.40366985246608472 0.28285995447659418 0 0.38783836144724232 0.2556839199238965 0 0.38129994004966872 0.25577407136566988 0 0.40866327585672191 0.24600766979752939 0 0.38460708535355081 0.26680105137204091 0 0.40768566828284042 0.25774317622192677 0 0.38783836144724232 0.2556839199238965 0 0.40768566828284042 0.25774317622192677 0 0.40866327585672191 0.24600766979752939 0 0.38783836144724232 0.2556839199238965 0 0.38460708535355081 0.26680105137204091 0 0.40768566828284042 0.25774317622192677 0 0.38129994004966872 0.25577407136566988 0 0.40866327585672191 0.24600766979752939 0 0.38783836144724232 0.2556839199238965 0 0.38129994004966872 0.25577407136566988 0 0.38460708535355081 0.26680105137204091 0 0.38783836144724232 0.2556839199238965 0 0.38460708535355081 0.26680105137204091 0 0.38129994004966872 0.25577407136566988 0 0.37169426656027921 0.24972740256563611 0 0.38106847269238292 0.24536179082341181 0 0.37017340450925651 0.266060206293324 0 0.38129994004966872 0.25577407136566988 0 0.38460708535355081 0.26680105137204091 0 0.36084998839118931 0.2761252295017701 0 0.38460708535355081 0.26680105137204091 0 0.37969218042614078 0.28371066929036243 0 0.38460708535355081 0.26680105137204091 0 0.3904751567012596 0.27530993325585928 0 0.37969218042614078 0.28371066929036243 0 0.38460708535355081 0.26680105137204091 0 0.37969218042614078 0.28371066929036243 0 0.3904751567012596 0.27530993325585928 0 0.37969218042614078 0.28371066929036243 0 0.39488150240831521 0.28173053148540511 0 0.37969218042614078 0.28371066929036243 0 0.37763341047385651 0.29079382019339128 0 0.40259214502479168 0.29292967641552992 0 0.37763341047385651 0.29079382019339128 0 0.4027243230010164 0.30147339632314252 0 0.37969218042614078 0.28371066929036243 0 0.37763341047385651 0.29079382019339128 0 0.37333201972158658 0.2878654242033048 0 0.37969218042614078 0.28371066929036243 0 0.37763341047385651 0.29079382019339128 0 0.37763341047385651 0.29079382019339128 0 0.37695808612291098 0.31120865645681561 0 0.38599374742651271 0.30414296713942529 0 0.37763341047385651 0.29079382019339128 0 0.38599374742651271 0.30414296713942529 0 0.4027243230010164 0.30147339632314252 0 0.37695808612291098 0.31120865645681561 0 0.38599374742651271 0.30414296713942529 0 0.38754735899376969 0.31282171123814728 0 0.38599374742651271 0.30414296713942529 0 0.4027243230010164 0.30147339632314252 0 0.38754735899376969 0.31282171123814728 0 0.4027243230010164 0.30147339632314252 0 0.3956366020903157 0.32248231082130752 0 0.38754735899376969 0.31282171123814728 0 0.37969218042614078 0.28371066929036243 0 0.40259214502479168 0.29292967641552992 0 0.37969218042614078 0.28371066929036243 0 0.39488150240831521 0.28173053148540511 0 0.40259214502479168 0.29292967641552992 0 0.37763341047385651 0.29079382019339128 0 0.4027243230010164 0.30147339632314252 0 0.40259214502479168 0.29292967641552992 0 0.4027243230010164 0.30147339632314252 0 0.40259214502479168 0.29292967641552992 0 0.41139710839419091 0.29189735433941028 0 0.40259214502479168 0.29292967641552992 0 0.40366985246608472 0.28285995447659418 0 0.41139710839419091 0.29189735433941028 0 0.39488150240831521 0.28173053148540511 0 0.40259214502479168 0.29292967641552992 0 0.40366985246608472 0.28285995447659418 0 0.40366985246608472 0.28285995447659418 0 0.41139710839419091 0.29189735433941028 0 0.40929088926209078 0.279020096056181 0 0.41139710839419091 0.29189735433941028 0 0.42781523552817591 0.31215297245289481 0 0.42226183937510081 0.28327127115801121 0 0.41139710839419091 0.29189735433941028 0 0.42226183937510081 0.28327127115801121 0 0.40929088926209078 0.279020096056181 0 0.4027243230010164 0.30147339632314252 0 0.41139710839419091 0.29189735433941028 0 0.42781523552817591 0.31215297245289481 0 0.4027243230010164 0.30147339632314252 0 0.42781523552817591 0.31215297245289481 0 0.41357021602424721 0.32279281759874212 0 0.4027243230010164 0.30147339632314252 0 0.42781523552817591 0.31215297245289481 0 0.42781523552817591 0.31215297245289481 0 0.42226183937510081 0.28327127115801121 0 0.42781523552817591 0.31215297245289481 0 0.42226183937510081 0.28327127115801121 0 0.44120727567718632 0.28746005308771089 0 0.42226183937510081 0.28327127115801121 0 0.43023391716603732 0.27040224467912161 0 0.44120727567718632 0.28746005308771089 0 0.42226183937510081 0.28327127115801121 0 0.43023391716603732 0.27040224467912161 0 0.41664462513020523 0.25422696758609492 0 0.43023391716603732 0.27040224467912161 0 0.43692075095235122 0.26433370861442979 0 0.44373838257505849 0.27050131303512348 0 0.42226183937510081 0.28327127115801121 0 0.4092682188351508 0.26816031590002881 0 0.41664462513020523 0.25422696758609492 0 0.42226183937510081 0.28327127115801121 0 0.41664462513020523 0.25422696758609492 0 0.42226183937510081 0.28327127115801121 0 0.4092682188351508 0.26816031590002881 0 0.40929088926209078 0.279020096056181 0 0.40768566828284042 0.25774317622192677 0 0.41664462513020523 0.25422696758609492 0 0.40866327585672191 0.24600766979752939 0 0.40768566828284042 0.25774317622192677 0 0.41664462513020523 0.25422696758609492 0 0.4092682188351508 0.26816031590002881 0 0.40768566828284042 0.25774317622192677 0 0.41664462513020523 0.25422696758609492 0 0.42749544465446981 0.25699566217507153 0 0.45166362976964691 0.25106894999712381 0 0.43076425121212841 0.2486853010718087 0 0.41664462513020523 0.25422696758609492 0 0.42749544465446981 0.25699566217507153 0 0.43076425121212841 0.2486853010718087 0 0.43023391716603732 0.27040224467912161 0 0.41664462513020523 0.25422696758609492 0 0.42749544465446981 0.25699566217507153 0 0.41664462513020523 0.25422696758609492 0 0.43076425121212841 0.2486853010718087 0 0.42749544465446981 0.25699566217507153 0 0.43692075095235122 0.26433370861442979 0 0.44456450099631911 0.26043047377218492 0 0.43023391716603732 0.27040224467912161 0 0.42749544465446981 0.25699566217507153 0 0.43692075095235122 0.26433370861442979 0 0.42749544465446981 0.25699566217507153 0 0.45166362976964691 0.25106894999712381 0 0.42749544465446981 0.25699566217507153 0 0.44456450099631911 0.26043047377218492 0 0.45166362976964691 0.25106894999712381 0 0.43692075095235122 0.26433370861442979 0 0.44456450099631911 0.26043047377218492 0 0.44373838257505849 0.27050131303512348 0 0.44456450099631911 0.26043047377218492 0 0.44373838257505849 0.27050131303512348 0 0.45508065662597141 0.26402805921732958 0 0.44456450099631911 0.26043047377218492 0 0.45166362976964691 0.25106894999712381 0 0.45508065662597141 0.26402805921732958 0 0.44373838257505849 0.27050131303512348 0 0.45472874274978531 0.27586911806656422 0 0.44120727567718632 0.28746005308771089 0 0.43023391716603732 0.27040224467912161 0 0.44373838257505849 0.27050131303512348 0 0.44120727567718632 0.28746005308771089 0 0.44373838257505849 0.27050131303512348 0 0.45472874274978531 0.27586911806656422 0 0.45508065662597141 0.26402805921732958 0 0.45472874274978531 0.27586911806656422 0 0.46665275363318931 0.27127710252775639 0 0.46192346945889701 0.28817835066990299 0 0.45472874274978531 0.27586911806656422 0 0.46665275363318931 0.27127710252775639 0 0.45508065662597141 0.26402805921732958 0 0.45166362976964691 0.25106894999712381 0 0.46652816171208539 0.25830808769848879 0 0.47583181488482379 0.2451422378191761 0 0.45166362976964691 0.25106894999712381 0 0.45508065662597141 0.26402805921732958 0 0.46652816171208539 0.25830808769848879 0 0.46665275363318931 0.27127710252775639 0 0.45508065662597141 0.26402805921732958 0 0.46652816171208539 0.25830808769848879 0 0.46665275363318931 0.27127710252775639 0 0.46652816171208539 0.25830808769848879 0 0.48341195364679568 0.26002408893105827 0 0.46652816171208539 0.25830808769848879 0 0.48341195364679568 0.26002408893105827 0 0.47583181488482379 0.2451422378191761 0 0.46665275363318931 0.27127710252775639 0 0.48341195364679568 0.26002408893105827 0 0.48138518434246891 0.28130646820503019 0 0.46665275363318931 0.27127710252775639 0 0.48138518434246891 0.28130646820503019 0 0.46192346945889701 0.28817835066990299 0 0.5 0.26671351767664991 0 0.5 0.29421150971207138 0 0.48138518434246891 0.28130646820503019 0 0.48341195364679568 0.26002408893105827 0 0.5 0.26671351767664991 0 0.48138518434246891 0.28130646820503019 0 0.48341195364679568 0.26002408893105827 0 0.5 0.26671351767664991 0 0.50000000000000067 0.2392155256412283 0 0.5 0.29421150971207138 0 0.47556093647901088 0.30733800586058863 0 0.5 0.32170950174749302 0 0.5 0.29421150971207138 0 0.48138518434246891 0.28130646820503019 0 0.47556093647901088 0.30733800586058863 0 0.48138518434246891 0.28130646820503019 0 0.47556093647901088 0.30733800586058863 0 0.46192346945889701 0.28817835066990299 0 0.47556093647901088 0.30733800586058863 0 0.45214514511688908 0.30370412902975941 0 0.45421880844117613 0.32339126307769928 0 0.47556093647901088 0.30733800586058863 0 0.46192346945889701 0.28817835066990299 0 0.45214514511688908 0.30370412902975941 0 0.46192346945889701 0.28817835066990299 0 0.44120727567718632 0.28746005308771089 0 0.45214514511688908 0.30370412902975941 0 0.45472874274978531 0.27586911806656422 0 0.46192346945889701 0.28817835066990299 0 0.44120727567718632 0.28746005308771089 0 0.42781523552817591 0.31215297245289481 0 0.44120727567718632 0.28746005308771089 0 0.45214514511688908 0.30370412902975941 0 0.42781523552817591 0.31215297245289481 0 0.45421880844117613 0.32339126307769928 0 0.43298436918619881 0.33903622913929549 0 0.42781523552817591 0.31215297245289481 0 0.45214514511688908 0.30370412902975941 0 0.45421880844117613 0.32339126307769928 0 0.42781523552817591 0.31215297245289481 0 0.45421880844117613 0.32339126307769928 0 0.45421880844117613 0.32339126307769928 0 0.45970761232660212 0.34692044601787542 0 0.43298436918619881 0.33903622913929549 0 0.45421880844117613 0.32339126307769928 0 0.48062238135417568 0.33462955370250519 0 0.45421880844117613 0.32339126307769928 0 0.48062238135417568 0.33462955370250519 0 0.45970761232660212 0.34692044601787542 0 0.47556093647901088 0.30733800586058863 0 0.45421880844117613 0.32339126307769928 0 0.48062238135417568 0.33462955370250519 0 0.48062238135417568 0.33462955370250519 0 0.5 0.32170950174749302 0 0.5 0.34920749378291471 0 0.47556093647901088 0.30733800586058863 0 0.48062238135417568 0.33462955370250519 0 0.5 0.32170950174749302 0 0.5 0.34920749378291471 0 0.48254603458521478 0.3522402998402685 0 0.5 0.37670548581833618 0 0.48062238135417568 0.33462955370250519 0 0.5 0.34920749378291471 0 0.48254603458521478 0.3522402998402685 0 0.48254603458521478 0.3522402998402685 0 0.46972057754862501 0.36630584452178799 0 0.45970761232660212 0.34692044601787542 0 0.48062238135417568 0.33462955370250519 0 0.48254603458521478 0.3522402998402685 0 0.45970761232660212 0.34692044601787542 0 0.48254603458521478 0.3522402998402685 0 0.46972057754862501 0.36630584452178799 0 0.5 0.37670548581833618 0 0.46972057754862501 0.36630584452178799 0 0.43815350284422228 0.36591948582569622 0 0.45848938469160699 0.38276388730883248 0 0.46972057754862501 0.36630584452178799 0 0.45970761232660212 0.34692044601787542 0 0.43815350284422228 0.36591948582569622 0 0.45970761232660212 0.34692044601787542 0 0.43815350284422228 0.36591948582569622 0 0.43298436918619881 0.33903622913929549 0 0.43815350284422228 0.36591948582569622 0 0.4167242930516859 0.35972934744593471 0 0.42344095457037051 0.38268701701273461 0 0.4167242930516859 0.35972934744593471 0 0.40101385701800268 0.38518895784325291 0 0.4167242930516859 0.35972934744593471 0 0.40181680918128981 0.35947395412181382 0 0.40101385701800268 0.38518895784325291 0 0.4167242930516859 0.35972934744593471 0 0.40869055031553031 0.33881917925707022 0 0.40181680918128981 0.35947395412181382 0 0.4167242930516859 0.35972934744593471 0 0.43298436918619881 0.33903622913929549 0 0.40869055031553031 0.33881917925707022 0 0.43815350284422228 0.36591948582569622 0 0.4167242930516859 0.35972934744593471 0 0.43298436918619881 0.33903622913929549 0 0.43815350284422228 0.36591948582569622 0 0.43298436918619881 0.33903622913929549 0 0.42781523552817591 0.31215297245289481 0 0.43298436918619881 0.33903622913929549 0 0.42781523552817591 0.31215297245289481 0 0.43298436918619881 0.33903622913929549 0 0.41357021602424721 0.32279281759874212 0 0.43298436918619881 0.33903622913929549 0 0.41357021602424721 0.32279281759874212 0 0.40869055031553031 0.33881917925707022 0 0.40869055031553031 0.33881917925707022 0 0.39369601167170543 0.33564153172070438 0 0.39209274976778918 0.34814598654190299 0 0.40869055031553031 0.33881917925707022 0 0.39369601167170543 0.33564153172070438 0 0.3956366020903157 0.32248231082130752 0 0.39369601167170543 0.33564153172070438 0 0.3956366020903157 0.32248231082130752 0 0.38362385659697051 0.32926172455430031 0 0.39369601167170543 0.33564153172070438 0 0.38635485741833753 0.33883185827426582 0 0.39209274976778918 0.34814598654190299 0 0.41357021602424721 0.32279281759874212 0 0.40869055031553031 0.33881917925707022 0 0.3956366020903157 0.32248231082130752 0 0.4027243230010164 0.30147339632314252 0 0.41357021602424721 0.32279281759874212 0 0.3956366020903157 0.32248231082130752 0 0.3956366020903157 0.32248231082130752 0 0.38754735899376969 0.31282171123814728 0 0.38479800915553353 0.32074741934569512 0 0.38754735899376969 0.31282171123814728 0 0.38479800915553353 0.32074741934569512 0 0.37917338616632867 0.3168755173424983 0 0.3956366020903157 0.32248231082130752 0 0.38479800915553353 0.32074741934569512 0 0.38362385659697051 0.32926172455430031 0 0.38479800915553353 0.32074741934569512 0 0.37832625022041982 0.32264150287239662 0 0.38362385659697051 0.32926172455430031 0 0.37577016905582622 0.32787937856968757 0 0.37832625022041982 0.32264150287239662 0 0.38362385659697051 0.32926172455430031 0 0.37577016905582622 0.32787937856968757 0 0.37506056064123422 0.32471797871916308 0 0.37832625022041982 0.32264150287239662 0 0.37368960646642962 0.31911015363466272 0 0.37506056064123422 0.32471797871916308 0 0.37832625022041982 0.32264150287239662 0 0.37695808612291098 0.31120865645681561 0 0.38754735899376969 0.31282171123814728 0 0.37917338616632867 0.3168755173424983 0 0.38479800915553353 0.32074741934569512 0 0.37832625022041982 0.32264150287239662 0 0.37917338616632867 0.3168755173424983 0 0.37368960646642962 0.31911015363466272 0 0.37832625022041982 0.32264150287239662 0 0.37917338616632867 0.3168755173424983 0 0.37499251130121058 0.31593455150060828 0 0.37368960646642962 0.31911015363466272 0 0.37917338616632867 0.3168755173424983 0 0.37499251130121058 0.31593455150060828 0 0.37695808612291098 0.31120865645681561 0 0.37917338616632867 0.3168755173424983 0 0.38635485741833753 0.33883185827426582 0 0.3795813787571668 0.3363772241379393 0 0.38278029029805521 0.34473282441648212 0 0.39369601167170543 0.33564153172070438 0 0.38635485741833753 0.33883185827426582 0 0.38362385659697051 0.32926172455430031 0 0.38635485741833753 0.33883185827426582 0 0.38362385659697051 0.32926172455430031 0 0.3795813787571668 0.3363772241379393 0 0.37577016905582622 0.32787937856968757 0 0.38362385659697051 0.32926172455430031 0 0.37868435463470768 0.3315773541462857 0 0.38362385659697051 0.32926172455430031 0 0.37868435463470768 0.3315773541462857 0 0.3795813787571668 0.3363772241379393 0 0.37577016905582622 0.32787937856968757 0 0.37868435463470768 0.3315773541462857 0 0.375263113682131 0.33313320718557798 0 0.37868435463470768 0.3315773541462857 0 0.375263113682131 0.33313320718557798 0 0.3795813787571668 0.3363772241379393 0 0.37369311900952262 0.33836265764115908 0 0.3795813787571668 0.3363772241379393 0 0.37670219357667811 0.34177383067972761 0 0.3795813787571668 0.3363772241379393 0 0.37670219357667811 0.34177383067972761 0 0.38278029029805521 0.34473282441648212 0 0.37369311900952262 0.33836265764115908 0 0.375263113682131 0.33313320718557798 0 0.3795813787571668 0.3363772241379393 0 0.3809821990389497 0.35490418517770578 0 0.39056259575344082 0.36548629952090861 0 0.39209274976778918 0.34814598654190299 0 0.37486749369974542 0.34694596905823039 0 0.37670219357667811 0.34177383067972761 0 0.38278029029805521 0.34473282441648212 0 0.37486749369974542 0.34694596905823039 0 0.38278029029805521 0.34473282441648212 0 0.3809821990389497 0.35490418517770578 0 0.38278029029805521 0.34473282441648212 0 0.3809821990389497 0.35490418517770578 0 0.39209274976778918 0.34814598654190299 0 0.38635485741833753 0.33883185827426582 0 0.38278029029805521 0.34473282441648212 0 0.39209274976778918 0.34814598654190299 0 0.37228166628853332 0.35471301169251829 0 0.37486749369974542 0.34694596905823039 0 0.3809821990389497 0.35490418517770578 0 0.37414389550204002 0.36898578533419818 0 0.3809821990389497 0.35490418517770578 0 0.39056259575344082 0.36548629952090861 0 0.37414389550204002 0.36898578533419818 0 0.39056259575344082 0.36548629952090861 0 0.40101385701800268 0.38518895784325291 0 0.37414389550204002 0.36898578533419818 0 0.37228166628853332 0.35471301169251829 0 0.3809821990389497 0.35490418517770578 0 0.39056259575344082 0.36548629952090861 0 0.40181680918128981 0.35947395412181382 0 0.40101385701800268 0.38518895784325291 0 0.39056259575344082 0.36548629952090861 0 0.40181680918128981 0.35947395412181382 0 0.39209274976778918 0.34814598654190299 0 0.40869055031553031 0.33881917925707022 0 0.40181680918128981 0.35947395412181382 0 0.39209274976778918 0.34814598654190299 0 0.40101385701800268 0.38518895784325291 0 0.38530342098431941 0.41064856824057122 0 0.40101385701800268 0.38518895784325291 0 0.38530342098431941 0.41064856824057122 0 0.41521715527738928 0.40390661881175682 0 0.3736470799201031 0.39378130610698531 0 0.37414389550204002 0.36898578533419818 0 0.40101385701800268 0.38518895784325291 0 0.3736470799201031 0.39378130610698531 0 0.40101385701800268 0.38518895784325291 0 0.38530342098431941 0.41064856824057122 0 0.36959298495063608 0.43610817863788948 0 0.38530342098431941 0.41064856824057122 0 0.36959298495063608 0.43610817863788948 0 0.38530342098431941 0.41064856824057122 0 0.3889231515195431 0.43141286456833011 0 0.3889231515195431 0.43141286456833011 0 0.40362265567455102 0.42304679086704539 0 0.39942544658573009 0.43872588670818857 0 0.40362265567455102 0.42304679086704539 0 0.41248490446316177 0.43293377153942381 0 0.39942544658573009 0.43872588670818857 0 0.38530342098431941 0.41064856824057122 0 0.3889231515195431 0.43141286456833011 0 0.40362265567455102 0.42304679086704539 0 0.38530342098431941 0.41064856824057122 0 0.40362265567455102 0.42304679086704539 0 0.41521715527738928 0.40390661881175682 0 0.40362265567455102 0.42304679086704539 0 0.42233359500988371 0.42307221464191669 0 0.41521715527738928 0.40390661881175682 0 0.40362265567455102 0.42304679086704539 0 0.41248490446316177 0.43293377153942381 0 0.42233359500988371 0.42307221464191669 0 0.41248490446316177 0.43293377153942381 0 0.42233359500988371 0.42307221464191669 0 0.42326813014219627 0.43909650749986368 0 0.42233359500988371 0.42307221464191669 0 0.43681876433844857 0.43497208046478802 0 0.42326813014219627 0.43909650749986368 0 0.42233359500988371 0.42307221464191669 0 0.43681876433844857 0.43497208046478802 0 0.43655617137350622 0.42038510460191503 0 0.42233359500988371 0.42307221464191669 0 0.42830887421762198 0.41018013153495869 0 0.41521715527738928 0.40390661881175682 0 0.42233359500988371 0.42307221464191669 0 0.42830887421762198 0.41018013153495869 0 0.43655617137350622 0.42038510460191503 0 0.42830887421762198 0.41018013153495869 0 0.43655617137350622 0.42038510460191503 0 0.439625884597032 0.40642404903869822 0 0.42978568865087441 0.39901034440009059 0 0.42344095457037051 0.38268701701273461 0 0.4433226365022459 0.39280274251209668 0 0.42978568865087441 0.39901034440009059 0 0.41521715527738928 0.40390661881175682 0 0.42344095457037051 0.38268701701273461 0 0.42830887421762198 0.41018013153495869 0 0.42978568865087441 0.39901034440009059 0 0.439625884597032 0.40642404903869822 0 0.42830887421762198 0.41018013153495869 0 0.42978568865087441 0.39901034440009059 0 0.41521715527738928 0.40390661881175682 0 0.4167242930516859 0.35972934744593471 0 0.40101385701800268 0.38518895784325291 0 0.42344095457037051 0.38268701701273461 0 0.40101385701800268 0.38518895784325291 0 0.41521715527738928 0.40390661881175682 0 0.42344095457037051 0.38268701701273461 0 0.43815350284422228 0.36591948582569622 0 0.42344095457037051 0.38268701701273461 0 0.4433226365022459 0.39280274251209668 0 0.43815350284422228 0.36591948582569622 0 0.4433226365022459 0.39280274251209668 0 0.43815350284422228 0.36591948582569622 0 0.4433226365022459 0.39280274251209668 0 0.45848938469160699 0.38276388730883248 0 0.4433226365022459 0.39280274251209668 0 0.4587292321942566 0.40377894109977869 0 0.44849177016026981 0.41968599919849731 0 0.4433226365022459 0.39280274251209668 0 0.44849177016026981 0.41968599919849731 0 0.42978568865087441 0.39901034440009059 0 0.4433226365022459 0.39280274251209668 0 0.439625884597032 0.40642404903869822 0 0.4433226365022459 0.39280274251209668 0 0.4587292321942566 0.40377894109977869 0 0.45848938469160699 0.38276388730883248 0 0.4587292321942566 0.40377894109977869 0 0.45848938469160699 0.38276388730883248 0 0.47720201034463561 0.39055994944820821 0 0.46972057754862501 0.36630584452178799 0 0.45848938469160699 0.38276388730883248 0 0.47720201034463561 0.39055994944820821 0 0.46972057754862501 0.36630584452178799 0 0.47720201034463561 0.39055994944820821 0 0.5 0.37670548581833618 0 0.47720201034463561 0.39055994944820821 0 0.5 0.40420347785375749 0 0.47329291580914951 0.41490179660840648 0 0.4587292321942566 0.40377894109977869 0 0.47720201034463561 0.39055994944820821 0 0.47329291580914951 0.41490179660840648 0 0.47720201034463561 0.39055994944820821 0 0.5 0.40420347785375749 0 0.5 0.37670548581833618 0 0.48546521128148462 0.42572005307568972 0 0.49999999999999828 0.43170146988917901 0 0.48502495584706629 0.44181750450007778 0 0.49999999999999828 0.43170146988917901 0 0.48502495584706629 0.44181750450007778 0 0.5 0.40420347785375749 0 0.48546521128148462 0.42572005307568972 0 0.47329291580914951 0.41490179660840648 0 0.5 0.40420347785375749 0 0.48546521128148462 0.42572005307568972 0 0.49999999999999828 0.43170146988917901 0 0.48546521128148462 0.42572005307568972 0 0.47462076711180717 0.43403653248997731 0 0.48502495584706629 0.44181750450007778 0 0.47329291580914951 0.41490179660840648 0 0.47462076711180717 0.43403653248997731 0 0.45927084092720188 0.43580976915473651 0 0.48546521128148462 0.42572005307568972 0 0.47329291580914951 0.41490179660840648 0 0.47462076711180717 0.43403653248997731 0 0.45927084092720188 0.43580976915473651 0 0.44849177016026981 0.41968599919849731 0 0.47329291580914951 0.41490179660840648 0 0.45927084092720188 0.43580976915473651 0 0.44849177016026981 0.41968599919849731 0 0.45927084092720188 0.43580976915473651 0 0.44849177016026981 0.41968599919849731 0 0.45165089640657707 0.43611575462809582 0 0.4587292321942566 0.40377894109977869 0 0.47329291580914951 0.41490179660840648 0 0.44849177016026981 0.41968599919849731 0 0.4433226365022459 0.39280274251209668 0 0.44849177016026981 0.41968599919849731 0 0.439625884597032 0.40642404903869822 0 0.43655617137350622 0.42038510460191503 0 0.44849177016026981 0.41968599919849731 0 0.439625884597032 0.40642404903869822 0 0.44849177016026981 0.41968599919849731 0 0.439625884597032 0.40642404903869822 0 0.44849177016026981 0.41968599919849731 0 0.45165089640657707 0.43611575462809582 0 0.44386952542921521 0.4295111469185629 0 0.44849177016026981 0.41968599919849731 0 0.45165089640657707 0.43611575462809582 0 0.45165089640657707 0.43611575462809582 0 0.44386952542921521 0.4295111469185629 0 0.44519082659473158 0.43782150968735878 0 0.43655617137350622 0.42038510460191503 0 0.44849177016026981 0.41968599919849731 0 0.44386952542921521 0.4295111469185629 0 0.43681876433844857 0.43497208046478802 0 0.43655617137350622 0.42038510460191503 0 0.44386952542921521 0.4295111469185629 0 0.43681876433844857 0.43497208046478802 0 0.44386952542921521 0.4295111469185629 0 0.44519082659473158 0.43782150968735878 0 0.43681876433844857 0.43497208046478802 0 0.44519082659473158 0.43782150968735878 0 0.44362096681603608 0.44566090358066651 0 0.43681876433844857 0.43497208046478802 0 0.44362096681603608 0.44566090358066651 0 0.43343701099378978 0.44857281610427868 0 0.44362096681603608 0.44566090358066651 0 0.44110505044236059 0.45564825146568327 0 0.43343701099378978 0.44857281610427868 0 0.44362096681603608 0.44566090358066651 0 0.45255374853073171 0.45216262504332899 0 0.45221828903371142 0.44335246171580328 0 0.44362096681603608 0.44566090358066651 0 0.45255374853073171 0.45216262504332899 0 0.44110505044236059 0.45564825146568327 0 0.44519082659473158 0.43782150968735878 0 0.44362096681603608 0.44566090358066651 0 0.45221828903371142 0.44335246171580328 0 0.45165089640657707 0.43611575462809582 0 0.44519082659473158 0.43782150968735878 0 0.45221828903371142 0.44335246171580328 0 0.45255374853073171 0.45216262504332899 0 0.44518446721829791 0.46873079822848901 0 0.44110505044236059 0.45564825146568327 0 0.44518446721829791 0.46873079822848901 0 0.44110505044236059 0.45564825146568327 0 0.43072905865294731 0.46311411437165317 0 0.47284597636140308 0.45611600571247141 0 0.46302896313844299 0.47272331085799019 0 0.45255374853073171 0.45216262504332899 0 0.44518446721829791 0.46873079822848901 0 0.47004991169413368 0.45193353911097589 0 0.47004991169413368 0.45193353911097589 0 0.47284597636140308 0.45611600571247141 0 0.46302896313844299 0.47272331085799019 0 0.44518446721829791 0.46873079822848901 0 0.47004991169413368 0.45193353911097589 0 0.46302896313844299 0.47272331085799019 0 0.44518446721829791 0.46873079822848901 0 0.47004991169413368 0.45193353911097589 0 0.45927084092720188 0.43580976915473651 0 0.47004991169413368 0.45193353911097589 0 0.45927084092720188 0.43580976915473651 0 0.45930684530103161 0.44617181272829648 0 0.47004991169413368 0.45193353911097589 0 0.47462076711180717 0.43403653248997731 0 0.45927084092720188 0.43580976915473651 0 0.47004991169413368 0.45193353911097589 0 0.45255374853073171 0.45216262504332899 0 0.45930684530103161 0.44617181272829648 0 0.47004991169413368 0.45193353911097589 0 0.45927084092720188 0.43580976915473651 0 0.45221828903371142 0.44335246171580328 0 0.45930684530103161 0.44617181272829648 0 0.45927084092720188 0.43580976915473651 0 0.45165089640657707 0.43611575462809582 0 0.45221828903371142 0.44335246171580328 0 0.45255374853073171 0.45216262504332899 0 0.45221828903371142 0.44335246171580328 0 0.45930684530103161 0.44617181272829648 0 0.47462076711180717 0.43403653248997731 0 0.47004991169413368 0.45193353911097589 0 0.48502495584706629 0.44181750450007778 0 0.48189680466807888 0.45106209462173341 0 0.47450081081676521 0.45331654521044668 0 0.48502495584706629 0.44181750450007778 0 0.47004991169413368 0.45193353911097589 0 0.48502495584706629 0.44181750450007778 0 0.47004991169413368 0.45193353911097589 0 0.47450081081676521 0.45331654521044668 0 0.48502495584706629 0.44181750450007778 0 0.47284597636140308 0.45611600571247141 0 0.48050552008400071 0.46757346096286262 0 0.46302896313844299 0.47272331085799019 0 0.47004991169413368 0.45193353911097589 0 0.47284597636140308 0.45611600571247141 0 0.47004991169413368 0.45193353911097589 0 0.47450081081676521 0.45331654521044668 0 0.47284597636140308 0.45611600571247141 0 0.47450081081676521 0.45331654521044668 0 0.47284597636140308 0.45611600571247141 0 0.47951191807974908 0.45654698881850991 0 0.47450081081676521 0.45331654521044668 0 0.47284597636140308 0.45611600571247141 0 0.47284597636140308 0.45611600571247141 0 0.48050552008400071 0.46757346096286262 0 0.47284597636140308 0.45611600571247141 0 0.48050552008400071 0.46757346096286262 0 0.47951191807974908 0.45654698881850991 0 0.48189680466807888 0.45106209462173341 0 0.47951191807974908 0.45654698881850991 0 0.4878104784684959 0.4546668375850359 0 0.48050552008400071 0.46757346096286262 0 0.47951191807974908 0.45654698881850991 0 0.4878104784684959 0.4546668375850359 0 0.48189680466807888 0.45106209462173341 0 0.47450081081676521 0.45331654521044668 0 0.47951191807974908 0.45654698881850991 0 0.48050552008400071 0.46757346096286262 0 0.4878104784684959 0.4546668375850359 0 0.49999999999999928 0.46182898591187349 0 0.48050552008400071 0.46757346096286262 0 0.49999999999999928 0.46182898591187349 0 0.49999999999999828 0.43170146988917901 0 0.4878104784684959 0.4546668375850359 0 0.49999999999999928 0.46182898591187349 0 0.49999999999999828 0.43170146988917901 0 0.4878104784684959 0.4546668375850359 0 0.48502495584706629 0.44181750450007778 0 0.48189680466807888 0.45106209462173341 0 0.4878104784684959 0.4546668375850359 0 0.48502495584706629 0.44181750450007778 0 0.49999999999999928 0.46182898591187349 0 0.5 0.5 0 0.49753071700976492 0.4930404390193398 0 0.5 0.5 0 0.47501141284236448 0.48698608464618232 0 0.44690499747156931 0.4999999999999995 0 0.5 0.5 0 0.49753071700976492 0.4930404390193398 0 0.47501141284236448 0.48698608464618232 0 0.49753071700976492 0.4930404390193398 0 0.48901811854688337 0.4803069499911008 0 0.47501141284236448 0.48698608464618232 0 0.49753071700976492 0.4930404390193398 0 0.48901811854688337 0.4803069499911008 0 0.48050552008400071 0.46757346096286262 0 0.49999999999999928 0.46182898591187349 0 0.48901811854688337 0.4803069499911008 0 0.49999999999999928 0.46182898591187349 0 0.49753071700976492 0.4930404390193398 0 0.48901811854688337 0.4803069499911008 0 0.48050552008400071 0.46757346096286262 0 0.48901811854688337 0.4803069499911008 0 0.48050552008400071 0.46757346096286262 0 0.46302896313844299 0.47272331085799019 0 0.48901811854688337 0.4803069499911008 0 0.47689100365292297 0.47689745161453417 0 0.47501141284236448 0.48698608464618232 0 0.48050552008400071 0.46757346096286262 0 0.47689100365292297 0.47689745161453417 0 0.46302896313844299 0.47272331085799019 0 0.48050552008400071 0.46757346096286262 0 0.48901811854688337 0.4803069499911008 0 0.47689100365292297 0.47689745161453417 0 0.47689100365292297 0.47689745161453417 0 0.47501141284236448 0.48698608464618232 0 0.46302896313844299 0.47272331085799019 0 0.47501141284236448 0.48698608464618232 0 0.45496698030500621 0.48636165542899479 0 0.44690499747156931 0.4999999999999995 0 0.47501141284236448 0.48698608464618232 0 0.45496698030500621 0.48636165542899479 0 0.46302896313844299 0.47272331085799019 0 0.45496698030500621 0.48636165542899479 0 0.46302896313844299 0.47272331085799019 0 0.46302896313844299 0.47272331085799019 0 0.43620850627812668 0.48062654530969717 0 0.44518446721829791 0.46873079822848901 0 0.46302896313844299 0.47272331085799019 0 0.43620850627812668 0.48062654530969717 0 0.45496698030500621 0.48636165542899479 0 0.46302896313844299 0.47272331085799019 0 0.43620850627812668 0.48062654530969717 0 0.45496698030500621 0.48636165542899479 0 0.44690499747156931 0.4999999999999995 0 0.43620850627812668 0.48062654530969717 0 0.45496698030500621 0.48636165542899479 0 0.44690499747156931 0.4999999999999995 0 0.42031902274246069 0.48552805734600057 0 0.41743852268843429 0.5 0 0.43620850627812668 0.48062654530969717 0 0.44690499747156931 0.4999999999999995 0 0.41743852268843429 0.5 0 0.43620850627812668 0.48062654530969717 0 0.42031902274246069 0.48552805734600057 0 0.41743852268843429 0.5 0 0.40134209412993838 0.48520307466421098 0 0.42031902274246069 0.48552805734600057 0 0.40973563488985532 0.47579104778557152 0 0.40134209412993838 0.48520307466421098 0 0.42031902274246069 0.48552805734600057 0 0.40973563488985532 0.47579104778557152 0 0.41789473538963601 0.46705380048502582 0 0.44518446721829791 0.46873079822848901 0 0.42031902274246069 0.48552805734600057 0 0.43072905865294731 0.46311411437165317 0 0.44518446721829791 0.46873079822848901 0 0.42031902274246069 0.48552805734600057 0 0.43620850627812668 0.48062654530969717 0 0.44518446721829791 0.46873079822848901 0 0.42031902274246069 0.48552805734600057 0 0.42031902274246069 0.48552805734600057 0 0.43072905865294731 0.46311411437165317 0 0.41789473538963601 0.46705380048502582 0 0.44110505044236059 0.45564825146568327 0 0.43072905865294731 0.46311411437165317 0 0.43343701099378978 0.44857281610427868 0 0.43072905865294731 0.46311411437165317 0 0.43343701099378978 0.44857281610427868 0 0.42053980660522761 0.45341513910658388 0 0.43072905865294731 0.46311411437165317 0 0.41789473538963601 0.46705380048502582 0 0.42053980660522761 0.45341513910658388 0 0.43681876433844857 0.43497208046478802 0 0.43343701099378978 0.44857281610427868 0 0.42326813014219627 0.43909650749986368 0 0.43343701099378978 0.44857281610427868 0 0.42326813014219627 0.43909650749986368 0 0.42053980660522761 0.45341513910658388 0 0.41248490446316177 0.43293377153942381 0 0.42326813014219627 0.43909650749986368 0 0.41215324011006321 0.44426916471351768 0 0.42326813014219627 0.43909650749986368 0 0.41215324011006321 0.44426916471351768 0 0.42053980660522761 0.45341513910658388 0 0.41215324011006321 0.44426916471351768 0 0.42053980660522761 0.45341513910658388 0 0.40575666434273311 0.45838443146516472 0 0.41248490446316177 0.43293377153942381 0 0.41215324011006321 0.44426916471351768 0 0.39942544658573009 0.43872588670818857 0 0.40973563488985532 0.47579104778557152 0 0.41789473538963601 0.46705380048502582 0 0.40575666434273311 0.45838443146516472 0 0.41789473538963601 0.46705380048502582 0 0.42053980660522761 0.45341513910658388 0 0.40575666434273311 0.45838443146516472 0 0.40973563488985532 0.47579104778557152 0 0.40575666434273311 0.45838443146516472 0 0.39457326129307041 0.46924519202038539 0 0.40575666434273311 0.45838443146516472 0 0.38748492612950952 0.44892285829301931 0 0.39457326129307041 0.46924519202038539 0 0.40575666434273311 0.45838443146516472 0 0.39942544658573009 0.43872588670818857 0 0.38748492612950952 0.44892285829301931 0 0.3889231515195431 0.43141286456833011 0 0.39942544658573009 0.43872588670818857 0 0.38748492612950952 0.44892285829301931 0 0.41215324011006321 0.44426916471351768 0 0.40575666434273311 0.45838443146516472 0 0.39942544658573009 0.43872588670818857 0 0.36980735363827261 0.46050290225189661 0 0.36959298495063608 0.43610817863788948 0 0.38748492612950952 0.44892285829301931 0 0.36959298495063608 0.43610817863788948 0 0.3889231515195431 0.43141286456833011 0 0.38748492612950952 0.44892285829301931 0 0.36980735363827261 0.46050290225189661 0 0.38748492612950952 0.44892285829301931 0 0.39457326129307041 0.46924519202038539 0 0.36980735363827261 0.46050290225189661 0 0.37801407526051067 0.48065415083330842 0 0.39457326129307041 0.46924519202038539 0 0.37801407526051067 0.48065415083330842 0 0.38797204790529932 0.5 0 0.40134209412993838 0.48520307466421098 0 0.41743852268843429 0.5 0 0.38797204790529932 0.5 0 0.40134209412993838 0.48520307466421098 0 0.40973563488985532 0.47579104778557152 0 0.40134209412993838 0.48520307466421098 0 0.39457326129307041 0.46924519202038539 0 0.37801407526051067 0.48065415083330842 0 0.40134209412993838 0.48520307466421098 0 0.39457326129307041 0.46924519202038539 0 0.33471388977496319 0.083869725553476451 0 0.32003772732572838 0.080925826065863432 0 0.34163206045391592 0.099703108374672819 0 0.32003772732572838 0.080925826065863432 0 0.34163206045391592 0.099703108374672819 0 0.33471388977496319 0.083869725553476451 0 0.34163206045391592 0.099703108374672819 0 0.35085433501378249 0.086695181415402722 0 0.33471388977496319 0.083869725553476451 0 0.34209731100959018 0.06531632876058778 0 0.3490795063897344 0.076610282135673974 0 0.33471388977496319 0.083869725553476451 0 0.34209731100959018 0.06531632876058778 0 0.32721969837032222 0.069259436753723466 0 0.33471388977496319 0.083869725553476451 0 0.32721969837032222 0.069259436753723466 0 0.32003772732572838 0.080925826065863432 0 0.31518448171420999 0.065085558788002928 0 0.32721969837032222 0.069259436753723466 0 0.32003772732572838 0.080925826065863432 0 0.32003772732572838 0.080925826065863432 0 0.31657863646219547 0.093324099257994786 0 0.34163206045391592 0.099703108374672819 0 0.32003772732572838 0.080925826065863432 0 0.31657863646219547 0.093324099257994786 0 0.30227411453462139 0.089652133027170247 0 0.33471388977496319 0.083869725553476451 0 0.32003772732572838 0.080925826065863432 0 0.31657863646219547 0.093324099257994786 0 0.32025759602694659 0.1047776340902011 0 0.34163206045391592 0.099703108374672819 0 0.31657863646219547 0.093324099257994786 0 0.32025759602694659 0.1047776340902011 0 0.30640852481201453 0.1024735992044304 0 0.32025759602694659 0.1047776340902011 0 0.31114536757858358 0.11742006929579971 0 0.30640852481201453 0.1024735992044304 0 0.32606950933900308 0.1158177097477945 0 0.31114536757858358 0.11742006929579971 0 0.3195478300457561 0.1332621056988223 0 0.32025759602694659 0.1047776340902011 0 0.32606950933900308 0.1158177097477945 0 0.31114536757858358 0.11742006929579971 0 0.33761965874988609 0.1186889285033586 0 0.34163206045391592 0.099703108374672819 0 0.34956654336434939 0.1234914401014125 0 0.32606950933900308 0.1158177097477945 0 0.33761965874988609 0.1186889285033586 0 0.34163206045391592 0.099703108374672819 0 0.32606950933900308 0.1158177097477945 0 0.33761965874988609 0.1186889285033586 0 0.33436770153514289 0.13112975471366969 0 0.33761965874988609 0.1186889285033586 0 0.34956654336434939 0.1234914401014125 0 0.33436770153514289 0.13112975471366969 0 0.32025759602694659 0.1047776340902011 0 0.32606950933900308 0.1158177097477945 0 0.34163206045391592 0.099703108374672819 0 0.34163206045391592 0.099703108374672819 0 0.35755874922647762 0.098360434014750309 0 0.36322639358210312 0.11848039068348271 0 0.34163206045391592 0.099703108374672819 0 0.36322639358210312 0.11848039068348271 0 0.34163206045391592 0.099703108374672819 0 0.35755874922647762 0.098360434014750309 0 0.35085433501378249 0.086695181415402722 0 0.34163206045391592 0.099703108374672819 0 0.34956654336434939 0.1234914401014125 0 0.36322639358210312 0.11848039068348271 0 0.36322639358210312 0.11848039068348271 0 0.37045299287494049 0.09679375479102828 0 0.38005682511468147 0.12140739343396729 0 0.35755874922647762 0.098360434014750309 0 0.36322639358210312 0.11848039068348271 0 0.37045299287494049 0.09679375479102828 0 0.35755874922647762 0.098360434014750309 0 0.37045299287494049 0.09679375479102828 0 0.35979627253246887 0.087956112087811941 0 0.37045299287494049 0.09679375479102828 0 0.36986657419494789 0.075759843690150083 0 0.37682589963749002 0.081332762740894418 0 0.37045299287494049 0.09679375479102828 0 0.35979627253246887 0.087956112087811941 0 0.36084916063519962 0.072180116148089279 0 0.37045299287494049 0.09679375479102828 0 0.36084916063519962 0.072180116148089279 0 0.36986657419494789 0.075759843690150083 0 0.37045299287494049 0.09679375479102828 0 0.36084916063519962 0.072180116148089279 0 0.35755874922647762 0.098360434014750309 0 0.35979627253246887 0.087956112087811941 0 0.35085433501378249 0.086695181415402722 0 0.35979627253246887 0.087956112087811941 0 0.35560274156159061 0.081403828627082772 0 0.36084916063519962 0.072180116148089279 0 0.33471388977496319 0.083869725553476451 0 0.35085433501378249 0.086695181415402722 0 0.3490795063897344 0.076610282135673974 0 0.35979627253246887 0.087956112087811941 0 0.35560274156159061 0.081403828627082772 0 0.35085433501378249 0.086695181415402722 0 0.35560274156159061 0.081403828627082772 0 0.35085433501378249 0.086695181415402722 0 0.3490795063897344 0.076610282135673974 0 0.34209731100959018 0.06531632876058778 0 0.3490795063897344 0.076610282135673974 0 0.36084916063519962 0.072180116148089279 0 0.36448270712015302 0.068442951443566186 0 0.36084916063519962 0.072180116148089279 0 0.35124532839545858 0.047566477505150237 0 0.35560274156159061 0.081403828627082772 0 0.3490795063897344 0.076610282135673974 0 0.36084916063519962 0.072180116148089279 0 0.36448270712015302 0.068442951443566186 0 0.36084916063519962 0.072180116148089279 0 0.36986657419494789 0.075759843690150083 0 0.36986657419494789 0.075759843690150083 0 0.37596532967213542 0.069868995675824025 0 0.37682589963749002 0.081332762740894418 0 0.36448270712015302 0.068442951443566186 0 0.36986657419494789 0.075759843690150083 0 0.37084641292541748 0.06878424193773866 0 0.36986657419494789 0.075759843690150083 0 0.37084641292541748 0.06878424193773866 0 0.37596532967213542 0.069868995675824025 0 0.36448270712015302 0.068442951443566186 0 0.37084641292541748 0.06878424193773866 0 0.37307104071443398 0.061065176941414383 0 0.37084641292541748 0.06878424193773866 0 0.37307104071443398 0.061065176941414383 0 0.37596532967213542 0.069868995675824025 0 0.36448270712015302 0.068442951443566186 0 0.37307104071443398 0.061065176941414383 0 0.37146335928247548 0.04052602251159599 0 0.36448270712015302 0.068442951443566186 0 0.37146335928247548 0.04052602251159599 0 0.35124532839545858 0.047566477505150237 0 0.36448270712015302 0.068442951443566186 0 0.37146335928247548 0.04052602251159599 0 0.37146335928247548 0.04052602251159599 0 0.35572529983931911 0.032753521421585163 0 0.36312657459820519 0.022962182453169309 0 0.37146335928247548 0.04052602251159599 0 0.35572529983931911 0.032753521421585163 0 0.35124532839545858 0.047566477505150237 0 0.35572529983931911 0.032753521421585163 0 0.35124532839545858 0.047566477505150237 0 0.3321968515854315 0.028027004478648001 0 0.36084916063519962 0.072180116148089279 0 0.35124532839545858 0.047566477505150237 0 0.34209731100959018 0.06531632876058778 0 0.36084916063519962 0.072180116148089279 0 0.35124532839545858 0.047566477505150237 0 0.36312657459820519 0.022962182453169309 0 0.35936362748920009 0.0091271431172253586 0 0.37844401144479839 0.012609093579625891 0 0.35936362748920009 0.0091271431172253586 0 0.37844401144479839 0.012609093579625891 0 0.36665723294200347 -0.001883505129568449 0 0.35936362748920009 0.0091271431172253586 0 0.36665723294200347 -0.001883505129568449 0 0.35531676971978082 -0.0033532784323768001 0 0.37146335928247548 0.04052602251159599 0 0.36312657459820519 0.022962182453169309 0 0.37844401144479839 0.012609093579625891 0 0.37146335928247548 0.04052602251159599 0 0.37844401144479839 0.012609093579625891 0 0.35572529983931911 0.032753521421585163 0 0.35063657493523293 0.0197951316358141 0 0.3321968515854315 0.028027004478648001 0 0.35572529983931911 0.032753521421585163 0 0.36312657459820519 0.022962182453169309 0 0.35063657493523293 0.0197951316358141 0 0.36312657459820519 0.022962182453169309 0 0.35063657493523293 0.0197951316358141 0 0.35936362748920009 0.0091271431172253586 0 0.35936362748920009 0.0091271431172253586 0 0.33689267375143878 0.0039255003288513873 0 0.35531676971978082 -0.0033532784323768001 0 0.35063657493523293 0.0197951316358141 0 0.35936362748920009 0.0091271431172253586 0 0.33689267375143878 0.0039255003288513873 0 0.33689267375143878 0.0039255003288513873 0 0.3321968515854315 0.028027004478648001 0 0.30352242257352219 0.0039185454548519476 0 0.35063657493523293 0.0197951316358141 0 0.33689267375143878 0.0039255003288513873 0 0.3321968515854315 0.028027004478648001 0 0.3321968515854315 0.028027004478648001 0 0.32406508202711942 0.05109974460068676 0 0.30086563814790429 0.035038583275740692 0 0.34209731100959018 0.06531632876058778 0 0.32721969837032222 0.069259436753723466 0 0.32406508202711942 0.05109974460068676 0 0.34209731100959018 0.06531632876058778 0 0.35124532839545858 0.047566477505150237 0 0.32406508202711942 0.05109974460068676 0 0.35124532839545858 0.047566477505150237 0 0.3321968515854315 0.028027004478648001 0 0.32406508202711942 0.05109974460068676 0 0.31518448171420999 0.065085558788002928 0 0.32721969837032222 0.069259436753723466 0 0.32406508202711942 0.05109974460068676 0 0.31518448171420999 0.065085558788002928 0 0.32406508202711942 0.05109974460068676 0 0.29882370077581188 0.062479238108283437 0 0.32406508202711942 0.05109974460068676 0 0.29882370077581188 0.062479238108283437 0 0.30086563814790429 0.035038583275740692 0 0.32406508202711942 0.05109974460068676 0 0.30086563814790429 0.035038583275740692 0 0.30086563814790429 0.035038583275740692 0 0.28350496565293731 0.043820562147367653 0 0.27766619426868899 0.018977421950794569 0 0.29882370077581188 0.062479238108283437 0 0.30086563814790429 0.035038583275740692 0 0.28350496565293731 0.043820562147367653 0 0.29882370077581188 0.062479238108283437 0 0.28350496565293731 0.043820562147367653 0 0.28339325744793759 0.061338593161917712 0 0.3321968515854315 0.028027004478648001 0 0.30086563814790429 0.035038583275740692 0 0.30352242257352219 0.0039185454548519476 0 0.30086563814790429 0.035038583275740692 0 0.27766619426868899 0.018977421950794569 0 0.30086563814790429 0.035038583275740692 0 0.30352242257352219 0.0039185454548519476 0 0.27766619426868899 0.018977421950794569 0 0.30352242257352219 0.0039185454548519476 0 0.27766619426868899 0.018977421950794569 0 0.27708695819087842 -0.0025378708656911609 0 0.27766619426868899 0.018977421950794569 0 0.25446675038947358 0.0029162606258486688 0 0.27766619426868899 0.018977421950794569 0 0.26047117107291767 -0.0019720443344692288 0 0.27708695819087842 -0.0025378708656911609 0 0.27766619426868899 0.018977421950794569 0 0.2600935707136679 0.019574361616358959 0 0.26464981823601458 0.038183209123269009 0 0.2600935707136679 0.019574361616358959 0 0.26464981823601458 0.038183209123269009 0 0.25044211127373811 0.032849993626191502 0 0.27766619426868899 0.018977421950794569 0 0.2600935707136679 0.019574361616358959 0 0.25446675038947358 0.0029162606258486688 0 0.27766619426868899 0.018977421950794569 0 0.25446675038947358 0.0029162606258486688 0 0.26047117107291767 -0.0019720443344692288 0 0.25446675038947358 0.0029162606258486688 0 0.26047117107291767 -0.0019720443344692288 0 0.28339325744793759 0.061338593161917712 0 0.2699795556074106 0.054659435659755229 0 0.26514968559830832 0.069915803624621298 0 0.28350496565293731 0.043820562147367653 0 0.28339325744793759 0.061338593161917712 0 0.2699795556074106 0.054659435659755229 0 0.28350496565293731 0.043820562147367653 0 0.27766619426868899 0.018977421950794569 0 0.26464981823601458 0.038183209123269009 0 0.28350496565293731 0.043820562147367653 0 0.2699795556074106 0.054659435659755229 0 0.26464981823601458 0.038183209123269009 0 0.26464981823601458 0.038183209123269009 0 0.25174039047255609 0.044464402284776217 0 0.2585751734657834 0.052327775232976027 0 0.26464981823601458 0.038183209123269009 0 0.25044211127373811 0.032849993626191502 0 0.25174039047255609 0.044464402284776217 0 0.25174039047255609 0.044464402284776217 0 0.25102243244437311 0.053297338652025752 0 0.2585751734657834 0.052327775232976027 0 0.2699795556074106 0.054659435659755229 0 0.26464981823601458 0.038183209123269009 0 0.2585751734657834 0.052327775232976027 0 0.2699795556074106 0.054659435659755229 0 0.2585751734657834 0.052327775232976027 0 0.26000268679747079 0.061003988239662958 0 0.2699795556074106 0.054659435659755229 0 0.26000268679747079 0.061003988239662958 0 0.26514968559830832 0.069915803624621298 0 0.2585751734657834 0.052327775232976027 0 0.26000268679747079 0.061003988239662958 0 0.2530174900015254 0.0600809219264858 0 0.25102243244437311 0.053297338652025752 0 0.2585751734657834 0.052327775232976027 0 0.2530174900015254 0.0600809219264858 0 0.24751669685985911 0.059618880130872708 0 0.25102243244437311 0.053297338652025752 0 0.2530174900015254 0.0600809219264858 0 0.24853219730195361 0.063845178725116872 0 0.2530174900015254 0.0600809219264858 0 0.25274476311700622 0.067427493409812952 0 0.2530174900015254 0.0600809219264858 0 0.25274476311700622 0.067427493409812952 0 0.26000268679747079 0.061003988239662958 0 0.2530174900015254 0.0600809219264858 0 0.25274476311700622 0.067427493409812952 0 0.25274476311700622 0.067427493409812952 0 0.25243039498113262 0.075895774732197205 0 0.24842415088314279 0.069033451464499671 0 0.25274476311700622 0.067427493409812952 0 0.25243039498113262 0.075895774732197205 0 0.25274476311700622 0.067427493409812952 0 0.25243039498113262 0.075895774732197205 0 0.26514968559830832 0.069915803624621298 0 0.25243039498113262 0.075895774732197205 0 0.26514968559830832 0.069915803624621298 0 0.26417250328098718 0.085299079350852347 0 0.25243039498113262 0.075895774732197205 0 0.26514968559830832 0.069915803624621298 0 0.26000268679747079 0.061003988239662958 0 0.25274476311700622 0.067427493409812952 0 0.26514968559830832 0.069915803624621298 0 0.25274476311700622 0.067427493409812952 0 0.26514968559830832 0.069915803624621298 0 0.25243039498113262 0.075895774732197205 0 0.26417250328098718 0.085299079350852347 0 0.25158482098595109 0.098673396421397969 0 0.25243039498113262 0.075895774732197205 0 0.25158482098595109 0.098673396421397969 0 0.26417250328098718 0.085299079350852347 0 0.27563544099652842 0.091217529053328833 0 0.26597619666038957 0.098681263799979324 0 0.26417250328098718 0.085299079350852347 0 0.27658940398852799 0.081360569412953818 0 0.27563544099652842 0.091217529053328833 0 0.26514968559830832 0.069915803624621298 0 0.26417250328098718 0.085299079350852347 0 0.27658940398852799 0.081360569412953818 0 0.27658940398852799 0.081360569412953818 0 0.27563544099652842 0.091217529053328833 0 0.28742128170162778 0.087331448045782731 0 0.28339325744793759 0.061338593161917712 0 0.26514968559830832 0.069915803624621298 0 0.29259370646201821 0.075420814845242989 0 0.26514968559830832 0.069915803624621298 0 0.27658940398852799 0.081360569412953818 0 0.29259370646201821 0.075420814845242989 0 0.28339325744793759 0.061338593161917712 0 0.26514968559830832 0.069915803624621298 0 0.26514968559830832 0.069915803624621298 0 0.29259370646201821 0.075420814845242989 0 0.29882370077581188 0.062479238108283437 0 0.28339325744793759 0.061338593161917712 0 0.29259370646201821 0.075420814845242989 0 0.27658940398852799 0.081360569412953818 0 0.29259370646201821 0.075420814845242989 0 0.28742128170162778 0.087331448045782731 0 0.27563544099652842 0.091217529053328833 0 0.28742128170162778 0.087331448045782731 0 0.29001374252644291 0.099006193890217781 0 0.28742128170162778 0.087331448045782731 0 0.30227411453462139 0.089652133027170247 0 0.29001374252644291 0.099006193890217781 0 0.29259370646201821 0.075420814845242989 0 0.28742128170162778 0.087331448045782731 0 0.30227411453462139 0.089652133027170247 0 0.32003772732572838 0.080925826065863432 0 0.29259370646201821 0.075420814845242989 0 0.30227411453462139 0.089652133027170247 0 0.32003772732572838 0.080925826065863432 0 0.29259370646201821 0.075420814845242989 0 0.32003772732572838 0.080925826065863432 0 0.29882370077581188 0.062479238108283437 0 0.29259370646201821 0.075420814845242989 0 0.32003772732572838 0.080925826065863432 0 0.29882370077581188 0.062479238108283437 0 0.31518448171420999 0.065085558788002928 0 0.32003772732572838 0.080925826065863432 0 0.29882370077581188 0.062479238108283437 0 0.29818169174329712 0.11066146566519899 0 0.31114536757858358 0.11742006929579971 0 0.294250496481684 0.12267566802032639 0 0.31114536757858358 0.11742006929579971 0 0.294250496481684 0.12267566802032639 0 0.30313841955192899 0.13260249050964579 0 0.29818169174329712 0.11066146566519899 0 0.31114536757858358 0.11742006929579971 0 0.30640852481201453 0.1024735992044304 0 0.30227411453462139 0.089652133027170247 0 0.30640852481201453 0.1024735992044304 0 0.29001374252644291 0.099006193890217781 0 0.29818169174329712 0.11066146566519899 0 0.30640852481201453 0.1024735992044304 0 0.29001374252644291 0.099006193890217781 0 0.31657863646219547 0.093324099257994786 0 0.30227411453462139 0.089652133027170247 0 0.30640852481201453 0.1024735992044304 0 0.29818169174329712 0.11066146566519899 0 0.29001374252644291 0.099006193890217781 0 0.28729541733308872 0.1128284558108848 0 0.29001374252644291 0.099006193890217781 0 0.28729541733308872 0.1128284558108848 0 0.27577858748266387 0.1072301355245756 0 0.29818169174329712 0.11066146566519899 0 0.28729541733308872 0.1128284558108848 0 0.294250496481684 0.12267566802032639 0 0.28729541733308872 0.1128284558108848 0 0.294250496481684 0.12267566802032639 0 0.28067449336876182 0.1220521091494646 0 0.28067449336876182 0.1220521091494646 0 0.26956705708048567 0.1198361090660386 0 0.27577858748266387 0.1072301355245756 0 0.28729541733308872 0.1128284558108848 0 0.28067449336876182 0.1220521091494646 0 0.27577858748266387 0.1072301355245756 0 0.26956705708048567 0.1198361090660386 0 0.27577858748266387 0.1072301355245756 0 0.26270963055581759 0.11098617864974181 0 0.27563544099652842 0.091217529053328833 0 0.27577858748266387 0.1072301355245756 0 0.26597619666038957 0.098681263799979324 0 0.27563544099652842 0.091217529053328833 0 0.29001374252644291 0.099006193890217781 0 0.27577858748266387 0.1072301355245756 0 0.27577858748266387 0.1072301355245756 0 0.26597619666038957 0.098681263799979324 0 0.26270963055581759 0.11098617864974181 0 0.25158482098595109 0.098673396421397969 0 0.25094552198087999 0.11589449234768209 0 0.25158482098595109 0.098673396421397969 0 0.26270963055581759 0.11098617864974181 0 0.25094552198087999 0.11589449234768209 0 0.26417250328098718 0.085299079350852347 0 0.26597619666038957 0.098681263799979324 0 0.25158482098595109 0.098673396421397969 0 0.26597619666038957 0.098681263799979324 0 0.25158482098595109 0.098673396421397969 0 0.26270963055581759 0.11098617864974181 0 0.25158482098595109 0.098673396421397969 0 0.26270963055581759 0.11098617864974181 0 0.25094552198087999 0.11589449234768209 0 0.25030622297580962 0.13311558827396619 0 0.26022612795132161 0.12333036834530881 0 0.25094552198087999 0.11589449234768209 0 0.25030622297580962 0.13311558827396619 0 0.26956705708048567 0.1198361090660386 0 0.26022612795132161 0.12333036834530881 0 0.26270963055581759 0.11098617864974181 0 0.26022612795132161 0.12333036834530881 0 0.26270963055581759 0.11098617864974181 0 0.25094552198087999 0.11589449234768209 0 0.26956705708048567 0.1198361090660386 0 0.26022612795132161 0.12333036834530881 0 0.26675796828336718 0.1380571931171293 0 0.26022612795132161 0.12333036834530881 0 0.25030622297580962 0.13311558827396619 0 0.26675796828336718 0.1380571931171293 0 0.25030622297580962 0.13311558827396619 0 0.26675796828336718 0.1380571931171293 0 0.25030622297580962 0.13311558827396619 0 0.26675796828336718 0.1380571931171293 0 0.25638724149227848 0.14295410589973731 0 0.25004344172447263 0.14019424959050239 0 0.25030622297580962 0.13311558827396619 0 0.25638724149227848 0.14295410589973731 0 0.25004344172447263 0.14019424959050239 0 0.25030622297580962 0.13311558827396619 0 0.26675796828336718 0.1380571931171293 0 0.28320971359092417 0.1429987979602943 0 0.26675796828336718 0.1380571931171293 0 0.28666270206708028 0.1324408374186071 0 0.28320971359092417 0.1429987979602943 0 0.28067449336876182 0.1220521091494646 0 0.26956705708048567 0.1198361090660386 0 0.26675796828336718 0.1380571931171293 0 0.28067449336876182 0.1220521091494646 0 0.26675796828336718 0.1380571931171293 0 0.28666270206708028 0.1324408374186071 0 0.26675796828336718 0.1380571931171293 0 0.27436529468354132 0.15433220537778311 0 0.26010861073109098 0.15248373785575309 0 0.26675796828336718 0.1380571931171293 0 0.27436529468354132 0.15433220537778311 0 0.28320971359092417 0.1429987979602943 0 0.26675796828336718 0.1380571931171293 0 0.26010861073109098 0.15248373785575309 0 0.25638724149227848 0.14295410589973731 0 0.2496536413094039 0.15044712256699261 0 0.25004344172447263 0.14019424959050239 0 0.25638724149227848 0.14295410589973731 0 0.24653130607993951 0.16237692388552691 0 0.2496536413094039 0.15044712256699261 0 0.26010861073109098 0.15248373785575309 0 0.2496536413094039 0.15044712256699261 0 0.26010861073109098 0.15248373785575309 0 0.25638724149227848 0.14295410589973731 0 0.24653130607993951 0.16237692388552691 0 0.25292738168467233 0.17649485219682931 0 0.26638423851283249 0.16867758561061549 0 0.24653130607993951 0.16237692388552691 0 0.26010861073109098 0.15248373785575309 0 0.26638423851283249 0.16867758561061549 0 0.24528107816237801 0.1907036486386274 0 0.25292738168467233 0.17649485219682931 0 0.26633433714882182 0.18577592949096661 0 0.25292738168467233 0.17649485219682931 0 0.26633433714882182 0.18577592949096661 0 0.26638423851283249 0.16867758561061549 0 0.27723266788850742 0.181048228772968 0 0.26638423851283249 0.16867758561061549 0 0.28391425324491287 0.17071999404263091 0 0.26633433714882182 0.18577592949096661 0 0.27723266788850742 0.181048228772968 0 0.26638423851283249 0.16867758561061549 0 0.27436529468354132 0.15433220537778311 0 0.26010861073109098 0.15248373785575309 0 0.26638423851283249 0.16867758561061549 0 0.27436529468354132 0.15433220537778311 0 0.26638423851283249 0.16867758561061549 0 0.28391425324491287 0.17071999404263091 0 0.27436529468354132 0.15433220537778311 0 0.28391425324491287 0.17071999404263091 0 0.29097703849613438 0.15773848939083679 0 0.28391425324491287 0.17071999404263091 0 0.2931647794093819 0.16879209887591959 0 0.29097703849613438 0.15773848939083679 0 0.2931647794093819 0.16879209887591959 0 0.29097703849613438 0.15773848939083679 0 0.30040947706207388 0.16512632217721829 0 0.28391425324491287 0.17071999404263091 0 0.28743664533084129 0.187357279865842 0 0.29743995151898561 0.17866098634217961 0 0.27723266788850742 0.181048228772968 0 0.28391425324491287 0.17071999404263091 0 0.28743664533084129 0.187357279865842 0 0.28391425324491287 0.17071999404263091 0 0.2931647794093819 0.16879209887591959 0 0.29743995151898561 0.17866098634217961 0 0.28743664533084129 0.187357279865842 0 0.29743995151898561 0.17866098634217961 0 0.29971043857951379 0.19298806906372529 0 0.29743995151898561 0.17866098634217961 0 0.30929675685570829 0.1858318568065235 0 0.29971043857951379 0.19298806906372529 0 0.29743995151898561 0.17866098634217961 0 0.3101655001798202 0.17563615506282959 0 0.30040947706207388 0.16512632217721829 0 0.29743995151898561 0.17866098634217961 0 0.3101655001798202 0.17563615506282959 0 0.30929675685570829 0.1858318568065235 0 0.30040947706207388 0.16512632217721829 0 0.30453528129870422 0.15487579661148021 0 0.32848741365188411 0.1727716232507491 0 0.29097703849613438 0.15773848939083679 0 0.30040947706207388 0.16512632217721829 0 0.30453528129870422 0.15487579661148021 0 0.2931647794093819 0.16879209887591959 0 0.29743995151898561 0.17866098634217961 0 0.30040947706207388 0.16512632217721829 0 0.29097703849613438 0.15773848939083679 0 0.30453528129870422 0.15487579661148021 0 0.29618567382365713 0.14404403195872001 0 0.30453528129870422 0.15487579661148021 0 0.30873747279203018 0.14281046260302349 0 0.29618567382365713 0.14404403195872001 0 0.30453528129870422 0.15487579661148021 0 0.30873747279203018 0.14281046260302349 0 0.32007589174333823 0.14676000458717811 0 0.30873747279203018 0.14281046260302349 0 0.30313841955192899 0.13260249050964579 0 0.3195478300457561 0.1332621056988223 0 0.31114536757858358 0.11742006929579971 0 0.30313841955192899 0.13260249050964579 0 0.3195478300457561 0.1332621056988223 0 0.30873747279203018 0.14281046260302349 0 0.30313841955192899 0.13260249050964579 0 0.29618567382365713 0.14404403195872001 0 0.294250496481684 0.12267566802032639 0 0.30313841955192899 0.13260249050964579 0 0.28666270206708028 0.1324408374186071 0 0.30313841955192899 0.13260249050964579 0 0.28666270206708028 0.1324408374186071 0 0.29618567382365713 0.14404403195872001 0 0.294250496481684 0.12267566802032639 0 0.28067449336876182 0.1220521091494646 0 0.28666270206708028 0.1324408374186071 0 0.28666270206708028 0.1324408374186071 0 0.28320971359092417 0.1429987979602943 0 0.29618567382365713 0.14404403195872001 0 0.27436529468354132 0.15433220537778311 0 0.29097703849613438 0.15773848939083679 0 0.28320971359092417 0.1429987979602943 0 0.29097703849613438 0.15773848939083679 0 0.28320971359092417 0.1429987979602943 0 0.29618567382365713 0.14404403195872001 0 0.28119448123381058 0.25405304303149878 0 0.26221447651104962 0.2479993693513689 0 0.28440499104296979 0.23439140090611099 0 0.26221447651104962 0.2479993693513689 0 0.26853130556434218 0.23400660741274959 0 0.28440499104296979 0.23439140090611099 0 0.26221447651104962 0.2479993693513689 0 0.28440499104296979 0.23439140090611099 0 0.2457442494512444 0.24022391879071339 0 0.26221447651104962 0.2479993693513689 0 0.25511338863332461 0.22468137717712711 0 0.26221447651104962 0.2479993693513689 0 0.25511338863332461 0.22468137717712711 0 0.26853130556434218 0.23400660741274959 0 0.26221447651104962 0.2479993693513689 0 0.25511338863332461 0.22468137717712711 0 0.25511338863332461 0.22468137717712711 0 0.25242827713160498 0.21540237912569379 0 0.25511338863332461 0.22468137717712711 0 0.2794126892910288 0.21617120911671081 0 0.25511338863332461 0.22468137717712711 0 0.26853130556434218 0.23400660741274959 0 0.2794126892910288 0.21617120911671081 0 0.26853130556434218 0.23400660741274959 0 0.2794126892910288 0.21617120911671081 0 0.28440499104296979 0.23439140090611099 0 0.25511338863332461 0.22468137717712711 0 0.2794126892910288 0.21617120911671081 0 0.26644318031571418 0.20408753099865831 0 0.2794126892910288 0.21617120911671081 0 0.26644318031571418 0.20408753099865831 0 0.27722953884408802 0.19656269719262509 0 0.24528107816237801 0.1907036486386274 0 0.26644318031571418 0.20408753099865831 0 0.25242827713160498 0.21540237912569379 0 0.25511338863332461 0.22468137717712711 0 0.26644318031571418 0.20408753099865831 0 0.25242827713160498 0.21540237912569379 0 0.26644318031571418 0.20408753099865831 0 0.25242827713160498 0.21540237912569379 0 0.24528107816237801 0.1907036486386274 0 0.26633433714882182 0.18577592949096661 0 0.26644318031571418 0.20408753099865831 0 0.26633433714882182 0.18577592949096661 0 0.26644318031571418 0.20408753099865831 0 0.27722953884408802 0.19656269719262509 0 0.27723266788850742 0.181048228772968 0 0.28743664533084129 0.187357279865842 0 0.27722953884408802 0.19656269719262509 0 0.26633433714882182 0.18577592949096661 0 0.27723266788850742 0.181048228772968 0 0.27722953884408802 0.19656269719262509 0 0.28743664533084129 0.187357279865842 0 0.27722953884408802 0.19656269719262509 0 0.28939512316467059 0.2005252056429343 0 0.28743664533084129 0.187357279865842 0 0.28939512316467059 0.2005252056429343 0 0.29971043857951379 0.19298806906372529 0 0.30929675685570829 0.1858318568065235 0 0.29971043857951379 0.19298806906372529 0 0.31162694501442678 0.19735313208654229 0 0.29971043857951379 0.19298806906372529 0 0.31162694501442678 0.19735313208654229 0 0.30371198994873311 0.20766104105629449 0 0.28939512316467059 0.2005252056429343 0 0.29971043857951379 0.19298806906372529 0 0.30371198994873311 0.20766104105629449 0 0.2794126892910288 0.21617120911671081 0 0.30371198994873311 0.20766104105629449 0 0.2794126892910288 0.21617120911671081 0 0.30371198994873311 0.20766104105629449 0 0.30659550557489001 0.220783432460853 0 0.2794126892910288 0.21617120911671081 0 0.27722953884408802 0.19656269719262509 0 0.28939512316467059 0.2005252056429343 0 0.2794126892910288 0.21617120911671081 0 0.28939512316467059 0.2005252056429343 0 0.30371198994873311 0.20766104105629449 0 0.30659550557489001 0.220783432460853 0 0.28440499104296979 0.23439140090611099 0 0.2794126892910288 0.21617120911671081 0 0.30659550557489001 0.220783432460853 0 0.28440499104296979 0.23439140090611099 0 0.30659550557489001 0.220783432460853 0 0.30328699804120918 0.24394477185791469 0 0.28440499104296979 0.23439140090611099 0 0.30659550557489001 0.220783432460853 0 0.30328699804120918 0.24394477185791469 0 0.31607427666693672 0.2331905299380852 0 0.28119448123381058 0.25405304303149878 0 0.30328699804120918 0.24394477185791469 0 0.28440499104296979 0.23439140090611099 0 0.3433555784436142 0.25004320974280247 0 0.34183468199228573 0.23727684870966961 0 0.33092809789354199 0.24744869965648561 0 0.34183468199228573 0.23727684870966961 0 0.3288410404878227 0.2348757256337824 0 0.33092809789354199 0.24744869965648561 0 0.3288410404878227 0.2348757256337824 0 0.33092809789354199 0.24744869965648561 0 0.31845456220733243 0.24449663650262579 0 0.31879452400631653 0.25919465198291952 0 0.30328699804120918 0.24394477185791469 0 0.31845456220733243 0.24449663650262579 0 0.30328699804120918 0.24394477185791469 0 0.31845456220733243 0.24449663650262579 0 0.31607427666693672 0.2331905299380852 0 0.3288410404878227 0.2348757256337824 0 0.31845456220733243 0.24449663650262579 0 0.31607427666693672 0.2331905299380852 0 0.3288410404878227 0.2348757256337824 0 0.31607427666693672 0.2331905299380852 0 0.32372534117020862 0.22390137225637691 0 0.30659550557489001 0.220783432460853 0 0.31607427666693672 0.2331905299380852 0 0.32372534117020862 0.22390137225637691 0 0.3288410404878227 0.2348757256337824 0 0.32372534117020862 0.22390137225637691 0 0.33832986301458301 0.22348170923356889 0 0.34183468199228573 0.23727684870966961 0 0.3288410404878227 0.2348757256337824 0 0.33832986301458301 0.22348170923356889 0 0.32372534117020862 0.22390137225637691 0 0.33832986301458301 0.22348170923356889 0 0.32878602010681029 0.20717546401559489 0 0.33832986301458301 0.22348170923356889 0 0.32878602010681029 0.20717546401559489 0 0.35089693608391498 0.21212819010674691 0 0.32878602010681029 0.20717546401559489 0 0.35097653463873058 0.19356749557033681 0 0.35089693608391498 0.21212819010674691 0 0.30659550557489001 0.220783432460853 0 0.32372534117020862 0.22390137225637691 0 0.32878602010681029 0.20717546401559489 0 0.31162694501442678 0.19735313208654229 0 0.30371198994873311 0.20766104105629449 0 0.32878602010681029 0.20717546401559489 0 0.30371198994873311 0.20766104105629449 0 0.30659550557489001 0.220783432460853 0 0.32878602010681029 0.20717546401559489 0 0.30659550557489001 0.220783432460853 0 0.32878602010681029 0.20717546401559489 0 0.32878602010681029 0.20717546401559489 0 0.31972446529152482 0.19052244909679969 0 0.3336272658304279 0.18895925974375941 0 0.31162694501442678 0.19735313208654229 0 0.32878602010681029 0.20717546401559489 0 0.31972446529152482 0.19052244909679969 0 0.30929675685570829 0.1858318568065235 0 0.31162694501442678 0.19735313208654229 0 0.31972446529152482 0.19052244909679969 0 0.32878602010681029 0.20717546401559489 0 0.3336272658304279 0.18895925974375941 0 0.35097653463873058 0.19356749557033681 0 0.32878602010681029 0.20717546401559489 0 0.35097653463873058 0.19356749557033681 0 0.3336272658304279 0.18895925974375941 0 0.35097653463873058 0.19356749557033681 0 0.35656535024169428 0.1804169243242798 0 0.35097653463873058 0.19356749557033681 0 0.35896651107905142 0.20360726904620211 0 0.35089693608391498 0.21212819010674691 0 0.35097653463873058 0.19356749557033681 0 0.36405518175537521 0.19484170215684679 0 0.35896651107905142 0.20360726904620211 0 0.35097653463873058 0.19356749557033681 0 0.36405518175537521 0.19484170215684679 0 0.35656535024169428 0.1804169243242798 0 0.36405518175537521 0.19484170215684679 0 0.35656535024169428 0.1804169243242798 0 0.38464328683150451 0.18806222539781059 0 0.36405518175537521 0.19484170215684679 0 0.36923798170140371 0.20928007436804161 0 0.38464328683150451 0.18806222539781059 0 0.36405518175537521 0.19484170215684679 0 0.36923798170140371 0.20928007436804161 0 0.35896651107905142 0.20360726904620211 0 0.36923798170140371 0.20928007436804161 0 0.36132702422268731 0.21787493872225441 0 0.35896651107905142 0.20360726904620211 0 0.36923798170140371 0.20928007436804161 0 0.36132702422268731 0.21787493872225441 0 0.37292139258550783 0.22672254500020811 0 0.36132702422268731 0.21787493872225441 0 0.35896651107905142 0.20360726904620211 0 0.35089693608391498 0.21212819010674691 0 0.34183468199228573 0.23727684870966961 0 0.33832986301458301 0.22348170923356889 0 0.35524969613090918 0.22837961108452459 0 0.36132702422268731 0.21787493872225441 0 0.35089693608391498 0.21212819010674691 0 0.35524969613090918 0.22837961108452459 0 0.33832986301458301 0.22348170923356889 0 0.35089693608391498 0.21212819010674691 0 0.35524969613090918 0.22837961108452459 0 0.36132702422268731 0.21787493872225441 0 0.35524969613090918 0.22837961108452459 0 0.37292139258550783 0.22672254500020811 0 0.35524969613090918 0.22837961108452459 0 0.37292139258550783 0.22672254500020811 0 0.36587213359177301 0.2378375665458646 0 0.37292139258550783 0.22672254500020811 0 0.36587213359177301 0.2378375665458646 0 0.3757768555661396 0.240133652284411 0 0.36587213359177301 0.2378375665458646 0 0.37169426656027921 0.24972740256563611 0 0.3757768555661396 0.240133652284411 0 0.36587213359177301 0.2378375665458646 0 0.37169426656027921 0.24972740256563611 0 0.36205361842742478 0.24882498742118489 0 0.36587213359177301 0.2378375665458646 0 0.36205361842742478 0.24882498742118489 0 0.35356337405553911 0.24205426642971811 0 0.35175757775775729 0.2532797976346674 0 0.36205361842742478 0.24882498742118489 0 0.35356337405553911 0.24205426642971811 0 0.35524969613090918 0.22837961108452459 0 0.36587213359177301 0.2378375665458646 0 0.35356337405553911 0.24205426642971811 0 0.34183468199228573 0.23727684870966961 0 0.35524969613090918 0.22837961108452459 0 0.35356337405553911 0.24205426642971811 0 0.3433555784436142 0.25004320974280247 0 0.34183468199228573 0.23727684870966961 0 0.35356337405553911 0.24205426642971811 0 0.3433555784436142 0.25004320974280247 0 0.35175757775775729 0.2532797976346674 0 0.35356337405553911 0.24205426642971811 0 0.33379856680907583 0.1437068241164389 0 0.32007589174333823 0.14676000458717811 0 0.33365817402274128 0.15789089208148979 0 0.33379856680907583 0.1437068241164389 0 0.33365817402274128 0.15789089208148979 0 0.34780073530519279 0.14835628742565241 0 0.33379856680907583 0.1437068241164389 0 0.34780073530519279 0.14835628742565241 0 0.34586764947947463 0.1362539899128139 0 0.33379856680907583 0.1437068241164389 0 0.33436770153514289 0.13112975471366969 0 0.34586764947947463 0.1362539899128139 0 0.34956654336434939 0.1234914401014125 0 0.33436770153514289 0.13112975471366969 0 0.34586764947947463 0.1362539899128139 0 0.33379856680907583 0.1437068241164389 0 0.33436770153514289 0.13112975471366969 0 0.3195478300457561 0.1332621056988223 0 0.32606950933900308 0.1158177097477945 0 0.33436770153514289 0.13112975471366969 0 0.3195478300457561 0.1332621056988223 0 0.30873747279203018 0.14281046260302349 0 0.3195478300457561 0.1332621056988223 0 0.32007589174333823 0.14676000458717811 0 0.30453528129870422 0.15487579661148021 0 0.32007589174333823 0.14676000458717811 0 0.33365817402274128 0.15789089208148979 0 0.33379856680907583 0.1437068241164389 0 0.3195478300457561 0.1332621056988223 0 0.32007589174333823 0.14676000458717811 0 0.30453528129870422 0.15487579661148021 0 0.33365817402274128 0.15789089208148979 0 0.30453528129870422 0.15487579661148021 0 0.32848741365188411 0.1727716232507491 0 0.33365817402274128 0.15789089208148979 0 0.30040947706207388 0.16512632217721829 0 0.32848741365188411 0.1727716232507491 0 0.3101655001798202 0.17563615506282959 0 0.30040947706207388 0.16512632217721829 0 0.32848741365188411 0.1727716232507491 0 0.3101655001798202 0.17563615506282959 0 0.31983557186529732 0.18171103000860481 0 0.32848741365188411 0.1727716232507491 0 0.3336272658304279 0.18895925974375941 0 0.31983557186529732 0.18171103000860481 0 0.32848741365188411 0.1727716232507491 0 0.3101655001798202 0.17563615506282959 0 0.30929675685570829 0.1858318568065235 0 0.31983557186529732 0.18171103000860481 0 0.30929675685570829 0.1858318568065235 0 0.31972446529152482 0.19052244909679969 0 0.31983557186529732 0.18171103000860481 0 0.31972446529152482 0.19052244909679969 0 0.3336272658304279 0.18895925974375941 0 0.31983557186529732 0.18171103000860481 0 0.32848741365188411 0.1727716232507491 0 0.34507730906385942 0.16855187839241309 0 0.35656535024169428 0.1804169243242798 0 0.3336272658304279 0.18895925974375941 0 0.32848741365188411 0.1727716232507491 0 0.35656535024169428 0.1804169243242798 0 0.32848741365188411 0.1727716232507491 0 0.35656535024169428 0.1804169243242798 0 0.32848741365188411 0.1727716232507491 0 0.33365817402274128 0.15789089208148979 0 0.34507730906385942 0.16855187839241309 0 0.33365817402274128 0.15789089208148979 0 0.34507730906385942 0.16855187839241309 0 0.36278106674677829 0.1609059875514994 0 0.34507730906385942 0.16855187839241309 0 0.35656535024169428 0.1804169243242798 0 0.36278106674677829 0.1609059875514994 0 0.33365817402274128 0.15789089208148979 0 0.36278106674677829 0.1609059875514994 0 0.35656535024169428 0.1804169243242798 0 0.37356219856206202 0.1741215612114578 0 0.38464328683150451 0.18806222539781059 0 0.35656535024169428 0.1804169243242798 0 0.38464328683150451 0.18806222539781059 0 0.35656535024169428 0.1804169243242798 0 0.37356219856206202 0.1741215612114578 0 0.36278106674677829 0.1609059875514994 0 0.36278106674677829 0.1609059875514994 0 0.36531512046589693 0.1378839500987098 0 0.37680076681991098 0.15092733218095339 0 0.36278106674677829 0.1609059875514994 0 0.34780073530519279 0.14835628742565241 0 0.36531512046589693 0.1378839500987098 0 0.34780073530519279 0.14835628742565241 0 0.34586764947947463 0.1362539899128139 0 0.36531512046589693 0.1378839500987098 0 0.33365817402274128 0.15789089208148979 0 0.36278106674677829 0.1609059875514994 0 0.34780073530519279 0.14835628742565241 0 0.34956654336434939 0.1234914401014125 0 0.34586764947947463 0.1362539899128139 0 0.36531512046589693 0.1378839500987098 0 0.34956654336434939 0.1234914401014125 0 0.36322639358210312 0.11848039068348271 0 0.36531512046589693 0.1378839500987098 0 0.36322639358210312 0.11848039068348271 0 0.36531512046589693 0.1378839500987098 0 0.38482072671029011 0.13725767299229241 0 0.36322639358210312 0.11848039068348271 0 0.38482072671029011 0.13725767299229241 0 0.36322639358210312 0.11848039068348271 0 0.38482072671029011 0.13725767299229241 0 0.38005682511468147 0.12140739343396729 0 0.38482072671029011 0.13725767299229241 0 0.39398634319161102 0.12556361147638159 0 0.38005682511468147 0.12140739343396729 0 0.38482072671029011 0.13725767299229241 0 0.39398634319161102 0.12556361147638159 0 0.40386822996399702 0.1370092008917044 0 0.39398634319161102 0.12556361147638159 0 0.40386822996399702 0.1370092008917044 0 0.40630256149234217 0.12337914253670321 0 0.38482072671029011 0.13725767299229241 0 0.40641505983847698 0.15603495530110209 0 0.38482072671029011 0.13725767299229241 0 0.40386822996399702 0.1370092008917044 0 0.40641505983847698 0.15603495530110209 0 0.38482072671029011 0.13725767299229241 0 0.39190395947081519 0.16392108302150901 0 0.40641505983847698 0.15603495530110209 0 0.36531512046589693 0.1378839500987098 0 0.38482072671029011 0.13725767299229241 0 0.37680076681991098 0.15092733218095339 0 0.38482072671029011 0.13725767299229241 0 0.37680076681991098 0.15092733218095339 0 0.39190395947081519 0.16392108302150901 0 0.36278106674677829 0.1609059875514994 0 0.39190395947081519 0.16392108302150901 0 0.36278106674677829 0.1609059875514994 0 0.37680076681991098 0.15092733218095339 0 0.39190395947081519 0.16392108302150901 0 0.37356219856206202 0.1741215612114578 0 0.36278106674677829 0.1609059875514994 0 0.39190395947081519 0.16392108302150901 0 0.37356219856206202 0.1741215612114578 0 0.39190395947081519 0.16392108302150901 0 0.38464328683150451 0.18806222539781059 0 0.4059128807594603 0.17981630131623391 0 0.39190395947081519 0.16392108302150901 0 0.38464328683150451 0.18806222539781059 0 0.39190395947081519 0.16392108302150901 0 0.42102685219485209 0.16693617849151851 0 0.40641505983847698 0.15603495530110209 0 0.4059128807594603 0.17981630131623391 0 0.39190395947081519 0.16392108302150901 0 0.42102685219485209 0.16693617849151851 0 0.42102685219485209 0.16693617849151851 0 0.40641505983847698 0.15603495530110209 0 0.41490094777653419 0.14712571815411829 0 0.39190395947081519 0.16392108302150901 0 0.42102685219485209 0.16693617849151851 0 0.4059128807594603 0.17981630131623391 0 0.42102685219485209 0.16693617849151851 0 0.42759287120751482 0.1799189573059411 0 0.4059128807594603 0.17981630131623391 0 0.42759287120751482 0.1799189573059411 0 0.42045703890892938 0.19185412915784311 0 0.42102685219485209 0.16693617849151851 0 0.42759287120751482 0.1799189573059411 0 0.45014974491888898 0.16995127396152809 0 0.42759287120751482 0.1799189573059411 0 0.42045703890892938 0.19185412915784311 0 0.43799329450951457 0.1898848624547933 0 0.42102685219485209 0.16693617849151851 0 0.45014974491888898 0.16995127396152809 0 0.42102685219485209 0.16693617849151851 0 0.43641214087317609 0.15776157540708571 0 0.42820809332857229 0.14540676379554701 0 0.42102685219485209 0.16693617849151851 0 0.43641214087317609 0.15776157540708571 0 0.45014974491888898 0.16995127396152809 0 0.43641214087317609 0.15776157540708571 0 0.42820809332857229 0.14540676379554701 0 0.44305345270963392 0.14224085277467549 0 0.42820809332857229 0.14540676379554701 0 0.43267139290449452 0.12562392175117529 0 0.41815906511665779 0.13368892679480551 0 0.42820809332857229 0.14540676379554701 0 0.43267139290449452 0.12562392175117529 0 0.44305345270963392 0.14224085277467549 0 0.43267139290449452 0.12562392175117529 0 0.41815906511665779 0.13368892679480551 0 0.41840244549433692 0.1204435227777134 0 0.41815906511665779 0.13368892679480551 0 0.41840244549433692 0.1204435227777134 0 0.40630256149234217 0.12337914253670321 0 0.40386822996399702 0.1370092008917044 0 0.41815906511665779 0.13368892679480551 0 0.40630256149234217 0.12337914253670321 0 0.40386822996399702 0.1370092008917044 0 0.41815906511665779 0.13368892679480551 0 0.41490094777653419 0.14712571815411829 0 0.42102685219485209 0.16693617849151851 0 0.42820809332857229 0.14540676379554701 0 0.41490094777653419 0.14712571815411829 0 0.40386822996399702 0.1370092008917044 0 0.40641505983847698 0.15603495530110209 0 0.41490094777653419 0.14712571815411829 0 0.42820809332857229 0.14540676379554701 0 0.41815906511665779 0.13368892679480551 0 0.41490094777653419 0.14712571815411829 0 0.39196586341458151 0.242441409442547 0 0.40329821407583749 0.23025496453590971 0 0.40866327585672191 0.24600766979752939 0 0.38129994004966872 0.25577407136566988 0 0.39196586341458151 0.242441409442547 0 0.40866327585672191 0.24600766979752939 0 0.38129994004966872 0.25577407136566988 0 0.39196586341458151 0.242441409442547 0 0.38106847269238292 0.24536179082341181 0 0.37169426656027921 0.24972740256563611 0 0.38106847269238292 0.24536179082341181 0 0.3757768555661396 0.240133652284411 0 0.37292139258550783 0.22672254500020811 0 0.3757768555661396 0.240133652284411 0 0.38460543787124563 0.238732418458795 0 0.38106847269238292 0.24536179082341181 0 0.3757768555661396 0.240133652284411 0 0.38460543787124563 0.238732418458795 0 0.39196586341458151 0.242441409442547 0 0.38106847269238292 0.24536179082341181 0 0.38460543787124563 0.238732418458795 0 0.39196586341458151 0.242441409442547 0 0.38460543787124563 0.238732418458795 0 0.38844350160088592 0.2284985707660753 0 0.37292139258550783 0.22672254500020811 0 0.38460543787124563 0.238732418458795 0 0.38844350160088592 0.2284985707660753 0 0.37292139258550783 0.22672254500020811 0 0.38844350160088592 0.2284985707660753 0 0.38369130631537601 0.21297307403445409 0 0.38844350160088592 0.2284985707660753 0 0.39679964264504158 0.21937630878092959 0 0.38369130631537601 0.21297307403445409 0 0.38844350160088592 0.2284985707660753 0 0.39679964264504158 0.21937630878092959 0 0.40329821407583749 0.23025496453590971 0 0.39196586341458151 0.242441409442547 0 0.38844350160088592 0.2284985707660753 0 0.40329821407583749 0.23025496453590971 0 0.39679964264504158 0.21937630878092959 0 0.40329821407583749 0.23025496453590971 0 0.41066806580544729 0.2160617609406458 0 0.39598296716959969 0.20626700748070109 0 0.40513352984814438 0.19492560706685999 0 0.41066806580544729 0.2160617609406458 0 0.39679964264504158 0.21937630878092959 0 0.39598296716959969 0.20626700748070109 0 0.41066806580544729 0.2160617609406458 0 0.39679964264504158 0.21937630878092959 0 0.39598296716959969 0.20626700748070109 0 0.38369130631537601 0.21297307403445409 0 0.36923798170140371 0.20928007436804161 0 0.37292139258550783 0.22672254500020811 0 0.38369130631537601 0.21297307403445409 0 0.36923798170140371 0.20928007436804161 0 0.38369130631537601 0.21297307403445409 0 0.38464328683150451 0.18806222539781059 0 0.39598296716959969 0.20626700748070109 0 0.38369130631537601 0.21297307403445409 0 0.38464328683150451 0.18806222539781059 0 0.39598296716959969 0.20626700748070109 0 0.38464328683150451 0.18806222539781059 0 0.40513352984814438 0.19492560706685999 0 0.4059128807594603 0.17981630131623391 0 0.38464328683150451 0.18806222539781059 0 0.40513352984814438 0.19492560706685999 0 0.40513352984814438 0.19492560706685999 0 0.42045703890892938 0.19185412915784311 0 0.42444067869502011 0.20693424997503959 0 0.4059128807594603 0.17981630131623391 0 0.40513352984814438 0.19492560706685999 0 0.42045703890892938 0.19185412915784311 0 0.42045703890892938 0.19185412915784311 0 0.42444067869502011 0.20693424997503959 0 0.43799329450951457 0.1898848624547933 0 0.42444067869502011 0.20693424997503959 0 0.44184419378540352 0.2076794424592901 0 0.43799329450951457 0.1898848624547933 0 0.42444067869502011 0.20693424997503959 0 0.4302098735549707 0.2206458244329694 0 0.44184419378540352 0.2076794424592901 0 0.42444067869502011 0.20693424997503959 0 0.41066806580544729 0.2160617609406458 0 0.4302098735549707 0.2206458244329694 0 0.40513352984814438 0.19492560706685999 0 0.42444067869502011 0.20693424997503959 0 0.41066806580544729 0.2160617609406458 0 0.41066806580544729 0.2160617609406458 0 0.41777320819135039 0.22984229758728861 0 0.4302098735549707 0.2206458244329694 0 0.40329821407583749 0.23025496453590971 0 0.41066806580544729 0.2160617609406458 0 0.41777320819135039 0.22984229758728861 0 0.4302098735549707 0.2206458244329694 0 0.43602661166377499 0.2362412682293889 0 0.44584438813649652 0.2203436080528294 0 0.41777320819135039 0.22984229758728861 0 0.4302098735549707 0.2206458244329694 0 0.43602661166377499 0.2362412682293889 0 0.43602661166377499 0.2362412682293889 0 0.43076425121212841 0.2486853010718087 0 0.40866327585672191 0.24600766979752939 0 0.43602661166377499 0.2362412682293889 0 0.40866327585672191 0.24600766979752939 0 0.41777320819135039 0.22984229758728861 0 0.43602661166377499 0.2362412682293889 0 0.40866327585672191 0.24600766979752939 0 0.41664462513020523 0.25422696758609492 0 0.43076425121212841 0.2486853010718087 0 0.40866327585672191 0.24600766979752939 0 0.40329821407583749 0.23025496453590971 0 0.41777320819135039 0.22984229758728861 0 0.40866327585672191 0.24600766979752939 0 0.45166362976964691 0.25106894999712381 0 0.45384283414141641 0.23962742592169059 0 0.47583181488482379 0.2451422378191761 0 0.45166362976964691 0.25106894999712381 0 0.47583181488482379 0.2451422378191761 0 0.45384283414141641 0.23962742592169059 0 0.47692141707070451 0.23056955077157251 0 0.45166362976964691 0.25106894999712381 0 0.43076425121212841 0.2486853010718087 0 0.45384283414141641 0.23962742592169059 0 0.43602661166377499 0.2362412682293889 0 0.43076425121212841 0.2486853010718087 0 0.45384283414141641 0.23962742592169059 0 0.43076425121212841 0.2486853010718087 0 0.45384283414141641 0.23962742592169059 0 0.43602661166377499 0.2362412682293889 0 0.46338994747082818 0.22647486666124839 0 0.43602661166377499 0.2362412682293889 0 0.44584438813649652 0.2203436080528294 0 0.46338994747082818 0.22647486666124839 0 0.43602661166377499 0.2362412682293889 0 0.45384283414141641 0.23962742592169059 0 0.46338994747082818 0.22647486666124839 0 0.44584438813649652 0.2203436080528294 0 0.46338994747082818 0.22647486666124839 0 0.4574246187180494 0.20998202225832771 0 0.45384283414141641 0.23962742592169059 0 0.46338994747082818 0.22647486666124839 0 0.47692141707070451 0.23056955077157251 0 0.46338994747082818 0.22647486666124839 0 0.4574246187180494 0.20998202225832771 0 0.47311107537994651 0.21060674662752529 0 0.4574246187180494 0.20998202225832771 0 0.46861366351278472 0.19789432193598561 0 0.47311107537994651 0.21060674662752529 0 0.44584438813649652 0.2203436080528294 0 0.4574246187180494 0.20998202225832771 0 0.44184419378540352 0.2076794424592901 0 0.4302098735549707 0.2206458244329694 0 0.44584438813649652 0.2203436080528294 0 0.44184419378540352 0.2076794424592901 0 0.4574246187180494 0.20998202225832771 0 0.44184419378540352 0.2076794424592901 0 0.45120510308892831 0.19507838461398491 0 0.44184419378540352 0.2076794424592901 0 0.43799329450951457 0.1898848624547933 0 0.45120510308892831 0.19507838461398491 0 0.4574246187180494 0.20998202225832771 0 0.45120510308892831 0.19507838461398491 0 0.46861366351278472 0.19789432193598561 0 0.45120510308892831 0.19507838461398491 0 0.46861366351278472 0.19789432193598561 0 0.45014974491888898 0.16995127396152809 0 0.46861366351278472 0.19789432193598561 0 0.48377650321145821 0.20030440734603891 0 0.47890777313388699 0.17818810929941131 0 0.46861366351278472 0.19789432193598561 0 0.48377650321145821 0.20030440734603891 0 0.47311107537994651 0.21060674662752529 0 0.48377650321145821 0.20030440734603891 0 0.5 0.19442179120654851 0 0.47890777313388699 0.17818810929941131 0 0.48377650321145821 0.20030440734603891 0 0.5 0.19442179120654851 0 0.49075328327788142 0.2167084650931079 0 0.5 0.19442179120654851 0 0.49075328327788142 0.2167084650931079 0 0.49999999999999339 0.2215116756214566 0 0.48377650321145821 0.20030440734603891 0 0.49075328327788142 0.2167084650931079 0 0.47311107537994651 0.21060674662752529 0 0.46338994747082818 0.22647486666124839 0 0.49075328327788142 0.2167084650931079 0 0.47311107537994651 0.21060674662752529 0 0.46338994747082818 0.22647486666124839 0 0.49075328327788142 0.2167084650931079 0 0.46338994747082818 0.22647486666124839 0 0.49075328327788142 0.2167084650931079 0 0.47692141707070451 0.23056955077157251 0 0.47692141707070451 0.23056955077157251 0 0.49999999999999339 0.2215116756214566 0 0.50000000000000067 0.2392155256412283 0 0.49075328327788142 0.2167084650931079 0 0.47692141707070451 0.23056955077157251 0 0.49999999999999339 0.2215116756214566 0 0.47692141707070451 0.23056955077157251 0 0.49999999999999339 0.2215116756214566 0 0.50000000000000067 0.2392155256412283 0 0.47583181488482379 0.2451422378191761 0 0.48341195364679568 0.26002408893105827 0 0.50000000000000067 0.2392155256412283 0 0.47583181488482379 0.2451422378191761 0 0.47692141707070451 0.23056955077157251 0 0.50000000000000067 0.2392155256412283 0 0.47583181488482379 0.2451422378191761 0 0.45384283414141641 0.23962742592169059 0 0.47692141707070451 0.23056955077157251 0 0.47583181488482379 0.2451422378191761 0 0.46053260521531592 0.14091734283165991 0 0.45014974491888898 0.16995127396152809 0 0.47759274938693741 0.15337993901402261 0 0.46053260521531592 0.14091734283165991 0 0.47596637305353268 0.1236489788231635 0 0.45094723062946279 0.12208098845927939 0 0.46053260521531592 0.14091734283165991 0 0.44305345270963392 0.14224085277467549 0 0.45094723062946279 0.12208098845927939 0 0.43267139290449452 0.12562392175117529 0 0.44305345270963392 0.14224085277467549 0 0.45094723062946279 0.12208098845927939 0 0.46053260521531592 0.14091734283165991 0 0.44305345270963392 0.14224085277467549 0 0.45014974491888898 0.16995127396152809 0 0.43641214087317609 0.15776157540708571 0 0.44305345270963392 0.14224085277467549 0 0.45014974491888898 0.16995127396152809 0 0.42759287120751482 0.1799189573059411 0 0.43799329450951457 0.1898848624547933 0 0.45014974491888898 0.16995127396152809 0 0.43799329450951457 0.1898848624547933 0 0.45120510308892831 0.19507838461398491 0 0.45014974491888898 0.16995127396152809 0 0.46861366351278472 0.19789432193598561 0 0.45014974491888898 0.16995127396152809 0 0.47890777313388699 0.17818810929941131 0 0.45014974491888898 0.16995127396152809 0 0.47890777313388699 0.17818810929941131 0 0.47759274938693741 0.15337993901402261 0 0.5 0.19442179120654851 0 0.47890777313388699 0.17818810929941131 0 0.5 0.16733190679164031 0 0.47890777313388699 0.17818810929941131 0 0.5 0.16733190679164031 0 0.47759274938693741 0.15337993901402261 0 0.5 0.16733190679164031 0 0.47759274938693741 0.15337993901402261 0 0.5 0.14024202237673219 0 0.46053260521531592 0.14091734283165991 0 0.47759274938693741 0.15337993901402261 0 0.47596637305353268 0.1236489788231635 0 0.5 0.14024202237673219 0 0.5 0.11315213796182411 0 0.47596637305353268 0.1236489788231635 0 0.47759274938693741 0.15337993901402261 0 0.5 0.14024202237673219 0 0.47596637305353268 0.1236489788231635 0 0.5 0.11315213796182411 0 0.48146508414057748 0.097867616362435003 0 0.47596637305353268 0.1236489788231635 0 0.5 0.11315213796182411 0 0.48146508414057748 0.097867616362435003 0 0.5 0.08606225354691599 0 0.48146508414057748 0.097867616362435003 0 0.46684480345772023 0.083704774648097419 0 0.46085076100455152 0.1051260388446932 0 0.48146508414057748 0.097867616362435003 0 0.47596637305353268 0.1236489788231635 0 0.46085076100455152 0.1051260388446932 0 0.5 0.08606225354691599 0 0.48297411160829701 0.071419164250366693 0 0.5 0.058972369132007867 0 0.48146508414057748 0.097867616362435003 0 0.5 0.08606225354691599 0 0.48297411160829701 0.071419164250366693 0 0.48146508414057748 0.097867616362435003 0 0.48297411160829701 0.071419164250366693 0 0.46684480345772023 0.083704774648097419 0 0.48297411160829701 0.071419164250366693 0 0.46368779630991369 0.062884433647911922 0 0.46684480345772023 0.083704774648097419 0 0.46368779630991369 0.062884433647911922 0 0.4455316944648699 0.078385408113317706 0 0.46368779630991369 0.062884433647911922 0 0.46684480345772023 0.083704774648097419 0 0.4455316944648699 0.078385408113317706 0 0.46684480345772023 0.083704774648097419 0 0.4455316944648699 0.078385408113317706 0 0.46085076100455152 0.1051260388446932 0 0.4455316944648699 0.078385408113317706 0 0.46085076100455152 0.1051260388446932 0 0.43655847815144871 0.087567909291679069 0 0.4455316944648699 0.078385408113317706 0 0.43655847815144871 0.087567909291679069 0 0.43300293116684879 0.070359854062556224 0 0.4455316944648699 0.078385408113317706 0 0.43300293116684879 0.070359854062556224 0 0.44432728466234178 0.059795406129610977 0 0.46368779630991369 0.062884433647911922 0 0.4455316944648699 0.078385408113317706 0 0.44432728466234178 0.059795406129610977 0 0.47596637305353268 0.1236489788231635 0 0.46085076100455152 0.1051260388446932 0 0.45094723062946279 0.12208098845927939 0 0.46085076100455152 0.1051260388446932 0 0.43655847815144871 0.087567909291679069 0 0.46085076100455152 0.1051260388446932 0 0.43845481143497073 0.110031162788742 0 0.43302597451412722 0.09911942802672713 0 0.46085076100455152 0.1051260388446932 0 0.43302597451412722 0.09911942802672713 0 0.43655847815144871 0.087567909291679069 0 0.43267139290449452 0.12562392175117529 0 0.45094723062946279 0.12208098845927939 0 0.43845481143497073 0.110031162788742 0 0.46085076100455152 0.1051260388446932 0 0.45094723062946279 0.12208098845927939 0 0.43845481143497073 0.110031162788742 0 0.43267139290449452 0.12562392175117529 0 0.43845481143497073 0.110031162788742 0 0.42512360996164289 0.1101942667169049 0 0.43267139290449452 0.12562392175117529 0 0.42512360996164289 0.1101942667169049 0 0.41840244549433692 0.1204435227777134 0 0.42512360996164289 0.1101942667169049 0 0.41840244549433692 0.1204435227777134 0 0.41145911669595331 0.1096997076075869 0 0.41840244549433692 0.1204435227777134 0 0.41145911669595331 0.1096997076075869 0 0.40630256149234217 0.12337914253670321 0 0.41145911669595331 0.1096997076075869 0 0.41782870111656589 0.098086010242617663 0 0.40188519574572068 0.098349840232826835 0 0.41782870111656589 0.098086010242617663 0 0.41132824907511162 0.087668761689670915 0 0.40188519574572068 0.098349840232826835 0 0.42512360996164289 0.1101942667169049 0 0.41145911669595331 0.1096997076075869 0 0.41782870111656589 0.098086010242617663 0 0.41782870111656589 0.098086010242617663 0 0.43302597451412722 0.09911942802672713 0 0.42198136315300161 0.08812274721924529 0 0.42512360996164289 0.1101942667169049 0 0.41782870111656589 0.098086010242617663 0 0.43302597451412722 0.09911942802672713 0 0.43845481143497073 0.110031162788742 0 0.42512360996164289 0.1101942667169049 0 0.43302597451412722 0.09911942802672713 0 0.43655847815144871 0.087567909291679069 0 0.42198136315300161 0.08812274721924529 0 0.41226619529834591 0.070009779738664735 0 0.43655847815144871 0.087567909291679069 0 0.41226619529834591 0.070009779738664735 0 0.43302597451412722 0.09911942802672713 0 0.43655847815144871 0.087567909291679069 0 0.42198136315300161 0.08812274721924529 0 0.43300293116684879 0.070359854062556224 0 0.41226619529834591 0.070009779738664735 0 0.42739758089851382 0.054541393999090262 0 0.43655847815144871 0.087567909291679069 0 0.43300293116684879 0.070359854062556224 0 0.41226619529834591 0.070009779738664735 0 0.42198136315300161 0.08812274721924529 0 0.41226619529834591 0.070009779738664735 0 0.41132824907511162 0.087668761689670915 0 0.41226619529834591 0.070009779738664735 0 0.41132824907511162 0.087668761689670915 0 0.39992923875424519 0.082621500021195282 0 0.41782870111656589 0.098086010242617663 0 0.42198136315300161 0.08812274721924529 0 0.41132824907511162 0.087668761689670915 0 0.41132824907511162 0.087668761689670915 0 0.39992923875424519 0.082621500021195282 0 0.40188519574572068 0.098349840232826835 0 0.39992923875424519 0.082621500021195282 0 0.38759228221014619 0.095233220303727467 0 0.40188519574572068 0.098349840232826835 0 0.39992923875424519 0.082621500021195282 0 0.38759228221014619 0.095233220303727467 0 0.41226619529834591 0.070009779738664735 0 0.39707386889515511 0.070908779594843374 0 0.39683376059791597 0.058855427163935138 0 0.41226619529834591 0.070009779738664735 0 0.39683376059791597 0.058855427163935138 0 0.41226619529834591 0.070009779738664735 0 0.39992923875424519 0.082621500021195282 0 0.41226619529834591 0.070009779738664735 0 0.39992923875424519 0.082621500021195282 0 0.39707386889515511 0.070908779594843374 0 0.39992923875424519 0.082621500021195282 0 0.39707386889515511 0.070908779594843374 0 0.38583977896057609 0.075316135258006081 0 0.39707386889515511 0.070908779594843374 0 0.38282045226763678 0.060547433734587333 0 0.39683376059791597 0.058855427163935138 0 0.39707386889515511 0.070908779594843374 0 0.38583977896057609 0.075316135258006081 0 0.38282045226763678 0.060547433734587333 0 0.38583977896057609 0.075316135258006081 0 0.37596532967213542 0.069868995675824025 0 0.37682589963749002 0.081332762740894418 0 0.37307104071443398 0.061065176941414383 0 0.37596532967213542 0.069868995675824025 0 0.38282045226763678 0.060547433734587333 0 0.38583977896057609 0.075316135258006081 0 0.37596532967213542 0.069868995675824025 0 0.38282045226763678 0.060547433734587333 0 0.39992923875424519 0.082621500021195282 0 0.38412803848747967 0.086259474622970303 0 0.38759228221014619 0.095233220303727467 0 0.39992923875424519 0.082621500021195282 0 0.38583977896057609 0.075316135258006081 0 0.38412803848747967 0.086259474622970303 0 0.37045299287494049 0.09679375479102828 0 0.38412803848747967 0.086259474622970303 0 0.38759228221014619 0.095233220303727467 0 0.38583977896057609 0.075316135258006081 0 0.38412803848747967 0.086259474622970303 0 0.37682589963749002 0.081332762740894418 0 0.37045299287494049 0.09679375479102828 0 0.38412803848747967 0.086259474622970303 0 0.37682589963749002 0.081332762740894418 0 0.37045299287494049 0.09679375479102828 0 0.38005682511468147 0.12140739343396729 0 0.37045299287494049 0.09679375479102828 0 0.38759228221014619 0.095233220303727467 0 0.38890959528695412 0.1083938038889192 0 0.37045299287494049 0.09679375479102828 0 0.38890959528695412 0.1083938038889192 0 0.38005682511468147 0.12140739343396729 0 0.39398634319161102 0.12556361147638159 0 0.38890959528695412 0.1083938038889192 0 0.38005682511468147 0.12140739343396729 0 0.39398634319161102 0.12556361147638159 0 0.38890959528695412 0.1083938038889192 0 0.39948393258462489 0.11301500309558379 0 0.39398634319161102 0.12556361147638159 0 0.40630256149234217 0.12337914253670321 0 0.39948393258462489 0.11301500309558379 0 0.41145911669595331 0.1096997076075869 0 0.40630256149234217 0.12337914253670321 0 0.39948393258462489 0.11301500309558379 0 0.41145911669595331 0.1096997076075869 0 0.39948393258462489 0.11301500309558379 0 0.40188519574572068 0.098349840232826835 0 0.38759228221014619 0.095233220303727467 0 0.38890959528695412 0.1083938038889192 0 0.40188519574572068 0.098349840232826835 0 0.38890959528695412 0.1083938038889192 0 0.39948393258462489 0.11301500309558379 0 0.40188519574572068 0.098349840232826835 0 0.3912475249538237 0.025882868266216091 0 0.40325323122183843 0.024352223252143548 0 0.39536881189699241 0.01378873843063998 0 0.3912475249538237 0.025882868266216091 0 0.40325323122183843 0.024352223252143548 0 0.39805180056669343 0.032772735105760037 0 0.40325323122183843 0.024352223252143548 0 0.39805180056669343 0.032772735105760037 0 0.40655765028286611 0.035582104639029083 0 0.40325323122183843 0.024352223252143548 0 0.39536881189699241 0.01378873843063998 0 0.40720094273855439 0.01372602960598159 0 0.40060323373222451 0.0042547197705496897 0 0.39536881189699241 0.01378873843063998 0 0.40720094273855439 0.01372602960598159 0 0.40060323373222451 0.0042547197705496897 0 0.41081432206005303 0.0037114498956348132 0 0.4046584776842293 -0.0050702490882302163 0 0.40060323373222451 0.0042547197705496897 0 0.41081432206005303 0.0037114498956348132 0 0.40720094273855439 0.01372602960598159 0 0.40060323373222451 0.0042547197705496897 0 0.39025836247721268 0.0036292771787240202 0 0.39531848553630572 -0.0042569273994520467 0 0.40060323373222451 0.0042547197705496897 0 0.39536881189699241 0.01378873843063998 0 0.39025836247721268 0.0036292771787240202 0 0.37844401144479839 0.012609093579625891 0 0.38356146703633898 -0.0078565650350033434 0 0.37844401144479839 0.012609093579625891 0 0.39025836247721268 0.0036292771787240202 0 0.38356146703633898 -0.0078565650350033434 0 0.39536881189699241 0.01378873843063998 0 0.37844401144479839 0.012609093579625891 0 0.39025836247721268 0.0036292771787240202 0 0.3912475249538237 0.025882868266216091 0 0.37844401144479839 0.012609093579625891 0 0.38063223185621792 0.036578263657106522 0 0.37844401144479839 0.012609093579625891 0 0.38063223185621792 0.036578263657106522 0 0.37146335928247548 0.04052602251159599 0 0.37844401144479839 0.012609093579625891 0 0.38063223185621792 0.036578263657106522 0 0.3912475249538237 0.025882868266216091 0 0.39536881189699241 0.01378873843063998 0 0.37844401144479839 0.012609093579625891 0 0.37146335928247548 0.04052602251159599 0 0.38063223185621792 0.036578263657106522 0 0.38282045226763678 0.060547433734587333 0 0.3912475249538237 0.025882868266216091 0 0.38063223185621792 0.036578263657106522 0 0.3908528121234538 0.035995570554822158 0 0.38063223185621792 0.036578263657106522 0 0.38791705742610771 0.044539104287684539 0 0.3908528121234538 0.035995570554822158 0 0.38791705742610771 0.044539104287684539 0 0.38282045226763678 0.060547433734587333 0 0.39079668350586277 0.051215399393808793 0 0.37307104071443398 0.061065176941414383 0 0.37146335928247548 0.04052602251159599 0 0.38282045226763678 0.060547433734587333 0 0.38063223185621792 0.036578263657106522 0 0.38791705742610771 0.044539104287684539 0 0.38282045226763678 0.060547433734587333 0 0.38063223185621792 0.036578263657106522 0 0.38282045226763678 0.060547433734587333 0 0.38282045226763678 0.060547433734587333 0 0.39683376059791597 0.058855427163935138 0 0.39079668350586277 0.051215399393808793 0 0.41226619529834591 0.070009779738664735 0 0.39683376059791597 0.058855427163935138 0 0.40948896714378957 0.05055434744181983 0 0.39683376059791597 0.058855427163935138 0 0.39079668350586277 0.051215399393808793 0 0.39674782008621368 0.04348041067995833 0 0.39683376059791597 0.058855427163935138 0 0.39674782008621368 0.04348041067995833 0 0.40948896714378957 0.05055434744181983 0 0.3908528121234538 0.035995570554822158 0 0.39805180056669343 0.032772735105760037 0 0.39674782008621368 0.04348041067995833 0 0.3912475249538237 0.025882868266216091 0 0.3908528121234538 0.035995570554822158 0 0.39805180056669343 0.032772735105760037 0 0.38791705742610771 0.044539104287684539 0 0.3908528121234538 0.035995570554822158 0 0.39674782008621368 0.04348041067995833 0 0.38791705742610771 0.044539104287684539 0 0.39079668350586277 0.051215399393808793 0 0.39674782008621368 0.04348041067995833 0 0.39674782008621368 0.04348041067995833 0 0.40655765028286611 0.035582104639029083 0 0.40948896714378957 0.05055434744181983 0 0.39805180056669343 0.032772735105760037 0 0.39674782008621368 0.04348041067995833 0 0.40655765028286611 0.035582104639029083 0 0.40655765028286611 0.035582104639029083 0 0.41713079569888262 0.040856968430241461 0 0.41557099838193923 0.024039796491718179 0 0.41713079569888262 0.040856968430241461 0 0.42755741698364552 0.032815777208855347 0 0.41557099838193923 0.024039796491718179 0 0.40655765028286611 0.035582104639029083 0 0.41713079569888262 0.040856968430241461 0 0.40948896714378957 0.05055434744181983 0 0.41226619529834591 0.070009779738664735 0 0.40948896714378957 0.05055434744181983 0 0.42739758089851382 0.054541393999090262 0 0.41713079569888262 0.040856968430241461 0 0.40948896714378957 0.05055434744181983 0 0.42739758089851382 0.054541393999090262 0 0.41226619529834591 0.070009779738664735 0 0.42739758089851382 0.054541393999090262 0 0.43300293116684879 0.070359854062556224 0 0.42739758089851382 0.054541393999090262 0 0.44432728466234178 0.059795406129610977 0 0.41713079569888262 0.040856968430241461 0 0.42739758089851382 0.054541393999090262 0 0.42755741698364552 0.032815777208855347 0 0.42739758089851382 0.054541393999090262 0 0.42755741698364552 0.032815777208855347 0 0.44252896649868317 0.039073008259517338 0 0.42739758089851382 0.054541393999090262 0 0.44252896649868317 0.039073008259517338 0 0.42755741698364552 0.032815777208855347 0 0.4358194844604939 0.024219735287320941 0 0.44252896649868317 0.039073008259517338 0 0.42755741698364552 0.032815777208855347 0 0.41557099838193923 0.024039796491718179 0 0.4265644217351573 0.014684511896395219 0 0.4358194844604939 0.024219735287320941 0 0.4265644217351573 0.014684511896395219 0 0.44548351627008242 0.01642882659412407 0 0.42755741698364552 0.032815777208855347 0 0.4358194844604939 0.024219735287320941 0 0.4265644217351573 0.014684511896395219 0 0.41557099838193923 0.024039796491718179 0 0.4165272652869268 0.01155925859927168 0 0.4265644217351573 0.014684511896395219 0 0.41557099838193923 0.024039796491718179 0 0.40720094273855439 0.01372602960598159 0 0.4165272652869268 0.01155925859927168 0 0.40325323122183843 0.024352223252143548 0 0.41557099838193923 0.024039796491718179 0 0.40720094273855439 0.01372602960598159 0 0.40325323122183843 0.024352223252143548 0 0.40655765028286611 0.035582104639029083 0 0.41557099838193923 0.024039796491718179 0 0.41081432206005303 0.0037114498956348132 0 0.40720094273855439 0.01372602960598159 0 0.4165272652869268 0.01155925859927168 0 0.4165272652869268 0.01155925859927168 0 0.42248564151892998 0.0016345051066286029 0 0.4265644217351573 0.014684511896395219 0 0.41081432206005303 0.0037114498956348132 0 0.4165272652869268 0.01155925859927168 0 0.42248564151892998 0.0016345051066286029 0 0.42248564151892998 0.0016345051066286029 0 0.4265644217351573 0.014684511896395219 0 0.4382820622288856 -0.0014159552958160841 0 0.4265644217351573 0.014684511896395219 0 0.44548351627008242 0.01642882659412407 0 0.4382820622288856 -0.0014159552958160841 0 0.45100246047295739 0.0046664116742636159 0 0.44548351627008242 0.01642882659412407 0 0.4382820622288856 -0.0014159552958160841 0 0.45100246047295739 0.0046664116742636159 0 0.44548351627008242 0.01642882659412407 0 0.4580470330794123 0.0188547641718908 0 0.4358194844604939 0.024219735287320941 0 0.4514029071021442 0.02821869916314456 0 0.44548351627008242 0.01642882659412407 0 0.4358194844604939 0.024219735287320941 0 0.4514029071021442 0.02821869916314456 0 0.44252896649868317 0.039073008259517338 0 0.4514029071021442 0.02821869916314456 0 0.44548351627008242 0.01642882659412407 0 0.4580470330794123 0.0188547641718908 0 0.4514029071021442 0.02821869916314456 0 0.4580470330794123 0.0188547641718908 0 0.46553563141862692 0.027383902935855992 0 0.4580470330794123 0.0188547641718908 0 0.46553563141862692 0.027383902935855992 0 0.471035018561343 0.01684384088441979 0 0.4580470330794123 0.0188547641718908 0 0.4620271672997433 0.0081957990277541914 0 0.471035018561343 0.01684384088441979 0 0.4620271672997433 0.0081957990277541914 0 0.47207727543944228 0.0077163925679632076 0 0.45540766643685782 -0.0078732224449345398 0 0.4620271672997433 0.0081957990277541914 0 0.47207727543944228 0.0077163925679632076 0 0.471035018561343 0.01684384088441979 0 0.45100246047295739 0.0046664116742636159 0 0.4620271672997433 0.0081957990277541914 0 0.45540766643685782 -0.0078732224449345398 0 0.45100246047295739 0.0046664116742636159 0 0.4580470330794123 0.0188547641718908 0 0.4620271672997433 0.0081957990277541914 0 0.42739758089851382 0.054541393999090262 0 0.44432728466234178 0.059795406129610977 0 0.44252896649868317 0.039073008259517338 0 0.44432728466234178 0.059795406129610977 0 0.44252896649868317 0.039073008259517338 0 0.46100281088556699 0.043351957730158222 0 0.4514029071021442 0.02821869916314456 0 0.44252896649868317 0.039073008259517338 0 0.46100281088556699 0.043351957730158222 0 0.4514029071021442 0.02821869916314456 0 0.46553563141862692 0.027383902935855992 0 0.46100281088556699 0.043351957730158222 0 0.46553563141862692 0.027383902935855992 0 0.46100281088556699 0.043351957730158222 0 0.4764725540003833 0.035303178421407518 0 0.46368779630991369 0.062884433647911922 0 0.44432728466234178 0.059795406129610977 0 0.46100281088556699 0.043351957730158222 0 0.48297411160829701 0.071419164250366693 0 0.46368779630991369 0.062884433647911922 0 0.48184389815495748 0.047383459182506117 0 0.46368779630991369 0.062884433647911922 0 0.46100281088556699 0.043351957730158222 0 0.48184389815495748 0.047383459182506117 0 0.46368779630991369 0.062884433647911922 0 0.48184389815495748 0.047383459182506117 0 0.46100281088556699 0.043351957730158222 0 0.48184389815495748 0.047383459182506117 0 0.4764725540003833 0.035303178421407518 0 0.48184389815495748 0.047383459182506117 0 0.50000000000000089 0.031882484717099757 0 0.48184389815495748 0.047383459182506117 0 0.50000000000000089 0.031882484717099757 0 0.5 0.058972369132007867 0 0.48184389815495748 0.047383459182506117 0 0.4764725540003833 0.035303178421407518 0 0.50000000000000089 0.031882484717099757 0 0.48297411160829701 0.071419164250366693 0 0.48184389815495748 0.047383459182506117 0 0.5 0.058972369132007867 0 0.48173822001607031 0.002441982684480838 0 0.47207727543944228 0.0077163925679632076 0 0.45540766643685782 -0.0078732224449345398 0 0.48073089036299149 0.01447516008145705 0 0.48088876464914698 0.0066420825236524483 0 0.47207727543944228 0.0077163925679632076 0 0.48088876464914698 0.0066420825236524483 0 0.48173822001607031 0.002441982684480838 0 0.48944624590280772 0.014576472087587141 0 0.48073089036299149 0.01447516008145705 0 0.48088876464914698 0.0066420825236524483 0 0.48944624590280772 0.014576472087587141 0 0.48088876464914698 0.0066420825236524483 0 0.48173822001607031 0.002441982684480838 0 0.47207727543944228 0.0077163925679632076 0 0.48088876464914698 0.0066420825236524483 0 0.48173822001607031 0.002441982684480838 0 0.48073089036299149 0.01447516008145705 0 0.47207727543944228 0.0077163925679632076 0 0.471035018561343 0.01684384088441979 0 0.46553563141862692 0.027383902935855992 0 0.471035018561343 0.01684384088441979 0 0.48098968552297122 0.023479159592672289 0 0.46553563141862692 0.027383902935855992 0 0.4764725540003833 0.035303178421407518 0 0.48098968552297122 0.023479159592672289 0 0.48073089036299149 0.01447516008145705 0 0.471035018561343 0.01684384088441979 0 0.48098968552297122 0.023479159592672289 0 0.48073089036299149 0.01447516008145705 0 0.48098968552297122 0.023479159592672289 0 0.48944624590280772 0.014576472087587141 0 0.50000000000000089 0.031882484717099757 0 0.50000000000000044 0.0095961811708810997 0 0.48944624590280772 0.014576472087587141 0 0.4764725540003833 0.035303178421407518 0 0.50000000000000089 0.031882484717099757 0 0.48098968552297122 0.023479159592672289 0 0.50000000000000089 0.031882484717099757 0 0.48098968552297122 0.023479159592672289 0 0.48944624590280772 0.014576472087587141 0 0.48173822001607031 0.002441982684480838 0 0.50000000000000044 0.0095961811708810997 0 0.48944624590280772 0.014576472087587141 0 0.48173822001607031 0.002441982684480838 0 0.50000000000000044 0.0095961811708810997 0 0.48173822001607031 0.002441982684480838 0 0.50000000000000044 0.0095961811708810997 0 0.5 -0.01553848795347695 0 0.48173822001607031 0.002441982684480838 0 0.5 -0.01553848795347695 0 0.48723509010938909 -0.024737082977995831 0 0.48173822001607031 0.002441982684480838 0 0.48723509010938909 -0.024737082977995831 0 0.48173822001607031 0.002441982684480838 0 0.46944239540012012 -0.021901386132034111 0 0.45540766643685782 -0.0078732224449345398 0 0.48173822001607031 0.002441982684480838 0 0.46944239540012012 -0.021901386132034111 0 0.48723509010938909 -0.024737082977995831 0 0.46944239540012012 -0.021901386132034111 0 0.48723509010938909 -0.024737082977995831 0 0.47311684284700922 -0.039980301183512167 0 0.5 -0.01553848795347695 0 0.48723509010938909 -0.024737082977995831 0 0.5 -0.040673157077835087 0 0.48723509010938909 -0.024737082977995831 0 0.49273196020270971 -0.051916148640471983 0 0.48034048547664182 -0.050194577481915269 0 0.48723509010938909 -0.024737082977995831 0 0.49273196020270971 -0.051916148640471983 0 0.48723509010938909 -0.024737082977995831 0 0.5 -0.040673157077835087 0 0.49273196020270971 -0.051916148640471983 0 0.5 -0.040673157077835087 0 0.49273196020270971 -0.051916148640471983 0 0.5 -0.065807826202193331 0 0.49273196020270971 -0.051916148640471983 0 0.48384360039889979 -0.062204599920787272 0 0.48034048547664182 -0.050194577481915269 0 0.48034048547664182 -0.050194577481915269 0 0.47035120232490191 -0.060528185902064997 0 0.47311684284700922 -0.039980301183512167 0 0.47035120232490191 -0.060528185902064997 0 0.47311684284700922 -0.039980301183512167 0 0.48384360039889979 -0.062204599920787272 0 0.48034048547664182 -0.050194577481915269 0 0.47035120232490191 -0.060528185902064997 0 0.48723509010938909 -0.024737082977995831 0 0.48034048547664182 -0.050194577481915269 0 0.47311684284700922 -0.039980301183512167 0 0.46944239540012012 -0.021901386132034111 0 0.47311684284700922 -0.039980301183512167 0 0.44971415759127392 -0.039358306738208573 0 0.47035120232490191 -0.060528185902064997 0 0.47311684284700922 -0.039980301183512167 0 0.44971415759127392 -0.039358306738208573 0 0.47035120232490191 -0.060528185902064997 0 0.44971415759127392 -0.039358306738208573 0 0.47035120232490191 -0.060528185902064997 0 0.43963483674523918 -0.055334607978488382 0 0.44971415759127392 -0.039358306738208573 0 0.43963483674523918 -0.055334607978488382 0 0.44971415759127392 -0.039358306738208573 0 0.42419530264354072 -0.042652000491910397 0 0.46944239540012012 -0.021901386132034111 0 0.44971415759127392 -0.039358306738208573 0 0.45540766643685782 -0.0078732224449345398 0 0.44971415759127392 -0.039358306738208573 0 0.42907711285764621 -0.01818842757435184 0 0.44971415759127392 -0.039358306738208573 0 0.45540766643685782 -0.0078732224449345398 0 0.42907711285764621 -0.01818842757435184 0 0.45540766643685782 -0.0078732224449345398 0 0.42907711285764621 -0.01818842757435184 0 0.45100246047295739 0.0046664116742636159 0 0.4382820622288856 -0.0014159552958160841 0 0.45540766643685782 -0.0078732224449345398 0 0.4382820622288856 -0.0014159552958160841 0 0.45540766643685782 -0.0078732224449345398 0 0.42907711285764621 -0.01818842757435184 0 0.48173822001607031 0.002441982684480838 0 0.45540766643685782 -0.0078732224449345398 0 0.47129126618897188 -0.1223351355815797 0 0.47148248434309947 -0.114916285604633 0 0.48087269318342413 -0.1216818802472065 0 0.47148248434309947 -0.114916285604633 0 0.48087269318342413 -0.1216818802472065 0 0.47838814501791832 -0.1066654575105275 0 0.48087269318342413 -0.1216818802472065 0 0.48924328608656842 -0.1141618265083332 0 0.47838814501791832 -0.1066654575105275 0 0.5 -0.1122204549214597 0 0.48924328608656842 -0.1141618265083332 0 0.5 -0.13349841451636779 0 0.48087269318342413 -0.1216818802472065 0 0.48924328608656842 -0.1141618265083332 0 0.5 -0.13349841451636779 0 0.5 -0.1122204549214597 0 0.48924328608656842 -0.1141618265083332 0 0.48827073793524339 -0.097774102912636218 0 0.48924328608656842 -0.1141618265083332 0 0.48827073793524339 -0.097774102912636218 0 0.47838814501791832 -0.1066654575105275 0 0.5 -0.1122204549214597 0 0.48827073793524339 -0.097774102912636218 0 0.50000000000000266 -0.090942495326551576 0 0.47652975213937199 -0.091635549067057065 0 0.46683976751390588 -0.086617099886465918 0 0.46456669494636288 -0.10350535152343909 0 0.48827073793524339 -0.097774102912636218 0 0.47838814501791832 -0.1066654575105275 0 0.47652975213937199 -0.091635549067057065 0 0.47148248434309947 -0.114916285604633 0 0.47838814501791832 -0.1066654575105275 0 0.46456669494636288 -0.10350535152343909 0 0.47838814501791832 -0.1066654575105275 0 0.47652975213937199 -0.091635549067057065 0 0.46456669494636288 -0.10350535152343909 0 0.48827073793524339 -0.097774102912636218 0 0.47652975213937199 -0.091635549067057065 0 0.48517560116245317 -0.075735340614307423 0 0.47652975213937199 -0.091635549067057065 0 0.48517560116245317 -0.075735340614307423 0 0.46683976751390588 -0.086617099886465918 0 0.47652975213937199 -0.091635549067057065 0 0.46683976751390588 -0.086617099886465918 0 0.50000000000000266 -0.090942495326551576 0 0.49822883029603021 -0.079095214302948247 0 0.5 -0.065807826202193331 0 0.48827073793524339 -0.097774102912636218 0 0.50000000000000266 -0.090942495326551576 0 0.48517560116245317 -0.075735340614307423 0 0.50000000000000266 -0.090942495326551576 0 0.48517560116245317 -0.075735340614307423 0 0.50000000000000266 -0.090942495326551576 0 0.49822883029603021 -0.079095214302948247 0 0.48517560116245317 -0.075735340614307423 0 0.49273196020270971 -0.051916148640471983 0 0.49822883029603021 -0.079095214302948247 0 0.48384360039889979 -0.062204599920787272 0 0.49822883029603021 -0.079095214302948247 0 0.48517560116245317 -0.075735340614307423 0 0.49273196020270971 -0.051916148640471983 0 0.48384360039889979 -0.062204599920787272 0 0.49822883029603021 -0.079095214302948247 0 0.49273196020270971 -0.051916148640471983 0 0.49822883029603021 -0.079095214302948247 0 0.5 -0.065807826202193331 0 0.47035120232490191 -0.060528185902064997 0 0.48517560116245317 -0.075735340614307423 0 0.47035120232490191 -0.060528185902064997 0 0.48517560116245317 -0.075735340614307423 0 0.46683976751390588 -0.086617099886465918 0 0.48384360039889979 -0.062204599920787272 0 0.47035120232490191 -0.060528185902064997 0 0.48517560116245317 -0.075735340614307423 0 0.47035120232490191 -0.060528185902064997 0 0.46683976751390588 -0.086617099886465918 0 0.47035120232490191 -0.060528185902064997 0 0.44249197108241189 -0.074007360679063244 0 0.46683976751390588 -0.086617099886465918 0 0.47035120232490191 -0.060528185902064997 0 0.43963483674523918 -0.055334607978488382 0 0.44249197108241189 -0.074007360679063244 0 0.44249197108241189 -0.074007360679063244 0 0.46683976751390588 -0.086617099886465918 0 0.4490662803509099 -0.094083529251462475 0 0.44249197108241189 -0.074007360679063244 0 0.4490662803509099 -0.094083529251462475 0 0.42834270349958448 -0.099226311759436261 0 0.44249197108241189 -0.074007360679063244 0 0.46683976751390588 -0.086617099886465918 0 0.46683976751390588 -0.086617099886465918 0 0.46456669494636288 -0.10350535152343909 0 0.4490662803509099 -0.094083529251462475 0 0.46683976751390588 -0.086617099886465918 0 0.46456669494636288 -0.10350535152343909 0 0.46456669494636288 -0.10350535152343909 0 0.4490662803509099 -0.094083529251462475 0 0.44386094964032902 -0.11054798122052439 0 0.4490662803509099 -0.094083529251462475 0 0.44386094964032902 -0.11054798122052439 0 0.42834270349958448 -0.099226311759436261 0 0.44386094964032902 -0.11054798122052439 0 0.46257396642688631 -0.12529077885077469 0 0.45239247298790419 -0.125419693033265 0 0.44386094964032902 -0.11054798122052439 0 0.42916935431308728 -0.1205456085246996 0 0.4435038969132965 -0.12540022695152131 0 0.44386094964032902 -0.11054798122052439 0 0.45239247298790419 -0.125419693033265 0 0.4435038969132965 -0.12540022695152131 0 0.44386094964032902 -0.11054798122052439 0 0.46229362237882032 -0.1203936031604123 0 0.46257396642688631 -0.12529077885077469 0 0.46456669494636288 -0.10350535152343909 0 0.46229362237882032 -0.1203936031604123 0 0.46456669494636288 -0.10350535152343909 0 0.44386094964032902 -0.11054798122052439 0 0.46229362237882032 -0.1203936031604123 0 0.44386094964032902 -0.11054798122052439 0 0.46257396642688631 -0.12529077885077469 0 0.47148248434309947 -0.114916285604633 0 0.46456669494636288 -0.10350535152343909 0 0.46229362237882032 -0.1203936031604123 0 0.47129126618897188 -0.1223351355815797 0 0.46229362237882032 -0.1203936031604123 0 0.46257396642688631 -0.12529077885077469 0 0.47129126618897188 -0.1223351355815797 0 0.47148248434309947 -0.114916285604633 0 0.46229362237882032 -0.1203936031604123 0 0.44386094964032902 -0.11054798122052439 0 0.42916935431308728 -0.1205456085246996 0 0.42834270349958448 -0.099226311759436261 0 0.41143930547928681 -0.11934523636421419 0 0.42916935431308728 -0.1205456085246996 0 0.42834270349958448 -0.099226311759436261 0 0.41143930547928681 -0.11934523636421419 0 0.40555832972599831 -0.095826118330896617 0 0.41143930547928681 -0.11934523636421419 0 0.42834270349958448 -0.099226311759436261 0 0.40555832972599831 -0.095826118330896617 0 0.42834270349958448 -0.099226311759436261 0 0.41884290658632428 -0.080552882507727325 0 0.40555832972599831 -0.095826118330896617 0 0.41884290658632428 -0.080552882507727325 0 0.39967735397270959 -0.072307000297579083 0 0.40555832972599831 -0.095826118330896617 0 0.44249197108241189 -0.074007360679063244 0 0.42834270349958448 -0.099226311759436261 0 0.41884290658632428 -0.080552882507727325 0 0.44249197108241189 -0.074007360679063244 0 0.41814417465091752 -0.061397621471661459 0 0.43963483674523918 -0.055334607978488382 0 0.44249197108241189 -0.074007360679063244 0 0.41814417465091752 -0.061397621471661459 0 0.44249197108241189 -0.074007360679063244 0 0.41884290658632428 -0.080552882507727325 0 0.41814417465091752 -0.061397621471661459 0 0.41884290658632428 -0.080552882507727325 0 0.39967735397270959 -0.072307000297579083 0 0.41814417465091752 -0.061397621471661459 0 0.39967735397270959 -0.072307000297579083 0 0.38669795957132042 -0.057310603286660967 0 0.37240766699872252 -0.068318548019290964 0 0.39967735397270959 -0.072307000297579083 0 0.37781097748786241 -0.089314889372882261 0 0.37240766699872252 -0.068318548019290964 0 0.39967735397270959 -0.072307000297579083 0 0.37781097748786241 -0.089314889372882261 0 0.40555832972599831 -0.095826118330896617 0 0.39967735397270959 -0.072307000297579083 0 0.40555832972599831 -0.095826118330896617 0 0.40555832972599831 -0.095826118330896617 0 0.38953803654933628 -0.10754997095337659 0 0.39823574772599779 -0.11763079726210079 0 0.37781097748786241 -0.089314889372882261 0 0.40555832972599831 -0.095826118330896617 0 0.38953803654933628 -0.10754997095337659 0 0.37781097748786241 -0.089314889372882261 0 0.38953803654933628 -0.10754997095337659 0 0.37644505785585192 -0.1058120404938334 0 0.38953803654933628 -0.10754997095337659 0 0.37644505785585192 -0.1058120404938334 0 0.37720890243704291 -0.12310924361699779 0 0.38953803654933628 -0.10754997095337659 0 0.37720890243704291 -0.12310924361699779 0 0.38918813321375051 -0.12739880168557821 0 0.38953803654933628 -0.10754997095337659 0 0.39823574772599779 -0.11763079726210079 0 0.38918813321375051 -0.12739880168557821 0 0.41143930547928681 -0.11934523636421419 0 0.39823574772599779 -0.11763079726210079 0 0.40257569972698831 -0.13396225485532559 0 0.41143930547928681 -0.11934523636421419 0 0.40555832972599831 -0.095826118330896617 0 0.39823574772599779 -0.11763079726210079 0 0.42011428296152808 -0.02169968792975261 0 0.41401194260749391 -0.028450411104576211 0 0.41343304557213612 -0.018371446868227208 0 0.42011428296152808 -0.02169968792975261 0 0.41343304557213612 -0.018371446868227208 0 0.41928481904255338 -0.01548900553927589 0 0.42011428296152808 -0.02169968792975261 0 0.41928481904255338 -0.01548900553927589 0 0.42542521438275183 -0.0144422395697206 0 0.42011428296152808 -0.02169968792975261 0 0.41401194260749391 -0.028450411104576211 0 0.42742255973229643 -0.030069766767760062 0 0.41401194260749391 -0.028450411104576211 0 0.40522076275047969 -0.019933987949522329 0 0.40044964155059998 -0.029094842751199331 0 0.41401194260749391 -0.028450411104576211 0 0.41343304557213612 -0.018371446868227208 0 0.40522076275047969 -0.019933987949522329 0 0.41343304557213612 -0.018371446868227208 0 0.40806592415966281 -0.01253819616599721 0 0.40522076275047969 -0.019933987949522329 0 0.40806592415966281 -0.01253819616599721 0 0.4135204533098043 -0.0054466611181140526 0 0.41498054603746559 -0.011947546426581419 0 0.41343304557213612 -0.018371446868227208 0 0.40806592415966281 -0.01253819616599721 0 0.41498054603746559 -0.011947546426581419 0 0.41081432206005303 0.0037114498956348132 0 0.4135204533098043 -0.0054466611181140526 0 0.4046584776842293 -0.0050702490882302163 0 0.40806592415966281 -0.01253819616599721 0 0.4135204533098043 -0.0054466611181140526 0 0.4046584776842293 -0.0050702490882302163 0 0.41081432206005303 0.0037114498956348132 0 0.42248564151892998 0.0016345051066286029 0 0.4135204533098043 -0.0054466611181140526 0 0.42248564151892998 0.0016345051066286029 0 0.4135204533098043 -0.0054466611181140526 0 0.42119781252485211 -0.0083000839364812864 0 0.41343304557213612 -0.018371446868227208 0 0.41498054603746559 -0.011947546426581419 0 0.41928481904255338 -0.01548900553927589 0 0.4135204533098043 -0.0054466611181140526 0 0.41498054603746559 -0.011947546426581419 0 0.42119781252485211 -0.0083000839364812864 0 0.41498054603746559 -0.011947546426581419 0 0.42119781252485211 -0.0083000839364812864 0 0.41928481904255338 -0.01548900553927589 0 0.42542521438275183 -0.0144422395697206 0 0.42820760236351979 -0.0076976995852137747 0 0.42907711285764621 -0.01818842757435184 0 0.4382820622288856 -0.0014159552958160841 0 0.42820760236351979 -0.0076976995852137747 0 0.42907711285764621 -0.01818842757435184 0 0.42119781252485211 -0.0083000839364812864 0 0.41928481904255338 -0.01548900553927589 0 0.42542521438275183 -0.0144422395697206 0 0.42248564151892998 0.0016345051066286029 0 0.4382820622288856 -0.0014159552958160841 0 0.42820760236351979 -0.0076976995852137747 0 0.42119781252485211 -0.0083000839364812864 0 0.42542521438275183 -0.0144422395697206 0 0.42820760236351979 -0.0076976995852137747 0 0.42248564151892998 0.0016345051066286029 0 0.42119781252485211 -0.0083000839364812864 0 0.42820760236351979 -0.0076976995852137747 0 0.44971415759127392 -0.039358306738208573 0 0.42907711285764621 -0.01818842757435184 0 0.42742255973229643 -0.030069766767760062 0 0.42011428296152808 -0.02169968792975261 0 0.42907711285764621 -0.01818842757435184 0 0.42742255973229643 -0.030069766767760062 0 0.42011428296152808 -0.02169968792975261 0 0.42542521438275183 -0.0144422395697206 0 0.42907711285764621 -0.01818842757435184 0 0.42011428296152808 -0.02169968792975261 0 0.42907711285764621 -0.01818842757435184 0 0.42542521438275183 -0.0144422395697206 0 0.42907711285764621 -0.01818842757435184 0 0.44971415759127392 -0.039358306738208573 0 0.42742255973229643 -0.030069766767760062 0 0.42419530264354072 -0.042652000491910397 0 0.41401194260749391 -0.028450411104576211 0 0.42742255973229643 -0.030069766767760062 0 0.42419530264354072 -0.042652000491910397 0 0.43963483674523918 -0.055334607978488382 0 0.42419530264354072 -0.042652000491910397 0 0.41814417465091752 -0.061397621471661459 0 0.41814417465091752 -0.061397621471661459 0 0.41107184061272262 -0.047596707948501772 0 0.39379637821942232 -0.04878788226426127 0 0.42419530264354072 -0.042652000491910397 0 0.41814417465091752 -0.061397621471661459 0 0.41107184061272262 -0.047596707948501772 0 0.41401194260749391 -0.028450411104576211 0 0.42419530264354072 -0.042652000491910397 0 0.40815150693701141 -0.037549327566173699 0 0.42419530264354072 -0.042652000491910397 0 0.41107184061272262 -0.047596707948501772 0 0.40815150693701141 -0.037549327566173699 0 0.41401194260749391 -0.028450411104576211 0 0.40815150693701141 -0.037549327566173699 0 0.40044964155059998 -0.029094842751199331 0 0.41107184061272262 -0.047596707948501772 0 0.40815150693701141 -0.037549327566173699 0 0.39379637821942232 -0.04878788226426127 0 0.40815150693701141 -0.037549327566173699 0 0.39379637821942232 -0.04878788226426127 0 0.40044964155059998 -0.029094842751199331 0 0.39379637821942232 -0.04878788226426127 0 0.38867892262788012 -0.028322223649632432 0 0.39379637821942232 -0.04878788226426127 0 0.38867892262788012 -0.028322223649632432 0 0.40044964155059998 -0.029094842751199331 0 0.39967735397270959 -0.072307000297579083 0 0.39379637821942232 -0.04878788226426127 0 0.38669795957132042 -0.057310603286660967 0 0.41814417465091752 -0.061397621471661459 0 0.39379637821942232 -0.04878788226426127 0 0.39967735397270959 -0.072307000297579083 0 0.39379637821942232 -0.04878788226426127 0 0.39967735397270959 -0.072307000297579083 0 0.41814417465091752 -0.061397621471661459 0 0.39379637821942232 -0.04878788226426127 0 0.39379637821942232 -0.04878788226426127 0 0.38896036142985008 -0.046283306103098283 0 0.38669795957132042 -0.057310603286660967 0 0.37839056082150663 -0.050608978831784571 0 0.37240766699872252 -0.068318548019290964 0 0.38669795957132042 -0.057310603286660967 0 0.37839056082150663 -0.050608978831784571 0 0.38896036142985008 -0.046283306103098283 0 0.39379637821942232 -0.04878788226426127 0 0.38669795957132042 -0.057310603286660967 0 0.38896036142985008 -0.046283306103098283 0 0.39379637821942232 -0.04878788226426127 0 0.38896036142985008 -0.046283306103098283 0 0.38867892262788012 -0.028322223649632432 0 0.3834615598562825 -0.037386722635115492 0 0.38896036142985008 -0.046283306103098283 0 0.38867892262788012 -0.028322223649632432 0 0.37839056082150663 -0.050608978831784571 0 0.3834615598562825 -0.037386722635115492 0 0.38896036142985008 -0.046283306103098283 0 0.37839056082150663 -0.050608978831784571 0 0.3834615598562825 -0.037386722635115492 0 0.37356965880113402 -0.040783236975350308 0 0.38867892262788012 -0.028322223649632432 0 0.38356146703633898 -0.0078565650350033434 0 0.3834615598562825 -0.037386722635115492 0 0.37600683512296651 -0.014087071697862221 0 0.37356965880113402 -0.040783236975350308 0 0.3834615598562825 -0.037386722635115492 0 0.38867892262788012 -0.028322223649632432 0 0.37600683512296651 -0.014087071697862221 0 0.38867892262788012 -0.028322223649632432 0 0.37600683512296651 -0.014087071697862221 0 0.38356146703633898 -0.0078565650350033434 0 0.38867892262788012 -0.028322223649632432 0 0.39658225960386179 -0.014459285545308009 0 0.38356146703633898 -0.0078565650350033434 0 0.38867892262788012 -0.028322223649632432 0 0.40044964155059998 -0.029094842751199331 0 0.39658225960386179 -0.014459285545308009 0 0.40522076275047969 -0.019933987949522329 0 0.40044964155059998 -0.029094842751199331 0 0.39658225960386179 -0.014459285545308009 0 0.40806592415966281 -0.01253819616599721 0 0.40522076275047969 -0.019933987949522329 0 0.39658225960386179 -0.014459285545308009 0 0.40060323373222451 0.0042547197705496897 0 0.4046584776842293 -0.0050702490882302163 0 0.39531848553630572 -0.0042569273994520467 0 0.40806592415966281 -0.01253819616599721 0 0.4046584776842293 -0.0050702490882302163 0 0.39658225960386179 -0.014459285545308009 0 0.4046584776842293 -0.0050702490882302163 0 0.39658225960386179 -0.014459285545308009 0 0.39531848553630572 -0.0042569273994520467 0 0.39658225960386179 -0.014459285545308009 0 0.39531848553630572 -0.0042569273994520467 0 0.38356146703633898 -0.0078565650350033434 0 0.39025836247721268 0.0036292771787240202 0 0.39531848553630572 -0.0042569273994520467 0 0.38356146703633898 -0.0078565650350033434 0 0.37844401144479839 0.012609093579625891 0 0.37600683512296651 -0.014087071697862221 0 0.37844401144479839 0.012609093579625891 0 0.37600683512296651 -0.014087071697862221 0 0.38356146703633898 -0.0078565650350033434 0 0.37600683512296651 -0.014087071697862221 0 0.36665723294200347 -0.001883505129568449 0 0.35850646790810559 -0.01395473468271459 0 0.37844401144479839 0.012609093579625891 0 0.37600683512296651 -0.014087071697862221 0 0.36665723294200347 -0.001883505129568449 0 0.36665723294200347 -0.001883505129568449 0 0.35531676971978082 -0.0033532784323768001 0 0.35850646790810559 -0.01395473468271459 0 0.37600683512296651 -0.014087071697862221 0 0.37356965880113402 -0.040783236975350308 0 0.37600683512296651 -0.014087071697862221 0 0.36404947753274258 -0.026706798856440471 0 0.35850646790810559 -0.01395473468271459 0 0.37600683512296651 -0.014087071697862221 0 0.36404947753274258 -0.026706798856440471 0 0.37356965880113402 -0.040783236975350308 0 0.34748556133762742 -0.02738266599094942 0 0.35850646790810559 -0.01395473468271459 0 0.34370628527030811 -0.0115647124322744 0 0.36404947753274258 -0.026706798856440471 0 0.34748556133762742 -0.02738266599094942 0 0.35850646790810559 -0.01395473468271459 0 0.36404947753274258 -0.026706798856440471 0 0.34748556133762742 -0.02738266599094942 0 0.36012817770438982 -0.039413746555128387 0 0.33689267375143878 0.0039255003288513873 0 0.35531676971978082 -0.0033532784323768001 0 0.34370628527030811 -0.0115647124322744 0 0.35531676971978082 -0.0033532784323768001 0 0.35850646790810559 -0.01395473468271459 0 0.34370628527030811 -0.0115647124322744 0 0.33689267375143878 0.0039255003288513873 0 0.34370628527030811 -0.0115647124322744 0 0.32469666258817742 -0.019557632270551 0 0.33689267375143878 0.0039255003288513873 0 0.30352242257352219 0.0039185454548519476 0 0.32469666258817742 -0.019557632270551 0 0.34748556133762742 -0.02738266599094942 0 0.34370628527030811 -0.0115647124322744 0 0.32469666258817742 -0.019557632270551 0 0.34748556133762742 -0.02738266599094942 0 0.32469666258817742 -0.019557632270551 0 0.33457477032001748 -0.043965109755099818 0 0.31326255248553708 -0.043768501277314603 0 0.32924913997341337 -0.063603686862235317 0 0.31014365419524398 -0.06072536978512106 0 0.31326255248553708 -0.043768501277314603 0 0.32924913997341337 -0.063603686862235317 0 0.31326255248553708 -0.043768501277314603 0 0.33457477032001748 -0.043965109755099818 0 0.32924913997341337 -0.063603686862235317 0 0.32469666258817742 -0.019557632270551 0 0.31326255248553708 -0.043768501277314603 0 0.33457477032001748 -0.043965109755099818 0 0.33457477032001748 -0.043965109755099818 0 0.34313363496153881 -0.061193084728204693 0 0.35029003257871461 -0.048624574981710279 0 0.33457477032001748 -0.043965109755099818 0 0.34313363496153881 -0.061193084728204693 0 0.32924913997341337 -0.063603686862235317 0 0.35029003257871461 -0.048624574981710279 0 0.36524615827173029 -0.053571455971191423 0 0.35631850447425872 -0.066333179594821989 0 0.34313363496153881 -0.061193084728204693 0 0.35029003257871461 -0.048624574981710279 0 0.35631850447425872 -0.066333179594821989 0 0.35029003257871461 -0.048624574981710279 0 0.36012817770438982 -0.039413746555128387 0 0.36524615827173029 -0.053571455971191423 0 0.34748556133762742 -0.02738266599094942 0 0.33457477032001748 -0.043965109755099818 0 0.35029003257871461 -0.048624574981710279 0 0.34748556133762742 -0.02738266599094942 0 0.35029003257871461 -0.048624574981710279 0 0.36012817770438982 -0.039413746555128387 0 0.36404947753274258 -0.026706798856440471 0 0.36012817770438982 -0.039413746555128387 0 0.37356965880113402 -0.040783236975350308 0 0.36012817770438982 -0.039413746555128387 0 0.37356965880113402 -0.040783236975350308 0 0.36524615827173029 -0.053571455971191423 0 0.37839056082150663 -0.050608978831784571 0 0.36524615827173029 -0.053571455971191423 0 0.37240766699872252 -0.068318548019290964 0 0.37839056082150663 -0.050608978831784571 0 0.37356965880113402 -0.040783236975350308 0 0.36524615827173029 -0.053571455971191423 0 0.36524615827173029 -0.053571455971191423 0 0.37240766699872252 -0.068318548019290964 0 0.35631850447425872 -0.066333179594821989 0 0.37240766699872252 -0.068318548019290964 0 0.36259903827425999 -0.08213590949324566 0 0.35631850447425872 -0.066333179594821989 0 0.37781097748786241 -0.089314889372882261 0 0.37240766699872252 -0.068318548019290964 0 0.36259903827425999 -0.08213590949324566 0 0.37781097748786241 -0.089314889372882261 0 0.36259903827425999 -0.08213590949324566 0 0.3612223149491664 -0.1032740580320769 0 0.34523572746128989 -0.083438872447156087 0 0.3612223149491664 -0.1032740580320769 0 0.36259903827425999 -0.08213590949324566 0 0.34523572746128989 -0.083438872447156087 0 0.3612223149491664 -0.1032740580320769 0 0.34313363496153881 -0.061193084728204693 0 0.34523572746128989 -0.083438872447156087 0 0.35631850447425872 -0.066333179594821989 0 0.36259903827425999 -0.08213590949324566 0 0.34523572746128989 -0.083438872447156087 0 0.35631850447425872 -0.066333179594821989 0 0.37720890243704291 -0.12310924361699779 0 0.36253108037134668 -0.1248744885805331 0 0.3612223149491664 -0.1032740580320769 0 0.37644505785585192 -0.1058120404938334 0 0.37720890243704291 -0.12310924361699779 0 0.3612223149491664 -0.1032740580320769 0 0.37720890243704291 -0.12310924361699779 0 0.3612223149491664 -0.1032740580320769 0 0.37781097748786241 -0.089314889372882261 0 0.37644505785585192 -0.1058120404938334 0 0.3612223149491664 -0.1032740580320769 0 0.34523572746128989 -0.083438872447156087 0 0.3612223149491664 -0.1032740580320769 0 0.33932087337301742 -0.1007066993955318 0 0.3612223149491664 -0.1032740580320769 0 0.34941185211170689 -0.1127717253903176 0 0.33932087337301742 -0.1007066993955318 0 0.36253108037134668 -0.1248744885805331 0 0.33587402752894302 -0.122350175475488 0 0.36253108037134668 -0.1248744885805331 0 0.34941185211170689 -0.1127717253903176 0 0.33587402752894302 -0.122350175475488 0 0.36253108037134668 -0.1248744885805331 0 0.3612223149491664 -0.1032740580320769 0 0.34941185211170689 -0.1127717253903176 0 0.34941185211170689 -0.1127717253903176 0 0.33587402752894302 -0.122350175475488 0 0.33932087337301742 -0.1007066993955318 0 0.33587402752894302 -0.122350175475488 0 0.33932087337301742 -0.1007066993955318 0 0.31943204723016899 -0.10139701157958859 0 0.33932087337301742 -0.1007066993955318 0 0.31943204723016899 -0.10139701157958859 0 0.32474927095682959 -0.081008353448563344 0 0.33587402752894302 -0.122350175475488 0 0.31943204723016899 -0.10139701157958859 0 0.3092169746865393 -0.1198258623704429 0 0.33587402752894302 -0.122350175475488 0 0.3092169746865393 -0.1198258623704429 0 0.34523572746128989 -0.083438872447156087 0 0.32924913997341337 -0.063603686862235317 0 0.32474927095682959 -0.081008353448563344 0 0.34523572746128989 -0.083438872447156087 0 0.32924913997341337 -0.063603686862235317 0 0.34313363496153881 -0.061193084728204693 0 0.34523572746128989 -0.083438872447156087 0 0.32924913997341337 -0.063603686862235317 0 0.34523572746128989 -0.083438872447156087 0 0.33932087337301742 -0.1007066993955318 0 0.32474927095682959 -0.081008353448563344 0 0.31943204723016899 -0.10139701157958859 0 0.32474927095682959 -0.081008353448563344 0 0.31117343018006932 -0.08835554327446378 0 0.32474927095682959 -0.081008353448563344 0 0.30201438303726968 -0.075929904193525521 0 0.32474927095682959 -0.081008353448563344 0 0.30201438303726968 -0.075929904193525521 0 0.31117343018006932 -0.08835554327446378 0 0.32924913997341337 -0.063603686862235317 0 0.32474927095682959 -0.081008353448563344 0 0.31014365419524398 -0.06072536978512106 0 0.32474927095682959 -0.081008353448563344 0 0.30201438303726968 -0.075929904193525521 0 0.31014365419524398 -0.06072536978512106 0 0.30201438303726968 -0.075929904193525521 0 0.31014365419524398 -0.06072536978512106 0 0.29222542489931519 -0.060978945333093171 0 0.31117343018006932 -0.08835554327446378 0 0.29442961060618023 -0.089764156713605506 0 0.30306705175182019 -0.101009202806625 0 0.30201438303726968 -0.075929904193525521 0 0.31117343018006932 -0.08835554327446378 0 0.29442961060618023 -0.089764156713605506 0 0.29442961060618023 -0.089764156713605506 0 0.28691460331806928 -0.079185378374353493 0 0.27734124638624891 -0.089737863242296378 0 0.30201438303726968 -0.075929904193525521 0 0.29442961060618023 -0.089764156713605506 0 0.28691460331806928 -0.079185378374353493 0 0.30201438303726968 -0.075929904193525521 0 0.27927949511770961 -0.070851454938488739 0 0.29222542489931519 -0.060978945333093171 0 0.30201438303726968 -0.075929904193525521 0 0.27927949511770961 -0.070851454938488739 0 0.30201438303726968 -0.075929904193525521 0 0.28691460331806928 -0.079185378374353493 0 0.27927949511770961 -0.070851454938488739 0 0.28691460331806928 -0.079185378374353493 0 0.27927949511770961 -0.070851454938488739 0 0.27809334201771629 -0.079209584513290715 0 0.28691460331806928 -0.079185378374353493 0 0.27927949511770961 -0.070851454938488739 0 0.27927949511770961 -0.070851454938488739 0 0.27868582307562201 -0.055886184139343542 0 0.29222542489931519 -0.060978945333093171 0 0.31943204723016899 -0.10139701157958859 0 0.3092169746865393 -0.1198258623704429 0 0.30306705175182019 -0.101009202806625 0 0.3092169746865393 -0.1198258623704429 0 0.30306705175182019 -0.101009202806625 0 0.28879183359809052 -0.10393054527906551 0 0.31943204723016899 -0.10139701157958859 0 0.31117343018006932 -0.08835554327446378 0 0.30306705175182019 -0.101009202806625 0 0.28879183359809052 -0.10393054527906551 0 0.28255992184413548 -0.11730154926539781 0 0.27267591943638608 -0.1048970298088977 0 0.29442961060618023 -0.089764156713605506 0 0.28879183359809052 -0.10393054527906551 0 0.27734124638624891 -0.089737863242296378 0 0.29442961060618023 -0.089764156713605506 0 0.30306705175182019 -0.101009202806625 0 0.28879183359809052 -0.10393054527906551 0 0.3092169746865393 -0.1198258623704429 0 0.28255992184413548 -0.11730154926539781 0 0.3092169746865393 -0.1198258623704429 0 0.28879183359809052 -0.10393054527906551 0 0.28255992184413548 -0.11730154926539781 0 0.3092169746865393 -0.1198258623704429 0 0.28255992184413548 -0.11730154926539781 0 0.28721398294742878 -0.13035474923543569 0 0.28255992184413548 -0.11730154926539781 0 0.26776517015272971 -0.1222840496799191 0 0.28721398294742878 -0.13035474923543569 0 0.28255992184413548 -0.11730154926539781 0 0.26776517015272971 -0.1222840496799191 0 0.27267591943638608 -0.1048970298088977 0 0.26776517015272971 -0.1222840496799191 0 0.27267591943638608 -0.1048970298088977 0 0.26047800574605201 -0.11084537767631369 0 0.28879183359809052 -0.10393054527906551 0 0.27267591943638608 -0.1048970298088977 0 0.27734124638624891 -0.089737863242296378 0 0.27267591943638608 -0.1048970298088977 0 0.27734124638624891 -0.089737863242296378 0 0.26256105175446781 -0.092679464148907056 0 0.25771864553297669 -0.099620140202181948 0 0.26047800574605201 -0.11084537767631369 0 0.24375228786211539 -0.116580291014256 0 0.27267591943638608 -0.1048970298088977 0 0.25771864553297669 -0.099620140202181948 0 0.26256105175446781 -0.092679464148907056 0 0.25771864553297669 -0.099620140202181948 0 0.25304747237378489 -0.090741332181114118 0 0.24292322406264641 -0.096552741650977186 0 0.25771864553297669 -0.099620140202181948 0 0.26256105175446781 -0.092679464148907056 0 0.25304747237378489 -0.090741332181114118 0 0.27267591943638608 -0.1048970298088977 0 0.25771864553297669 -0.099620140202181948 0 0.26047800574605201 -0.11084537767631369 0 0.26776517015272971 -0.1222840496799191 0 0.26153006621115998 -0.13421007507225571 0 0.24375228786211539 -0.116580291014256 0 0.26776517015272971 -0.1222840496799191 0 0.24375228786211539 -0.116580291014256 0 0.26776517015272971 -0.1222840496799191 0 0.26047800574605201 -0.11084537767631369 0 0.24375228786211539 -0.116580291014256 0 0.27927949511770961 -0.070851454938488739 0 0.25811154610651499 -0.066123023671663908 0 0.26329678137076351 -0.053405898285071182 0 0.27927949511770961 -0.070851454938488739 0 0.25811154610651499 -0.066123023671663908 0 0.26883802324883782 -0.077063641498024305 0 0.27927949511770961 -0.070851454938488739 0 0.25811154610651499 -0.066123023671663908 0 0.26883802324883782 -0.077063641498024305 0 0.27927949511770961 -0.070851454938488739 0 0.27809334201771629 -0.079209584513290715 0 0.26883802324883782 -0.077063641498024305 0 0.27809334201771629 -0.079209584513290715 0 0.27734124638624891 -0.089737863242296378 0 0.26883802324883782 -0.077063641498024305 0 0.27734124638624891 -0.089737863242296378 0 0.25202197504294188 -0.078400955310045109 0 0.28691460331806928 -0.079185378374353493 0 0.27809334201771629 -0.079209584513290715 0 0.27734124638624891 -0.089737863242296378 0 0.27734124638624891 -0.089737863242296378 0 0.26256105175446781 -0.092679464148907056 0 0.25202197504294188 -0.078400955310045109 0 0.27734124638624891 -0.089737863242296378 0 0.25202197504294188 -0.078400955310045109 0 0.26256105175446781 -0.092679464148907056 0 0.25304747237378489 -0.090741332181114118 0 0.25202197504294188 -0.078400955310045109 0 0.25304747237378489 -0.090741332181114118 0 0.25202197504294188 -0.078400955310045109 0 0.24624903761231479 -0.086847438891893419 0 0.26883802324883782 -0.077063641498024305 0 0.25202197504294188 -0.078400955310045109 0 0.25811154610651499 -0.066123023671663908 0 0.25811154610651499 -0.066123023671663908 0 0.26329678137076351 -0.053405898285071182 0 0.24870160087168189 -0.052882304334001928 0 0.26329678137076351 -0.053405898285071182 0 0.24870160087168189 -0.052882304334001928 0 0.24731406762381819 -0.035960341631652723 0 0.27927949511770961 -0.070851454938488739 0 0.26329678137076351 -0.053405898285071182 0 0.27868582307562201 -0.055886184139343542 0 0.27927949511770961 -0.070851454938488739 0 0.26329678137076351 -0.053405898285071182 0 0.26329678137076351 -0.053405898285071182 0 0.27868582307562201 -0.055886184139343542 0 0.27337213238318842 -0.044040078526876879 0 0.27868582307562201 -0.055886184139343542 0 0.27337213238318842 -0.044040078526876879 0 0.28525528160713332 -0.050154543613187753 0 0.26329678137076351 -0.053405898285071182 0 0.27337213238318842 -0.044040078526876879 0 0.26311483972878968 -0.036713614733010089 0 0.27337213238318842 -0.044040078526876879 0 0.27217486102646721 -0.027861542379398439 0 0.28494473946257981 -0.034556038004921102 0 0.27337213238318842 -0.044040078526876879 0 0.26311483972878968 -0.036713614733010089 0 0.27217486102646721 -0.027861542379398439 0 0.27337213238318842 -0.044040078526876879 0 0.28525528160713332 -0.050154543613187753 0 0.28494473946257981 -0.034556038004921102 0 0.26311483972878968 -0.036713614733010089 0 0.25941635623971138 -0.02230021284205122 0 0.24731406762381819 -0.035960341631652723 0 0.26329678137076351 -0.053405898285071182 0 0.24731406762381819 -0.035960341631652723 0 0.26329678137076351 -0.053405898285071182 0 0.26311483972878968 -0.036713614733010089 0 0.24731406762381819 -0.035960341631652723 0 0.25941635623971138 -0.02230021284205122 0 0.24731406762381819 -0.035960341631652723 0 0.2482857443068576 -0.021714794414400052 0 0.25941635623971138 -0.02230021284205122 0 0.25508119948702751 -0.010083838205662381 0 0.2482857443068576 -0.021714794414400052 0 0.26311483972878968 -0.036713614733010089 0 0.25941635623971138 -0.02230021284205122 0 0.27217486102646721 -0.027861542379398439 0 0.2541426920980116 -0.0036136263454906951 0 0.25508119948702751 -0.010083838205662381 0 0.24138147174972829 -0.0061427828714447699 0 0.2541426920980116 -0.0036136263454906951 0 0.25508119948702751 -0.010083838205662381 0 0.26047117107291767 -0.0019720443344692288 0 0.25446675038947358 0.0029162606258486688 0 0.2541426920980116 -0.0036136263454906951 0 0.26047117107291767 -0.0019720443344692288 0 0.25941635623971138 -0.02230021284205122 0 0.25508119948702751 -0.010083838205662381 0 0.26474460583379889 -0.01023883548432745 0 0.25941635623971138 -0.02230021284205122 0 0.26474460583379889 -0.01023883548432745 0 0.27166734417845928 -0.01430021117376327 0 0.25508119948702751 -0.010083838205662381 0 0.26474460583379889 -0.01023883548432745 0 0.26047117107291767 -0.0019720443344692288 0 0.26474460583379889 -0.01023883548432745 0 0.26047117107291767 -0.0019720443344692288 0 0.27708695819087842 -0.0025378708656911609 0 0.26474460583379889 -0.01023883548432745 0 0.27166734417845928 -0.01430021117376327 0 0.27708695819087842 -0.0025378708656911609 0 0.27166734417845928 -0.01430021117376327 0 0.27708695819087842 -0.0025378708656911609 0 0.28469269166600031 -0.01545933141113482 0 0.27217486102646721 -0.027861542379398439 0 0.28469269166600031 -0.01545933141113482 0 0.28494473946257981 -0.034556038004921102 0 0.25941635623971138 -0.02230021284205122 0 0.27166734417845928 -0.01430021117376327 0 0.27217486102646721 -0.027861542379398439 0 0.27166734417845928 -0.01430021117376327 0 0.27217486102646721 -0.027861542379398439 0 0.28469269166600031 -0.01545933141113482 0 0.28469269166600031 -0.01545933141113482 0 0.29727596499766062 -0.023933315692393788 0 0.28494473946257981 -0.034556038004921102 0 0.30352242257352219 0.0039185454548519476 0 0.28469269166600031 -0.01545933141113482 0 0.29727596499766062 -0.023933315692393788 0 0.30352242257352219 0.0039185454548519476 0 0.27708695819087842 -0.0025378708656911609 0 0.28469269166600031 -0.01545933141113482 0 0.30352242257352219 0.0039185454548519476 0 0.32469666258817742 -0.019557632270551 0 0.29727596499766062 -0.023933315692393788 0 0.32469666258817742 -0.019557632270551 0 0.31326255248553708 -0.043768501277314603 0 0.29727596499766062 -0.023933315692393788 0 0.31326255248553708 -0.043768501277314603 0 0.29727596499766062 -0.023933315692393788 0 0.2968975050950291 -0.045887416406534938 0 0.31326255248553708 -0.043768501277314603 0 0.29727596499766062 -0.023933315692393788 0 0.31326255248553708 -0.043768501277314603 0 0.2968975050950291 -0.045887416406534938 0 0.31014365419524398 -0.06072536978512106 0 0.2968975050950291 -0.045887416406534938 0 0.31014365419524398 -0.06072536978512106 0 0.29222542489931519 -0.060978945333093171 0 0.2968975050950291 -0.045887416406534938 0 0.29222542489931519 -0.060978945333093171 0 0.28525528160713332 -0.050154543613187753 0 0.27868582307562201 -0.055886184139343542 0 0.29222542489931519 -0.060978945333093171 0 0.28525528160713332 -0.050154543613187753 0 0.2968975050950291 -0.045887416406534938 0 0.28525528160713332 -0.050154543613187753 0 0.28494473946257981 -0.034556038004921102 0 0.29727596499766062 -0.023933315692393788 0 0.2968975050950291 -0.045887416406534938 0 0.28494473946257981 -0.034556038004921102 0 0.29579617193404978 -0.19432558104056491 0 0.30588539897632072 -0.22256652654210629 0 0.2776594049058328 -0.2175861504380624 0 0.29579617193404978 -0.19432558104056491 0 0.2776594049058328 -0.2175861504380624 0 0.2764107852420567 -0.19644220614923899 0 0.29579617193404978 -0.19432558104056491 0 0.2764107852420567 -0.19644220614923899 0 0.2792899687438003 -0.18116405860585089 0 0.29579617193404978 -0.19432558104056491 0 0.31045946319455608 -0.20263901644370941 0 0.31057073564158039 -0.17760626025882659 0 0.29579617193404978 -0.19432558104056491 0 0.30588539897632072 -0.22256652654210629 0 0.31045946319455608 -0.20263901644370941 0 0.30588539897632072 -0.22256652654210629 0 0.32020032842118662 -0.2136972324735969 0 0.29579617193404978 -0.19432558104056491 0 0.31045946319455608 -0.20263901644370941 0 0.30588539897632072 -0.22256652654210629 0 0.29681701546221179 -0.23419681124085551 0 0.31597462601859122 -0.25080747204364812 0 0.30111904597271899 -0.2536098058489899 0 0.30588539897632072 -0.22256652654210629 0 0.29681701546221179 -0.23419681124085551 0 0.31597462601859122 -0.25080747204364812 0 0.30588539897632072 -0.22256652654210629 0 0.31597462601859122 -0.25080747204364812 0 0.29681701546221179 -0.23419681124085551 0 0.31597462601859122 -0.25080747204364812 0 0.29681701546221179 -0.23419681124085551 0 0.30111904597271899 -0.2536098058489899 0 0.28456511698073272 -0.25518130134833977 0 0.29681701546221179 -0.23419681124085551 0 0.27830026498091959 -0.23745462562099759 0 0.28456511698073272 -0.25518130134833977 0 0.30588539897632072 -0.22256652654210629 0 0.29681701546221179 -0.23419681124085551 0 0.2776594049058328 -0.2175861504380624 0 0.29681701546221179 -0.23419681124085551 0 0.27830026498091959 -0.23745462562099759 0 0.2776594049058328 -0.2175861504380624 0 0.29681701546221179 -0.23419681124085551 0 0.2776594049058328 -0.2175861504380624 0 0.26584409390649738 -0.23415831621220631 0 0.27830026498091959 -0.23745462562099759 0 0.2776594049058328 -0.2175861504380624 0 0.26584409390649738 -0.23415831621220631 0 0.25658827463044448 -0.2222138965281123 0 0.2776594049058328 -0.2175861504380624 0 0.27830026498091959 -0.23745462562099759 0 0.28456511698073272 -0.25518130134833977 0 0.26629969424128969 -0.25192769388052821 0 0.26584409390649738 -0.23415831621220631 0 0.27830026498091959 -0.23745462562099759 0 0.26629969424128969 -0.25192769388052821 0 0.26584409390649738 -0.23415831621220631 0 0.25037283077400019 -0.2416092145933311 0 0.26629969424128969 -0.25192769388052821 0 0.25037283077400019 -0.2416092145933311 0 0.25658827463044448 -0.2222138965281123 0 0.2446094219978813 -0.2276121794933563 0 0.26584409390649738 -0.23415831621220631 0 0.25037283077400019 -0.2416092145933311 0 0.25658827463044448 -0.2222138965281123 0 0.25658827463044448 -0.2222138965281123 0 0.2776594049058328 -0.2175861504380624 0 0.25850179434945381 -0.20097548963526929 0 0.25658827463044448 -0.2222138965281123 0 0.25850179434945381 -0.20097548963526929 0 0.23907695871134879 -0.21289681242661959 0 0.2776594049058328 -0.2175861504380624 0 0.25850179434945381 -0.20097548963526929 0 0.2776594049058328 -0.2175861504380624 0 0.2764107852420567 -0.19644220614923899 0 0.25850179434945381 -0.20097548963526929 0 0.2764107852420567 -0.19644220614923899 0 0.25850179434945381 -0.20097548963526929 0 0.26539786460737957 -0.18100391429238191 0 0.25850179434945381 -0.20097548963526929 0 0.26539786460737957 -0.18100391429238191 0 0.23934418379307471 -0.18436482883247621 0 0.26539786460737957 -0.18100391429238191 0 0.25449645062408999 -0.16331052089379791 0 0.23934418379307471 -0.18436482883247621 0 0.26539786460737957 -0.18100391429238191 0 0.25449645062408999 -0.16331052089379791 0 0.27043371620885309 -0.16438603764101259 0 0.25449645062408999 -0.16331052089379791 0 0.27043371620885309 -0.16438603764101259 0 0.2633734196266177 -0.15149826902969399 0 0.27043371620885309 -0.16438603764101259 0 0.2792899687438003 -0.18116405860585089 0 0.28570694489177878 -0.1660846355390232 0 0.27043371620885309 -0.16438603764101259 0 0.27930784456020519 -0.15183985913025491 0 0.28570694489177878 -0.1660846355390232 0 0.26539786460737957 -0.18100391429238191 0 0.27043371620885309 -0.16438603764101259 0 0.2792899687438003 -0.18116405860585089 0 0.2764107852420567 -0.19644220614923899 0 0.26539786460737957 -0.18100391429238191 0 0.2792899687438003 -0.18116405860585089 0 0.26153006621115998 -0.13421007507225571 0 0.24375228786211539 -0.116580291014256 0 0.24955680073527009 -0.143898101237383 0 0.26153006621115998 -0.13421007507225571 0 0.24375228786211539 -0.116580291014256 0 0.25449645062408999 -0.16331052089379791 0 0.2633734196266177 -0.15149826902969399 0 0.24955680073527009 -0.143898101237383 0 0.26153006621115998 -0.13421007507225571 0 0.2633734196266177 -0.15149826902969399 0 0.24955680073527009 -0.143898101237383 0 0.27043371620885309 -0.16438603764101259 0 0.2633734196266177 -0.15149826902969399 0 0.27930784456020519 -0.15183985913025491 0 0.27561771784950778 -0.13784369003748159 0 0.28570694489177878 -0.1660846355390232 0 0.26153006621115998 -0.13421007507225571 0 0.27930784456020519 -0.15183985913025491 0 0.27561771784950778 -0.13784369003748159 0 0.27930784456020519 -0.15183985913025491 0 0.27561771784950778 -0.13784369003748159 0 0.28570694489177878 -0.1660846355390232 0 0.26153006621115998 -0.13421007507225571 0 0.2633734196266177 -0.15149826902969399 0 0.27930784456020519 -0.15183985913025491 0 0.26153006621115998 -0.13421007507225571 0 0.27930784456020519 -0.15183985913025491 0 0.26776517015272971 -0.1222840496799191 0 0.27561771784950778 -0.13784369003748159 0 0.28721398294742878 -0.13035474923543569 0 0.26776517015272971 -0.1222840496799191 0 0.26153006621115998 -0.13421007507225571 0 0.27561771784950778 -0.13784369003748159 0 0.27561771784950778 -0.13784369003748159 0 0.28721398294742878 -0.13035474923543569 0 0.28891568690104508 -0.14625428249578579 0 0.28721398294742878 -0.13035474923543569 0 0.28891568690104508 -0.14625428249578579 0 0.29920842625061578 -0.1386190615635868 0 0.28891568690104508 -0.14625428249578579 0 0.29920842625061578 -0.1386190615635868 0 0.29789574789403661 -0.15876522012859751 0 0.27561771784950778 -0.13784369003748159 0 0.28891568690104508 -0.14625428249578579 0 0.28570694489177878 -0.1660846355390232 0 0.30985117626407932 -0.1486491484402036 0 0.29920842625061578 -0.1386190615635868 0 0.29789574789403661 -0.15876522012859751 0 0.30985117626407932 -0.1486491484402036 0 0.29789574789403661 -0.15876522012859751 0 0.3134799250960158 -0.16133035304856411 0 0.30985117626407932 -0.1486491484402036 0 0.29920842625061578 -0.1386190615635868 0 0.31980994510895661 -0.13408045692276491 0 0.3092169746865393 -0.1198258623704429 0 0.28721398294742878 -0.13035474923543569 0 0.29920842625061578 -0.1386190615635868 0 0.3092169746865393 -0.1198258623704429 0 0.29920842625061578 -0.1386190615635868 0 0.31980994510895661 -0.13408045692276491 0 0.29579617193404978 -0.19432558104056491 0 0.2792899687438003 -0.18116405860585089 0 0.28570694489177878 -0.1660846355390232 0 0.29579617193404978 -0.19432558104056491 0 0.28570694489177878 -0.1660846355390232 0 0.29579617193404978 -0.19432558104056491 0 0.28570694489177878 -0.1660846355390232 0 0.29784246694311001 -0.17248502473641619 0 0.28891568690104508 -0.14625428249578579 0 0.28570694489177878 -0.1660846355390232 0 0.29789574789403661 -0.15876522012859751 0 0.28570694489177878 -0.1660846355390232 0 0.29789574789403661 -0.15876522012859751 0 0.29784246694311001 -0.17248502473641619 0 0.29789574789403661 -0.15876522012859751 0 0.31057073564158039 -0.17760626025882659 0 0.3134799250960158 -0.16133035304856411 0 0.29789574789403661 -0.15876522012859751 0 0.31057073564158039 -0.17760626025882659 0 0.29784246694311001 -0.17248502473641619 0 0.29789574789403661 -0.15876522012859751 0 0.31057073564158039 -0.17760626025882659 0 0.29579617193404978 -0.19432558104056491 0 0.31057073564158039 -0.17760626025882659 0 0.29784246694311001 -0.17248502473641619 0 0.31057073564158039 -0.17760626025882659 0 0.33117051957001492 -0.16690810347740409 0 0.33960500058918919 -0.18923554211963439 0 0.31057073564158039 -0.17760626025882659 0 0.32324572338912438 -0.19644730038905581 0 0.3134799250960158 -0.16133035304856411 0 0.33117051957001492 -0.16690810347740409 0 0.32297156368297691 -0.15191279281852399 0 0.31057073564158039 -0.17760626025882659 0 0.3134799250960158 -0.16133035304856411 0 0.33117051957001492 -0.16690810347740409 0 0.33117051957001492 -0.16690810347740409 0 0.34312821131240068 -0.1490342399984359 0 0.35150112372442083 -0.17432517416681301 0 0.33117051957001492 -0.16690810347740409 0 0.35150112372442083 -0.17432517416681301 0 0.33960500058918919 -0.18923554211963439 0 0.33587402752894302 -0.122350175475488 0 0.3092169746865393 -0.1198258623704429 0 0.31980994510895661 -0.13408045692276491 0 0.30985117626407932 -0.1486491484402036 0 0.31980994510895661 -0.13408045692276491 0 0.32297156368297691 -0.15191279281852399 0 0.30985117626407932 -0.1486491484402036 0 0.3134799250960158 -0.16133035304856411 0 0.32297156368297691 -0.15191279281852399 0 0.33117051957001492 -0.16690810347740409 0 0.32297156368297691 -0.15191279281852399 0 0.34312821131240068 -0.1490342399984359 0 0.31980994510895661 -0.13408045692276491 0 0.32297156368297691 -0.15191279281852399 0 0.34312821131240068 -0.1490342399984359 0 0.33587402752894302 -0.122350175475488 0 0.31980994510895661 -0.13408045692276491 0 0.34312821131240068 -0.1490342399984359 0 0.36253108037134668 -0.1248744885805331 0 0.33587402752894302 -0.122350175475488 0 0.3555623608711499 -0.1359942506039106 0 0.33587402752894302 -0.122350175475488 0 0.34312821131240068 -0.1490342399984359 0 0.3555623608711499 -0.1359942506039106 0 0.34312821131240068 -0.1490342399984359 0 0.3555623608711499 -0.1359942506039106 0 0.36858459771950869 -0.15733985743645959 0 0.3555623608711499 -0.1359942506039106 0 0.36652086356581781 -0.12946943863695781 0 0.36858459771950869 -0.15733985743645959 0 0.36652086356581781 -0.12946943863695781 0 0.36858459771950869 -0.15733985743645959 0 0.36652086356581781 -0.12946943863695781 0 0.36858459771950869 -0.15733985743645959 0 0.3787995421462832 -0.1425544525875144 0 0.36652086356581781 -0.12946943863695781 0 0.37808333446084269 -0.1309391893982525 0 0.3787995421462832 -0.1425544525875144 0 0.36253108037134668 -0.1248744885805331 0 0.36652086356581781 -0.12946943863695781 0 0.37808333446084269 -0.1309391893982525 0 0.36253108037134668 -0.1248744885805331 0 0.3555623608711499 -0.1359942506039106 0 0.36652086356581781 -0.12946943863695781 0 0.35150112372442083 -0.17432517416681301 0 0.37064833187319962 -0.1852102762359614 0 0.35587008128221181 -0.19822302573298239 0 0.35150112372442083 -0.17432517416681301 0 0.35587008128221181 -0.19822302573298239 0 0.33960500058918919 -0.18923554211963439 0 0.34312821131240068 -0.1490342399984359 0 0.35150112372442083 -0.17432517416681301 0 0.36858459771950869 -0.15733985743645959 0 0.36858459771950869 -0.15733985743645959 0 0.37064833187319962 -0.1852102762359614 0 0.35150112372442083 -0.17432517416681301 0 0.36858459771950869 -0.15733985743645959 0 0.37064833187319962 -0.1852102762359614 0 0.36858459771950869 -0.15733985743645959 0 0.37064833187319962 -0.1852102762359614 0 0.3834788620725188 -0.17954848884060079 0 0.37064833187319962 -0.1852102762359614 0 0.37271206602689039 -0.21308069503546309 0 0.38139900114097952 -0.20469292352659629 0 0.37064833187319962 -0.1852102762359614 0 0.37271206602689039 -0.21308069503546309 0 0.37064833187319962 -0.1852102762359614 0 0.37271206602689039 -0.21308069503546309 0 0.35587008128221181 -0.19822302573298239 0 0.37271206602689039 -0.21308069503546309 0 0.35603419272415182 -0.2169366224123114 0 0.35587008128221181 -0.19822302573298239 0 0.35603419272415182 -0.2169366224123114 0 0.35587008128221181 -0.19822302573298239 0 0.33592071113666833 -0.21528834051928489 0 0.35587008128221181 -0.19822302573298239 0 0.33960500058918919 -0.18923554211963439 0 0.33592071113666833 -0.21528834051928489 0 0.33960500058918919 -0.18923554211963439 0 0.33592071113666833 -0.21528834051928489 0 0.32324572338912438 -0.19644730038905581 0 0.33592071113666833 -0.21528834051928489 0 0.32324572338912438 -0.19644730038905581 0 0.33592071113666833 -0.21528834051928489 0 0.32020032842118662 -0.2136972324735969 0 0.32324572338912438 -0.19644730038905581 0 0.31045946319455608 -0.20263901644370941 0 0.32020032842118662 -0.2136972324735969 0 0.32324572338912438 -0.19644730038905581 0 0.31057073564158039 -0.17760626025882659 0 0.33960500058918919 -0.18923554211963439 0 0.32324572338912438 -0.19644730038905581 0 0.31045946319455608 -0.20263901644370941 0 0.31057073564158039 -0.17760626025882659 0 0.32324572338912438 -0.19644730038905581 0 0.32549034540926353 -0.23154497847382799 0 0.33517615116993849 -0.24743488902137309 0 0.31597462601859122 -0.25080747204364812 0 0.30588539897632072 -0.22256652654210629 0 0.32549034540926353 -0.23154497847382799 0 0.31597462601859122 -0.25080747204364812 0 0.30588539897632072 -0.22256652654210629 0 0.32020032842118662 -0.2136972324735969 0 0.32549034540926353 -0.23154497847382799 0 0.33592071113666833 -0.21528834051928489 0 0.32020032842118662 -0.2136972324735969 0 0.32549034540926353 -0.23154497847382799 0 0.33592071113666833 -0.21528834051928489 0 0.32549034540926353 -0.23154497847382799 0 0.34859569888421221 -0.23412938064951411 0 0.33592071113666833 -0.21528834051928489 0 0.34859569888421221 -0.23412938064951411 0 0.32549034540926353 -0.23154497847382799 0 0.33517615116993849 -0.24743488902137309 0 0.34859569888421221 -0.23412938064951411 0 0.33517615116993849 -0.24743488902137309 0 0.34859569888421221 -0.23412938064951411 0 0.35185333732921159 -0.25428502110151557 0 0.34859569888421221 -0.23412938064951411 0 0.36075586336603621 -0.2426037127049111 0 0.35185333732921159 -0.25428502110151557 0 0.34859569888421221 -0.23412938064951411 0 0.36291464790978972 -0.22902601310760301 0 0.36075586336603621 -0.2426037127049111 0 0.35603419272415182 -0.2169366224123114 0 0.34859569888421221 -0.23412938064951411 0 0.36291464790978972 -0.22902601310760301 0 0.35603419272415182 -0.2169366224123114 0 0.33592071113666833 -0.21528834051928489 0 0.34859569888421221 -0.23412938064951411 0 0.37271206602689039 -0.21308069503546309 0 0.35603419272415182 -0.2169366224123114 0 0.36291464790978972 -0.22902601310760301 0 0.37271206602689039 -0.21308069503546309 0 0.37477580018058132 -0.24095111383496479 0 0.37555308153547928 -0.22286467051027881 0 0.37271206602689039 -0.21308069503546309 0 0.37477580018058132 -0.24095111383496479 0 0.37271206602689039 -0.21308069503546309 0 0.36291464790978972 -0.22902601310760301 0 0.37477580018058132 -0.24095111383496479 0 0.36075586336603621 -0.2426037127049111 0 0.37477580018058132 -0.24095111383496479 0 0.36563983252638571 -0.25462703483095822 0 0.36291464790978972 -0.22902601310760301 0 0.36075586336603621 -0.2426037127049111 0 0.37477580018058132 -0.24095111383496479 0 0.37477580018058132 -0.24095111383496479 0 0.39321551516580561 -0.23618023300957031 0 0.38725375881062551 -0.25185160038302579 0 0.39321551516580561 -0.23618023300957031 0 0.41087794879613182 -0.2494957955088617 0 0.40741230325918792 -0.23450562481703699 0 0.39321551516580561 -0.23618023300957031 0 0.41087794879613182 -0.2494957955088617 0 0.39321551516580561 -0.23618023300957031 0 0.38725375881062551 -0.25185160038302579 0 0.39640803358832022 -0.25154779433757402 0 0.39321551516580561 -0.23618023300957031 0 0.41087794879613182 -0.2494957955088617 0 0.39640803358832022 -0.25154779433757402 0 0.4055308246994358 -0.22407667781788709 0 0.39424069285124719 -0.22310079746779379 0 0.40434357831770951 -0.21487406561090469 0 0.4055308246994358 -0.22407667781788709 0 0.39424069285124719 -0.22310079746779379 0 0.40741230325918792 -0.23450562481703699 0 0.39321551516580561 -0.23618023300957031 0 0.39424069285124719 -0.22310079746779379 0 0.40741230325918792 -0.23450562481703699 0 0.37477580018058132 -0.24095111383496479 0 0.39321551516580561 -0.23618023300957031 0 0.37555308153547928 -0.22286467051027881 0 0.39424069285124719 -0.22310079746779379 0 0.37555308153547928 -0.22286467051027881 0 0.38300691860546521 -0.21527996176244341 0 0.39321551516580561 -0.23618023300957031 0 0.37555308153547928 -0.22286467051027881 0 0.39321551516580561 -0.23618023300957031 0 0.39424069285124719 -0.22310079746779379 0 0.37555308153547928 -0.22286467051027881 0 0.37271206602689039 -0.21308069503546309 0 0.37555308153547928 -0.22286467051027881 0 0.38300691860546521 -0.21527996176244341 0 0.37271206602689039 -0.21308069503546309 0 0.38139900114097952 -0.20469292352659629 0 0.38300691860546521 -0.21527996176244341 0 0.38139900114097952 -0.20469292352659629 0 0.39078770323730427 -0.19674260859680251 0 0.39112975147272949 -0.2126607222720846 0 0.38139900114097952 -0.20469292352659629 0 0.38300691860546521 -0.21527996176244341 0 0.39112975147272949 -0.2126607222720846 0 0.39424069285124719 -0.22310079746779379 0 0.38300691860546521 -0.21527996176244341 0 0.39112975147272949 -0.2126607222720846 0 0.37064833187319962 -0.1852102762359614 0 0.38139900114097952 -0.20469292352659629 0 0.39078770323730427 -0.19674260859680251 0 0.39078770323730427 -0.19674260859680251 0 0.40475141021500721 -0.1910589369573561 0 0.39510197637232292 -0.1839605883432579 0 0.39078770323730427 -0.19674260859680251 0 0.40426546228868082 -0.20108352786525729 0 0.397631623829106 -0.20634023108626229 0 0.39078770323730427 -0.19674260859680251 0 0.40426546228868082 -0.20108352786525729 0 0.40475141021500721 -0.1910589369573561 0 0.39078770323730427 -0.19674260859680251 0 0.39112975147272949 -0.2126607222720846 0 0.397631623829106 -0.20634023108626229 0 0.39112975147272949 -0.2126607222720846 0 0.397631623829106 -0.20634023108626229 0 0.40434357831770951 -0.21487406561090469 0 0.39424069285124719 -0.22310079746779379 0 0.39112975147272949 -0.2126607222720846 0 0.40434357831770951 -0.21487406561090469 0 0.40426546228868082 -0.20108352786525729 0 0.397631623829106 -0.20634023108626229 0 0.40434357831770951 -0.21487406561090469 0 0.40434357831770951 -0.21487406561090469 0 0.41713092845542321 -0.20900944133272009 0 0.41612672436959858 -0.22382622337581301 0 0.40426546228868082 -0.20108352786525729 0 0.40434357831770951 -0.21487406561090469 0 0.41713092845542321 -0.20900944133272009 0 0.41713092845542321 -0.20900944133272009 0 0.42330136258736267 -0.2174116668913772 0 0.41612672436959858 -0.22382622337581301 0 0.40475141021500721 -0.1910589369573561 0 0.41487892771890261 -0.19826025474908979 0 0.4146572714410397 -0.186958864794112 0 0.40426546228868082 -0.20108352786525729 0 0.41713092845542321 -0.20900944133272009 0 0.41487892771890261 -0.19826025474908979 0 0.40426546228868082 -0.20108352786525729 0 0.40475141021500721 -0.1910589369573561 0 0.41487892771890261 -0.19826025474908979 0 0.41713092845542321 -0.20900944133272009 0 0.41487892771890261 -0.19826025474908979 0 0.42701217502226602 -0.19751647228806199 0 0.41487892771890261 -0.19826025474908979 0 0.42053294087941678 -0.1923617771039739 0 0.42701217502226602 -0.19751647228806199 0 0.42053294087941678 -0.1923617771039739 0 0.4146572714410397 -0.186958864794112 0 0.42558338933545942 -0.1867115165846317 0 0.41487892771890261 -0.19826025474908979 0 0.42053294087941678 -0.1923617771039739 0 0.4146572714410397 -0.186958864794112 0 0.42701217502226602 -0.19751647228806199 0 0.43844209377108118 -0.18689286854296691 0 0.44355474576021348 -0.2050869029196882 0 0.42053294087941678 -0.1923617771039739 0 0.42701217502226602 -0.19751647228806199 0 0.42558338933545942 -0.1867115165846317 0 0.42701217502226602 -0.19751647228806199 0 0.42558338933545942 -0.1867115165846317 0 0.43844209377108118 -0.18689286854296691 0 0.42701217502226602 -0.19751647228806199 0 0.43006687167525981 -0.21185300334864521 0 0.44355474576021348 -0.2050869029196882 0 0.41713092845542321 -0.20900944133272009 0 0.42330136258736267 -0.2174116668913772 0 0.43006687167525981 -0.21185300334864521 0 0.42330136258736267 -0.2174116668913772 0 0.43006687167525981 -0.21185300334864521 0 0.42988092584916948 -0.2249579995083304 0 0.41713092845542321 -0.20900944133272009 0 0.42701217502226602 -0.19751647228806199 0 0.43006687167525981 -0.21185300334864521 0 0.43006687167525981 -0.21185300334864521 0 0.42988092584916948 -0.2249579995083304 0 0.44009267276725389 -0.2176624614444449 0 0.42330136258736267 -0.2174116668913772 0 0.42988092584916948 -0.2249579995083304 0 0.41612672436959858 -0.22382622337581301 0 0.42988092584916948 -0.2249579995083304 0 0.43458399188612801 -0.2397076170126072 0 0.42159465327244361 -0.23640953485310751 0 0.42988092584916948 -0.2249579995083304 0 0.42159465327244361 -0.23640953485310751 0 0.41612672436959858 -0.22382622337581301 0 0.42988092584916948 -0.2249579995083304 0 0.43458399188612801 -0.2397076170126072 0 0.44416109061426973 -0.22983272991065171 0 0.43458399188612801 -0.2397076170126072 0 0.42656562700980838 -0.24831468624349931 0 0.4372088962240912 -0.25169219704383999 0 0.43458399188612801 -0.2397076170126072 0 0.42656562700980838 -0.24831468624349931 0 0.42159465327244361 -0.23640953485310751 0 0.42656562700980838 -0.24831468624349931 0 0.42159465327244361 -0.23640953485310751 0 0.41087794879613182 -0.2494957955088617 0 0.42159465327244361 -0.23640953485310751 0 0.41087794879613182 -0.2494957955088617 0 0.40741230325918792 -0.23450562481703699 0 0.4055308246994358 -0.22407667781788709 0 0.40741230325918792 -0.23450562481703699 0 0.41612672436959858 -0.22382622337581301 0 0.4055308246994358 -0.22407667781788709 0 0.40434357831770951 -0.21487406561090469 0 0.41612672436959858 -0.22382622337581301 0 0.42159465327244361 -0.23640953485310751 0 0.40741230325918792 -0.23450562481703699 0 0.41612672436959858 -0.22382622337581301 0 0.39823574772599779 -0.11763079726210079 0 0.40257569972698831 -0.13396225485532559 0 0.38918813321375051 -0.12739880168557821 0 0.40257569972698831 -0.13396225485532559 0 0.38918813321375051 -0.12739880168557821 0 0.39017348084279901 -0.13955387731924049 0 0.38918813321375051 -0.12739880168557821 0 0.37808333446084269 -0.1309391893982525 0 0.39017348084279901 -0.13955387731924049 0 0.37720890243704291 -0.12310924361699779 0 0.36253108037134668 -0.1248744885805331 0 0.38918813321375051 -0.12739880168557821 0 0.36253108037134668 -0.1248744885805331 0 0.38918813321375051 -0.12739880168557821 0 0.37808333446084269 -0.1309391893982525 0 0.36253108037134668 -0.1248744885805331 0 0.38918813321375051 -0.12739880168557821 0 0.37808333446084269 -0.1309391893982525 0 0.39017348084279901 -0.13955387731924049 0 0.3787995421462832 -0.1425544525875144 0 0.36858459771950869 -0.15733985743645959 0 0.3787995421462832 -0.1425544525875144 0 0.38535727780346091 -0.1527557998392445 0 0.39017348084279901 -0.13955387731924049 0 0.3787995421462832 -0.1425544525875144 0 0.38535727780346091 -0.1527557998392445 0 0.40257569972698831 -0.13396225485532559 0 0.39822107621443897 -0.1501202070538992 0 0.41732028123257531 -0.14286435439753159 0 0.40257569972698831 -0.13396225485532559 0 0.39017348084279901 -0.13955387731924049 0 0.39822107621443897 -0.1501202070538992 0 0.39017348084279901 -0.13955387731924049 0 0.38535727780346091 -0.1527557998392445 0 0.39822107621443897 -0.1501202070538992 0 0.39822107621443897 -0.1501202070538992 0 0.39107178753907162 -0.16851380255406381 0 0.40713652226246821 -0.16744863749245631 0 0.39107178753907162 -0.16851380255406381 0 0.40713652226246821 -0.16744863749245631 0 0.38535727780346091 -0.1527557998392445 0 0.39822107621443897 -0.1501202070538992 0 0.39107178753907162 -0.16851380255406381 0 0.39107178753907162 -0.16851380255406381 0 0.40460499843718001 -0.17902112385493851 0 0.40713652226246821 -0.16744863749245631 0 0.36858459771950869 -0.15733985743645959 0 0.38535727780346091 -0.1527557998392445 0 0.39107178753907162 -0.16851380255406381 0 0.36858459771950869 -0.15733985743645959 0 0.39107178753907162 -0.16851380255406381 0 0.3834788620725188 -0.17954848884060079 0 0.39107178753907162 -0.16851380255406381 0 0.3834788620725188 -0.17954848884060079 0 0.39510197637232292 -0.1839605883432579 0 0.39078770323730427 -0.19674260859680251 0 0.3834788620725188 -0.17954848884060079 0 0.39510197637232292 -0.1839605883432579 0 0.37064833187319962 -0.1852102762359614 0 0.39078770323730427 -0.19674260859680251 0 0.3834788620725188 -0.17954848884060079 0 0.39107178753907162 -0.16851380255406381 0 0.39510197637232292 -0.1839605883432579 0 0.40460499843718001 -0.17902112385493851 0 0.40475141021500721 -0.1910589369573561 0 0.39510197637232292 -0.1839605883432579 0 0.40460499843718001 -0.17902112385493851 0 0.40475141021500721 -0.1910589369573561 0 0.40460499843718001 -0.17902112385493851 0 0.4146572714410397 -0.186958864794112 0 0.40460499843718001 -0.17902112385493851 0 0.41491102279317088 -0.17618591298838529 0 0.4146572714410397 -0.186958864794112 0 0.40460499843718001 -0.17902112385493851 0 0.41491102279317088 -0.17618591298838529 0 0.40713652226246821 -0.16744863749245631 0 0.41491102279317088 -0.17618591298838529 0 0.42527009306055918 -0.1746571334479238 0 0.4232012569858648 -0.16638347243084889 0 0.41491102279317088 -0.17618591298838529 0 0.42095079563492938 -0.18072636251124541 0 0.42527009306055918 -0.1746571334479238 0 0.41491102279317088 -0.17618591298838529 0 0.42095079563492938 -0.18072636251124541 0 0.4146572714410397 -0.186958864794112 0 0.42095079563492938 -0.18072636251124541 0 0.4146572714410397 -0.186958864794112 0 0.42558338933545942 -0.1867115165846317 0 0.43180268423531071 -0.1802632517690351 0 0.42527009306055918 -0.1746571334479238 0 0.44880083799057491 -0.164686103644653 0 0.42095079563492938 -0.18072636251124541 0 0.42558338933545942 -0.1867115165846317 0 0.43180268423531071 -0.1802632517690351 0 0.42558338933545942 -0.1867115165846317 0 0.43180268423531071 -0.1802632517690351 0 0.43844209377108118 -0.18689286854296691 0 0.42095079563492938 -0.18072636251124541 0 0.43180268423531071 -0.1802632517690351 0 0.42527009306055918 -0.1746571334479238 0 0.42527009306055918 -0.1746571334479238 0 0.4232012569858648 -0.16638347243084889 0 0.44880083799057491 -0.164686103644653 0 0.4232012569858648 -0.16638347243084889 0 0.43334283997313311 -0.15135273030925811 0 0.44880083799057491 -0.164686103644653 0 0.4232012569858648 -0.16638347243084889 0 0.44880083799057491 -0.164686103644653 0 0.42527009306055918 -0.1746571334479238 0 0.4232012569858648 -0.16638347243084889 0 0.4232012569858648 -0.16638347243084889 0 0.40713652226246821 -0.16744863749245631 0 0.41732028123257531 -0.14286435439753159 0 0.41491102279317088 -0.17618591298838529 0 0.4232012569858648 -0.16638347243084889 0 0.40713652226246821 -0.16744863749245631 0 0.4232012569858648 -0.16638347243084889 0 0.40713652226246821 -0.16744863749245631 0 0.4232012569858648 -0.16638347243084889 0 0.41732028123257531 -0.14286435439753159 0 0.39822107621443897 -0.1501202070538992 0 0.40713652226246821 -0.16744863749245631 0 0.41732028123257531 -0.14286435439753159 0 0.41732028123257531 -0.14286435439753159 0 0.43334283997313311 -0.15135273030925811 0 0.43763345530417341 -0.13584027725706749 0 0.4232012569858648 -0.16638347243084889 0 0.41732028123257531 -0.14286435439753159 0 0.43334283997313311 -0.15135273030925811 0 0.42916935431308728 -0.1205456085246996 0 0.41732028123257531 -0.14286435439753159 0 0.43763345530417341 -0.13584027725706749 0 0.42916935431308728 -0.1205456085246996 0 0.4435038969132965 -0.12540022695152131 0 0.43763345530417341 -0.13584027725706749 0 0.41143930547928681 -0.11934523636421419 0 0.42916935431308728 -0.1205456085246996 0 0.41732028123257531 -0.14286435439753159 0 0.41143930547928681 -0.11934523636421419 0 0.40257569972698831 -0.13396225485532559 0 0.41732028123257531 -0.14286435439753159 0 0.41143930547928681 -0.11934523636421419 0 0.41732028123257531 -0.14286435439753159 0 0.46257396642688631 -0.12529077885077469 0 0.46381730130484328 -0.1363472541609663 0 0.4585659370706795 -0.1308283620105129 0 0.46381730130484328 -0.1363472541609663 0 0.4585659370706795 -0.1308283620105129 0 0.45274550479158487 -0.1345999168850856 0 0.46381730130484328 -0.1363472541609663 0 0.45274550479158487 -0.1345999168850856 0 0.46138481906560302 -0.14686228775601681 0 0.46257396642688631 -0.12529077885077469 0 0.4585659370706795 -0.1308283620105129 0 0.45239247298790419 -0.125419693033265 0 0.4585659370706795 -0.1308283620105129 0 0.45239247298790419 -0.125419693033265 0 0.45274550479158487 -0.1345999168850856 0 0.45239247298790419 -0.125419693033265 0 0.4435038969132965 -0.12540022695152131 0 0.45274550479158487 -0.1345999168850856 0 0.4435038969132965 -0.12540022695152131 0 0.43763345530417341 -0.13584027725706749 0 0.45274550479158487 -0.1345999168850856 0 0.43763345530417341 -0.13584027725706749 0 0.45274550479158487 -0.1345999168850856 0 0.44678149142501389 -0.1466682631704162 0 0.43334283997313311 -0.15135273030925811 0 0.44678149142501389 -0.1466682631704162 0 0.44880083799057491 -0.164686103644653 0 0.44678149142501389 -0.1466682631704162 0 0.46138481906560302 -0.14686228775601681 0 0.44880083799057491 -0.164686103644653 0 0.43334283997313311 -0.15135273030925811 0 0.43763345530417341 -0.13584027725706749 0 0.44678149142501389 -0.1466682631704162 0 0.45274550479158487 -0.1345999168850856 0 0.44678149142501389 -0.1466682631704162 0 0.46138481906560302 -0.14686228775601681 0 0.46138481906560302 -0.14686228775601681 0 0.44880083799057491 -0.164686103644653 0 0.47440041899528501 -0.16298873485845719 0 0.44880083799057491 -0.164686103644653 0 0.46834799031954211 -0.17915452781490099 0 0.47440041899528501 -0.16298873485845719 0 0.44880083799057491 -0.164686103644653 0 0.47440041899528501 -0.16298873485845719 0 0.43180268423531071 -0.1802632517690351 0 0.44880083799057491 -0.164686103644653 0 0.43844209377108118 -0.18689286854296691 0 0.44880083799057491 -0.164686103644653 0 0.43844209377108118 -0.18689286854296691 0 0.45508032593701309 -0.1914137801830845 0 0.44880083799057491 -0.164686103644653 0 0.46834799031954211 -0.17915452781490099 0 0.45508032593701309 -0.1914137801830845 0 0.46834799031954211 -0.17915452781490099 0 0.48419704391512092 -0.17843144908975531 0 0.47440041899528501 -0.16298873485845719 0 0.46834799031954211 -0.17915452781490099 0 0.48419704391512092 -0.17843144908975531 0 0.47823681026078202 -0.19812675643970101 0 0.48419704391512092 -0.17843144908975531 0 0.49999999999999523 -0.16129136607226169 0 0.5 -0.1905958602634561 0 0.49999999999999523 -0.16129136607226169 0 0.47440041899528501 -0.16298873485845719 0 0.50000000000000067 -0.1547763741112759 0 0.48419704391512092 -0.17843144908975531 0 0.49999999999999523 -0.16129136607226169 0 0.47440041899528501 -0.16298873485845719 0 0.49999999999999523 -0.16129136607226169 0 0.47440041899528501 -0.16298873485845719 0 0.46138481906560302 -0.14686228775601681 0 0.47440041899528501 -0.16298873485845719 0 0.48128698321344371 -0.14003357648102521 0 0.46381730130484328 -0.1363472541609663 0 0.46138481906560302 -0.14686228775601681 0 0.48128698321344371 -0.14003357648102521 0 0.50000000000000067 -0.1547763741112759 0 0.48128698321344371 -0.14003357648102521 0 0.50000000000000067 -0.1547763741112759 0 0.5 -0.13349841451636779 0 0.48128698321344371 -0.14003357648102521 0 0.47440041899528501 -0.16298873485845719 0 0.50000000000000067 -0.1547763741112759 0 0.48128698321344371 -0.14003357648102521 0 0.48087269318342413 -0.1216818802472065 0 0.5 -0.13349841451636779 0 0.48128698321344371 -0.14003357648102521 0 0.46257396642688631 -0.12529077885077469 0 0.48128698321344371 -0.14003357648102521 0 0.46257396642688631 -0.12529077885077469 0 0.46381730130484328 -0.1363472541609663 0 0.48128698321344371 -0.14003357648102521 0 0.47129126618897188 -0.1223351355815797 0 0.48087269318342413 -0.1216818802472065 0 0.48128698321344371 -0.14003357648102521 0 0.47129126618897188 -0.1223351355815797 0 0.46257396642688631 -0.12529077885077469 0 0.48128698321344371 -0.14003357648102521 0 0.46029750420545162 -0.23134667767863379 0 0.45079963313025367 -0.219495204315066 0 0.46126535540865482 -0.21094244298034759 0 0.46029750420545162 -0.23134667767863379 0 0.46126535540865482 -0.21094244298034759 0 0.47937109712497578 -0.22608105856418539 0 0.46029750420545162 -0.23134667767863379 0 0.44856132313442931 -0.24393079079591279 0 0.47387431588802909 -0.25499376211151131 0 0.46029750420545162 -0.23134667767863379 0 0.44856132313442931 -0.24393079079591279 0 0.44416109061426973 -0.22983272991065171 0 0.43458399188612801 -0.2397076170126072 0 0.44856132313442931 -0.24393079079591279 0 0.4372088962240912 -0.25169219704383999 0 0.43458399188612801 -0.2397076170126072 0 0.44856132313442931 -0.24393079079591279 0 0.44416109061426973 -0.22983272991065171 0 0.46029750420545162 -0.23134667767863379 0 0.44416109061426973 -0.22983272991065171 0 0.45079963313025367 -0.219495204315066 0 0.44416109061426973 -0.22983272991065171 0 0.45079963313025367 -0.219495204315066 0 0.44009267276725389 -0.2176624614444449 0 0.42988092584916948 -0.2249579995083304 0 0.44416109061426973 -0.22983272991065171 0 0.44009267276725389 -0.2176624614444449 0 0.45079963313025367 -0.219495204315066 0 0.44355474576021348 -0.2050869029196882 0 0.46126535540865482 -0.21094244298034759 0 0.43006687167525981 -0.21185300334864521 0 0.44009267276725389 -0.2176624614444449 0 0.44355474576021348 -0.2050869029196882 0 0.45079963313025367 -0.219495204315066 0 0.44009267276725389 -0.2176624614444449 0 0.44355474576021348 -0.2050869029196882 0 0.43844209377108118 -0.18689286854296691 0 0.44355474576021348 -0.2050869029196882 0 0.45508032593701309 -0.1914137801830845 0 0.46834799031954211 -0.17915452781490099 0 0.45508032593701309 -0.1914137801830845 0 0.47823681026078202 -0.19812675643970101 0 0.44355474576021348 -0.2050869029196882 0 0.45508032593701309 -0.1914137801830845 0 0.46126535540865482 -0.21094244298034759 0 0.45508032593701309 -0.1914137801830845 0 0.46126535540865482 -0.21094244298034759 0 0.47823681026078202 -0.19812675643970101 0 0.46126535540865482 -0.21094244298034759 0 0.47823681026078202 -0.19812675643970101 0 0.47937109712497578 -0.22608105856418539 0 0.48419704391512092 -0.17843144908975531 0 0.47823681026078202 -0.19812675643970101 0 0.5 -0.1905958602634561 0 0.47823681026078202 -0.19812675643970101 0 0.5 -0.1905958602634561 0 0.5 -0.21990035445465039 0 0.47823681026078202 -0.19812675643970101 0 0.5 -0.21990035445465039 0 0.47937109712497578 -0.22608105856418539 0 0.5 -0.21990035445465039 0 0.47937109712497578 -0.22608105856418539 0 0.50000000000000444 -0.24920484864584491 0 0.46029750420545162 -0.23134667767863379 0 0.47937109712497578 -0.22608105856418539 0 0.47387431588802909 -0.25499376211151131 0 0.47937109712497578 -0.22608105856418539 0 0.50000000000000444 -0.24920484864584491 0 0.47387431588802909 -0.25499376211151131 0 0.50000000000000444 -0.24920484864584491 0 0.4915669900217115 -0.25615479242606781 0 0.5 -0.27170772691138367 0 0.50000000000000444 -0.24920484864584491 0 0.4915669900217115 -0.25615479242606781 0 0.47387431588802909 -0.25499376211151131 0 0.50000000000000444 -0.24920484864584491 0 0.47387431588802909 -0.25499376211151131 0 0.4915669900217115 -0.25615479242606781 0 0.48280749151585822 -0.27129304150170008 0 0.47954864786353962 -0.26301133191085868 0 0.4915669900217115 -0.25615479242606781 0 0.5 -0.27170772691138367 0 0.48280749151585822 -0.27129304150170008 0 0.5 -0.27170772691138367 0 0.48280749151585822 -0.27129304150170008 0 0.48951500520952212 -0.28458010338455908 0 0.48280749151585822 -0.27129304150170008 0 0.47474596181800061 -0.28621450290334632 0 0.48951500520952212 -0.28458010338455908 0 0.48280749151585822 -0.27129304150170008 0 0.47416229901770612 -0.26612875971404459 0 0.47954864786353962 -0.26301133191085868 0 0.48280749151585822 -0.27129304150170008 0 0.47416229901770612 -0.26612875971404459 0 0.47052118473631321 -0.27447720361836658 0 0.47416229901770612 -0.26612875971404459 0 0.47052118473631321 -0.27447720361836658 0 0.46319689217890331 -0.26835660325056299 0 0.48280749151585822 -0.27129304150170008 0 0.47052118473631321 -0.27447720361836658 0 0.47474596181800061 -0.28621450290334632 0 0.4915669900217115 -0.25615479242606781 0 0.46965781089888248 -0.25846873400162218 0 0.4915669900217115 -0.25615479242606781 0 0.47387431588802909 -0.25499376211151131 0 0.46965781089888248 -0.25846873400162218 0 0.4915669900217115 -0.25615479242606781 0 0.47954864786353962 -0.26301133191085868 0 0.46965781089888248 -0.25846873400162218 0 0.47416229901770612 -0.26612875971404459 0 0.47954864786353962 -0.26301133191085868 0 0.46965781089888248 -0.25846873400162218 0 0.47416229901770612 -0.26612875971404459 0 0.46965781089888248 -0.25846873400162218 0 0.46319689217890331 -0.26835660325056299 0 0.46965781089888248 -0.25846873400162218 0 0.46319689217890331 -0.26835660325056299 0 0.4477486317760534 -0.26078267557717671 0 0.44856132313442931 -0.24393079079591279 0 0.47387431588802909 -0.25499376211151131 0 0.4477486317760534 -0.26078267557717671 0 0.47387431588802909 -0.25499376211151131 0 0.4477486317760534 -0.26078267557717671 0 0.46965781089888248 -0.25846873400162218 0 0.4477486317760534 -0.26078267557717671 0 0.47387431588802909 -0.25499376211151131 0 0.46965781089888248 -0.25846873400162218 0 0.4477486317760534 -0.26078267557717671 0 0.47052118473631321 -0.27447720361836658 0 0.45389453446556111 -0.28192564334160541 0 0.47474596181800061 -0.28621450290334632 0 0.47052118473631321 -0.27447720361836658 0 0.46319689217890331 -0.26835660325056299 0 0.45389453446556111 -0.28192564334160541 0 0.46319689217890331 -0.26835660325056299 0 0.4477486317760534 -0.26078267557717671 0 0.45389453446556111 -0.28192564334160541 0 0.45389453446556111 -0.28192564334160541 0 0.430823863629894 -0.26453285558412298 0 0.45389453446556111 -0.28192564334160541 0 0.430823863629894 -0.26453285558412298 0 0.43570592202634773 -0.28205449164250063 0 0.4477486317760534 -0.26078267557717671 0 0.45389453446556111 -0.28192564334160541 0 0.430823863629894 -0.26453285558412298 0 0.4477486317760534 -0.26078267557717671 0 0.42854038242645709 -0.26281135800815408 0 0.44856132313442931 -0.24393079079591279 0 0.4477486317760534 -0.26078267557717671 0 0.4372088962240912 -0.25169219704383999 0 0.4477486317760534 -0.26078267557717671 0 0.42854038242645709 -0.26281135800815408 0 0.4372088962240912 -0.25169219704383999 0 0.4477486317760534 -0.26078267557717671 0 0.430823863629894 -0.26453285558412298 0 0.44815314542162782 -0.30273998798419938 0 0.44271266904340639 -0.31513600928105973 0 0.43092107089682352 -0.30573631325696571 0 0.44815314542162782 -0.30273998798419938 0 0.43874415768382158 -0.29310671547163403 0 0.43092107089682352 -0.30573631325696571 0 0.43874415768382158 -0.29310671547163403 0 0.45389453446556111 -0.28192564334160541 0 0.43570592202634773 -0.28205449164250063 0 0.44815314542162782 -0.30273998798419938 0 0.43874415768382158 -0.29310671547163403 0 0.45389453446556111 -0.28192564334160541 0 0.45389453446556111 -0.28192564334160541 0 0.46668010371271101 -0.29937682325086112 0 0.47474596181800061 -0.28621450290334632 0 0.44815314542162782 -0.30273998798419938 0 0.45389453446556111 -0.28192564334160541 0 0.46668010371271101 -0.29937682325086112 0 0.46668010371271101 -0.29937682325086112 0 0.45907432653114449 -0.32014896664993769 0 0.44815314542162782 -0.30273998798419938 0 0.46668010371271101 -0.29937682325086112 0 0.45907432653114449 -0.32014896664993769 0 0.46668010371271101 -0.29937682325086112 0 0.48375110351916628 -0.30725513966339157 0 0.45907432653114449 -0.32014896664993769 0 0.46668010371271101 -0.29937682325086112 0 0.48375110351916628 -0.30725513966339157 0 0.47474596181800061 -0.28621450290334632 0 0.48375110351916628 -0.30725513966339157 0 0.47474596181800061 -0.28621450290334632 0 0.48951500520952212 -0.28458010338455908 0 0.48375110351916628 -0.30725513966339157 0 0.5 -0.29421060517692271 0 0.48951500520952212 -0.28458010338455908 0 0.5 -0.27170772691138367 0 0.5 -0.29421060517692271 0 0.48951500520952212 -0.28458010338455908 0 0.48375110351916628 -0.30725513966339157 0 0.5 -0.29421060517692271 0 0.49999999999999972 -0.31671348344246159 0 0.48375110351916628 -0.30725513966339157 0 0.49999999999999972 -0.31671348344246159 0 0.48658745812515303 -0.32591538654610069 0 0.49999999999999972 -0.31671348344246159 0 0.49107839048707969 -0.33844651150006611 0 0.49999999999999972 -0.31671348344246159 0 0.48658745812515303 -0.32591538654610069 0 0.49107839048707969 -0.33844651150006611 0 0.49999999999999972 -0.31671348344246159 0 0.5 -0.34354646621870782 0 0.49107839048707969 -0.33844651150006611 0 0.48658745812515303 -0.32591538654610069 0 0.49107839048707969 -0.33844651150006611 0 0.48013111160135669 -0.33592777501669763 0 0.48658745812515303 -0.32591538654610069 0 0.48013111160135669 -0.33592777501669763 0 0.47588582758327369 -0.32632043512378739 0 0.48013111160135669 -0.33592777501669763 0 0.46883970942210401 -0.33989811375075968 0 0.47588582758327369 -0.32632043512378739 0 0.48375110351916628 -0.30725513966339157 0 0.48658745812515303 -0.32591538654610069 0 0.47588582758327369 -0.32632043512378739 0 0.48375110351916628 -0.30725513966339157 0 0.47588582758327369 -0.32632043512378739 0 0.45907432653114449 -0.32014896664993769 0 0.5 -0.37037944899495368 0 0.48466784746851571 -0.3739080713738358 0 0.48215678097416009 -0.36017953955767068 0 0.5 -0.34354646621870782 0 0.49107839048707969 -0.33844651150006611 0 0.48215678097416009 -0.36017953955767068 0 0.49107839048707969 -0.33844651150006611 0 0.48013111160135669 -0.33592777501669763 0 0.48215678097416009 -0.36017953955767068 0 0.5 -0.34354646621870782 0 0.5 -0.37037944899495368 0 0.48215678097416009 -0.36017953955767068 0 0.49107839048707969 -0.33844651150006611 0 0.48215678097416009 -0.36017953955767068 0 0.48013111160135669 -0.33592777501669763 0 0.46883970942210401 -0.33989811375075968 0 0.48215678097416009 -0.36017953955767068 0 0.46883970942210401 -0.33989811375075968 0 0.48215678097416009 -0.36017953955767068 0 0.46166172922915721 -0.35810144835948332 0 0.48215678097416009 -0.36017953955767068 0 0.47323517146124039 -0.38191256761527542 0 0.48215678097416009 -0.36017953955767068 0 0.4671179630262795 -0.37324494563770522 0 0.47323517146124039 -0.38191256761527542 0 0.48466784746851571 -0.3739080713738358 0 0.48215678097416009 -0.36017953955767068 0 0.47323517146124039 -0.38191256761527542 0 0.48215678097416009 -0.36017953955767068 0 0.4671179630262795 -0.37324494563770522 0 0.46166172922915721 -0.35810144835948332 0 0.45652460043480969 -0.37267172771365881 0 0.46166172922915721 -0.35810144835948332 0 0.44386277216801179 -0.36169325344809122 0 0.45652460043480969 -0.37267172771365881 0 0.4671179630262795 -0.37324494563770522 0 0.46166172922915721 -0.35810144835948332 0 0.46883970942210401 -0.33989811375075968 0 0.46166172922915721 -0.35810144835948332 0 0.45146854934957792 -0.34092111004901438 0 0.43963091224731599 -0.34751792105314822 0 0.44386277216801179 -0.36169325344809122 0 0.45146854934957792 -0.34092111004901438 0 0.44386277216801179 -0.36169325344809122 0 0.45146854934957792 -0.34092111004901438 0 0.46166172922915721 -0.35810144835948332 0 0.44386277216801179 -0.36169325344809122 0 0.45146854934957792 -0.34092111004901438 0 0.44386277216801179 -0.36169325344809122 0 0.43376943787959182 -0.36708850497004442 0 0.43808065797110041 -0.37748478958974491 0 0.45652460043480969 -0.37267172771365881 0 0.44386277216801179 -0.36169325344809122 0 0.44783900322824399 -0.38008781189722518 0 0.44386277216801179 -0.36169325344809122 0 0.43808065797110041 -0.37748478958974491 0 0.44386277216801179 -0.36169325344809122 0 0.43808065797110041 -0.37748478958974491 0 0.44783900322824399 -0.38008781189722518 0 0.45652460043480969 -0.37267172771365881 0 0.44386277216801179 -0.36169325344809122 0 0.46883970942210401 -0.33989811375075968 0 0.45907432653114449 -0.32014896664993769 0 0.45146854934957792 -0.34092111004901438 0 0.45907432653114449 -0.32014896664993769 0 0.45146854934957792 -0.34092111004901438 0 0.46883970942210401 -0.33989811375075968 0 0.47588582758327369 -0.32632043512378739 0 0.45907432653114449 -0.32014896664993769 0 0.43963091224731599 -0.34751792105314822 0 0.45146854934957792 -0.34092111004901438 0 0.43565299676263758 -0.3352386806192425 0 0.45146854934957792 -0.34092111004901438 0 0.44493724809618768 -0.32603283426431229 0 0.43565299676263758 -0.3352386806192425 0 0.45907432653114449 -0.32014896664993769 0 0.45146854934957792 -0.34092111004901438 0 0.44493724809618768 -0.32603283426431229 0 0.45907432653114449 -0.32014896664993769 0 0.44493724809618768 -0.32603283426431229 0 0.44271266904340639 -0.31513600928105973 0 0.44493724809618768 -0.32603283426431229 0 0.44271266904340639 -0.31513600928105973 0 0.43047755427124879 -0.32102194424988317 0 0.44815314542162782 -0.30273998798419938 0 0.45907432653114449 -0.32014896664993769 0 0.44271266904340639 -0.31513600928105973 0 0.44271266904340639 -0.31513600928105973 0 0.43047755427124879 -0.32102194424988317 0 0.43092107089682352 -0.30573631325696571 0 0.43047755427124879 -0.32102194424988317 0 0.41919911313656122 -0.31385112706466711 0 0.41739686236043672 -0.32199345155319897 0 0.43047755427124879 -0.32102194424988317 0 0.41919911313656122 -0.31385112706466711 0 0.43092107089682352 -0.30573631325696571 0 0.43047755427124879 -0.32102194424988317 0 0.42053718701310799 -0.32957674384091618 0 0.41739686236043672 -0.32199345155319897 0 0.44493724809618768 -0.32603283426431229 0 0.43047755427124879 -0.32102194424988317 0 0.43565299676263758 -0.3352386806192425 0 0.43565299676263758 -0.3352386806192425 0 0.42053718701310799 -0.32957674384091618 0 0.4250793590774925 -0.34540704162396091 0 0.43963091224731599 -0.34751792105314822 0 0.43565299676263758 -0.3352386806192425 0 0.4250793590774925 -0.34540704162396091 0 0.43047755427124879 -0.32102194424988317 0 0.43565299676263758 -0.3352386806192425 0 0.42053718701310799 -0.32957674384091618 0 0.4062959459869725 -0.32912082979983148 0 0.4250793590774925 -0.34540704162396091 0 0.41055923831377589 -0.34398547157316572 0 0.42053718701310799 -0.32957674384091618 0 0.4062959459869725 -0.32912082979983148 0 0.4250793590774925 -0.34540704162396091 0 0.4062959459869725 -0.32912082979983148 0 0.4250793590774925 -0.34540704162396091 0 0.42053718701310799 -0.32957674384091618 0 0.4062959459869725 -0.32912082979983148 0 0.40802480504278882 -0.32457497099322458 0 0.4062959459869725 -0.32912082979983148 0 0.40802480504278882 -0.32457497099322458 0 0.4062959459869725 -0.32912082979983148 0 0.40802480504278882 -0.32457497099322458 0 0.40572459905769331 -0.31910551143285631 0 0.40802480504278882 -0.32457497099322458 0 0.4119015194344513 -0.31818912214386269 0 0.41739686236043672 -0.32199345155319897 0 0.40802480504278882 -0.32457497099322458 0 0.4119015194344513 -0.31818912214386269 0 0.40572459905769331 -0.31910551143285631 0 0.4119015194344513 -0.31818912214386269 0 0.41919911313656122 -0.31385112706466711 0 0.40916221757477672 -0.31142054967536659 0 0.4119015194344513 -0.31818912214386269 0 0.40572459905769331 -0.31910551143285631 0 0.40916221757477672 -0.31142054967536659 0 0.4119015194344513 -0.31818912214386269 0 0.41919911313656122 -0.31385112706466711 0 0.41739686236043672 -0.32199345155319897 0 0.42053718701310799 -0.32957674384091618 0 0.40802480504278882 -0.32457497099322458 0 0.41739686236043672 -0.32199345155319897 0 0.44386277216801179 -0.36169325344809122 0 0.43376943787959182 -0.36708850497004442 0 0.42728564025893462 -0.35958684797927032 0 0.42489657602010461 -0.37065940299189432 0 0.43376943787959182 -0.36708850497004442 0 0.43808065797110041 -0.37748478958974491 0 0.42489657602010461 -0.37065940299189432 0 0.43376943787959182 -0.36708850497004442 0 0.42728564025893462 -0.35958684797927032 0 0.44386277216801179 -0.36169325344809122 0 0.4250793590774925 -0.34540704162396091 0 0.43963091224731599 -0.34751792105314822 0 0.44386277216801179 -0.36169325344809122 0 0.4250793590774925 -0.34540704162396091 0 0.44386277216801179 -0.36169325344809122 0 0.42728564025893462 -0.35958684797927032 0 0.4250793590774925 -0.34540704162396091 0 0.42728564025893462 -0.35958684797927032 0 0.4250793590774925 -0.34540704162396091 0 0.41069622259092692 -0.35617360609135817 0 0.4250793590774925 -0.34540704162396091 0 0.41055923831377589 -0.34398547157316572 0 0.41069622259092692 -0.35617360609135817 0 0.41055923831377589 -0.34398547157316572 0 0.41069622259092692 -0.35617360609135817 0 0.40016542559971202 -0.34524040877751239 0 0.42489657602010461 -0.37065940299189432 0 0.42728564025893462 -0.35958684797927032 0 0.41069622259092692 -0.35617360609135817 0 0.42489657602010461 -0.37065940299189432 0 0.41069622259092692 -0.35617360609135817 0 0.4070765621089808 -0.37107032214525337 0 0.42489657602010461 -0.37065940299189432 0 0.41069622259092692 -0.35617360609135817 0 0.39585190457779329 -0.37201308858561799 0 0.3940349052124521 -0.36135998775519362 0 0.38601585554704992 -0.38244526212700758 0 0.41069622259092692 -0.35617360609135817 0 0.4070765621089808 -0.37107032214525337 0 0.3940349052124521 -0.36135998775519362 0 0.4070765621089808 -0.37107032214525337 0 0.39585190457779329 -0.37201308858561799 0 0.3940349052124521 -0.36135998775519362 0 0.39585190457779329 -0.37201308858561799 0 0.3940349052124521 -0.36135998775519362 0 0.3940349052124521 -0.36135998775519362 0 0.40016542559971202 -0.34524040877751239 0 0.38974443050024338 -0.33620485529262373 0 0.3940349052124521 -0.36135998775519362 0 0.38974443050024338 -0.33620485529262373 0 0.3940349052124521 -0.36135998775519362 0 0.40016542559971202 -0.34524040877751239 0 0.41069622259092692 -0.35617360609135817 0 0.3940349052124521 -0.36135998775519362 0 0.40016542559971202 -0.34524040877751239 0 0.3940349052124521 -0.36135998775519362 0 0.38974443050024338 -0.33620485529262373 0 0.37368731816096312 -0.34897020548070451 0 0.3940349052124521 -0.36135998775519362 0 0.38601585554704992 -0.38244526212700758 0 0.3940349052124521 -0.36135998775519362 0 0.38601585554704992 -0.38244526212700758 0 0.3689120952668708 -0.37284951495870189 0 0.3940349052124521 -0.36135998775519362 0 0.3689120952668708 -0.37284951495870189 0 0.37368731816096312 -0.34897020548070451 0 0.4062959459869725 -0.32912082979983148 0 0.40572459905769331 -0.31910551143285631 0 0.39816778062817881 -0.31191488097197773 0 0.4062959459869725 -0.32912082979983148 0 0.38974443050024338 -0.33620485529262373 0 0.38545395578803499 -0.31104972283005378 0 0.4062959459869725 -0.32912082979983148 0 0.38545395578803499 -0.31104972283005378 0 0.4062959459869725 -0.32912082979983148 0 0.38545395578803499 -0.31104972283005378 0 0.39816778062817881 -0.31191488097197773 0 0.40572459905769331 -0.31910551143285631 0 0.39816778062817881 -0.31191488097197773 0 0.40916221757477672 -0.31142054967536659 0 0.4062959459869725 -0.32912082979983148 0 0.40016542559971202 -0.34524040877751239 0 0.38974443050024338 -0.33620485529262373 0 0.4062959459869725 -0.32912082979983148 0 0.40016542559971202 -0.34524040877751239 0 0.4062959459869725 -0.32912082979983148 0 0.41055923831377589 -0.34398547157316572 0 0.40016542559971202 -0.34524040877751239 0 0.38974443050024338 -0.33620485529262373 0 0.36945761595668469 -0.32738841673247931 0 0.37368731816096312 -0.34897020548070451 0 0.38974443050024338 -0.33620485529262373 0 0.38545395578803499 -0.31104972283005378 0 0.36945761595668469 -0.32738841673247931 0 0.38974443050024338 -0.33620485529262373 0 0.38545395578803499 -0.31104972283005378 0 0.38545395578803499 -0.31104972283005378 0 0.38245755150739558 -0.29348174920317632 0 0.37101427446782781 -0.29852975601036341 0 0.38545395578803499 -0.31104972283005378 0 0.38245755150739558 -0.29348174920317632 0 0.38545395578803499 -0.31104972283005378 0 0.37101427446782781 -0.29852975601036341 0 0.38545395578803499 -0.31104972283005378 0 0.39567659353887108 -0.29306988619604551 0 0.38245755150739558 -0.29348174920317632 0 0.39816778062817881 -0.31191488097197773 0 0.40563314249086863 -0.30155395497769039 0 0.39567659353887108 -0.29306988619604551 0 0.38545395578803499 -0.31104972283005378 0 0.39816778062817881 -0.31191488097197773 0 0.39567659353887108 -0.29306988619604551 0 0.39816778062817881 -0.31191488097197773 0 0.40563314249086863 -0.30155395497769039 0 0.40916221757477672 -0.31142054967536659 0 0.39567659353887108 -0.29306988619604551 0 0.40514250542832608 -0.27022331558021301 0 0.41160024963212011 -0.28933460066763711 0 0.40563314249086863 -0.30155395497769039 0 0.39567659353887108 -0.29306988619604551 0 0.41160024963212011 -0.28933460066763711 0 0.38245755150739558 -0.29348174920317632 0 0.37946114722675722 -0.27591377557629859 0 0.39567659353887108 -0.29306988619604551 0 0.38245755150739558 -0.29348174920317632 0 0.37946114722675722 -0.27591377557629859 0 0.38245755150739558 -0.29348174920317632 0 0.37795999762798671 -0.28395322059410122 0 0.37946114722675722 -0.27591377557629859 0 0.37519981906117678 -0.29055939022370142 0 0.38245755150739558 -0.29348174920317632 0 0.37101427446782781 -0.29852975601036341 0 0.37519981906117678 -0.29055939022370142 0 0.38245755150739558 -0.29348174920317632 0 0.37795999762798671 -0.28395322059410122 0 0.37795999762798671 -0.28395322059410122 0 0.37946114722675722 -0.27591377557629859 0 0.37739853904771847 -0.27637080706343392 0 0.37739853904771847 -0.27637080706343392 0 0.37683953433427181 -0.26882153263446662 0 0.37273728942595791 -0.27740364396778311 0 0.37795999762798671 -0.28395322059410122 0 0.37739853904771847 -0.27637080706343392 0 0.37273728942595791 -0.27740364396778311 0 0.37946114722675722 -0.27591377557629859 0 0.38774772661347989 -0.26664574742688191 0 0.3964002279028962 -0.26984905957103239 0 0.37946114722675722 -0.27591377557629859 0 0.3964002279028962 -0.26984905957103239 0 0.37795999762798671 -0.28395322059410122 0 0.37739853904771847 -0.27637080706343392 0 0.37739853904771847 -0.27637080706343392 0 0.37273728942595791 -0.27740364396778311 0 0.37946114722675722 -0.27591377557629859 0 0.37739853904771847 -0.27637080706343392 0 0.37683953433427181 -0.26882153263446662 0 0.37946114722675722 -0.27591377557629859 0 0.37739853904771847 -0.27637080706343392 0 0.37946114722675722 -0.27591377557629859 0 0.37843581040967561 -0.26746760801825881 0 0.38284686623937531 -0.26497045393317709 0 0.37946114722675722 -0.27591377557629859 0 0.37683953433427181 -0.26882153263446662 0 0.37843581040967561 -0.26746760801825881 0 0.37739853904771847 -0.27637080706343392 0 0.37683953433427181 -0.26882153263446662 0 0.37683953433427181 -0.26882153263446662 0 0.37843581040967561 -0.26746760801825881 0 0.37946114722675722 -0.27591377557629859 0 0.38774772661347989 -0.26664574742688191 0 0.38284686623937531 -0.26497045393317709 0 0.37477580018058132 -0.24095111383496479 0 0.37683953433427181 -0.26882153263446662 0 0.38107906364546162 -0.25934379353391329 0 0.37477580018058132 -0.24095111383496479 0 0.37683953433427181 -0.26882153263446662 0 0.37477580018058132 -0.24095111383496479 0 0.38107906364546162 -0.25934379353391329 0 0.38725375881062551 -0.25185160038302579 0 0.37843581040967561 -0.26746760801825881 0 0.38107906364546162 -0.25934379353391329 0 0.38284686623937531 -0.26497045393317709 0 0.37683953433427181 -0.26882153263446662 0 0.37843581040967561 -0.26746760801825881 0 0.38107906364546162 -0.25934379353391329 0 0.38107906364546162 -0.25934379353391329 0 0.38632261189823958 -0.26200045239958702 0 0.38284686623937531 -0.26497045393317709 0 0.38774772661347989 -0.26664574742688191 0 0.38632261189823958 -0.26200045239958702 0 0.38284686623937531 -0.26497045393317709 0 0.38774772661347989 -0.26664574742688191 0 0.38955528694719099 -0.2630172622662057 0 0.39295554709344072 -0.26445586107842978 0 0.38774772661347989 -0.26664574742688191 0 0.38632261189823958 -0.26200045239958702 0 0.38955528694719099 -0.2630172622662057 0 0.38632261189823958 -0.26200045239958702 0 0.38955528694719099 -0.2630172622662057 0 0.39119526218360401 -0.25896698815992442 0 0.38632261189823958 -0.26200045239958702 0 0.38725375881062551 -0.25185160038302579 0 0.39119526218360401 -0.25896698815992442 0 0.38107906364546162 -0.25934379353391329 0 0.38632261189823958 -0.26200045239958702 0 0.38725375881062551 -0.25185160038302579 0 0.40314688718896508 -0.2619981766022052 0 0.39707581272688741 -0.26613449373937459 0 0.41345304600685079 -0.26440480953867462 0 0.39707581272688741 -0.26613449373937459 0 0.41345304600685079 -0.26440480953867462 0 0.38725375881062551 -0.25185160038302579 0 0.39640803358832022 -0.25154779433757402 0 0.39119526218360401 -0.25896698815992442 0 0.39640803358832022 -0.25154779433757402 0 0.39702034872720737 -0.26014738253762237 0 0.39119526218360401 -0.25896698815992442 0 0.39702034872720737 -0.26014738253762237 0 0.39119526218360401 -0.25896698815992442 0 0.39295554709344072 -0.26445586107842978 0 0.38955528694719099 -0.2630172622662057 0 0.39119526218360401 -0.25896698815992442 0 0.39295554709344072 -0.26445586107842978 0 0.39702034872720737 -0.26014738253762237 0 0.39295554709344072 -0.26445586107842978 0 0.39707581272688741 -0.26613449373937459 0 0.39702034872720737 -0.26014738253762237 0 0.40314688718896508 -0.2619981766022052 0 0.39707581272688741 -0.26613449373937459 0 0.40314688718896508 -0.2619981766022052 0 0.40257909468765629 -0.25704117102420471 0 0.40998094690083942 -0.2590606397541646 0 0.39702034872720737 -0.26014738253762237 0 0.40314688718896508 -0.2619981766022052 0 0.40257909468765629 -0.25704117102420471 0 0.39640803358832022 -0.25154779433757402 0 0.39702034872720737 -0.26014738253762237 0 0.40257909468765629 -0.25704117102420471 0 0.41087794879613182 -0.2494957955088617 0 0.39640803358832022 -0.25154779433757402 0 0.40257909468765629 -0.25704117102420471 0 0.40514250542832608 -0.27022331558021301 0 0.3964002279028962 -0.26984905957103239 0 0.41345304600685079 -0.26440480953867462 0 0.37946114722675722 -0.27591377557629859 0 0.40514250542832608 -0.27022331558021301 0 0.3964002279028962 -0.26984905957103239 0 0.39707581272688741 -0.26613449373937459 0 0.3964002279028962 -0.26984905957103239 0 0.41345304600685079 -0.26440480953867462 0 0.37946114722675722 -0.27591377557629859 0 0.40514250542832608 -0.27022331558021301 0 0.3964002279028962 -0.26984905957103239 0 0.41345304600685079 -0.26440480953867462 0 0.39567659353887108 -0.29306988619604551 0 0.37946114722675722 -0.27591377557629859 0 0.40514250542832608 -0.27022331558021301 0 0.38774772661347989 -0.26664574742688191 0 0.39295554709344072 -0.26445586107842978 0 0.3964002279028962 -0.26984905957103239 0 0.39295554709344072 -0.26445586107842978 0 0.39707581272688741 -0.26613449373937459 0 0.3964002279028962 -0.26984905957103239 0 0.40514250542832608 -0.27022331558021301 0 0.41345304600685079 -0.26440480953867462 0 0.430823863629894 -0.26453285558412298 0 0.40514250542832608 -0.27022331558021301 0 0.430823863629894 -0.26453285558412298 0 0.40514250542832608 -0.27022331558021301 0 0.42166373126508722 -0.27984448092147479 0 0.41160024963212011 -0.28933460066763711 0 0.40514250542832608 -0.27022331558021301 0 0.42166373126508722 -0.27984448092147479 0 0.430823863629894 -0.26453285558412298 0 0.41087794879613182 -0.2494957955088617 0 0.41984775782459283 -0.2623632460968765 0 0.42854038242645709 -0.26281135800815408 0 0.41087794879613182 -0.2494957955088617 0 0.42854038242645709 -0.26281135800815408 0 0.41087794879613182 -0.2494957955088617 0 0.40257909468765629 -0.25704117102420471 0 0.40998094690083942 -0.2590606397541646 0 0.41087794879613182 -0.2494957955088617 0 0.40998094690083942 -0.2590606397541646 0 0.41984775782459283 -0.2623632460968765 0 0.40314688718896508 -0.2619981766022052 0 0.40998094690083942 -0.2590606397541646 0 0.41345304600685079 -0.26440480953867462 0 0.41345304600685079 -0.26440480953867462 0 0.41984775782459283 -0.2623632460968765 0 0.42854038242645709 -0.26281135800815408 0 0.40998094690083942 -0.2590606397541646 0 0.41345304600685079 -0.26440480953867462 0 0.41984775782459283 -0.2623632460968765 0 0.41345304600685079 -0.26440480953867462 0 0.42854038242645709 -0.26281135800815408 0 0.41345304600685079 -0.26440480953867462 0 0.41984775782459283 -0.2623632460968765 0 0.42656562700980838 -0.24831468624349931 0 0.41087794879613182 -0.2494957955088617 0 0.42854038242645709 -0.26281135800815408 0 0.4477486317760534 -0.26078267557717671 0 0.42854038242645709 -0.26281135800815408 0 0.430823863629894 -0.26453285558412298 0 0.41345304600685079 -0.26440480953867462 0 0.42854038242645709 -0.26281135800815408 0 0.430823863629894 -0.26453285558412298 0 0.42854038242645709 -0.26281135800815408 0 0.430823863629894 -0.26453285558412298 0 0.42656562700980838 -0.24831468624349931 0 0.42854038242645709 -0.26281135800815408 0 0.4372088962240912 -0.25169219704383999 0 0.42166373126508722 -0.27984448092147479 0 0.430823863629894 -0.26453285558412298 0 0.43570592202634773 -0.28205449164250063 0 0.42166373126508722 -0.27984448092147479 0 0.43570592202634773 -0.28205449164250063 0 0.42504611560874761 -0.29307714113289868 0 0.43874415768382158 -0.29310671547163403 0 0.43570592202634773 -0.28205449164250063 0 0.42504611560874761 -0.29307714113289868 0 0.43874415768382158 -0.29310671547163403 0 0.42504611560874761 -0.29307714113289868 0 0.43092107089682352 -0.30573631325696571 0 0.41919911313656122 -0.31385112706466711 0 0.43092107089682352 -0.30573631325696571 0 0.41692698488998292 -0.30249561446253759 0 0.42504611560874761 -0.29307714113289868 0 0.43092107089682352 -0.30573631325696571 0 0.41692698488998292 -0.30249561446253759 0 0.41919911313656122 -0.31385112706466711 0 0.41692698488998292 -0.30249561446253759 0 0.40916221757477672 -0.31142054967536659 0 0.40563314249086863 -0.30155395497769039 0 0.41692698488998292 -0.30249561446253759 0 0.40916221757477672 -0.31142054967536659 0 0.40563314249086863 -0.30155395497769039 0 0.41692698488998292 -0.30249561446253759 0 0.41160024963212011 -0.28933460066763711 0 0.42166373126508722 -0.27984448092147479 0 0.42504611560874761 -0.29307714113289868 0 0.41160024963212011 -0.28933460066763711 0 0.42504611560874761 -0.29307714113289868 0 0.41692698488998292 -0.30249561446253759 0 0.41160024963212011 -0.28933460066763711 0 0.5 -0.5 0 0.47532784176218862 -0.47257481327436679 0 0.43264288253940292 -0.48275234633568048 0 0.5 -0.5 0 0.41749257905485199 -0.50000000000000033 0 0.43264288253940292 -0.48275234633568048 0 0.47532784176218862 -0.47257481327436679 0 0.44779318602395363 -0.46550469267136052 0 0.43264288253940292 -0.48275234633568048 0 0.44779318602395363 -0.46550469267136052 0 0.43264288253940292 -0.48275234633568048 0 0.5 -0.5 0 0.47532784176218862 -0.47257481327436679 0 0.49999999999999828 -0.44642064777577001 0 0.47532784176218862 -0.47257481327436679 0 0.47918453573141367 -0.4495963838019249 0 0.46294348950850428 -0.44825703900704061 0 0.47532784176218862 -0.47257481327436679 0 0.49999999999999828 -0.44642064777577001 0 0.47918453573141367 -0.4495963838019249 0 0.49999999999999828 -0.44642064777577001 0 0.47846681165496419 -0.4311330351505217 0 0.49999999999999828 -0.44642064777577001 0 0.47918453573141367 -0.4495963838019249 0 0.47846681165496419 -0.4311330351505217 0 0.47918453573141367 -0.4495963838019249 0 0.46294348950850428 -0.44825703900704061 0 0.47846681165496419 -0.4311330351505217 0 0.46294348950850428 -0.44825703900704061 0 0.44442683605218691 -0.44583817528272968 0 0.45721208074107311 -0.43281318479414382 0 0.46294348950850428 -0.44825703900704061 0 0.44779318602395363 -0.46550469267136052 0 0.47532784176218862 -0.47257481327436679 0 0.46294348950850428 -0.44825703900704061 0 0.44779318602395363 -0.46550469267136052 0 0.44779318602395363 -0.46550469267136052 0 0.44442683605218691 -0.44583817528272968 0 0.43057418754349119 -0.46211781715143319 0 0.46294348950850428 -0.44825703900704061 0 0.44779318602395363 -0.46550469267136052 0 0.44442683605218691 -0.44583817528272968 0 0.44442683605218691 -0.44583817528272968 0 0.44324354583686831 -0.42153379012121539 0 0.45721208074107311 -0.43281318479414382 0 0.44442683605218691 -0.44583817528272968 0 0.44324354583686831 -0.42153379012121539 0 0.42653452723640378 -0.44279137365393179 0 0.44324354583686831 -0.42153379012121539 0 0.45693362330993059 -0.41584542252527262 0 0.45721208074107311 -0.43281318479414382 0 0.45693362330993059 -0.41584542252527262 0 0.4354004349648965 -0.40055780990002432 0 0.44324354583686831 -0.42153379012121539 0 0.45693362330993059 -0.41584542252527262 0 0.4354004349648965 -0.40055780990002432 0 0.45693362330993059 -0.41584542252527262 0 0.46461049463358839 -0.41117161714406408 0 0.47846681165496419 -0.4311330351505217 0 0.45693362330993059 -0.41584542252527262 0 0.46461049463358839 -0.41117161714406408 0 0.45329728287846061 -0.39963099679296588 0 0.46294348950850428 -0.44825703900704061 0 0.45721208074107311 -0.43281318479414382 0 0.47846681165496419 -0.4311330351505217 0 0.45693362330993059 -0.41584542252527262 0 0.45721208074107311 -0.43281318479414382 0 0.47846681165496419 -0.4311330351505217 0 0.45693362330993059 -0.41584542252527262 0 0.47846681165496419 -0.4311330351505217 0 0.49999999999999828 -0.44642064777577001 0 0.47846681165496419 -0.4311330351505217 0 0.5 -0.42181653977348488 0 0.5 -0.42181653977348488 0 0.48394518954555588 -0.41195106762427058 0 0.49999999999999789 -0.3972124317711998 0 0.47846681165496419 -0.4311330351505217 0 0.5 -0.42181653977348488 0 0.48394518954555588 -0.41195106762427058 0 0.46461049463358839 -0.41117161714406408 0 0.47846681165496419 -0.4311330351505217 0 0.48394518954555588 -0.41195106762427058 0 0.46461049463358839 -0.41117161714406408 0 0.48394518954555588 -0.41195106762427058 0 0.47664864143922919 -0.39842171428208217 0 0.47664864143922919 -0.39842171428208217 0 0.47975395238035062 -0.3854291032725421 0 0.46812846895096999 -0.38912968091376021 0 0.47664864143922919 -0.39842171428208217 0 0.49999999999999789 -0.3972124317711998 0 0.48779058149940679 -0.38751051868815611 0 0.48394518954555588 -0.41195106762427058 0 0.47664864143922919 -0.39842171428208217 0 0.49999999999999789 -0.3972124317711998 0 0.47664864143922919 -0.39842171428208217 0 0.49999999999999789 -0.3972124317711998 0 0.5 -0.37037944899495368 0 0.49999999999999789 -0.3972124317711998 0 0.48779058149940679 -0.38751051868815611 0 0.5 -0.37037944899495368 0 0.48466784746851571 -0.3739080713738358 0 0.48779058149940679 -0.38751051868815611 0 0.48466784746851571 -0.3739080713738358 0 0.47975395238035062 -0.3854291032725421 0 0.47323517146124039 -0.38191256761527542 0 0.48466784746851571 -0.3739080713738358 0 0.48779058149940679 -0.38751051868815611 0 0.47975395238035062 -0.3854291032725421 0 0.47664864143922919 -0.39842171428208217 0 0.48779058149940679 -0.38751051868815611 0 0.47975395238035062 -0.3854291032725421 0 0.47975395238035062 -0.3854291032725421 0 0.47323517146124039 -0.38191256761527542 0 0.46812846895096999 -0.38912968091376021 0 0.46918642870160698 -0.38365020197922722 0 0.47323517146124039 -0.38191256761527542 0 0.46812846895096999 -0.38912968091376021 0 0.4671179630262795 -0.37324494563770522 0 0.46918642870160698 -0.38365020197922722 0 0.47323517146124039 -0.38191256761527542 0 0.45652460043480969 -0.37267172771365881 0 0.4671179630262795 -0.37324494563770522 0 0.46918642870160698 -0.38365020197922722 0 0.45652460043480969 -0.37267172771365881 0 0.46918642870160698 -0.38365020197922722 0 0.45652460043480969 -0.37267172771365881 0 0.45606522570456098 -0.38599652494351028 0 0.44783900322824399 -0.38008781189722518 0 0.45652460043480969 -0.37267172771365881 0 0.46918642870160698 -0.38365020197922722 0 0.45606522570456098 -0.38599652494351028 0 0.46918642870160698 -0.38365020197922722 0 0.45606522570456098 -0.38599652494351028 0 0.46812846895096999 -0.38912968091376021 0 0.46461049463358839 -0.41117161714406408 0 0.47664864143922919 -0.39842171428208217 0 0.45329728287846061 -0.39963099679296588 0 0.47664864143922919 -0.39842171428208217 0 0.45329728287846061 -0.39963099679296588 0 0.47664864143922919 -0.39842171428208217 0 0.46812846895096999 -0.38912968091376021 0 0.45329728287846061 -0.39963099679296588 0 0.46461049463358839 -0.41117161714406408 0 0.45329728287846061 -0.39963099679296588 0 0.45606522570456098 -0.38599652494351028 0 0.46812846895096999 -0.38912968091376021 0 0.45329728287846061 -0.39963099679296588 0 0.45693362330993059 -0.41584542252527262 0 0.45329728287846061 -0.39963099679296588 0 0.4354004349648965 -0.40055780990002432 0 0.45329728287846061 -0.39963099679296588 0 0.4354004349648965 -0.40055780990002432 0 0.45329728287846061 -0.39963099679296588 0 0.4390969294492823 -0.3851451998924304 0 0.4354004349648965 -0.40055780990002432 0 0.45329728287846061 -0.39963099679296588 0 0.4390969294492823 -0.3851451998924304 0 0.45606522570456098 -0.38599652494351028 0 0.4390969294492823 -0.3851451998924304 0 0.44783900322824399 -0.38008781189722518 0 0.45606522570456098 -0.38599652494351028 0 0.45329728287846061 -0.39963099679296588 0 0.4390969294492823 -0.3851451998924304 0 0.4390969294492823 -0.3851451998924304 0 0.43808065797110041 -0.37748478958974491 0 0.44783900322824399 -0.38008781189722518 0 0.42782015831496062 -0.38505662608606978 0 0.4354004349648965 -0.40055780990002432 0 0.41188669282555868 -0.38386409155992901 0 0.42489657602010461 -0.37065940299189432 0 0.4390969294492823 -0.3851451998924304 0 0.42782015831496062 -0.38505662608606978 0 0.42489657602010461 -0.37065940299189432 0 0.4390969294492823 -0.3851451998924304 0 0.43808065797110041 -0.37748478958974491 0 0.42489657602010461 -0.37065940299189432 0 0.4390969294492823 -0.3851451998924304 0 0.4390969294492823 -0.3851451998924304 0 0.42782015831496062 -0.38505662608606978 0 0.4354004349648965 -0.40055780990002432 0 0.4354004349648965 -0.40055780990002432 0 0.41188669282555868 -0.38386409155992901 0 0.4354004349648965 -0.40055780990002432 0 0.40669862042327182 -0.40204417319942209 0 0.4354004349648965 -0.40055780990002432 0 0.40669862042327182 -0.40204417319942209 0 0.41188669282555868 -0.38386409155992901 0 0.42489657602010461 -0.37065940299189432 0 0.42782015831496062 -0.38505662608606978 0 0.41188669282555868 -0.38386409155992901 0 0.42489657602010461 -0.37065940299189432 0 0.4070765621089808 -0.37107032214525337 0 0.41188669282555868 -0.38386409155992901 0 0.4070765621089808 -0.37107032214525337 0 0.39585190457779329 -0.37201308858561799 0 0.39886607975096749 -0.38470810625682389 0 0.40669862042327182 -0.40204417319942209 0 0.41188669282555868 -0.38386409155992901 0 0.39886607975096749 -0.38470810625682389 0 0.4070765621089808 -0.37107032214525337 0 0.41188669282555868 -0.38386409155992901 0 0.39886607975096749 -0.38470810625682389 0 0.39585190457779329 -0.37201308858561799 0 0.39886607975096749 -0.38470810625682389 0 0.38601585554704992 -0.38244526212700758 0 0.39886607975096749 -0.38470810625682389 0 0.38601585554704992 -0.38244526212700758 0 0.37799680588164719 -0.40353053649882148 0 0.38601585554704992 -0.38244526212700758 0 0.37799680588164719 -0.40353053649882148 0 0.38601585554704992 -0.38244526212700758 0 0.37799680588164719 -0.40353053649882148 0 0.36816388811638329 -0.39545065246060412 0 0.37799680588164719 -0.40353053649882148 0 0.37635446215448021 -0.40784891206015261 0 0.37799680588164719 -0.40353053649882148 0 0.37505152225636262 -0.40368306209891941 0 0.37635446215448021 -0.40784891206015261 0 0.37799680588164719 -0.40353053649882148 0 0.37505152225636262 -0.40368306209891941 0 0.40669862042327182 -0.40204417319942209 0 0.39886607975096749 -0.38470810625682389 0 0.37799680588164719 -0.40353053649882148 0 0.40669862042327182 -0.40204417319942209 0 0.37799680588164719 -0.40353053649882148 0 0.40669862042327182 -0.40204417319942209 0 0.38553791301154328 -0.41840677215457472 0 0.40567792500840172 -0.4277251834563135 0 0.40669862042327182 -0.40204417319942209 0 0.37799680588164719 -0.40353053649882148 0 0.38553791301154328 -0.41840677215457472 0 0.38553791301154328 -0.41840677215457472 0 0.36905142820508552 -0.42917232846767789 0 0.37241381966677689 -0.417360225696081 0 0.38553791301154328 -0.41840677215457472 0 0.37635446215448021 -0.40784891206015261 0 0.37241381966677689 -0.417360225696081 0 0.37799680588164719 -0.40353053649882148 0 0.38553791301154328 -0.41840677215457472 0 0.37635446215448021 -0.40784891206015261 0 0.38553791301154328 -0.41840677215457472 0 0.38807715457860831 -0.4388905332329941 0 0.36905142820508552 -0.42917232846767789 0 0.38553791301154328 -0.41840677215457472 0 0.40567792500840172 -0.4277251834563135 0 0.38807715457860831 -0.4388905332329941 0 0.40567792500840172 -0.4277251834563135 0 0.42351101069396863 -0.41893046606618117 0 0.42653452723640378 -0.44279137365393179 0 0.4354004349648965 -0.40055780990002432 0 0.40669862042327182 -0.40204417319942209 0 0.42351101069396863 -0.41893046606618117 0 0.40669862042327182 -0.40204417319942209 0 0.40567792500840172 -0.4277251834563135 0 0.42351101069396863 -0.41893046606618117 0 0.44324354583686831 -0.42153379012121539 0 0.4354004349648965 -0.40055780990002432 0 0.42351101069396863 -0.41893046606618117 0 0.44324354583686831 -0.42153379012121539 0 0.42653452723640378 -0.44279137365393179 0 0.44324354583686831 -0.42153379012121539 0 0.42351101069396863 -0.41893046606618117 0 0.42653452723640378 -0.44279137365393179 0 0.44442683605218691 -0.44583817528272968 0 0.42653452723640378 -0.44279137365393179 0 0.43057418754349119 -0.46211781715143319 0 0.42653452723640378 -0.44279137365393179 0 0.43057418754349119 -0.46211781715143319 0 0.40982550863593931 -0.46404895718664829 0 0.42653452723640378 -0.44279137365393179 0 0.40982550863593931 -0.46404895718664829 0 0.42653452723640378 -0.44279137365393179 0 0.40982550863593931 -0.46404895718664829 0 0.4036378289262339 -0.44671034290208689 0 0.40567792500840172 -0.4277251834563135 0 0.42653452723640378 -0.44279137365393179 0 0.4036378289262339 -0.44671034290208689 0 0.40567792500840172 -0.4277251834563135 0 0.4036378289262339 -0.44671034290208689 0 0.38807715457860831 -0.4388905332329941 0 0.4036378289262339 -0.44671034290208689 0 0.38807715457860831 -0.4388905332329941 0 0.38807402917181633 -0.46009566698054732 0 0.38807715457860831 -0.4388905332329941 0 0.3733961412993268 -0.45022493016754961 0 0.36905142820508552 -0.42917232846767789 0 0.38807715457860831 -0.4388905332329941 0 0.38807402917181633 -0.46009566698054732 0 0.3733961412993268 -0.45022493016754961 0 0.38807402917181633 -0.46009566698054732 0 0.36593927904035028 -0.47432204071884282 0 0.3733961412993268 -0.45022493016754961 0 0.40982550863593931 -0.46404895718664829 0 0.4036378289262339 -0.44671034290208689 0 0.38807402917181633 -0.46009566698054732 0 0.40982550863593931 -0.46404895718664829 0 0.39311649003547477 -0.48530654071936469 0 0.40982550863593931 -0.46404895718664829 0 0.38807402917181633 -0.46009566698054732 0 0.39311649003547477 -0.48530654071936469 0 0.38807402917181633 -0.46009566698054732 0 0.39311649003547477 -0.48530654071936469 0 0.36593927904035028 -0.47432204071884282 0 0.37603974257992701 -0.49999999999999978 0 0.39311649003547477 -0.48530654071936469 0 0.36593927904035028 -0.47432204071884282 0 0.37603974257992701 -0.49999999999999978 0 0.39676616081738958 -0.5 0 0.39311649003547477 -0.48530654071936469 0 0.39676616081738958 -0.5 0 0.39311649003547477 -0.48530654071936469 0 0.41749257905485199 -0.50000000000000033 0 0.40982550863593931 -0.46404895718664829 0 0.41749257905485199 -0.50000000000000033 0 0.43264288253940292 -0.48275234633568048 0 0.40982550863593931 -0.46404895718664829 0 0.39311649003547477 -0.48530654071936469 0 0.41749257905485199 -0.50000000000000033 0 0.43057418754349119 -0.46211781715143319 0 0.40982550863593931 -0.46404895718664829 0 0.43264288253940292 -0.48275234633568048 0 0.44779318602395363 -0.46550469267136052 0 0.43057418754349119 -0.46211781715143319 0 0.43264288253940292 -0.48275234633568048 0 0.41749257905485199 -0.50000000000000033 0 0.43264288253940292 -0.48275234633568048 0 0.32215468257820618 -0.5 0 0.33760568703239408 -0.47417818032706111 0 0.31005432530219129 -0.48106067464861729 0 0.33760568703239408 -0.47417818032706111 0 0.3189449745883719 -0.46117016543644002 0 0.31005432530219129 -0.48106067464861729 0 0.32215468257820618 -0.5 0 0.33760568703239408 -0.47417818032706111 0 0.34909721257906662 -0.5 0 0.37603974257992701 -0.49999999999999978 0 0.34909721257906662 -0.5 0 0.36593927904035028 -0.47432204071884282 0 0.37603974257992701 -0.49999999999999978 0 0.36593927904035028 -0.47432204071884282 0 0.33760568703239408 -0.47417818032706111 0 0.34909721257906662 -0.5 0 0.36593927904035028 -0.47432204071884282 0 0.33760568703239408 -0.47417818032706111 0 0.36593927904035028 -0.47432204071884282 0 0.35583881550077368 -0.44864408143768569 0 0.36593927904035028 -0.47432204071884282 0 0.35583881550077368 -0.44864408143768569 0 0.36593927904035028 -0.47432204071884282 0 0.3733961412993268 -0.45022493016754961 0 0.35583881550077368 -0.44864408143768569 0 0.3733961412993268 -0.45022493016754961 0 0.35583881550077368 -0.44864408143768569 0 0.36905142820508552 -0.42917232846767789 0 0.35583881550077368 -0.44864408143768569 0 0.33540415989768779 -0.44905252560006492 0 0.34573835196119679 -0.42296612215652868 0 0.33760568703239408 -0.47417818032706111 0 0.35583881550077368 -0.44864408143768569 0 0.33540415989768779 -0.44905252560006492 0 0.33760568703239408 -0.47417818032706111 0 0.33540415989768779 -0.44905252560006492 0 0.3189449745883719 -0.46117016543644002 0 0.33540415989768779 -0.44905252560006492 0 0.3189449745883719 -0.46117016543644002 0 0.32126124445813709 -0.43429719032362252 0 0.3189449745883719 -0.46117016543644002 0 0.32126124445813709 -0.43429719032362252 0 0.30480654487456732 -0.44641521679941309 0 0.32126124445813709 -0.43429719032362252 0 0.3193156137706864 -0.40941365839269389 0 0.29937418247959258 -0.41817563384508599 0 0.3193156137706864 -0.40941365839269389 0 0.34573835196119679 -0.42296612215652868 0 0.33563788842162012 -0.39728816287537172 0 0.34573835196119679 -0.42296612215652868 0 0.33563788842162012 -0.39728816287537172 0 0.33540415989768779 -0.44905252560006492 0 0.32126124445813709 -0.43429719032362252 0 0.34573835196119679 -0.42296612215652868 0 0.32126124445813709 -0.43429719032362252 0 0.3193156137706864 -0.40941365839269389 0 0.34573835196119679 -0.42296612215652868 0 0.35583881550077368 -0.44864408143768569 0 0.34573835196119679 -0.42296612215652868 0 0.36905142820508552 -0.42917232846767789 0 0.35583881550077368 -0.44864408143768569 0 0.34573835196119679 -0.42296612215652868 0 0.36905142820508552 -0.42917232846767789 0 0.37241381966677689 -0.417360225696081 0 0.36195200988480669 -0.41065981681110758 0 0.36990343230398692 -0.40830781576793279 0 0.37241381966677689 -0.417360225696081 0 0.36195200988480669 -0.41065981681110758 0 0.37635446215448021 -0.40784891206015261 0 0.36990343230398692 -0.40830781576793279 0 0.37241381966677689 -0.417360225696081 0 0.37505152225636262 -0.40368306209891941 0 0.37635446215448021 -0.40784891206015261 0 0.36990343230398692 -0.40830781576793279 0 0.36990343230398692 -0.40830781576793279 0 0.36195200988480669 -0.41065981681110758 0 0.36876771314038492 -0.40452533678464098 0 0.34573835196119679 -0.42296612215652868 0 0.36195200988480669 -0.41065981681110758 0 0.35211107663302149 -0.40015425695529971 0 0.34573835196119679 -0.42296612215652868 0 0.36905142820508552 -0.42917232846767789 0 0.36195200988480669 -0.41065981681110758 0 0.34573835196119679 -0.42296612215652868 0 0.35211107663302149 -0.40015425695529971 0 0.33563788842162012 -0.39728816287537172 0 0.35211107663302149 -0.40015425695529971 0 0.35352794608594401 -0.38791341326287138 0 0.33563788842162012 -0.39728816287537172 0 0.35211107663302149 -0.40015425695529971 0 0.36816388811638329 -0.39545065246060412 0 0.35352794608594401 -0.38791341326287138 0 0.36195200988480669 -0.41065981681110758 0 0.36816388811638329 -0.39545065246060412 0 0.36876771314038492 -0.40452533678464098 0 0.36195200988480669 -0.41065981681110758 0 0.35211107663302149 -0.40015425695529971 0 0.36816388811638329 -0.39545065246060412 0 0.37505152225636262 -0.40368306209891941 0 0.36816388811638329 -0.39545065246060412 0 0.36876771314038492 -0.40452533678464098 0 0.37799680588164719 -0.40353053649882148 0 0.37505152225636262 -0.40368306209891941 0 0.36816388811638329 -0.39545065246060412 0 0.37505152225636262 -0.40368306209891941 0 0.36990343230398692 -0.40830781576793279 0 0.36876771314038492 -0.40452533678464098 0 0.38601585554704992 -0.38244526212700758 0 0.36816388811638329 -0.39545065246060412 0 0.3689120952668708 -0.37284951495870189 0 0.36816388811638329 -0.39545065246060412 0 0.35352794608594401 -0.38791341326287138 0 0.3689120952668708 -0.37284951495870189 0 0.35352794608594401 -0.38791341326287138 0 0.33563788842162012 -0.39728816287537172 0 0.34467783115022588 -0.37252705130409253 0 0.35352794608594401 -0.38791341326287138 0 0.3689120952668708 -0.37284951495870189 0 0.34467783115022588 -0.37252705130409253 0 0.33563788842162012 -0.39728816287537172 0 0.3255374248820434 -0.37161020359421471 0 0.33563788842162012 -0.39728816287537172 0 0.34467783115022588 -0.37252705130409253 0 0.3255374248820434 -0.37161020359421471 0 0.3193156137706864 -0.40941365839269389 0 0.33563788842162012 -0.39728816287537172 0 0.30534853388527528 -0.38930881101125692 0 0.33563788842162012 -0.39728816287537172 0 0.30534853388527528 -0.38930881101125692 0 0.3255374248820434 -0.37161020359421471 0 0.30534853388527528 -0.38930881101125692 0 0.3255374248820434 -0.37161020359421471 0 0.30525369772634148 -0.37164386163485291 0 0.30534853388527528 -0.38930881101125692 0 0.28783989868818821 -0.37644057584389279 0 0.30525369772634148 -0.37164386163485291 0 0.3193156137706864 -0.40941365839269389 0 0.30534853388527528 -0.38930881101125692 0 0.29937418247959258 -0.41817563384508599 0 0.30534853388527528 -0.38930881101125692 0 0.28922044672054198 -0.39637746652331562 0 0.29937418247959258 -0.41817563384508599 0 0.28922044672054198 -0.39637746652331562 0 0.27510086349567708 -0.39798721671617321 0 0.28320928432356041 -0.41012407252970262 0 0.28922044672054198 -0.39637746652331562 0 0.28783989868818821 -0.37644057584389279 0 0.27924907625512951 -0.38731579260330862 0 0.30534853388527528 -0.38930881101125692 0 0.28922044672054198 -0.39637746652331562 0 0.28783989868818821 -0.37644057584389279 0 0.30534853388527528 -0.38930881101125692 0 0.28783989868818821 -0.37644057584389279 0 0.28783989868818821 -0.37644057584389279 0 0.27447250226623809 -0.37821124143188289 0 0.27924907625512951 -0.38731579260330862 0 0.27447250226623809 -0.37821124143188289 0 0.27924907625512951 -0.38731579260330862 0 0.26961167010500181 -0.38756246250127813 0 0.27447250226623809 -0.37821124143188289 0 0.26961167010500181 -0.38756246250127813 0 0.26423397132697279 -0.37890457124200982 0 0.26961167010500181 -0.38756246250127813 0 0.26423397132697279 -0.37890457124200982 0 0.25687819372407023 -0.38903915957053298 0 0.26423397132697279 -0.37890457124200982 0 0.25687819372407023 -0.38903915957053298 0 0.24987622704845311 -0.37613765202982719 0 0.25108303853213881 -0.40002667887407228 0 0.26390234922262928 -0.39930308446362528 0 0.256136481120742 -0.41447562176841068 0 0.25687819372407023 -0.38903915957053298 0 0.25108303853213881 -0.40002667887407228 0 0.24309899287842279 -0.39271330151873202 0 0.25687819372407023 -0.38903915957053298 0 0.25108303853213881 -0.40002667887407228 0 0.26390234922262928 -0.39930308446362528 0 0.26961167010500181 -0.38756246250127813 0 0.25687819372407023 -0.38903915957053298 0 0.26390234922262928 -0.39930308446362528 0 0.26390234922262928 -0.39930308446362528 0 0.27510086349567708 -0.39798721671617321 0 0.2708804648698091 -0.41009655218672442 0 0.26961167010500181 -0.38756246250127813 0 0.26390234922262928 -0.39930308446362528 0 0.27510086349567708 -0.39798721671617321 0 0.28922044672054198 -0.39637746652331562 0 0.27924907625512951 -0.38731579260330862 0 0.27510086349567708 -0.39798721671617321 0 0.27924907625512951 -0.38731579260330862 0 0.26961167010500181 -0.38756246250127813 0 0.27510086349567708 -0.39798721671617321 0 0.27510086349567708 -0.39798721671617321 0 0.2708804648698091 -0.41009655218672442 0 0.28320928432356041 -0.41012407252970262 0 0.2708804648698091 -0.41009655218672442 0 0.256136481120742 -0.41447562176841068 0 0.27433621812851161 -0.42550461519375637 0 0.2708804648698091 -0.41009655218672442 0 0.27433621812851161 -0.42550461519375637 0 0.28320928432356041 -0.41012407252970262 0 0.26390234922262928 -0.39930308446362528 0 0.2708804648698091 -0.41009655218672442 0 0.256136481120742 -0.41447562176841068 0 0.25108303853213881 -0.40002667887407228 0 0.256136481120742 -0.41447562176841068 0 0.24629253832767661 -0.41022035877505542 0 0.256136481120742 -0.41447562176841068 0 0.25513396950241118 -0.43290986753561628 0 0.2453827316299185 -0.42192330194190181 0 0.256136481120742 -0.41447562176841068 0 0.25513396950241118 -0.43290986753561628 0 0.27433621812851161 -0.42550461519375637 0 0.25513396950241118 -0.43290986753561628 0 0.27433621812851161 -0.42550461519375637 0 0.26752346795397081 -0.44788636482661331 0 0.27433621812851161 -0.42550461519375637 0 0.29937418247959258 -0.41817563384508599 0 0.28546596250580908 -0.44246723239800262 0 0.29937418247959258 -0.41817563384508599 0 0.30480654487456732 -0.44641521679941309 0 0.28546596250580908 -0.44246723239800262 0 0.28922044672054198 -0.39637746652331562 0 0.28320928432356041 -0.41012407252970262 0 0.29937418247959258 -0.41817563384508599 0 0.27433621812851161 -0.42550461519375637 0 0.28320928432356041 -0.41012407252970262 0 0.29937418247959258 -0.41817563384508599 0 0.32126124445813709 -0.43429719032362252 0 0.29937418247959258 -0.41817563384508599 0 0.30480654487456732 -0.44641521679941309 0 0.3189449745883719 -0.46117016543644002 0 0.30480654487456732 -0.44641521679941309 0 0.28880919487484108 -0.4658549053918814 0 0.30480654487456732 -0.44641521679941309 0 0.28880919487484108 -0.4658549053918814 0 0.28546596250580908 -0.44246723239800262 0 0.27433621812851161 -0.42550461519375637 0 0.28546596250580908 -0.44246723239800262 0 0.26752346795397081 -0.44788636482661331 0 0.28880919487484108 -0.4658549053918814 0 0.28546596250580908 -0.44246723239800262 0 0.26752346795397081 -0.44788636482661331 0 0.25513396950241118 -0.43290986753561628 0 0.26752346795397081 -0.44788636482661331 0 0.24480843210435321 -0.45079661158300749 0 0.26752346795397081 -0.44788636482661331 0 0.2588368117714554 -0.46700690363883102 0 0.24480843210435321 -0.45079661158300749 0 0.28880919487484108 -0.4658549053918814 0 0.26752346795397081 -0.44788636482661331 0 0.2588368117714554 -0.46700690363883102 0 0.28880919487484108 -0.4658549053918814 0 0.2588368117714554 -0.46700690363883102 0 0.27227655507569209 -0.48076744006000099 0 0.2588368117714554 -0.46700690363883102 0 0.27227655507569209 -0.48076744006000099 0 0.25270961841775552 -0.48460016746525392 0 0.2588368117714554 -0.46700690363883102 0 0.25270961841775552 -0.48460016746525392 0 0.23949561189523169 -0.47426551941090739 0 0.25270961841775552 -0.48460016746525392 0 0.26826962257648529 -0.5 0 0.2413270925756249 -0.5 0 0.27227655507569209 -0.48076744006000099 0 0.25270961841775552 -0.48460016746525392 0 0.26826962257648529 -0.5 0 0.27227655507569209 -0.48076744006000099 0 0.26826962257648529 -0.5 0 0.29521215257734579 -0.5 0 0.28880919487484108 -0.4658549053918814 0 0.27227655507569209 -0.48076744006000099 0 0.29521215257734579 -0.5 0 0.28880919487484108 -0.4658549053918814 0 0.29521215257734579 -0.5 0 0.31005432530219129 -0.48106067464861729 0 0.3189449745883719 -0.46117016543644002 0 0.28880919487484108 -0.4658549053918814 0 0.31005432530219129 -0.48106067464861729 0 0.32215468257820618 -0.5 0 0.29521215257734579 -0.5 0 0.31005432530219129 -0.48106067464861729 0 0.33463237856908817 -0.28956894479377399 0 0.33485830675890288 -0.30442904333306592 0 0.35657459314761941 -0.2860097891906741 0 0.33463237856908817 -0.28956894479377399 0 0.32894302133540282 -0.28710755170783531 0 0.35195887039823659 -0.28200771363307098 0 0.32894302133540282 -0.28710755170783531 0 0.35195887039823659 -0.28200771363307098 0 0.32894302133540282 -0.28710755170783531 0 0.33255663915089151 -0.29722249741805129 0 0.33463237856908817 -0.28956894479377399 0 0.32894302133540282 -0.28710755170783531 0 0.33255663915089151 -0.29722249741805129 0 0.32894302133540282 -0.28710755170783531 0 0.33255663915089151 -0.29722249741805129 0 0.32301709761150521 -0.2972128627914089 0 0.33485830675890288 -0.30442904333306592 0 0.34824447571033601 -0.30253517369681238 0 0.34533870308018377 -0.31598934501886372 0 0.33485830675890288 -0.30442904333306592 0 0.33255663915089151 -0.29722249741805129 0 0.32434770264142349 -0.30499280498860082 0 0.33463237856908817 -0.28956894479377399 0 0.33485830675890288 -0.30442904333306592 0 0.33255663915089151 -0.29722249741805129 0 0.32301709761150521 -0.2972128627914089 0 0.32434770264142349 -0.30499280498860082 0 0.3171485971304504 -0.30589952111326829 0 0.32434770264142349 -0.30499280498860082 0 0.3171485971304504 -0.30589952111326829 0 0.31314202037018413 -0.32284829747545468 0 0.33485830675890288 -0.30442904333306592 0 0.32434770264142349 -0.30499280498860082 0 0.31314202037018413 -0.32284829747545468 0 0.33255663915089151 -0.29722249741805129 0 0.32301709761150521 -0.2972128627914089 0 0.32434770264142349 -0.30499280498860082 0 0.3171485971304504 -0.30589952111326829 0 0.31208952779935789 -0.2908419387292881 0 0.30833746379913463 -0.30503745501229762 0 0.32301709761150521 -0.2972128627914089 0 0.3171485971304504 -0.30589952111326829 0 0.31208952779935789 -0.2908419387292881 0 0.32894302133540282 -0.28710755170783531 0 0.31611371382327402 -0.28007222207304999 0 0.31208952779935789 -0.2908419387292881 0 0.32894302133540282 -0.28710755170783531 0 0.32301709761150521 -0.2972128627914089 0 0.31208952779935789 -0.2908419387292881 0 0.32894302133540282 -0.28710755170783531 0 0.31208952779935789 -0.2908419387292881 0 0.32894302133540282 -0.28710755170783531 0 0.32245882367699719 -0.26895751187574157 0 0.32894302133540282 -0.28710755170783531 0 0.31611371382327402 -0.28007222207304999 0 0.32245882367699719 -0.26895751187574157 0 0.31611371382327402 -0.28007222207304999 0 0.32245882367699719 -0.26895751187574157 0 0.30706455279928557 -0.27339796693147528 0 0.32245882367699719 -0.26895751187574157 0 0.30981211567343969 -0.26250129009931661 0 0.30706455279928557 -0.27339796693147528 0 0.32245882367699719 -0.26895751187574157 0 0.31597462601859122 -0.25080747204364812 0 0.32245882367699719 -0.26895751187574157 0 0.31597462601859122 -0.25080747204364812 0 0.30981211567343969 -0.26250129009931661 0 0.32245882367699719 -0.26895751187574157 0 0.31597462601859122 -0.25080747204364812 0 0.33396674820841349 -0.26640759283836002 0 0.31597462601859122 -0.25080747204364812 0 0.33396674820841349 -0.26640759283836002 0 0.33517615116993849 -0.24743488902137309 0 0.33396674820841349 -0.26640759283836002 0 0.35185333732921159 -0.25428502110151557 0 0.33517615116993849 -0.24743488902137309 0 0.31597462601859122 -0.25080747204364812 0 0.33396674820841349 -0.26640759283836002 0 0.32894302133540282 -0.28710755170783531 0 0.32245882367699719 -0.26895751187574157 0 0.33396674820841349 -0.26640759283836002 0 0.33396674820841349 -0.26640759283836002 0 0.35195887039823659 -0.28200771363307098 0 0.32894302133540282 -0.28710755170783531 0 0.33396674820841349 -0.26640759283836002 0 0.35195887039823659 -0.28200771363307098 0 0.33396674820841349 -0.26640759283836002 0 0.35159414215374007 -0.26901089914998932 0 0.35195887039823659 -0.28200771363307098 0 0.35159414215374007 -0.26901089914998932 0 0.36459381448795669 -0.2792080702757721 0 0.35195887039823659 -0.28200771363307098 0 0.36459381448795669 -0.2792080702757721 0 0.35195887039823659 -0.28200771363307098 0 0.33396674820841349 -0.26640759283836002 0 0.35159414215374007 -0.26901089914998932 0 0.35185333732921159 -0.25428502110151557 0 0.35159414215374007 -0.26901089914998932 0 0.35185333732921159 -0.25428502110151557 0 0.36435388824524378 -0.26651308148643732 0 0.37477580018058132 -0.24095111383496479 0 0.37683953433427181 -0.26882153263446662 0 0.36563983252638571 -0.25462703483095822 0 0.36075586336603621 -0.2426037127049111 0 0.35185333732921159 -0.25428502110151557 0 0.36563983252638571 -0.25462703483095822 0 0.35185333732921159 -0.25428502110151557 0 0.36563983252638571 -0.25462703483095822 0 0.36435388824524378 -0.26651308148643732 0 0.37683953433427181 -0.26882153263446662 0 0.36563983252638571 -0.25462703483095822 0 0.36435388824524378 -0.26651308148643732 0 0.36459381448795669 -0.2792080702757721 0 0.36308990924476459 -0.28048364807874221 0 0.35195887039823659 -0.28200771363307098 0 0.36459381448795669 -0.2792080702757721 0 0.36308990924476459 -0.28048364807874221 0 0.37273728942595791 -0.27740364396778311 0 0.36459381448795669 -0.2792080702757721 0 0.36308990924476459 -0.28048364807874221 0 0.35159414215374007 -0.26901089914998932 0 0.36459381448795669 -0.2792080702757721 0 0.36435388824524378 -0.26651308148643732 0 0.37683953433427181 -0.26882153263446662 0 0.36459381448795669 -0.2792080702757721 0 0.36435388824524378 -0.26651308148643732 0 0.36459381448795669 -0.2792080702757721 0 0.37273728942595791 -0.27740364396778311 0 0.37683953433427181 -0.26882153263446662 0 0.36459381448795669 -0.2792080702757721 0 0.37273728942595791 -0.27740364396778311 0 0.37683953433427181 -0.26882153263446662 0 0.36459381448795669 -0.2792080702757721 0 0.36308990924476459 -0.28048364807874221 0 0.37273728942595791 -0.27740364396778311 0 0.37795999762798671 -0.28395322059410122 0 0.37273728942595791 -0.27740364396778311 0 0.36936745264149701 -0.28627283508716472 0 0.35657459314761941 -0.2860097891906741 0 0.35620629985463748 -0.30371251724464648 0 0.37101427446782781 -0.29852975601036341 0 0.36308990924476459 -0.28048364807874221 0 0.37273728942595791 -0.27740364396778311 0 0.36936745264149701 -0.28627283508716472 0 0.37519981906117678 -0.29055939022370142 0 0.37795999762798671 -0.28395322059410122 0 0.36936745264149701 -0.28627283508716472 0 0.37519981906117678 -0.29055939022370142 0 0.36936745264149701 -0.28627283508716472 0 0.37101427446782781 -0.29852975601036341 0 0.36936745264149701 -0.28627283508716472 0 0.35657459314761941 -0.2860097891906741 0 0.37101427446782781 -0.29852975601036341 0 0.35657459314761941 -0.2860097891906741 0 0.37101427446782781 -0.29852975601036341 0 0.36308990924476459 -0.28048364807874221 0 0.36936745264149701 -0.28627283508716472 0 0.35657459314761941 -0.2860097891906741 0 0.36308990924476459 -0.28048364807874221 0 0.35657459314761941 -0.2860097891906741 0 0.36308990924476459 -0.28048364807874221 0 0.35366972758071469 -0.28349111722646431 0 0.33463237856908817 -0.28956894479377399 0 0.35366972758071469 -0.28349111722646431 0 0.33463237856908817 -0.28956894479377399 0 0.35366972758071469 -0.28349111722646431 0 0.35195887039823659 -0.28200771363307098 0 0.36308990924476459 -0.28048364807874221 0 0.35366972758071469 -0.28349111722646431 0 0.35195887039823659 -0.28200771363307098 0 0.33485830675890288 -0.30442904333306592 0 0.35657459314761941 -0.2860097891906741 0 0.36308990924476459 -0.28048364807874221 0 0.35366972758071469 -0.28349111722646431 0 0.35657459314761941 -0.2860097891906741 0 0.33463237856908817 -0.28956894479377399 0 0.35366972758071469 -0.28349111722646431 0 0.35657459314761941 -0.2860097891906741 0 0.35366972758071469 -0.28349111722646431 0 0.35657459314761941 -0.2860097891906741 0 0.35366972758071469 -0.28349111722646431 0 0.35195887039823659 -0.28200771363307098 0 0.35620629985463748 -0.30371251724464648 0 0.36380134767337091 -0.31365371592763602 0 0.34533870308018377 -0.31598934501886372 0 0.35657459314761941 -0.2860097891906741 0 0.34824447571033601 -0.30253517369681238 0 0.35620629985463748 -0.30371251724464648 0 0.33485830675890288 -0.30442904333306592 0 0.35657459314761941 -0.2860097891906741 0 0.34824447571033601 -0.30253517369681238 0 0.34824447571033601 -0.30253517369681238 0 0.35620629985463748 -0.30371251724464648 0 0.34533870308018377 -0.31598934501886372 0 0.38545395578803499 -0.31104972283005378 0 0.37101427446782781 -0.29852975601036341 0 0.36380134767337091 -0.31365371592763602 0 0.35620629985463748 -0.30371251724464648 0 0.37101427446782781 -0.29852975601036341 0 0.36380134767337091 -0.31365371592763602 0 0.38545395578803499 -0.31104972283005378 0 0.36380134767337091 -0.31365371592763602 0 0.36945761595668469 -0.32738841673247931 0 0.36380134767337091 -0.31365371592763602 0 0.36945761595668469 -0.32738841673247931 0 0.35533723689285712 -0.32525253772940937 0 0.36945761595668469 -0.32738841673247931 0 0.35618710249729552 -0.34088690244721892 0 0.35533723689285712 -0.32525253772940937 0 0.36945761595668469 -0.32738841673247931 0 0.35618710249729552 -0.34088690244721892 0 0.37368731816096312 -0.34897020548070451 0 0.35618710249729552 -0.34088690244721892 0 0.33810128782584858 -0.35072533414536311 0 0.34064131712366241 -0.33181983138849169 0 0.35618710249729552 -0.34088690244721892 0 0.35533723689285712 -0.32525253772940937 0 0.34064131712366241 -0.33181983138849169 0 0.34533870308018377 -0.31598934501886372 0 0.35533723689285712 -0.32525253772940937 0 0.34064131712366241 -0.33181983138849169 0 0.36380134767337091 -0.31365371592763602 0 0.34533870308018377 -0.31598934501886372 0 0.35533723689285712 -0.32525253772940937 0 0.3689120952668708 -0.37284951495870189 0 0.37368731816096312 -0.34897020548070451 0 0.35738528973841999 -0.35772904562383351 0 0.35618710249729552 -0.34088690244721892 0 0.37368731816096312 -0.34897020548070451 0 0.35738528973841999 -0.35772904562383351 0 0.35618710249729552 -0.34088690244721892 0 0.35738528973841999 -0.35772904562383351 0 0.33810128782584858 -0.35072533414536311 0 0.35738528973841999 -0.35772904562383351 0 0.34467783115022588 -0.37252705130409253 0 0.33810128782584858 -0.35072533414536311 0 0.3689120952668708 -0.37284951495870189 0 0.35738528973841999 -0.35772904562383351 0 0.34467783115022588 -0.37252705130409253 0 0.34467783115022588 -0.37252705130409253 0 0.33810128782584858 -0.35072533414536311 0 0.3255374248820434 -0.37161020359421471 0 0.31543696134246668 -0.34593224431305769 0 0.3255374248820434 -0.37161020359421471 0 0.30900602422585888 -0.35865430802761772 0 0.31543696134246668 -0.34593224431305769 0 0.3255374248820434 -0.37161020359421471 0 0.33810128782584858 -0.35072533414536311 0 0.31543696134246668 -0.34593224431305769 0 0.3255374248820434 -0.37161020359421471 0 0.3255374248820434 -0.37161020359421471 0 0.30525369772634148 -0.37164386163485291 0 0.30900602422585888 -0.35865430802761772 0 0.34533870308018377 -0.31598934501886372 0 0.33130220335757699 -0.32186248444176119 0 0.34064131712366241 -0.33181983138849169 0 0.33485830675890288 -0.30442904333306592 0 0.34533870308018377 -0.31598934501886372 0 0.33130220335757699 -0.32186248444176119 0 0.33810128782584858 -0.35072533414536311 0 0.34064131712366241 -0.33181983138849169 0 0.3268430880468266 -0.33457206034663262 0 0.33130220335757699 -0.32186248444176119 0 0.34064131712366241 -0.33181983138849169 0 0.3268430880468266 -0.33457206034663262 0 0.31543696134246668 -0.34593224431305769 0 0.3268430880468266 -0.33457206034663262 0 0.31314202037018413 -0.32284829747545468 0 0.33810128782584858 -0.35072533414536311 0 0.31543696134246668 -0.34593224431305769 0 0.3268430880468266 -0.33457206034663262 0 0.33130220335757699 -0.32186248444176119 0 0.3268430880468266 -0.33457206034663262 0 0.31314202037018413 -0.32284829747545468 0 0.33485830675890288 -0.30442904333306592 0 0.31314202037018413 -0.32284829747545468 0 0.3171485971304504 -0.30589952111326829 0 0.31314202037018413 -0.32284829747545468 0 0.3109911447756647 -0.31350988965823029 0 0.33485830675890288 -0.30442904333306592 0 0.33130220335757699 -0.32186248444176119 0 0.31314202037018413 -0.32284829747545468 0 0.31314202037018413 -0.32284829747545468 0 0.30533649780288991 -0.32025428503190068 0 0.3109911447756647 -0.31350988965823029 0 0.30533649780288991 -0.32025428503190068 0 0.3109911447756647 -0.31350988965823029 0 0.30833746379913463 -0.30503745501229762 0 0.31543696134246668 -0.34593224431305769 0 0.30533649780288991 -0.32025428503190068 0 0.30314188851555429 -0.3464145030398364 0 0.30533649780288991 -0.32025428503190068 0 0.29792146783109758 -0.32077626486014349 0 0.30314188851555429 -0.3464145030398364 0 0.31543696134246668 -0.34593224431305769 0 0.31314202037018413 -0.32284829747545468 0 0.30533649780288991 -0.32025428503190068 0 0.29792146783109758 -0.32077626486014349 0 0.30314188851555429 -0.3464145030398364 0 0.31543696134246668 -0.34593224431305769 0 0.30533649780288991 -0.32025428503190068 0 0.29792146783109758 -0.32077626486014349 0 0.29422135484035322 -0.33366994296298719 0 0.30314188851555429 -0.3464145030398364 0 0.29422135484035322 -0.33366994296298719 0 0.29546103181119637 -0.34185893253319311 0 0.30314188851555429 -0.3464145030398364 0 0.29422135484035322 -0.33366994296298719 0 0.29546103181119637 -0.34185893253319311 0 0.28827175492889229 -0.34275780055790278 0 0.29546103181119637 -0.34185893253319311 0 0.28827175492889229 -0.34275780055790278 0 0.29811044553331972 -0.34650788457159087 0 0.29422135484035322 -0.33366994296298719 0 0.28827175492889229 -0.34275780055790278 0 0.27955848846152698 -0.33666113426449551 0 0.29422135484035322 -0.33366994296298719 0 0.28744860979629389 -0.32474860906702402 0 0.27955848846152698 -0.33666113426449551 0 0.28744860979629389 -0.32474860906702402 0 0.29019889155513462 -0.31620785207956748 0 0.28097437988070417 -0.31138482246715898 0 0.29792146783109758 -0.32077626486014349 0 0.29019889155513462 -0.31620785207956748 0 0.29244758100571983 -0.32385066724243061 0 0.29422135484035322 -0.33366994296298719 0 0.28744860979629389 -0.32474860906702402 0 0.29244758100571983 -0.32385066724243061 0 0.29792146783109758 -0.32077626486014349 0 0.29422135484035322 -0.33366994296298719 0 0.29244758100571983 -0.32385066724243061 0 0.28744860979629389 -0.32474860906702402 0 0.29019889155513462 -0.31620785207956748 0 0.29244758100571983 -0.32385066724243061 0 0.30525369772634148 -0.37164386163485291 0 0.30031449930387721 -0.36082981960256849 0 0.30900602422585888 -0.35865430802761772 0 0.30525369772634148 -0.37164386163485291 0 0.30031449930387721 -0.36082981960256849 0 0.29483415024835152 -0.36747827247447862 0 0.30080593951138668 -0.35381036279877531 0 0.30900602422585888 -0.35865430802761772 0 0.30314188851555429 -0.3464145030398364 0 0.30080593951138668 -0.35381036279877531 0 0.29811044553331972 -0.34650788457159087 0 0.29345683997832372 -0.35664529875226292 0 0.30031449930387721 -0.36082981960256849 0 0.30080593951138668 -0.35381036279877531 0 0.30900602422585888 -0.35865430802761772 0 0.30031449930387721 -0.36082981960256849 0 0.30080593951138668 -0.35381036279877531 0 0.29345683997832372 -0.35664529875226292 0 0.31543696134246668 -0.34593224431305769 0 0.30900602422585888 -0.35865430802761772 0 0.30314188851555429 -0.3464145030398364 0 0.30080593951138668 -0.35381036279877531 0 0.30314188851555429 -0.3464145030398364 0 0.29811044553331972 -0.34650788457159087 0 0.29546103181119637 -0.34185893253319311 0 0.30314188851555429 -0.3464145030398364 0 0.29811044553331972 -0.34650788457159087 0 0.29811044553331972 -0.34650788457159087 0 0.29345683997832372 -0.35664529875226292 0 0.28122462644821988 -0.35688066365974619 0 0.28827175492889229 -0.34275780055790278 0 0.29811044553331972 -0.34650788457159087 0 0.28122462644821988 -0.35688066365974619 0 0.28827175492889229 -0.34275780055790278 0 0.28122462644821988 -0.35688066365974619 0 0.27955848846152698 -0.33666113426449551 0 0.29811044553331972 -0.34650788457159087 0 0.28122462644821988 -0.35688066365974619 0 0.29345683997832372 -0.35664529875226292 0 0.28676543400443838 -0.36101512068260139 0 0.28122462644821988 -0.35688066365974619 0 0.28676543400443838 -0.36101512068260139 0 0.28122462644821988 -0.35688066365974619 0 0.28783989868818821 -0.37644057584389279 0 0.30525369772634148 -0.37164386163485291 0 0.29483415024835152 -0.36747827247447862 0 0.28783989868818821 -0.37644057584389279 0 0.28676543400443838 -0.36101512068260139 0 0.27033126349110148 -0.36357234067652822 0 0.29357505063040601 -0.36145191270551408 0 0.28676543400443838 -0.36101512068260139 0 0.29483415024835152 -0.36747827247447862 0 0.30031449930387721 -0.36082981960256849 0 0.29357505063040601 -0.36145191270551408 0 0.29483415024835152 -0.36747827247447862 0 0.30031449930387721 -0.36082981960256849 0 0.29345683997832372 -0.35664529875226292 0 0.29357505063040601 -0.36145191270551408 0 0.29345683997832372 -0.35664529875226292 0 0.29357505063040601 -0.36145191270551408 0 0.28676543400443838 -0.36101512068260139 0 0.28783989868818821 -0.37644057584389279 0 0.28676543400443838 -0.36101512068260139 0 0.29483415024835152 -0.36747827247447862 0 0.28783989868818821 -0.37644057584389279 0 0.27033126349110148 -0.36357234067652822 0 0.28783989868818821 -0.37644057584389279 0 0.27447250226623809 -0.37821124143188289 0 0.27033126349110148 -0.36357234067652822 0 0.28676543400443838 -0.36101512068260139 0 0.27033126349110148 -0.36357234067652822 0 0.28122462644821988 -0.35688066365974619 0 0.27447250226623809 -0.37821124143188289 0 0.26423397132697279 -0.37890457124200982 0 0.27033126349110148 -0.36357234067652822 0 0.27033126349110148 -0.36357234067652822 0 0.28122462644821988 -0.35688066365974619 0 0.28122462644821988 -0.35688066365974619 0 0.26082083375001269 -0.34165569813656432 0 0.27033126349110148 -0.36357234067652822 0 0.28122462644821988 -0.35688066365974619 0 0.26082083375001269 -0.34165569813656432 0 0.28122462644821988 -0.35688066365974619 0 0.27955848846152698 -0.33666113426449551 0 0.26082083375001269 -0.34165569813656432 0 0.27033126349110148 -0.36357234067652822 0 0.25099839141978419 -0.34936335514031408 0 0.27033126349110148 -0.36357234067652822 0 0.25099839141978419 -0.34936335514031408 0 0.26082083375001269 -0.34165569813656432 0 0.27033126349110148 -0.36357234067652822 0 0.25099839141978419 -0.34936335514031408 0 0.24534349961555019 -0.36253701182870851 0 0.26423397132697279 -0.37890457124200982 0 0.27033126349110148 -0.36357234067652822 0 0.24987622704845311 -0.37613765202982719 0 0.27033126349110148 -0.36357234067652822 0 0.24534349961555019 -0.36253701182870851 0 0.24987622704845311 -0.37613765202982719 0 0.27033126349110148 -0.36357234067652822 0 0.24987622704845311 -0.37613765202982719 0 0.28744860979629389 -0.32474860906702402 0 0.26598899428458778 -0.32103793389256657 0 0.27955848846152698 -0.33666113426449551 0 0.28744860979629389 -0.32474860906702402 0 0.26598899428458778 -0.32103793389256657 0 0.28097437988070417 -0.31138482246715898 0 0.26598899428458778 -0.32103793389256657 0 0.27955848846152698 -0.33666113426449551 0 0.26082083375001269 -0.34165569813656432 0 0.26082083375001269 -0.34165569813656432 0 0.2404170410518052 -0.32643073261338312 0 0.26598899428458778 -0.32103793389256657 0 0.26082083375001269 -0.34165569813656432 0 0.2404170410518052 -0.32643073261338312 0 0.25099839141978419 -0.34936335514031408 0 0.26082083375001269 -0.34165569813656432 0 0.2404170410518052 -0.32643073261338312 0 0.26598899428458778 -0.32103793389256657 0 0.24423538898563429 -0.30587701823941071 0 0.2404170410518052 -0.32643073261338312 0 0.26846821806613752 -0.30050752245993012 0 0.24423538898563429 -0.30587701823941071 0 0.25301376652256202 -0.2892367573709661 0 0.26846821806613752 -0.30050752245993012 0 0.24423538898563429 -0.30587701823941071 0 0.26598899428458778 -0.32103793389256657 0 0.26846821806613752 -0.30050752245993012 0 0.24423538898563429 -0.30587701823941071 0 0.25301376652256202 -0.2892367573709661 0 0.26500420865911251 -0.28331687632378699 0 0.26846821806613752 -0.30050752245993012 0 0.25301376652256202 -0.2892367573709661 0 0.26500420865911251 -0.28331687632378699 0 0.2507153324002197 -0.27704953531328702 0 0.26500420865911251 -0.28331687632378699 0 0.27805302037335089 -0.28584974436810762 0 0.26846821806613752 -0.30050752245993012 0 0.27805302037335089 -0.28584974436810762 0 0.26846821806613752 -0.30050752245993012 0 0.29270104714664102 -0.29513802668045069 0 0.26500420865911251 -0.28331687632378699 0 0.27805302037335089 -0.28584974436810762 0 0.27342558025451552 -0.27498979272208851 0 0.26598899428458778 -0.32103793389256657 0 0.26846821806613752 -0.30050752245993012 0 0.28097437988070417 -0.31138482246715898 0 0.26846821806613752 -0.30050752245993012 0 0.28097437988070417 -0.31138482246715898 0 0.29270104714664102 -0.29513802668045069 0 0.26846821806613752 -0.30050752245993012 0 0.29270104714664102 -0.29513802668045069 0 0.29792146783109758 -0.32077626486014349 0 0.29270104714664102 -0.29513802668045069 0 0.29019889155513462 -0.31620785207956748 0 0.28097437988070417 -0.31138482246715898 0 0.29270104714664102 -0.29513802668045069 0 0.29792146783109758 -0.32077626486014349 0 0.29019889155513462 -0.31620785207956748 0 0.29270104714664102 -0.29513802668045069 0 0.29792146783109758 -0.32077626486014349 0 0.29270104714664102 -0.29513802668045069 0 0.29523603426331357 -0.29457632575074338 0 0.27805302037335089 -0.28584974436810762 0 0.29026987947112831 -0.28319821192468808 0 0.29270104714664102 -0.29513802668045069 0 0.27805302037335089 -0.28584974436810762 0 0.29026987947112831 -0.28319821192468808 0 0.28863308206368682 -0.27515966401439529 0 0.29026987947112831 -0.28319821192468808 0 0.29523603426331357 -0.29457632575074338 0 0.29026987947112831 -0.28319821192468808 0 0.29523603426331357 -0.29457632575074338 0 0.30320790951940702 -0.28313078900162059 0 0.29026987947112831 -0.28319821192468808 0 0.29270104714664102 -0.29513802668045069 0 0.29523603426331357 -0.29457632575074338 0 0.29026987947112831 -0.28319821192468808 0 0.29270104714664102 -0.29513802668045069 0 0.29270104714664102 -0.29513802668045069 0 0.29523603426331357 -0.29457632575074338 0 0.29523603426331357 -0.29457632575074338 0 0.31208952779935789 -0.2908419387292881 0 0.29523603426331357 -0.29457632575074338 0 0.30320790951940702 -0.28313078900162059 0 0.31208952779935789 -0.2908419387292881 0 0.29523603426331357 -0.29457632575074338 0 0.31208952779935789 -0.2908419387292881 0 0.30833746379913463 -0.30503745501229762 0 0.31611371382327402 -0.28007222207304999 0 0.30320790951940702 -0.28313078900162059 0 0.31208952779935789 -0.2908419387292881 0 0.30533649780288991 -0.32025428503190068 0 0.29523603426331357 -0.29457632575074338 0 0.30833746379913463 -0.30503745501229762 0 0.30533649780288991 -0.32025428503190068 0 0.29792146783109758 -0.32077626486014349 0 0.29523603426331357 -0.29457632575074338 0 0.30533649780288991 -0.32025428503190068 0 0.29523603426331357 -0.29457632575074338 0 0.3171485971304504 -0.30589952111326829 0 0.3109911447756647 -0.31350988965823029 0 0.30833746379913463 -0.30503745501229762 0 0.29812220868357159 -0.26533402464574418 0 0.30111904597271899 -0.2536098058489899 0 0.30981211567343969 -0.26250129009931661 0 0.31597462601859122 -0.25080747204364812 0 0.30111904597271899 -0.2536098058489899 0 0.30981211567343969 -0.26250129009931661 0 0.29812220868357159 -0.26533402464574418 0 0.30981211567343969 -0.26250129009931661 0 0.30706455279928557 -0.27339796693147528 0 0.31611371382327402 -0.28007222207304999 0 0.30320790951940702 -0.28313078900162059 0 0.30706455279928557 -0.27339796693147528 0 0.29026987947112831 -0.28319821192468808 0 0.30320790951940702 -0.28313078900162059 0 0.29755036247591721 -0.27602563541609298 0 0.30320790951940702 -0.28313078900162059 0 0.30706455279928557 -0.27339796693147528 0 0.29755036247591721 -0.27602563541609298 0 0.29812220868357159 -0.26533402464574418 0 0.30706455279928557 -0.27339796693147528 0 0.29755036247591721 -0.27602563541609298 0 0.29812220868357159 -0.26533402464574418 0 0.29755036247591721 -0.27602563541609298 0 0.28863308206368682 -0.27515966401439529 0 0.29026987947112831 -0.28319821192468808 0 0.28863308206368682 -0.27515966401439529 0 0.29026987947112831 -0.28319821192468808 0 0.29755036247591721 -0.27602563541609298 0 0.28863308206368682 -0.27515966401439529 0 0.28863308206368682 -0.27515966401439529 0 0.28456511698073272 -0.25518130134833977 0 0.29812220868357159 -0.26533402464574418 0 0.28863308206368682 -0.27515966401439529 0 0.28456511698073272 -0.25518130134833977 0 0.29812220868357159 -0.26533402464574418 0 0.30111904597271899 -0.2536098058489899 0 0.28456511698073272 -0.25518130134833977 0 0.28863308206368682 -0.27515966401439529 0 0.28456511698073272 -0.25518130134833977 0 0.27223885194073971 -0.26265851400849172 0 0.28456511698073272 -0.25518130134833977 0 0.27223885194073971 -0.26265851400849172 0 0.26629969424128969 -0.25192769388052821 0 0.27223885194073971 -0.26265851400849172 0 0.26629969424128969 -0.25192769388052821 0 0.2629172406837702 -0.26740365320709081 0 0.26500420865911251 -0.28331687632378699 0 0.27342558025451552 -0.27498979272208851 0 0.2629172406837702 -0.26740365320709081 0 0.28863308206368682 -0.27515966401439529 0 0.27223885194073971 -0.26265851400849172 0 0.27342558025451552 -0.27498979272208851 0 0.27805302037335089 -0.28584974436810762 0 0.28863308206368682 -0.27515966401439529 0 0.27342558025451552 -0.27498979272208851 0 0.27223885194073971 -0.26265851400849172 0 0.27342558025451552 -0.27498979272208851 0 0.2629172406837702 -0.26740365320709081 0 0.26500420865911251 -0.28331687632378699 0 0.2629172406837702 -0.26740365320709081 0 0.2507153324002197 -0.27704953531328702 0 0.2629172406837702 -0.26740365320709081 0 0.2507153324002197 -0.27704953531328702 0 0.2466218950091964 -0.26012473444713258 0 0.25037283077400019 -0.2416092145933311 0 0.26629969424128969 -0.25192769388052821 0 0.2466218950091964 -0.26012473444713258 0 0.26629969424128969 -0.25192769388052821 0 0.2629172406837702 -0.26740365320709081 0 0.2466218950091964 -0.26012473444713258 0 0.25037283077400019 -0.2416092145933311 0 0.2466218950091964 -0.26012473444713258 0 0.2339549802858914 -0.24933471903745599 0 0.2466218950091964 -0.26012473444713258 0 0.22717476572977791 -0.26325637954660608 0 0.2339549802858914 -0.24933471903745599 0 0.2466218950091964 -0.26012473444713258 0 0.23628574795648369 -0.27498419313581679 0 0.22717476572977791 -0.26325637954660608 0 0.2507153324002197 -0.27704953531328702 0 0.2466218950091964 -0.26012473444713258 0 0.23628574795648369 -0.27498419313581679 0 0.2507153324002197 -0.27704953531328702 0 0.23628574795648369 -0.27498419313581679 0 0.24044913557019401 -0.28723099739492908 0 0.2247339410531527 -0.27667652802353632 0 0.21554844428562811 -0.26491471108287651 0 0.21653111649902579 -0.28712771180040292 0 0.23628574795648369 -0.27498419313581679 0 0.2247339410531527 -0.27667652802353632 0 0.22717476572977791 -0.26325637954660608 0 0.2247339410531527 -0.27667652802353632 0 0.22717476572977791 -0.26325637954660608 0 0.21554844428562811 -0.26491471108287651 0 0.22717476572977791 -0.26325637954660608 0 0.22331750647786899 -0.25281133177650322 0 0.2339549802858914 -0.24933471903745599 0 0.22717476572977791 -0.26325637954660608 0 0.22331750647786899 -0.25281133177650322 0 0.21554844428562811 -0.26491471108287651 0 0.2084475354763706 -0.25511513831035743 0 0.21554844428562811 -0.26491471108287651 0 0.1982966667633215 -0.26354120971092698 0 0.21554844428562811 -0.26491471108287651 0 0.21456577207223029 -0.24270171036535029 0 0.22331750647786899 -0.25281133177650322 0 0.21554844428562811 -0.26491471108287651 0 0.21456577207223029 -0.24270171036535029 0 0.2084475354763706 -0.25511513831035743 0 0.21554844428562811 -0.26491471108287651 0 0.21336353465090491 -0.24693864317134839 0 0.21554844428562811 -0.26491471108287651 0 0.21336353465090491 -0.24693864317134839 0 0.21456577207223029 -0.24270171036535029 0 0.2084475354763706 -0.25511513831035743 0 0.1982966667633215 -0.26354120971092698 0 0.2080714594183444 -0.2424179483002232 0 0.1982966667633215 -0.26354120971092698 0 0.2080714594183444 -0.2424179483002232 0 0.21554844428562811 -0.26491471108287651 0 0.21653111649902579 -0.28712771180040292 0 0.21554844428562811 -0.26491471108287651 0 0.20859607852913339 -0.28093905456482821 0 0.21653111649902579 -0.28712771180040292 0 0.21554844428562811 -0.26491471108287651 0 0.20859607852913339 -0.28093905456482821 0 0.2011380539128553 -0.27767933622792518 0 0.21554844428562811 -0.26491471108287651 0 0.2011380539128553 -0.27767933622792518 0 0.1982966667633215 -0.26354120971092698 0 0.1982966667633215 -0.26354120971092698 0 0.18852187410829821 -0.28466447112163068 0 0.1982966667633215 -0.26354120971092698 0 0.18852187410829821 -0.28466447112163068 0 0.1845366839674035 -0.26640487959885623 0 0.2011380539128553 -0.27767933622792518 0 0.1982966667633215 -0.26354120971092698 0 0.18852187410829821 -0.28466447112163068 0 0.1982966667633215 -0.26354120971092698 0 0.2080714594183444 -0.2424179483002232 0 0.19254414318066221 -0.24961624770678509 0 0.1982966667633215 -0.26354120971092698 0 0.18706352147094041 -0.25756661524031438 0 0.1845366839674035 -0.26640487959885623 0 0.1982966667633215 -0.26354120971092698 0 0.18706352147094041 -0.25756661524031438 0 0.19254414318066221 -0.24961624770678509 0 0.18706352147094041 -0.25756661524031438 0 0.19254414318066221 -0.24961624770678509 0 0.18399505531774341 -0.24981832115951039 0 0.20249447748908611 -0.29813355613580778 0 0.1976485991634879 -0.30796138879627621 0 0.19462594870140809 -0.30164723750547567 0 0.20249447748908611 -0.29813355613580778 0 0.19462594870140809 -0.30164723750547567 0 0.19392418081794471 -0.29575522021664652 0 0.20249447748908611 -0.29813355613580778 0 0.1976485991634879 -0.30796138879627621 0 0.20782414549410869 -0.30817847155873718 0 0.1976485991634879 -0.30796138879627621 0 0.20782414549410869 -0.30817847155873718 0 0.20282381327660201 -0.31505297042611552 0 0.1976485991634879 -0.30796138879627621 0 0.19009702279388629 -0.3064242775921906 0 0.18802618722583669 -0.31833181955932999 0 0.1976485991634879 -0.30796138879627621 0 0.19009702279388629 -0.3064242775921906 0 0.19462594870140809 -0.30164723750547567 0 0.19009702279388629 -0.3064242775921906 0 0.19462594870140809 -0.30164723750547567 0 0.1880606218677118 -0.30022154946313712 0 0.19462594870140809 -0.30164723750547567 0 0.19110113081553529 -0.29631368747161629 0 0.19392418081794471 -0.29575522021664652 0 0.1880606218677118 -0.30022154946313712 0 0.19110113081553529 -0.29631368747161629 0 0.18734834214976739 -0.29514628785519947 0 0.19462594870140809 -0.30164723750547567 0 0.1880606218677118 -0.30022154946313712 0 0.19110113081553529 -0.29631368747161629 0 0.20249447748908611 -0.29813355613580778 0 0.18747516626574931 -0.28692639975368628 0 0.20249447748908611 -0.29813355613580778 0 0.19392418081794471 -0.29575522021664652 0 0.18747516626574931 -0.28692639975368628 0 0.19110113081553529 -0.29631368747161629 0 0.19392418081794471 -0.29575522021664652 0 0.18747516626574931 -0.28692639975368628 0 0.19110113081553529 -0.29631368747161629 0 0.18747516626574931 -0.28692639975368628 0 0.18734834214976739 -0.29514628785519947 0 0.18852187410829821 -0.28466447112163068 0 0.19787122383615691 -0.29172525818392958 0 0.18852187410829821 -0.28466447112163068 0 0.19731262536099689 -0.28481999283041842 0 0.19787122383615691 -0.29172525818392958 0 0.18852187410829821 -0.28466447112163068 0 0.19787122383615691 -0.29172525818392958 0 0.18747516626574931 -0.28692639975368628 0 0.18852187410829821 -0.28466447112163068 0 0.18747516626574931 -0.28692639975368628 0 0.2011380539128553 -0.27767933622792518 0 0.18852187410829821 -0.28466447112163068 0 0.19731262536099689 -0.28481999283041842 0 0.201719349586677 -0.2852109057881882 0 0.19787122383615691 -0.29172525818392958 0 0.206049533411369 -0.28982701925762389 0 0.19731262536099689 -0.28481999283041842 0 0.201719349586677 -0.2852109057881882 0 0.19787122383615691 -0.29172525818392958 0 0.2011380539128553 -0.27767933622792518 0 0.19731262536099689 -0.28481999283041842 0 0.201719349586677 -0.2852109057881882 0 0.20249447748908611 -0.29813355613580778 0 0.19787122383615691 -0.29172525818392958 0 0.18747516626574931 -0.28692639975368628 0 0.20249447748908611 -0.29813355613580778 0 0.19787122383615691 -0.29172525818392958 0 0.206049533411369 -0.28982701925762389 0 0.20249447748908611 -0.29813355613580778 0 0.206049533411369 -0.28982701925762389 0 0.20903552332543929 -0.29406903275804652 0 0.206049533411369 -0.28982701925762389 0 0.20903552332543929 -0.29406903275804652 0 0.21653111649902579 -0.28712771180040292 0 0.20249447748908611 -0.29813355613580778 0 0.20903552332543929 -0.29406903275804652 0 0.2123558614978226 -0.29827812898856709 0 0.20859607852913339 -0.28093905456482821 0 0.206049533411369 -0.28982701925762389 0 0.21653111649902579 -0.28712771180040292 0 0.20859607852913339 -0.28093905456482821 0 0.201719349586677 -0.2852109057881882 0 0.206049533411369 -0.28982701925762389 0 0.20859607852913339 -0.28093905456482821 0 0.2011380539128553 -0.27767933622792518 0 0.201719349586677 -0.2852109057881882 0 0.20903552332543929 -0.29406903275804652 0 0.21653111649902579 -0.28712771180040292 0 0.2123558614978226 -0.29827812898856709 0 0.21653111649902579 -0.28712771180040292 0 0.2175137887124228 -0.30934071251792922 0 0.21653111649902579 -0.28712771180040292 0 0.2123558614978226 -0.29827812898856709 0 0.2175137887124228 -0.30934071251792922 0 0.20249447748908611 -0.29813355613580778 0 0.2123558614978226 -0.29827812898856709 0 0.2175137887124228 -0.30934071251792922 0 0.20249447748908611 -0.29813355613580778 0 0.2175137887124228 -0.30934071251792922 0 0.20782414549410869 -0.30817847155873718 0 0.2176214393273678 -0.31177412129290383 0 0.20282381327660201 -0.31505297042611552 0 0.20249447748908611 -0.29813355613580778 0 0.20782414549410869 -0.30817847155873718 0 0.2175137887124228 -0.30934071251792922 0 0.20782414549410869 -0.30817847155873718 0 0.2175137887124228 -0.30934071251792922 0 0.2176214393273678 -0.31177412129290383 0 0.2175137887124228 -0.30934071251792922 0 0.2176214393273678 -0.31177412129290383 0 0.2175137887124228 -0.30934071251792922 0 0.2176214393273678 -0.31177412129290383 0 0.21999804566891551 -0.31122614102315033 0 0.21999804566891551 -0.31122614102315033 0 0.24423538898563429 -0.30587701823941071 0 0.2175137887124228 -0.30934071251792922 0 0.21999804566891551 -0.31122614102315033 0 0.22812963079484819 -0.29309964455197901 0 0.21999804566891551 -0.31122614102315033 0 0.22812963079484819 -0.29309964455197901 0 0.21999804566891551 -0.31122614102315033 0 0.22812963079484819 -0.29309964455197901 0 0.24423538898563429 -0.30587701823941071 0 0.2176214393273678 -0.31177412129290383 0 0.21999804566891551 -0.31122614102315033 0 0.2175137887124228 -0.30934071251792922 0 0.21999804566891551 -0.31122614102315033 0 0.23628574795648369 -0.27498419313581679 0 0.22812963079484819 -0.29309964455197901 0 0.2247339410531527 -0.27667652802353632 0 0.21653111649902579 -0.28712771180040292 0 0.22812963079484819 -0.29309964455197901 0 0.23628574795648369 -0.27498419313581679 0 0.2247339410531527 -0.27667652802353632 0 0.22812963079484819 -0.29309964455197901 0 0.21653111649902579 -0.28712771180040292 0 0.2175137887124228 -0.30934071251792922 0 0.22812963079484819 -0.29309964455197901 0 0.23628574795648369 -0.27498419313581679 0 0.22812963079484819 -0.29309964455197901 0 0.24044913557019401 -0.28723099739492908 0 0.25301376652256202 -0.2892367573709661 0 0.24044913557019401 -0.28723099739492908 0 0.24423538898563429 -0.30587701823941071 0 0.22812963079484819 -0.29309964455197901 0 0.24044913557019401 -0.28723099739492908 0 0.24423538898563429 -0.30587701823941071 0 0.25301376652256202 -0.2892367573709661 0 0.2507153324002197 -0.27704953531328702 0 0.24044913557019401 -0.28723099739492908 0 0.21999804566891551 -0.31122614102315033 0 0.24423538898563429 -0.30587701823941071 0 0.2404170410518052 -0.32643073261338312 0 0.25099839141978419 -0.34936335514031408 0 0.2316655193484673 -0.33515436960409939 0 0.25099839141978419 -0.34936335514031408 0 0.2404170410518052 -0.32643073261338312 0 0.2316655193484673 -0.33515436960409939 0 0.2404170410518052 -0.32643073261338312 0 0.2316655193484673 -0.33515436960409939 0 0.2247705650129608 -0.32491873692320528 0 0.2316655193484673 -0.33515436960409939 0 0.22208049410379579 -0.34309390150507102 0 0.22867514261462599 -0.34782526071452929 0 0.2316655193484673 -0.33515436960409939 0 0.22208049410379579 -0.34309390150507102 0 0.220555537226792 -0.33578323097752499 0 0.22208049410379579 -0.34309390150507102 0 0.220555537226792 -0.33578323097752499 0 0.21451162402718699 -0.34512658597487872 0 0.220555537226792 -0.33578323097752499 0 0.2247705650129608 -0.32491873692320528 0 0.21820242441149371 -0.32490710899175251 0 0.2316655193484673 -0.33515436960409939 0 0.220555537226792 -0.33578323097752499 0 0.2247705650129608 -0.32491873692320528 0 0.21999804566891551 -0.31122614102315033 0 0.2404170410518052 -0.32643073261338312 0 0.2247705650129608 -0.32491873692320528 0 0.21999804566891551 -0.31122614102315033 0 0.2404170410518052 -0.32643073261338312 0 0.2247705650129608 -0.32491873692320528 0 0.21780935440599439 -0.31602188338433101 0 0.21820242441149371 -0.32490710899175251 0 0.21999804566891551 -0.31122614102315033 0 0.2247705650129608 -0.32491873692320528 0 0.21780935440599439 -0.31602188338433101 0 0.21999804566891551 -0.31122614102315033 0 0.21780935440599439 -0.31602188338433101 0 0.23679608458568241 -0.3713456781615978 0 0.24534349961555019 -0.36253701182870851 0 0.24987622704845311 -0.37613765202982719 0 0.23679608458568241 -0.3713456781615978 0 0.24534349961555019 -0.36253701182870851 0 0.23133102347449649 -0.35950822589080189 0 0.25099839141978419 -0.34936335514031408 0 0.2316655193484673 -0.33515436960409939 0 0.23760271529458479 -0.35087764463569071 0 0.24534349961555019 -0.36253701182870851 0 0.23760271529458479 -0.35087764463569071 0 0.23133102347449649 -0.35950822589080189 0 0.25099839141978419 -0.34936335514031408 0 0.24534349961555019 -0.36253701182870851 0 0.23760271529458479 -0.35087764463569071 0 0.2316655193484673 -0.33515436960409939 0 0.23760271529458479 -0.35087764463569071 0 0.22867514261462599 -0.34782526071452929 0 0.22208049410379579 -0.34309390150507102 0 0.22076837523631451 -0.35267920974236072 0 0.21451162402718699 -0.34512658597487872 0 0.22208049410379579 -0.34309390150507102 0 0.22867514261462599 -0.34782526071452929 0 0.22076837523631451 -0.35267920974236072 0 0.22076837523631451 -0.35267920974236072 0 0.22341137818785181 -0.36337688942730773 0 0.21609027172906259 -0.36087537471117581 0 0.22076837523631451 -0.35267920974236072 0 0.23133102347449649 -0.35950822589080189 0 0.22341137818785181 -0.36337688942730773 0 0.22867514261462599 -0.34782526071452929 0 0.22076837523631451 -0.35267920974236072 0 0.23133102347449649 -0.35950822589080189 0 0.23760271529458479 -0.35087764463569071 0 0.22867514261462599 -0.34782526071452929 0 0.23133102347449649 -0.35950822589080189 0 0.23133102347449649 -0.35950822589080189 0 0.22341137818785181 -0.36337688942730773 0 0.22699371624108439 -0.37103399677892651 0 0.22341137818785181 -0.36337688942730773 0 0.22699371624108439 -0.37103399677892651 0 0.21663927632257499 -0.37152038636996992 0 0.22699371624108439 -0.37103399677892651 0 0.21663927632257499 -0.37152038636996992 0 0.22189277223980711 -0.38054577212349588 0 0.23679608458568241 -0.3713456781615978 0 0.22699371624108439 -0.37103399677892651 0 0.23010576568282681 -0.37607478874810818 0 0.23679608458568241 -0.3713456781615978 0 0.23133102347449649 -0.35950822589080189 0 0.22699371624108439 -0.37103399677892651 0 0.21663927632257499 -0.37152038636996992 0 0.20683644217058031 -0.36558797855932218 0 0.20576161095015591 -0.37595213443190167 0 0.22341137818785181 -0.36337688942730773 0 0.21663927632257499 -0.37152038636996992 0 0.21609027172906259 -0.36087537471117581 0 0.21609027172906259 -0.36087537471117581 0 0.20683644217058031 -0.36558797855932218 0 0.21089823393406021 -0.35324530101306001 0 0.21663927632257499 -0.37152038636996992 0 0.21609027172906259 -0.36087537471117581 0 0.20683644217058031 -0.36558797855932218 0 0.19940837682496099 -0.35689206815154528 0 0.20777431361625601 -0.33831058893907762 0 0.21089823393406021 -0.35324530101306001 0 0.19940837682496099 -0.35689206815154528 0 0.20777431361625601 -0.33831058893907762 0 0.20683644217058031 -0.36558797855932218 0 0.21089823393406021 -0.35324530101306001 0 0.19940837682496099 -0.35689206815154528 0 0.22076837523631451 -0.35267920974236072 0 0.21609027172906259 -0.36087537471117581 0 0.21089823393406021 -0.35324530101306001 0 0.21089823393406021 -0.35324530101306001 0 0.21451162402718699 -0.34512658597487872 0 0.20777431361625601 -0.33831058893907762 0 0.22076837523631451 -0.35267920974236072 0 0.21089823393406021 -0.35324530101306001 0 0.21451162402718699 -0.34512658597487872 0 0.1971616983813648 -0.34495631128618592 0 0.19940837682496099 -0.35689206815154528 0 0.20777431361625601 -0.33831058893907762 0 0.1971616983813648 -0.34495631128618592 0 0.18787137947787569 -0.35180034780069419 0 0.18864170350563411 -0.33720407153827198 0 0.1971616983813648 -0.34495631128618592 0 0.18787137947787569 -0.35180034780069419 0 0.19940837682496099 -0.35689206815154528 0 0.20683644217058031 -0.36558797855932218 0 0.20576161095015591 -0.37595213443190167 0 0.1910424400336663 -0.37547354736401328 0 0.18787137947787569 -0.35180034780069419 0 0.19940837682496099 -0.35689206815154528 0 0.1910424400336663 -0.37547354736401328 0 0.19940837682496099 -0.35689206815154528 0 0.1910424400336663 -0.37547354736401328 0 0.20683644217058031 -0.36558797855932218 0 0.19940837682496099 -0.35689206815154528 0 0.1910424400336663 -0.37547354736401328 0 0.21780935440599439 -0.31602188338433101 0 0.20777431361625601 -0.33831058893907762 0 0.21780935440599439 -0.31602188338433101 0 0.20777431361625601 -0.33831058893907762 0 0.20282381327660201 -0.31505297042611552 0 0.21780935440599439 -0.31602188338433101 0 0.21820242441149371 -0.32490710899175251 0 0.20777431361625601 -0.33831058893907762 0 0.2176214393273678 -0.31177412129290383 0 0.20282381327660201 -0.31505297042611552 0 0.2176214393273678 -0.31177412129290383 0 0.21780935440599439 -0.31602188338433101 0 0.20282381327660201 -0.31505297042611552 0 0.2176214393273678 -0.31177412129290383 0 0.21780935440599439 -0.31602188338433101 0 0.2176214393273678 -0.31177412129290383 0 0.21999804566891551 -0.31122614102315033 0 0.21780935440599439 -0.31602188338433101 0 0.21780935440599439 -0.31602188338433101 0 0.21820242441149371 -0.32490710899175251 0 0.220555537226792 -0.33578323097752499 0 0.21820242441149371 -0.32490710899175251 0 0.20777431361625601 -0.33831058893907762 0 0.220555537226792 -0.33578323097752499 0 0.21451162402718699 -0.34512658597487872 0 0.20777431361625601 -0.33831058893907762 0 0.21451162402718699 -0.34512658597487872 0 0.20777431361625601 -0.33831058893907762 0 0.1971616983813648 -0.34495631128618592 0 0.20777431361625601 -0.33831058893907762 0 0.18864170350563411 -0.33720407153827198 0 0.20777431361625601 -0.33831058893907762 0 0.18802618722583669 -0.31833181955932999 0 0.20777431361625601 -0.33831058893907762 0 0.18864170350563411 -0.33720407153827198 0 0.18802618722583669 -0.31833181955932999 0 0.20777431361625601 -0.33831058893907762 0 0.20282381327660201 -0.31505297042611552 0 0.18802618722583669 -0.31833181955932999 0 0.20282381327660201 -0.31505297042611552 0 0.18802618722583669 -0.31833181955932999 0 0.1976485991634879 -0.30796138879627621 0 0.20282381327660201 -0.31505297042611552 0 0.18802618722583669 -0.31833181955932999 0 0.18802618722583669 -0.31833181955932999 0 0.1791507244663583 -0.32983729973660558 0 0.16791254130802971 -0.3227885891963716 0 0.18802618722583669 -0.31833181955932999 0 0.17151825735526699 -0.31325416760549368 0 0.16791254130802971 -0.3227885891963716 0 0.18802618722583669 -0.31833181955932999 0 0.16791254130802971 -0.3227885891963716 0 0.18864170350563411 -0.33720407153827198 0 0.18802618722583669 -0.31833181955932999 0 0.1791507244663583 -0.32983729973660558 0 0.17202246582593331 -0.34102471865244838 0 0.1791507244663583 -0.32983729973660558 0 0.16791254130802971 -0.3227885891963716 0 0.18787137947787569 -0.35180034780069419 0 0.18864170350563411 -0.33720407153827198 0 0.17202246582593331 -0.34102471865244838 0 0.18864170350563411 -0.33720407153827198 0 0.17202246582593331 -0.34102471865244838 0 0.1791507244663583 -0.32983729973660558 0 0.17202246582593331 -0.34102471865244838 0 0.1546435437787094 -0.34381338892778002 0 0.1557586906108582 -0.32786840018592928 0 0.17202246582593331 -0.34102471865244838 0 0.16791254130802971 -0.3227885891963716 0 0.1557586906108582 -0.32786840018592928 0 0.16791254130802971 -0.3227885891963716 0 0.1557586906108582 -0.32786840018592928 0 0.1602411687519314 -0.31190927739118429 0 0.17151825735526699 -0.31325416760549368 0 0.16791254130802971 -0.3227885891963716 0 0.1602411687519314 -0.31190927739118429 0 0.18787137947787569 -0.35180034780069419 0 0.17662324672053431 -0.35795823269279659 0 0.1910424400336663 -0.37547354736401328 0 0.17662324672053431 -0.35795823269279659 0 0.17035242753357599 -0.36877211446365682 0 0.1910424400336663 -0.37547354736401328 0 0.17035242753357599 -0.36877211446365682 0 0.1910424400336663 -0.37547354736401328 0 0.1737051017910701 -0.38004230502140057 0 0.18787137947787569 -0.35180034780069419 0 0.17202246582593331 -0.34102471865244838 0 0.17662324672053431 -0.35795823269279659 0 0.17202246582593331 -0.34102471865244838 0 0.17662324672053431 -0.35795823269279659 0 0.16265844046108829 -0.35526087104265458 0 0.17202246582593331 -0.34102471865244838 0 0.16265844046108829 -0.35526087104265458 0 0.1546435437787094 -0.34381338892778002 0 0.17662324672053431 -0.35795823269279659 0 0.16265844046108829 -0.35526087104265458 0 0.17035242753357599 -0.36877211446365682 0 0.16265844046108829 -0.35526087104265458 0 0.1569593121701936 -0.36832063090657668 0 0.17035242753357599 -0.36877211446365682 0 0.1569593121701936 -0.36832063090657668 0 0.17035242753357599 -0.36877211446365682 0 0.16307541855137739 -0.37743582412871929 0 0.14536400873927011 -0.3681220756701501 0 0.1426630499740982 -0.35652090160864008 0 0.13524945632583441 -0.37311377610700652 0 0.16265844046108829 -0.35526087104265458 0 0.1569593121701936 -0.36832063090657668 0 0.1426630499740982 -0.35652090160864008 0 0.14536400873927011 -0.3681220756701501 0 0.13524945632583441 -0.37311377610700652 0 0.14973869037300869 -0.38096853745143089 0 0.1569593121701936 -0.36832063090657668 0 0.14536400873927011 -0.3681220756701501 0 0.14973869037300869 -0.38096853745143089 0 0.1569593121701936 -0.36832063090657668 0 0.14536400873927011 -0.3681220756701501 0 0.1426630499740982 -0.35652090160864008 0 0.1546435437787094 -0.34381338892778002 0 0.1426630499740982 -0.35652090160864008 0 0.1424354920479888 -0.33775294740649747 0 0.16265844046108829 -0.35526087104265458 0 0.1546435437787094 -0.34381338892778002 0 0.1426630499740982 -0.35652090160864008 0 0.13449730155472761 -0.34743155680512378 0 0.12784456261830821 -0.36308533366748658 0 0.123981461538115 -0.35128285539313481 0 0.1426630499740982 -0.35652090160864008 0 0.13449730155472761 -0.34743155680512378 0 0.1424354920479888 -0.33775294740649747 0 0.1426630499740982 -0.35652090160864008 0 0.13449730155472761 -0.34743155680512378 0 0.12784456261830821 -0.36308533366748658 0 0.13449730155472761 -0.34743155680512378 0 0.13051916655351839 -0.33696304048325831 0 0.123981461538115 -0.35128285539313481 0 0.1426630499740982 -0.35652090160864008 0 0.12784456261830821 -0.36308533366748658 0 0.13524945632583441 -0.37311377610700652 0 0.12784456261830821 -0.36308533366748658 0 0.13524945632583441 -0.37311377610700652 0 0.12609635470998201 -0.38402791619100712 0 0.14855409589738661 -0.31441038212804873 0 0.1557586906108582 -0.32786840018592928 0 0.1602411687519314 -0.31190927739118429 0 0.1445015266660287 -0.32337949759917511 0 0.14855409589738661 -0.31441038212804873 0 0.13871327718005111 -0.31332369293528212 0 0.1445015266660287 -0.32337949759917511 0 0.14855409589738661 -0.31441038212804873 0 0.1557586906108582 -0.32786840018592928 0 0.1546435437787094 -0.34381338892778002 0 0.1557586906108582 -0.32786840018592928 0 0.1424354920479888 -0.33775294740649747 0 0.1445015266660287 -0.32337949759917511 0 0.1557586906108582 -0.32786840018592928 0 0.1424354920479888 -0.33775294740649747 0 0.1445015266660287 -0.32337949759917511 0 0.1424354920479888 -0.33775294740649747 0 0.13219802669416811 -0.32498852212276208 0 0.1424354920479888 -0.33775294740649747 0 0.13051916655351839 -0.33696304048325831 0 0.13219802669416811 -0.32498852212276208 0 0.13449730155472761 -0.34743155680512378 0 0.1424354920479888 -0.33775294740649747 0 0.13051916655351839 -0.33696304048325831 0 0.13051916655351839 -0.33696304048325831 0 0.13219802669416811 -0.32498852212276208 0 0.12260601330919629 -0.33072698382653798 0 0.1445015266660287 -0.32337949759917511 0 0.13219802669416811 -0.32498852212276208 0 0.13871327718005111 -0.31332369293528212 0 0.13219802669416811 -0.32498852212276208 0 0.1265219532001009 -0.3124330460259736 0 0.1192961391526948 -0.32261879728377291 0 0.13219802669416811 -0.32498852212276208 0 0.13871327718005111 -0.31332369293528212 0 0.1265219532001009 -0.3124330460259736 0 0.1265219532001009 -0.3124330460259736 0 0.1332586495603032 -0.30031372317270688 0 0.1198701537204314 -0.30089140532399938 0 0.1332586495603032 -0.30031372317270688 0 0.1242383748246253 -0.29131174999725179 0 0.1198701537204314 -0.30089140532399938 0 0.13871327718005111 -0.31332369293528212 0 0.1265219532001009 -0.3124330460259736 0 0.1332586495603032 -0.30031372317270688 0 0.13871327718005111 -0.31332369293528212 0 0.1332586495603032 -0.30031372317270688 0 0.147245411062319 -0.30441698656302629 0 0.14855409589738661 -0.31441038212804873 0 0.13871327718005111 -0.31332369293528212 0 0.147245411062319 -0.30441698656302629 0 0.147245411062319 -0.30441698656302629 0 0.15432967412725099 -0.29846298066074151 0 0.14327492933615671 -0.29425024746867751 0 0.1332586495603032 -0.30031372317270688 0 0.147245411062319 -0.30441698656302629 0 0.14327492933615671 -0.29425024746867751 0 0.147245411062319 -0.30441698656302629 0 0.15432967412725099 -0.29846298066074151 0 0.1602411687519314 -0.31190927739118429 0 0.14855409589738661 -0.31441038212804873 0 0.147245411062319 -0.30441698656302629 0 0.1602411687519314 -0.31190927739118429 0 0.15432967412725099 -0.29846298066074151 0 0.1517600770447052 -0.28164214899084639 0 0.14327492933615671 -0.29425024746867751 0 0.1517600770447052 -0.28164214899084639 0 0.14327492933615671 -0.29425024746867751 0 0.13646338677899769 -0.28546266283427663 0 0.1332586495603032 -0.30031372317270688 0 0.14327492933615671 -0.29425024746867751 0 0.13646338677899769 -0.28546266283427663 0 0.1332586495603032 -0.30031372317270688 0 0.13646338677899769 -0.28546266283427663 0 0.1242383748246253 -0.29131174999725179 0 0.13646338677899769 -0.28546266283427663 0 0.1233023238440631 -0.28097148456094378 0 0.1242383748246253 -0.29131174999725179 0 0.1517600770447052 -0.28164214899084639 0 0.13646338677899769 -0.28546266283427663 0 0.1311170075682456 -0.27142576198599933 0 0.1517600770447052 -0.28164214899084639 0 0.1311170075682456 -0.27142576198599933 0 0.1364827709165429 -0.26618641562940759 0 0.13646338677899769 -0.28546266283427663 0 0.1311170075682456 -0.27142576198599933 0 0.1233023238440631 -0.28097148456094378 0 0.1311170075682456 -0.27142576198599933 0 0.1364827709165429 -0.26618641562940759 0 0.1212054647883809 -0.25073068226796852 0 0.1364827709165429 -0.26618641562940759 0 0.13217397618885759 -0.25462043987800831 0 0.1212054647883809 -0.25073068226796852 0 0.1364827709165429 -0.26618641562940759 0 0.1212054647883809 -0.25073068226796852 0 0.1364827709165429 -0.26618641562940759 0 0.13217397618885759 -0.25462043987800831 0 0.14275904560399111 -0.25945725309375861 0 0.13217397618885759 -0.25462043987800831 0 0.1429630926125974 -0.2502577086919005 0 0.14275904560399111 -0.25945725309375861 0 0.1429630926125974 -0.2502577086919005 0 0.16574248336044761 -0.26746108990676593 0 0.1429630926125974 -0.2502577086919005 0 0.15128247879849499 -0.26292486595599002 0 0.16574248336044761 -0.26746108990676593 0 0.1429630926125974 -0.2502577086919005 0 0.16574248336044761 -0.26746108990676593 0 0.16001236861667459 -0.2513654190734112 0 0.1429630926125974 -0.2502577086919005 0 0.14275904560399111 -0.25945725309375861 0 0.15128247879849499 -0.26292486595599002 0 0.1364827709165429 -0.26618641562940759 0 0.14275904560399111 -0.25945725309375861 0 0.15128247879849499 -0.26292486595599002 0 0.1517600770447052 -0.28164214899084639 0 0.1364827709165429 -0.26618641562940759 0 0.15128247879849499 -0.26292486595599002 0 0.1517600770447052 -0.28164214899084639 0 0.15128247879849499 -0.26292486595599002 0 0.15776774232478771 -0.26956647822523339 0 0.1517600770447052 -0.28164214899084639 0 0.1311170075682456 -0.27142576198599933 0 0.1517600770447052 -0.28164214899084639 0 0.1364827709165429 -0.26618641562940759 0 0.1517600770447052 -0.28164214899084639 0 0.16209364730358741 -0.27452888323759039 0 0.16594555478614451 -0.28284233368471318 0 0.1517600770447052 -0.28164214899084639 0 0.16209364730358741 -0.27452888323759039 0 0.15776774232478771 -0.26956647822523339 0 0.16209364730358741 -0.27452888323759039 0 0.15776774232478771 -0.26956647822523339 0 0.16574248336044761 -0.26746108990676593 0 0.15128247879849499 -0.26292486595599002 0 0.15776774232478771 -0.26956647822523339 0 0.16574248336044761 -0.26746108990676593 0 0.16209364730358741 -0.27452888323759039 0 0.16574248336044761 -0.26746108990676593 0 0.16920230535812411 -0.27329149954452342 0 0.16209364730358741 -0.27452888323759039 0 0.16920230535812411 -0.27329149954452342 0 0.16594555478614451 -0.28284233368471318 0 0.16920230535812411 -0.27329149954452342 0 0.1710222018321049 -0.28124575318360368 0 0.16594555478614451 -0.28284233368471318 0 0.16574248336044761 -0.26746108990676593 0 0.16001236861667459 -0.2513654190734112 0 0.16988601458932601 -0.2589500224365659 0 0.16574248336044761 -0.26746108990676593 0 0.16988601458932601 -0.2589500224365659 0 0.17628584543496439 -0.26683535894776161 0 0.16001236861667459 -0.2513654190734112 0 0.16988601458932601 -0.2589500224365659 0 0.16978669848249819 -0.25098739912941831 0 0.1767458594742066 -0.25730285456071711 0 0.17619278994504239 -0.24587918172992959 0 0.18399505531774341 -0.24981832115951039 0 0.16978669848249819 -0.25098739912941831 0 0.1767458594742066 -0.25730285456071711 0 0.17619278994504239 -0.24587918172992959 0 0.16988601458932601 -0.2589500224365659 0 0.16978669848249819 -0.25098739912941831 0 0.1767458594742066 -0.25730285456071711 0 0.16988601458932601 -0.2589500224365659 0 0.1767458594742066 -0.25730285456071711 0 0.17628584543496439 -0.26683535894776161 0 0.1767458594742066 -0.25730285456071711 0 0.17628584543496439 -0.26683535894776161 0 0.1845366839674035 -0.26640487959885623 0 0.1767458594742066 -0.25730285456071711 0 0.18706352147094041 -0.25756661524031438 0 0.1845366839674035 -0.26640487959885623 0 0.1767458594742066 -0.25730285456071711 0 0.18706352147094041 -0.25756661524031438 0 0.18399505531774341 -0.24981832115951039 0 0.18852187410829821 -0.28466447112163068 0 0.17628584543496439 -0.26683535894776161 0 0.1845366839674035 -0.26640487959885623 0 0.18852187410829821 -0.28466447112163068 0 0.16574248336044761 -0.26746108990676593 0 0.18852187410829821 -0.28466447112163068 0 0.16574248336044761 -0.26746108990676593 0 0.17628584543496439 -0.26683535894776161 0 0.16920230535812411 -0.27329149954452342 0 0.18747516626574931 -0.28692639975368628 0 0.17602993407772211 -0.2832030986568283 0 0.18852187410829821 -0.28466447112163068 0 0.16574248336044761 -0.26746108990676593 0 0.16920230535812411 -0.27329149954452342 0 0.16920230535812411 -0.27329149954452342 0 0.18747516626574931 -0.28692639975368628 0 0.16920230535812411 -0.27329149954452342 0 0.1710222018321049 -0.28124575318360368 0 0.17602993407772211 -0.2832030986568283 0 0.18747516626574931 -0.28692639975368628 0 0.1806905449634813 -0.28832929748571318 0 0.17602993407772211 -0.2832030986568283 0 0.18852187410829821 -0.28466447112163068 0 0.16920230535812411 -0.27329149954452342 0 0.18747516626574931 -0.28692639975368628 0 0.18747516626574931 -0.28692639975368628 0 0.1806905449634813 -0.28832929748571318 0 0.18301660310609241 -0.29114958545392738 0 0.17291101310642881 -0.28564608084835003 0 0.17864991096044419 -0.29495009963706692 0 0.16594555478614451 -0.28284233368471318 0 0.1806905449634813 -0.28832929748571318 0 0.17602993407772211 -0.2832030986568283 0 0.17673138357400531 -0.28840876668861409 0 0.17602993407772211 -0.2832030986568283 0 0.17673138357400531 -0.28840876668861409 0 0.17291101310642881 -0.28564608084835003 0 0.1710222018321049 -0.28124575318360368 0 0.17602993407772211 -0.2832030986568283 0 0.17291101310642881 -0.28564608084835003 0 0.17673138357400531 -0.28840876668861409 0 0.17291101310642881 -0.28564608084835003 0 0.17864991096044419 -0.29495009963706692 0 0.17673138357400531 -0.28840876668861409 0 0.17909088347012619 -0.29088019083727579 0 0.17864991096044419 -0.29495009963706692 0 0.1806905449634813 -0.28832929748571318 0 0.17673138357400531 -0.28840876668861409 0 0.17909088347012619 -0.29088019083727579 0 0.17909088347012619 -0.29088019083727579 0 0.17864991096044419 -0.29495009963706692 0 0.18114425154506539 -0.29221912984395187 0 0.18747516626574931 -0.28692639975368628 0 0.18734834214976739 -0.29514628785519947 0 0.1827564496500734 -0.29712351473235832 0 0.18747516626574931 -0.28692639975368628 0 0.18301660310609241 -0.29114958545392738 0 0.1827564496500734 -0.29712351473235832 0 0.18114425154506539 -0.29221912984395187 0 0.18301660310609241 -0.29114958545392738 0 0.1827564496500734 -0.29712351473235832 0 0.17864991096044419 -0.29495009963706692 0 0.18114425154506539 -0.29221912984395187 0 0.1827564496500734 -0.29712351473235832 0 0.18747516626574931 -0.28692639975368628 0 0.1827564496500734 -0.29712351473235832 0 0.1806905449634813 -0.28832929748571318 0 0.18114425154506539 -0.29221912984395187 0 0.18301660310609241 -0.29114958545392738 0 0.1806905449634813 -0.28832929748571318 0 0.17909088347012619 -0.29088019083727579 0 0.18114425154506539 -0.29221912984395187 0 0.18802618722583669 -0.31833181955932999 0 0.18221347423979239 -0.30458962683289892 0 0.1698931321352706 -0.29998698427508858 0 0.1880606218677118 -0.30022154946313712 0 0.18734834214976739 -0.29514628785519947 0 0.1827564496500734 -0.29712351473235832 0 0.19009702279388629 -0.3064242775921906 0 0.1880606218677118 -0.30022154946313712 0 0.18221347423979239 -0.30458962683289892 0 0.18802618722583669 -0.31833181955932999 0 0.17151825735526699 -0.31325416760549368 0 0.1698931321352706 -0.29998698427508858 0 0.1880606218677118 -0.30022154946313712 0 0.18221347423979239 -0.30458962683289892 0 0.1827564496500734 -0.29712351473235832 0 0.18802618722583669 -0.31833181955932999 0 0.1698931321352706 -0.29998698427508858 0 0.17864991096044419 -0.29495009963706692 0 0.1827564496500734 -0.29712351473235832 0 0.17837824174639511 -0.29916255636935318 0 0.18221347423979239 -0.30458962683289892 0 0.1827564496500734 -0.29712351473235832 0 0.17837824174639511 -0.29916255636935318 0 0.19009702279388629 -0.3064242775921906 0 0.18802618722583669 -0.31833181955932999 0 0.18221347423979239 -0.30458962683289892 0 0.18221347423979239 -0.30458962683289892 0 0.17837824174639511 -0.29916255636935318 0 0.1698931321352706 -0.29998698427508858 0 0.17864991096044419 -0.29495009963706692 0 0.17837824174639511 -0.29916255636935318 0 0.1698931321352706 -0.29998698427508858 0 0.17151825735526699 -0.31325416760549368 0 0.1698931321352706 -0.29998698427508858 0 0.1602411687519314 -0.31190927739118429 0 0.15432967412725099 -0.29846298066074151 0 0.1698931321352706 -0.29998698427508858 0 0.1602411687519314 -0.31190927739118429 0 0.1517600770447052 -0.28164214899084639 0 0.17864991096044419 -0.29495009963706692 0 0.1698931321352706 -0.29998698427508858 0 0.1517600770447052 -0.28164214899084639 0 0.1698931321352706 -0.29998698427508858 0 0.15432967412725099 -0.29846298066074151 0 0.1517600770447052 -0.28164214899084639 0 0.1698931321352706 -0.29998698427508858 0 0.1517600770447052 -0.28164214899084639 0 0.17864991096044419 -0.29495009963706692 0 0.1517600770447052 -0.28164214899084639 0 0.17864991096044419 -0.29495009963706692 0 0.16594555478614451 -0.28284233368471318 0 0.1710222018321049 -0.28124575318360368 0 0.17291101310642881 -0.28564608084835003 0 0.16594555478614451 -0.28284233368471318 0 0.21438456257476449 -0.5 0 0.2048745361024723 -0.48472171768082351 0 0.18744203257390391 -0.5 0 0.19122796324104871 -0.48466606029959602 0 0.2048745361024723 -0.48472171768082351 0 0.18744203257390391 -0.5 0 0.19122796324104871 -0.48466606029959602 0 0.20365346230900849 -0.47086657296764728 0 0.1938641377332887 -0.4633108835168005 0 0.19122796324104871 -0.48466606029959602 0 0.20365346230900849 -0.47086657296764728 0 0.2048745361024723 -0.48472171768082351 0 0.21766866328091511 -0.47157360957620892 0 0.2048745361024723 -0.48472171768082351 0 0.22288060450936709 -0.48400008360299168 0 0.20365346230900849 -0.47086657296764728 0 0.21766866328091511 -0.47157360957620892 0 0.2048745361024723 -0.48472171768082351 0 0.21438456257476449 -0.5 0 0.2048745361024723 -0.48472171768082351 0 0.22288060450936709 -0.48400008360299168 0 0.21438456257476449 -0.5 0 0.23633351028628971 -0.48712361601618398 0 0.2413270925756249 -0.5 0 0.21438456257476449 -0.5 0 0.23633351028628971 -0.48712361601618398 0 0.22288060450936709 -0.48400008360299168 0 0.25270961841775552 -0.48460016746525392 0 0.23633351028628971 -0.48712361601618398 0 0.2413270925756249 -0.5 0 0.25270961841775552 -0.48460016746525392 0 0.23633351028628971 -0.48712361601618398 0 0.23949561189523169 -0.47426551941090739 0 0.23949561189523169 -0.47426551941090739 0 0.22288060450936709 -0.48400008360299168 0 0.22545312399173489 -0.46028769725088831 0 0.21766866328091511 -0.47157360957620892 0 0.22288060450936709 -0.48400008360299168 0 0.22545312399173489 -0.46028769725088831 0 0.23633351028628971 -0.48712361601618398 0 0.23949561189523169 -0.47426551941090739 0 0.22288060450936709 -0.48400008360299168 0 0.22288060450936709 -0.48400008360299168 0 0.22545312399173489 -0.46028769725088831 0 0.21766866328091511 -0.47157360957620892 0 0.22545312399173489 -0.46028769725088831 0 0.2186728293425339 -0.44755637628226819 0 0.2588368117714554 -0.46700690363883102 0 0.23949561189523169 -0.47426551941090739 0 0.2409729068143365 -0.46262444708906358 0 0.22545312399173489 -0.46028769725088831 0 0.2409729068143365 -0.46262444708906358 0 0.24480843210435321 -0.45079661158300749 0 0.2588368117714554 -0.46700690363883102 0 0.2409729068143365 -0.46262444708906358 0 0.24480843210435321 -0.45079661158300749 0 0.23949561189523169 -0.47426551941090739 0 0.22545312399173489 -0.46028769725088831 0 0.2409729068143365 -0.46262444708906358 0 0.24480843210435321 -0.45079661158300749 0 0.22802564347410281 -0.43657531089878487 0 0.2418992233321238 -0.43333026798624508 0 0.25513396950241118 -0.43290986753561628 0 0.24480843210435321 -0.45079661158300749 0 0.2418992233321238 -0.43333026798624508 0 0.22545312399173489 -0.46028769725088831 0 0.22802564347410281 -0.43657531089878487 0 0.2186728293425339 -0.44755637628226819 0 0.21246462128442831 -0.43168381348743168 0 0.22802564347410281 -0.43657531089878487 0 0.22545312399173489 -0.46028769725088831 0 0.2186728293425339 -0.44755637628226819 0 0.22802564347410281 -0.43657531089878487 0 0.22545312399173489 -0.46028769725088831 0 0.24480843210435321 -0.45079661158300749 0 0.22802564347410281 -0.43657531089878487 0 0.20442019459899149 -0.44533796874460208 0 0.2186728293425339 -0.44755637628226819 0 0.21246462128442831 -0.43168381348743168 0 0.21766866328091511 -0.47157360957620892 0 0.20442019459899149 -0.44533796874460208 0 0.21766866328091511 -0.47157360957620892 0 0.20442019459899149 -0.44533796874460208 0 0.2186728293425339 -0.44755637628226819 0 0.20365346230900849 -0.47086657296764728 0 0.21766866328091511 -0.47157360957620892 0 0.20442019459899149 -0.44533796874460208 0 0.20365346230900849 -0.47086657296764728 0 0.20442019459899149 -0.44533796874460208 0 0.1938641377332887 -0.4633108835168005 0 0.20442019459899149 -0.44533796874460208 0 0.18484232774876749 -0.43033534366960768 0 0.18590039067086719 -0.44115637567916172 0 0.20442019459899149 -0.44533796874460208 0 0.18923595964957429 -0.45067509688328122 0 0.18590039067086719 -0.44115637567916172 0 0.20442019459899149 -0.44533796874460208 0 0.1938641377332887 -0.4633108835168005 0 0.18923595964957429 -0.45067509688328122 0 0.20442019459899149 -0.44533796874460208 0 0.1911717259170673 -0.41910232791299562 0 0.20473537155931409 -0.42802668409371708 0 0.20442019459899149 -0.44533796874460208 0 0.1911717259170673 -0.41910232791299562 0 0.20442019459899149 -0.44533796874460208 0 0.1911717259170673 -0.41910232791299562 0 0.18484232774876749 -0.43033534366960768 0 0.1911717259170673 -0.41910232791299562 0 0.21088494443676881 -0.41598262622983972 0 0.20473537155931409 -0.42802668409371708 0 0.18851111772050869 -0.41383358608972459 0 0.208966154163157 -0.40126827473642579 0 0.1911717259170673 -0.41910232791299562 0 0.21088494443676881 -0.41598262622983972 0 0.1911717259170673 -0.41910232791299562 0 0.18851111772050869 -0.41383358608972459 0 0.21088494443676881 -0.41598262622983972 0 0.18851111772050869 -0.41383358608972459 0 0.21088494443676881 -0.41598262622983972 0 0.208966154163157 -0.40126827473642579 0 0.1911717259170673 -0.41910232791299562 0 0.18851111772050869 -0.41383358608972459 0 0.21088494443676881 -0.41598262622983972 0 0.22155668588658281 -0.40529615173032069 0 0.208966154163157 -0.40126827473642579 0 0.21088494443676881 -0.41598262622983972 0 0.20473537155931409 -0.42802668409371708 0 0.21246462128442831 -0.43168381348743168 0 0.21088494443676881 -0.41598262622983972 0 0.21246462128442831 -0.43168381348743168 0 0.21959695705502991 -0.42408781639437282 0 0.20442019459899149 -0.44533796874460208 0 0.20473537155931409 -0.42802668409371708 0 0.21246462128442831 -0.43168381348743168 0 0.21246462128442831 -0.43168381348743168 0 0.21959695705502991 -0.42408781639437282 0 0.22802564347410281 -0.43657531089878487 0 0.22802564347410281 -0.43657531089878487 0 0.23614533994983331 -0.4244462479719151 0 0.23059816295646979 -0.4128629245466815 0 0.22802564347410281 -0.43657531089878487 0 0.23059816295646979 -0.4128629245466815 0 0.21959695705502991 -0.42408781639437282 0 0.22802564347410281 -0.43657531089878487 0 0.23059816295646979 -0.4128629245466815 0 0.22802564347410281 -0.43657531089878487 0 0.2418992233321238 -0.43333026798624508 0 0.23614533994983331 -0.4244462479719151 0 0.2418992233321238 -0.43333026798624508 0 0.23614533994983331 -0.4244462479719151 0 0.2453827316299185 -0.42192330194190181 0 0.25513396950241118 -0.43290986753561628 0 0.2418992233321238 -0.43333026798624508 0 0.2453827316299185 -0.42192330194190181 0 0.256136481120742 -0.41447562176841068 0 0.2453827316299185 -0.42192330194190181 0 0.24629253832767661 -0.41022035877505542 0 0.2453827316299185 -0.42192330194190181 0 0.24629253832767661 -0.41022035877505542 0 0.2366098857920339 -0.41191154353144788 0 0.23614533994983331 -0.4244462479719151 0 0.2366098857920339 -0.41191154353144788 0 0.23059816295646979 -0.4128629245466815 0 0.23614533994983331 -0.4244462479719151 0 0.2453827316299185 -0.42192330194190181 0 0.2366098857920339 -0.41191154353144788 0 0.24629253832767661 -0.41022035877505542 0 0.2366098857920339 -0.41191154353144788 0 0.2422505545635501 -0.40276464775944387 0 0.21088494443676881 -0.41598262622983972 0 0.23059816295646979 -0.4128629245466815 0 0.2366098857920339 -0.41191154353144788 0 0.23059816295646979 -0.4128629245466815 0 0.23156745731421779 -0.4039283829592023 0 0.23059816295646979 -0.4128629245466815 0 0.22155668588658281 -0.40529615173032069 0 0.23156745731421779 -0.4039283829592023 0 0.23059816295646979 -0.4128629245466815 0 0.23156745731421779 -0.4039283829592023 0 0.21088494443676881 -0.41598262622983972 0 0.23059816295646979 -0.4128629245466815 0 0.22155668588658281 -0.40529615173032069 0 0.21088494443676881 -0.41598262622983972 0 0.21959695705502991 -0.42408781639437282 0 0.23059816295646979 -0.4128629245466815 0 0.2366098857920339 -0.41191154353144788 0 0.23059816295646979 -0.4128629245466815 0 0.22155668588658281 -0.40529615173032069 0 0.22942119060580499 -0.38870296338312649 0 0.208966154163157 -0.40126827473642579 0 0.22155668588658281 -0.40529615173032069 0 0.23156745731421779 -0.4039283829592023 0 0.22942119060580499 -0.38870296338312649 0 0.22942119060580499 -0.38870296338312649 0 0.208966154163157 -0.40126827473642579 0 0.23156745731421779 -0.4039283829592023 0 0.24309899287842279 -0.39271330151873202 0 0.2422505545635501 -0.40276464775944387 0 0.2366098857920339 -0.41191154353144788 0 0.23156745731421779 -0.4039283829592023 0 0.2422505545635501 -0.40276464775944387 0 0.23156745731421779 -0.4039283829592023 0 0.24309899287842279 -0.39271330151873202 0 0.22942119060580499 -0.38870296338312649 0 0.25108303853213881 -0.40002667887407228 0 0.24629253832767661 -0.41022035877505542 0 0.2422505545635501 -0.40276464775944387 0 0.25108303853213881 -0.40002667887407228 0 0.24309899287842279 -0.39271330151873202 0 0.2422505545635501 -0.40276464775944387 0 0.24987622704845311 -0.37613765202982719 0 0.22942119060580499 -0.38870296338312649 0 0.24309899287842279 -0.39271330151873202 0 0.24987622704845311 -0.37613765202982719 0 0.22942119060580499 -0.38870296338312649 0 0.24987622704845311 -0.37613765202982719 0 0.23474048966473349 -0.38137370792841258 0 0.22942119060580499 -0.38870296338312649 0 0.25687819372407023 -0.38903915957053298 0 0.24309899287842279 -0.39271330151873202 0 0.24987622704845311 -0.37613765202982719 0 0.23679608458568241 -0.3713456781615978 0 0.24987622704845311 -0.37613765202982719 0 0.23474048966473349 -0.38137370792841258 0 0.23474048966473349 -0.38137370792841258 0 0.23010576568282681 -0.37607478874810818 0 0.22189277223980711 -0.38054577212349588 0 0.23474048966473349 -0.38137370792841258 0 0.22189277223980711 -0.38054577212349588 0 0.20961824525516401 -0.3936281247522696 0 0.23474048966473349 -0.38137370792841258 0 0.22942119060580499 -0.38870296338312649 0 0.20961824525516401 -0.3936281247522696 0 0.23679608458568241 -0.3713456781615978 0 0.23474048966473349 -0.38137370792841258 0 0.23010576568282681 -0.37607478874810818 0 0.23474048966473349 -0.38137370792841258 0 0.20961824525516401 -0.3936281247522696 0 0.22699371624108439 -0.37103399677892651 0 0.23010576568282681 -0.37607478874810818 0 0.22189277223980711 -0.38054577212349588 0 0.21663927632257499 -0.37152038636996992 0 0.22189277223980711 -0.38054577212349588 0 0.21119602619295649 -0.38157571206759561 0 0.21663927632257499 -0.37152038636996992 0 0.21119602619295649 -0.38157571206759561 0 0.20576161095015591 -0.37595213443190167 0 0.21119602619295649 -0.38157571206759561 0 0.20576161095015591 -0.37595213443190167 0 0.20229958674085519 -0.38616776423662919 0 0.21119602619295649 -0.38157571206759561 0 0.20961824525516401 -0.3936281247522696 0 0.20229958674085519 -0.38616776423662919 0 0.22189277223980711 -0.38054577212349588 0 0.21119602619295649 -0.38157571206759561 0 0.20961824525516401 -0.3936281247522696 0 0.22942119060580499 -0.38870296338312649 0 0.208966154163157 -0.40126827473642579 0 0.20961824525516401 -0.3936281247522696 0 0.20961824525516401 -0.3936281247522696 0 0.18449600084559339 -0.40588254157612419 0 0.20961824525516401 -0.3936281247522696 0 0.19262774622386039 -0.39991289132556063 0 0.20229958674085519 -0.38616776423662919 0 0.18851111772050869 -0.41383358608972459 0 0.20961824525516401 -0.3936281247522696 0 0.18449600084559339 -0.40588254157612419 0 0.19262774622386039 -0.39991289132556063 0 0.193172237845981 -0.38760648281860499 0 0.20229958674085519 -0.38616776423662919 0 0.20961824525516401 -0.3936281247522696 0 0.19262774622386039 -0.39991289132556063 0 0.18449600084559339 -0.40588254157612419 0 0.18851111772050869 -0.41383358608972459 0 0.208966154163157 -0.40126827473642579 0 0.20961824525516401 -0.3936281247522696 0 0.19262774622386039 -0.39991289132556063 0 0.18963514604776821 -0.39361523539988952 0 0.193172237845981 -0.38760648281860499 0 0.19262774622386039 -0.39991289132556063 0 0.18963514604776821 -0.39361523539988952 0 0.18221634088723479 -0.40136818287387582 0 0.18963514604776821 -0.39361523539988952 0 0.193172237845981 -0.38760648281860499 0 0.18267650324237161 -0.39405502657648112 0 0.193172237845981 -0.38760648281860499 0 0.1910424400336663 -0.37547354736401328 0 0.18267650324237161 -0.39405502657648112 0 0.20576161095015591 -0.37595213443190167 0 0.1910424400336663 -0.37547354736401328 0 0.20229958674085519 -0.38616776423662919 0 0.193172237845981 -0.38760648281860499 0 0.1910424400336663 -0.37547354736401328 0 0.20229958674085519 -0.38616776423662919 0 0.1910424400336663 -0.37547354736401328 0 0.17822948803450961 -0.38676940160015832 0 0.1737051017910701 -0.38004230502140057 0 0.1910424400336663 -0.37547354736401328 0 0.18267650324237161 -0.39405502657648112 0 0.1910424400336663 -0.37547354736401328 0 0.17822948803450961 -0.38676940160015832 0 0.18267650324237161 -0.39405502657648112 0 0.17822948803450961 -0.38676940160015832 0 0.17910183421640119 -0.39520059623836468 0 0.1646215608890387 -0.38907553280053181 0 0.17822948803450961 -0.38676940160015832 0 0.1737051017910701 -0.38004230502140057 0 0.1646215608890387 -0.38907553280053181 0 0.17822948803450961 -0.38676940160015832 0 0.18267650324237161 -0.39405502657648112 0 0.17910183421640119 -0.39520059623836468 0 0.18221634088723479 -0.40136818287387582 0 0.17910183421640119 -0.39520059623836468 0 0.15805845094365739 -0.40474493864538458 0 0.18963514604776821 -0.39361523539988952 0 0.18267650324237161 -0.39405502657648112 0 0.18221634088723479 -0.40136818287387582 0 0.18267650324237161 -0.39405502657648112 0 0.18221634088723479 -0.40136818287387582 0 0.17910183421640119 -0.39520059623836468 0 0.18221634088723479 -0.40136818287387582 0 0.17910183421640119 -0.39520059623836468 0 0.19262774622386039 -0.39991289132556063 0 0.18221634088723479 -0.40136818287387582 0 0.19262774622386039 -0.39991289132556063 0 0.18449600084559339 -0.40588254157612419 0 0.18221634088723479 -0.40136818287387582 0 0.18449600084559339 -0.40588254157612419 0 0.18221634088723479 -0.40136818287387582 0 0.17910183421640119 -0.39520059623836468 0 0.15805845094365739 -0.40474493864538458 0 0.1646215608890387 -0.38907553280053181 0 0.18221634088723479 -0.40136818287387582 0 0.15805845094365739 -0.40474493864538458 0 0.15805845094365739 -0.40474493864538458 0 0.1646215608890387 -0.38907553280053181 0 0.14706277844018539 -0.39464292458295508 0 0.1737051017910701 -0.38004230502140057 0 0.1646215608890387 -0.38907553280053181 0 0.16307541855137739 -0.37743582412871929 0 0.17035242753357599 -0.36877211446365682 0 0.1737051017910701 -0.38004230502140057 0 0.16307541855137739 -0.37743582412871929 0 0.1569593121701936 -0.36832063090657668 0 0.16307541855137739 -0.37743582412871929 0 0.14973869037300869 -0.38096853745143089 0 0.1646215608890387 -0.38907553280053181 0 0.16307541855137739 -0.37743582412871929 0 0.14973869037300869 -0.38096853745143089 0 0.1646215608890387 -0.38907553280053181 0 0.14973869037300869 -0.38096853745143089 0 0.14706277844018539 -0.39464292458295508 0 0.14973869037300869 -0.38096853745143089 0 0.1375772795987745 -0.38493757303029391 0 0.14706277844018539 -0.39464292458295508 0 0.13524945632583441 -0.37311377610700652 0 0.14973869037300869 -0.38096853745143089 0 0.1375772795987745 -0.38493757303029391 0 0.13524945632583441 -0.37311377610700652 0 0.1375772795987745 -0.38493757303029391 0 0.12609635470998201 -0.38402791619100712 0 0.1375772795987745 -0.38493757303029391 0 0.12609635470998201 -0.38402791619100712 0 0.13569313113510631 -0.39589912548093298 0 0.12645644117523869 -0.39722706905544619 0 0.13569313113510631 -0.39589912548093298 0 0.1339005610000801 -0.40812169441689322 0 0.12645644117523869 -0.39722706905544619 0 0.1339005610000801 -0.40812169441689322 0 0.1250254850364893 -0.40936224001308058 0 0.12609635470998201 -0.38402791619100712 0 0.12645644117523869 -0.39722706905544619 0 0.13569313113510631 -0.39589912548093298 0 0.1375772795987745 -0.38493757303029391 0 0.13569313113510631 -0.39589912548093298 0 0.14706277844018539 -0.39464292458295508 0 0.13569313113510631 -0.39589912548093298 0 0.14706277844018539 -0.39464292458295508 0 0.1339005610000801 -0.40812169441689322 0 0.13569313113510631 -0.39589912548093298 0 0.1339005610000801 -0.40812169441689322 0 0.15805845094365739 -0.40474493864538458 0 0.14706277844018539 -0.39464292458295508 0 0.1339005610000801 -0.40812169441689322 0 0.15805845094365739 -0.40474493864538458 0 0.1339005610000801 -0.40812169441689322 0 0.15805845094365739 -0.40474493864538458 0 0.15398562739609989 -0.414436145328195 0 0.14500783119440661 -0.41410657591589572 0 0.15805845094365739 -0.40474493864538458 0 0.14500783119440661 -0.41410657591589572 0 0.1339005610000801 -0.40812169441689322 0 0.15398562739609989 -0.414436145328195 0 0.15088002640467921 -0.42009116626417142 0 0.14500783119440661 -0.41410657591589572 0 0.15088002640467921 -0.42009116626417142 0 0.15979138776423191 -0.42406840149736191 0 0.15636365466176849 -0.41960526040447821 0 0.15398562739609989 -0.414436145328195 0 0.15088002640467921 -0.42009116626417142 0 0.15636365466176849 -0.41960526040447821 0 0.15088002640467921 -0.42009116626417142 0 0.14500783119440661 -0.41410657591589572 0 0.14354831806896931 -0.42663893719234869 0 0.14500783119440661 -0.41410657591589572 0 0.1339005610000801 -0.40812169441689322 0 0.13212255532719441 -0.42024495614079282 0 0.14500783119440661 -0.41410657591589572 0 0.13212255532719441 -0.42024495614079282 0 0.14354831806896931 -0.42663893719234869 0 0.1339005610000801 -0.40812169441689322 0 0.13212255532719441 -0.42024495614079282 0 0.13212255532719441 -0.42024495614079282 0 0.1250254850364893 -0.40936224001308058 0 0.117866085899093 -0.41583132647739651 0 0.13212255532719441 -0.42024495614079282 0 0.1250254850364893 -0.40936224001308058 0 0.1339005610000801 -0.40812169441689322 0 0.13212255532719441 -0.42024495614079282 0 0.1250254850364893 -0.40936224001308058 0 0.1339005610000801 -0.40812169441689322 0 0.1250254850364893 -0.40936224001308058 0 0.13212255532719441 -0.42024495614079282 0 0.14354831806896931 -0.42663893719234869 0 0.1460535583969573 -0.44160689079445481 0 0.13212255532719441 -0.42024495614079282 0 0.128223579302082 -0.44682997076052833 0 0.13212255532719441 -0.42024495614079282 0 0.128223579302082 -0.44682997076052833 0 0.1159996351348133 -0.43474120747525058 0 0.13212255532719441 -0.42024495614079282 0 0.1460535583969573 -0.44160689079445481 0 0.13212255532719441 -0.42024495614079282 0 0.1460535583969573 -0.44160689079445481 0 0.128223579302082 -0.44682997076052833 0 0.15088002640467921 -0.42009116626417142 0 0.14354831806896931 -0.42663893719234869 0 0.15979138776423191 -0.42406840149736191 0 0.14354831806896931 -0.42663893719234869 0 0.15979138776423191 -0.42406840149736191 0 0.14354831806896931 -0.42663893719234869 0 0.15423293294423909 -0.43386412417913311 0 0.1460535583969573 -0.44160689079445481 0 0.14354831806896931 -0.42663893719234869 0 0.15423293294423909 -0.43386412417913311 0 0.15979138776423191 -0.42406840149736191 0 0.15423293294423909 -0.43386412417913311 0 0.16088991666547389 -0.43196094602310392 0 0.16557730454712019 -0.44172028084172121 0 0.1713980071398 -0.42434598792645378 0 0.15979138776423191 -0.42406840149736191 0 0.1760344574594947 -0.42149786580237669 0 0.15423293294423909 -0.43386412417913311 0 0.16088991666547389 -0.43196094602310392 0 0.15979138776423191 -0.42406840149736191 0 0.15979138776423191 -0.42406840149736191 0 0.1760344574594947 -0.42149786580237669 0 0.16626302434537371 -0.43076979168845952 0 0.17509911994716071 -0.43336510097506958 0 0.16557730454712019 -0.44172028084172121 0 0.16088991666547389 -0.43196094602310392 0 0.16626302434537371 -0.43076979168845952 0 0.16557730454712019 -0.44172028084172121 0 0.16626302434537371 -0.43076979168845952 0 0.1713980071398 -0.42434598792645378 0 0.17509911994716071 -0.43336510097506958 0 0.16626302434537371 -0.43076979168845952 0 0.1713980071398 -0.42434598792645378 0 0.15979138776423191 -0.42406840149736191 0 0.16088991666547389 -0.43196094602310392 0 0.16626302434537371 -0.43076979168845952 0 0.15979138776423191 -0.42406840149736191 0 0.15636365466176849 -0.41960526040447821 0 0.16176651730702801 -0.41283252991975622 0 0.17042982775368151 -0.41274390099030239 0 0.18221634088723479 -0.40136818287387582 0 0.15805845094365739 -0.40474493864538458 0 0.17042982775368151 -0.41274390099030239 0 0.15979138776423191 -0.42406840149736191 0 0.15636365466176849 -0.41960526040447821 0 0.17042982775368151 -0.41274390099030239 0 0.15636365466176849 -0.41960526040447821 0 0.17042982775368151 -0.41274390099030239 0 0.15979138776423191 -0.42406840149736191 0 0.17042982775368151 -0.41274390099030239 0 0.1760344574594947 -0.42149786580237669 0 0.15398562739609989 -0.414436145328195 0 0.15636365466176849 -0.41960526040447821 0 0.16176651730702801 -0.41283252991975622 0 0.15805845094365739 -0.40474493864538458 0 0.15398562739609989 -0.414436145328195 0 0.16176651730702801 -0.41283252991975622 0 0.15805845094365739 -0.40474493864538458 0 0.16176651730702801 -0.41283252991975622 0 0.17042982775368151 -0.41274390099030239 0 0.17042982775368151 -0.41274390099030239 0 0.1760344574594947 -0.42149786580237669 0 0.17986785094481991 -0.4134894736146324 0 0.18449600084559339 -0.40588254157612419 0 0.17042982775368151 -0.41274390099030239 0 0.18449600084559339 -0.40588254157612419 0 0.18221634088723479 -0.40136818287387582 0 0.17042982775368151 -0.41274390099030239 0 0.18449600084559339 -0.40588254157612419 0 0.17042982775368151 -0.41274390099030239 0 0.17986785094481991 -0.4134894736146324 0 0.18851111772050869 -0.41383358608972459 0 0.18449600084559339 -0.40588254157612419 0 0.18851111772050869 -0.41383358608972459 0 0.18449600084559339 -0.40588254157612419 0 0.17986785094481991 -0.4134894736146324 0 0.18851111772050869 -0.41383358608972459 0 0.1760344574594947 -0.42149786580237669 0 0.1911717259170673 -0.41910232791299562 0 0.1760344574594947 -0.42149786580237669 0 0.18851111772050869 -0.41383358608972459 0 0.1760344574594947 -0.42149786580237669 0 0.17986785094481991 -0.4134894736146324 0 0.1911717259170673 -0.41910232791299562 0 0.18851111772050869 -0.41383358608972459 0 0.1760344574594947 -0.42149786580237669 0 0.1911717259170673 -0.41910232791299562 0 0.1760344574594947 -0.42149786580237669 0 0.18484232774876749 -0.43033534366960768 0 0.18484232774876749 -0.43033534366960768 0 0.17509911994716071 -0.43336510097506958 0 0.18590039067086719 -0.44115637567916172 0 0.18484232774876749 -0.43033534366960768 0 0.17509911994716071 -0.43336510097506958 0 0.17653319474121221 -0.42750765242104072 0 0.1713980071398 -0.42434598792645378 0 0.17509911994716071 -0.43336510097506958 0 0.17653319474121221 -0.42750765242104072 0 0.1760344574594947 -0.42149786580237669 0 0.18484232774876749 -0.43033534366960768 0 0.17653319474121221 -0.42750765242104072 0 0.1713980071398 -0.42434598792645378 0 0.1760344574594947 -0.42149786580237669 0 0.17653319474121221 -0.42750765242104072 0 0.1713980071398 -0.42434598792645378 0 0.1760344574594947 -0.42149786580237669 0 0.17791556380287959 -0.4455361086535346 0 0.17376504419967539 -0.46076368888843938 0 0.16557730454712019 -0.44172028084172121 0 0.17509911994716071 -0.43336510097506958 0 0.17791556380287959 -0.4455361086535346 0 0.18590039067086719 -0.44115637567916172 0 0.17509911994716071 -0.43336510097506958 0 0.17791556380287959 -0.4455361086535346 0 0.16557730454712019 -0.44172028084172121 0 0.18923595964957429 -0.45067509688328122 0 0.17791556380287959 -0.4455361086535346 0 0.18590039067086719 -0.44115637567916172 0 0.18923595964957429 -0.45067509688328122 0 0.17791556380287959 -0.4455361086535346 0 0.17376504419967539 -0.46076368888843938 0 0.1938641377332887 -0.4633108835168005 0 0.18923595964957429 -0.45067509688328122 0 0.17376504419967539 -0.46076368888843938 0 0.1938641377332887 -0.4633108835168005 0 0.17376504419967539 -0.46076368888843938 0 0.17718182015316611 -0.48165544175840053 0 0.17376504419967539 -0.46076368888843938 0 0.15550290350416551 -0.45157236434768988 0 0.1539044029471725 -0.46809795184702829 0 0.17376504419967539 -0.46076368888843938 0 0.16557730454712019 -0.44172028084172121 0 0.15550290350416551 -0.45157236434768988 0 0.15423293294423909 -0.43386412417913311 0 0.16557730454712019 -0.44172028084172121 0 0.15550290350416551 -0.45157236434768988 0 0.15423293294423909 -0.43386412417913311 0 0.15550290350416551 -0.45157236434768988 0 0.1460535583969573 -0.44160689079445481 0 0.15550290350416551 -0.45157236434768988 0 0.1460535583969573 -0.44160689079445481 0 0.14153074802588431 -0.45654190970348868 0 0.1460535583969573 -0.44160689079445481 0 0.128223579302082 -0.44682997076052833 0 0.14153074802588431 -0.45654190970348868 0 0.128223579302082 -0.44682997076052833 0 0.12432460327697011 -0.47341498538026422 0 0.128223579302082 -0.44682997076052833 0 0.14153074802588431 -0.45654190970348868 0 0.12432460327697011 -0.47341498538026422 0 0.1539044029471725 -0.46809795184702829 0 0.14153074802588431 -0.45654190970348868 0 0.12432460327697011 -0.47341498538026422 0 0.15550290350416551 -0.45157236434768988 0 0.1539044029471725 -0.46809795184702829 0 0.14153074802588431 -0.45654190970348868 0 0.1539044029471725 -0.46809795184702829 0 0.15048103374274721 -0.48484579871078243 0 0.12432460327697011 -0.47341498538026422 0 0.1404625649124509 -0.5 0 0.15048103374274721 -0.48484579871078243 0 0.12432460327697011 -0.47341498538026422 0 0.1404625649124509 -0.5 0 0.12042562725185831 -0.49999999999999989 0 0.12432460327697011 -0.47341498538026422 0 0.1404625649124509 -0.5 0 0.15048103374274721 -0.48484579871078243 0 0.16049950257304349 -0.50000000000000033 0 0.16049950257304349 -0.50000000000000033 0 0.17718182015316611 -0.48165544175840053 0 0.15048103374274721 -0.48484579871078243 0 0.16049950257304349 -0.50000000000000033 0 0.17718182015316611 -0.48165544175840053 0 0.17376504419967539 -0.46076368888843938 0 0.1539044029471725 -0.46809795184702829 0 0.17718182015316611 -0.48165544175840053 0 0.1539044029471725 -0.46809795184702829 0 0.15048103374274721 -0.48484579871078243 0 0.17718182015316611 -0.48165544175840053 0 0.1938641377332887 -0.4633108835168005 0 0.17718182015316611 -0.48165544175840053 0 0.19122796324104871 -0.48466606029959602 0 0.1938641377332887 -0.4633108835168005 0 0.17718182015316611 -0.48165544175840053 0 0.16049950257304349 -0.50000000000000033 0 0.17718182015316611 -0.48165544175840053 0 0.18744203257390391 -0.5 0 0.19122796324104871 -0.48466606029959602 0 0.17718182015316611 -0.48165544175840053 0 0.18744203257390391 -0.5 0 0.072018957471098571 -0.48629524479662273 0 0.069142552082564368 -0.5 0 0.082735946582200875 -0.4892045976485363 0 0.072018957471098571 -0.48629524479662273 0 0.079568506083734697 -0.4785915255016745 0 0.082735946582200875 -0.4892045976485363 0 0.072018957471098571 -0.48629524479662273 0 0.062670741706174135 -0.48944359682069549 0 0.064881374578912687 -0.4815757870058418 0 0.072018957471098571 -0.48629524479662273 0 0.069142552082564368 -0.5 0 0.062670741706174135 -0.48944359682069549 0 0.073180054077148754 -0.46968413697177741 0 0.079568506083734697 -0.4785915255016745 0 0.081395248040860374 -0.46160025678040811 0 0.067447632246636219 -0.45716428258124142 0 0.05849497948899289 -0.47642287528831911 0 0.061758178687080389 -0.47580514524370598 0 0.072018957471098571 -0.48629524479662273 0 0.064881374578912687 -0.4815757870058418 0 0.070673492561877091 -0.4782128222507579 0 0.064881374578912687 -0.4815757870058418 0 0.066280053791524171 -0.47680462027284459 0 0.061758178687080389 -0.47580514524370598 0 0.064881374578912687 -0.4815757870058418 0 0.066280053791524171 -0.47680462027284459 0 0.070673492561877091 -0.4782128222507579 0 0.066280053791524171 -0.47680462027284459 0 0.067807169338226503 -0.47162472659107291 0 0.061758178687080389 -0.47580514524370598 0 0.066280053791524171 -0.47680462027284459 0 0.067807169338226503 -0.47162472659107291 0 0.070673492561877091 -0.4782128222507579 0 0.067807169338226503 -0.47162472659107291 0 0.073180054077148754 -0.46968413697177741 0 0.070673492561877091 -0.4782128222507579 0 0.073180054077148754 -0.46968413697177741 0 0.070673492561877091 -0.4782128222507579 0 0.079568506083734697 -0.4785915255016745 0 0.072018957471098571 -0.48629524479662273 0 0.070673492561877091 -0.4782128222507579 0 0.079568506083734697 -0.4785915255016745 0 0.096876661376123455 -0.48080012839020431 0 0.081395248040860374 -0.46160025678040811 0 0.096876661376123455 -0.48080012839020431 0 0.095349939854524335 -0.46404107218864848 0 0.081395248040860374 -0.46160025678040811 0 0.079568506083734697 -0.4785915255016745 0 0.082735946582200875 -0.4892045976485363 0 0.096876661376123455 -0.48080012839020431 0 0.079568506083734697 -0.4785915255016745 0 0.096876661376123455 -0.48080012839020431 0 0.081395248040860374 -0.46160025678040811 0 0.090750313396975479 -0.5 0 0.082735946582200875 -0.4892045976485363 0 0.096876661376123455 -0.48080012839020431 0 0.069142552082564368 -0.5 0 0.090750313396975479 -0.5 0 0.082735946582200875 -0.4892045976485363 0 0.1123580747113867 -0.50000000000000033 0 0.1124728586670535 -0.48406595427175642 0 0.096876661376123455 -0.48080012839020431 0 0.090750313396975479 -0.5 0 0.1123580747113867 -0.50000000000000033 0 0.096876661376123455 -0.48080012839020431 0 0.1123580747113867 -0.50000000000000033 0 0.096876661376123455 -0.48080012839020431 0 0.1123580747113867 -0.50000000000000033 0 0.12042562725185831 -0.49999999999999989 0 0.1124728586670535 -0.48406595427175642 0 0.12042562725185831 -0.49999999999999989 0 0.1124728586670535 -0.48406595427175642 0 0.12432460327697011 -0.47341498538026422 0 0.12042562725185831 -0.49999999999999989 0 0.12432460327697011 -0.47341498538026422 0 0.1124728586670535 -0.48406595427175642 0 0.12432460327697011 -0.47341498538026422 0 0.1082250197838846 -0.46311527911574241 0 0.096876661376123455 -0.48080012839020431 0 0.095349939854524335 -0.46404107218864848 0 0.1082250197838846 -0.46311527911574241 0 0.1124728586670535 -0.48406595427175642 0 0.096876661376123455 -0.48080012839020431 0 0.1082250197838846 -0.46311527911574241 0 0.095349939854524335 -0.46404107218864848 0 0.1082250197838846 -0.46311527911574241 0 0.094902830217228867 -0.45064862446823939 0 0.128223579302082 -0.44682997076052833 0 0.12432460327697011 -0.47341498538026422 0 0.1082250197838846 -0.46311527911574241 0 0.128223579302082 -0.44682997076052833 0 0.1069391861142964 -0.44299064961396012 0 0.1159996351348133 -0.43474120747525058 0 0.128223579302082 -0.44682997076052833 0 0.1082250197838846 -0.46311527911574241 0 0.1069391861142964 -0.44299064961396012 0 0.1082250197838846 -0.46311527911574241 0 0.1069391861142964 -0.44299064961396012 0 0.094902830217228867 -0.45064862446823939 0 0.1069391861142964 -0.44299064961396012 0 0.091812697424993442 -0.4386357446441016 0 0.098414951810672224 -0.43233268446502993 0 0.1069391861142964 -0.44299064961396012 0 0.094902830217228867 -0.45064862446823939 0 0.091812697424993442 -0.4386357446441016 0 0.094902830217228867 -0.45064862446823939 0 0.091812697424993442 -0.4386357446441016 0 0.082434724511159588 -0.44537142502386151 0 0.094902830217228867 -0.45064862446823939 0 0.082434724511159588 -0.44537142502386151 0 0.081395248040860374 -0.46160025678040811 0 0.091812697424993442 -0.4386357446441016 0 0.082434724511159588 -0.44537142502386151 0 0.078149012167117934 -0.43357211405594609 0 0.095349939854524335 -0.46404107218864848 0 0.094902830217228867 -0.45064862446823939 0 0.081395248040860374 -0.46160025678040811 0 0.067447632246636219 -0.45716428258124142 0 0.065913834705597293 -0.44240038517061198 0 0.057068655694905858 -0.46015288389510001 0 0.067447632246636219 -0.45716428258124142 0 0.05849497948899289 -0.47642287528831911 0 0.067807169338226503 -0.47162472659107291 0 0.067447632246636219 -0.45716428258124142 0 0.061758178687080389 -0.47580514524370598 0 0.081395248040860374 -0.46160025678040811 0 0.067447632246636219 -0.45716428258124142 0 0.065913834705597293 -0.44240038517061198 0 0.073180054077148754 -0.46968413697177741 0 0.081395248040860374 -0.46160025678040811 0 0.067447632246636219 -0.45716428258124142 0 0.067807169338226503 -0.47162472659107291 0 0.073180054077148754 -0.46968413697177741 0 0.067447632246636219 -0.45716428258124142 0 0.081395248040860374 -0.46160025678040811 0 0.065913834705597293 -0.44240038517061198 0 0.082434724511159588 -0.44537142502386151 0 0.081395248040860374 -0.46160025678040811 0 0.065913834705597293 -0.44240038517061198 0 0.082434724511159588 -0.44537142502386151 0 0.065913834705597293 -0.44240038517061198 0 0.078149012167117934 -0.43357211405594609 0 0.065921365320016911 -0.4273577277455588 0 0.073982485551444349 -0.42005290588181732 0 0.078149012167117934 -0.43357211405594609 0 0.065913834705597293 -0.44240038517061198 0 0.065921365320016911 -0.4273577277455588 0 0.078149012167117934 -0.43357211405594609 0 0.073982485551444349 -0.42005290588181732 0 0.069775570718114244 -0.40426700169235308 0 0.060774245729122177 -0.41691050055794487 0 0.065921365320016911 -0.4273577277455588 0 0.073982485551444349 -0.42005290588181732 0 0.060774245729122177 -0.41691050055794487 0 0.073982485551444349 -0.42005290588181732 0 0.086447448161059384 -0.41120764722282821 0 0.069775570718114244 -0.40426700169235308 0 0.073982485551444349 -0.42005290588181732 0 0.086447448161059384 -0.41120764722282821 0 0.088692331433278357 -0.42535053834926723 0 0.086447448161059384 -0.41120764722282821 0 0.093827427438274241 -0.41775801958915132 0 0.099702730965631758 -0.41290181884877419 0 0.086447448161059384 -0.41120764722282821 0 0.088692331433278357 -0.42535053834926723 0 0.093827427438274241 -0.41775801958915132 0 0.088692331433278357 -0.42535053834926723 0 0.097645949564215143 -0.42435504664253748 0 0.093827427438274241 -0.41775801958915132 0 0.073982485551444349 -0.42005290588181732 0 0.088692331433278357 -0.42535053834926723 0 0.078149012167117934 -0.43357211405594609 0 0.091812697424993442 -0.4386357446441016 0 0.088692331433278357 -0.42535053834926723 0 0.078149012167117934 -0.43357211405594609 0 0.091812697424993442 -0.4386357446441016 0 0.088692331433278357 -0.42535053834926723 0 0.098414951810672224 -0.43233268446502993 0 0.098414951810672224 -0.43233268446502993 0 0.097645949564215143 -0.42435504664253748 0 0.1061961683754654 -0.43004895598907111 0 0.088692331433278357 -0.42535053834926723 0 0.098414951810672224 -0.43233268446502993 0 0.097645949564215143 -0.42435504664253748 0 0.1061961683754654 -0.43004895598907111 0 0.11152958735588871 -0.42539382439527612 0 0.1045809803654715 -0.42051706085107571 0 0.097645949564215143 -0.42435504664253748 0 0.1061961683754654 -0.43004895598907111 0 0.1045809803654715 -0.42051706085107571 0 0.1069391861142964 -0.44299064961396012 0 0.098414951810672224 -0.43233268446502993 0 0.1061961683754654 -0.43004895598907111 0 0.1061961683754654 -0.43004895598907111 0 0.1159996351348133 -0.43474120747525058 0 0.11152958735588871 -0.42539382439527612 0 0.13212255532719441 -0.42024495614079282 0 0.1159996351348133 -0.43474120747525058 0 0.11851153239627241 -0.42275952171654291 0 0.1069391861142964 -0.44299064961396012 0 0.1061961683754654 -0.43004895598907111 0 0.1159996351348133 -0.43474120747525058 0 0.1159996351348133 -0.43474120747525058 0 0.11152958735588871 -0.42539382439527612 0 0.11851153239627241 -0.42275952171654291 0 0.11152958735588871 -0.42539382439527612 0 0.11851153239627241 -0.42275952171654291 0 0.1123596205074209 -0.41890237594444008 0 0.1250254850364893 -0.40936224001308058 0 0.117866085899093 -0.41583132647739651 0 0.1096180349996463 -0.41151587164058129 0 0.1250254850364893 -0.40936224001308058 0 0.1096180349996463 -0.41151587164058129 0 0.13212255532719441 -0.42024495614079282 0 0.11851153239627241 -0.42275952171654291 0 0.117866085899093 -0.41583132647739651 0 0.117866085899093 -0.41583132647739651 0 0.1123596205074209 -0.41890237594444008 0 0.1096180349996463 -0.41151587164058129 0 0.11851153239627241 -0.42275952171654291 0 0.117866085899093 -0.41583132647739651 0 0.1123596205074209 -0.41890237594444008 0 0.11152958735588871 -0.42539382439527612 0 0.1123596205074209 -0.41890237594444008 0 0.1045809803654715 -0.42051706085107571 0 0.1123596205074209 -0.41890237594444008 0 0.1096180349996463 -0.41151587164058129 0 0.1065506547415149 -0.41613106226330793 0 0.1096180349996463 -0.41151587164058129 0 0.1065506547415149 -0.41613106226330793 0 0.099702730965631758 -0.41290181884877419 0 0.1096180349996463 -0.41151587164058129 0 0.099702730965631758 -0.41290181884877419 0 0.1096180349996463 -0.41151587164058129 0 0.099702730965631758 -0.41290181884877419 0 0.1041447551606165 -0.40305668800175581 0 0.1123596205074209 -0.41890237594444008 0 0.1065506547415149 -0.41613106226330793 0 0.1045809803654715 -0.42051706085107571 0 0.1065506547415149 -0.41613106226330793 0 0.1045809803654715 -0.42051706085107571 0 0.099702730965631758 -0.41290181884877419 0 0.1045809803654715 -0.42051706085107571 0 0.093827427438274241 -0.41775801958915132 0 0.099702730965631758 -0.41290181884877419 0 0.097645949564215143 -0.42435504664253748 0 0.1045809803654715 -0.42051706085107571 0 0.093827427438274241 -0.41775801958915132 0 0.086447448161059384 -0.41120764722282821 0 0.099702730965631758 -0.41290181884877419 0 0.095691580682652475 -0.39908469234235189 0 0.095691580682652475 -0.39908469234235189 0 0.1041447551606165 -0.40305668800175581 0 0.1115666739945345 -0.38872436917531578 0 0.099702730965631758 -0.41290181884877419 0 0.095691580682652475 -0.39908469234235189 0 0.1041447551606165 -0.40305668800175581 0 0.1096180349996463 -0.41151587164058129 0 0.1041447551606165 -0.40305668800175581 0 0.1115666739945345 -0.38872436917531578 0 0.1250254850364893 -0.40936224001308058 0 0.1115666739945345 -0.38872436917531578 0 0.1096180349996463 -0.41151587164058129 0 0.1115666739945345 -0.38872436917531578 0 0.1250254850364893 -0.40936224001308058 0 0.1096180349996463 -0.41151587164058129 0 0.1115666739945345 -0.38872436917531578 0 0.12645644117523869 -0.39722706905544619 0 0.1250254850364893 -0.40936224001308058 0 0.1115666739945345 -0.38872436917531578 0 0.12609635470998201 -0.38402791619100712 0 0.1115666739945345 -0.38872436917531578 0 0.113745377556003 -0.36324200547299851 0 0.1115666739945345 -0.38872436917531578 0 0.113745377556003 -0.36324200547299851 0 0.12609635470998201 -0.38402791619100712 0 0.12645644117523869 -0.39722706905544619 0 0.1115666739945345 -0.38872436917531578 0 0.1115666739945345 -0.38872436917531578 0 0.096372132326470572 -0.36542491223168638 0 0.1115666739945345 -0.38872436917531578 0 0.089853218628298884 -0.38394717958202601 0 0.096372132326470572 -0.36542491223168638 0 0.095691580682652475 -0.39908469234235189 0 0.1115666739945345 -0.38872436917531578 0 0.089853218628298884 -0.38394717958202601 0 0.089853218628298884 -0.38394717958202601 0 0.082924844884061683 -0.39714926844771359 0 0.072939106935086151 -0.38728773006234168 0 0.089853218628298884 -0.38394717958202601 0 0.072939106935086151 -0.38728773006234168 0 0.07582030708563034 -0.37256671738353597 0 0.095691580682652475 -0.39908469234235189 0 0.089853218628298884 -0.38394717958202601 0 0.082924844884061683 -0.39714926844771359 0 0.086447448161059384 -0.41120764722282821 0 0.082924844884061683 -0.39714926844771359 0 0.069775570718114244 -0.40426700169235308 0 0.086447448161059384 -0.41120764722282821 0 0.095691580682652475 -0.39908469234235189 0 0.082924844884061683 -0.39714926844771359 0 0.069775570718114244 -0.40426700169235308 0 0.072939106935086151 -0.38728773006234168 0 0.058313699768321348 -0.39007371912844929 0 0.082924844884061683 -0.39714926844771359 0 0.069775570718114244 -0.40426700169235308 0 0.072939106935086151 -0.38728773006234168 0 0.072939106935086151 -0.38728773006234168 0 0.05933500968155693 -0.37671477575793533 0 0.058313699768321348 -0.39007371912844929 0 0.072939106935086151 -0.38728773006234168 0 0.05933500968155693 -0.37671477575793533 0 0.07582030708563034 -0.37256671738353597 0 0.05933500968155693 -0.37671477575793533 0 0.043300396670470892 -0.38581293046691678 0 0.039079294002052851 -0.37065651216905859 0 0.05933500968155693 -0.37671477575793533 0 0.058313699768321348 -0.39007371912844929 0 0.043300396670470892 -0.38581293046691678 0 0.058313699768321348 -0.39007371912844929 0 0.0466875803122518 -0.39705513158652528 0 0.054373060569327003 -0.40663711634463268 0 0.069775570718114244 -0.40426700169235308 0 0.058313699768321348 -0.39007371912844929 0 0.054373060569327003 -0.40663711634463268 0 0.058313699768321348 -0.39007371912844929 0 0.054373060569327003 -0.40663711634463268 0 0.0466875803122518 -0.39705513158652528 0 0.042121557959679479 -0.40689397827368962 0 0.054373060569327003 -0.40663711634463268 0 0.058313699768321348 -0.39007371912844929 0 0.0466875803122518 -0.39705513158652528 0 0.043300396670470892 -0.38581293046691678 0 0.0466875803122518 -0.39705513158652528 0 0.032645317368698572 -0.39721328630736241 0 0.043300396670470892 -0.38581293046691678 0 0.0466875803122518 -0.39705513158652528 0 0.032645317368698572 -0.39721328630736241 0 0.042121557959679479 -0.40689397827368962 0 0.032645317368698572 -0.39721328630736241 0 0.043300396670470892 -0.38581293046691678 0 0.025542853711361019 -0.38384675294920401 0 0.043300396670470892 -0.38581293046691678 0 0.025542853711361019 -0.38384675294920401 0 0.039079294002052851 -0.37065651216905859 0 0.025542853711361019 -0.38384675294920401 0 0.009690974369139977 -0.39295199195252922 0 0.016784443680880379 -0.36713146693108112 0 -0.0064694903547723136 -0.38059021958606692 0 0.009690974369139977 -0.39295199195252922 0 0.016784443680880379 -0.36713146693108112 0 0.032645317368698572 -0.39721328630736241 0 0.009690974369139977 -0.39295199195252922 0 0.030062121183744069 -0.41560348860952728 0 0.032645317368698572 -0.39721328630736241 0 0.025542853711361019 -0.38384675294920401 0 0.009690974369139977 -0.39295199195252922 0 0.009690974369139977 -0.39295199195252922 0 0.030062121183744069 -0.41560348860952728 0 0.01224976062295041 -0.42183763890738629 0 -0.0080625817845775948 -0.40608726553411861 0 0.009690974369139977 -0.39295199195252922 0 0.01224976062295041 -0.42183763890738629 0 0.009690974369139977 -0.39295199195252922 0 0.01224976062295041 -0.42183763890738629 0 0.01224976062295041 -0.42183763890738629 0 0.01480854687676085 -0.45072328586224342 0 0.030062121183744069 -0.41560348860952728 0 0.01224976062295041 -0.42183763890738629 0 0.028535899264767479 -0.43733174884408438 0 0.01224976062295041 -0.42183763890738629 0 0.028535899264767479 -0.43733174884408438 0 0.01480854687676085 -0.45072328586224342 0 0.030062121183744069 -0.41560348860952728 0 0.028535899264767479 -0.43733174884408438 0 0.039909128579099777 -0.42893709763038412 0 0.039909128579099777 -0.42893709763038412 0 0.050432421370333713 -0.42320051356081623 0 0.04400553312424714 -0.45021417746364167 0 0.039909128579099777 -0.42893709763038412 0 0.046509667952406512 -0.41833555967385072 0 0.050432421370333713 -0.42320051356081623 0 0.032645317368698572 -0.39721328630736241 0 0.030062121183744069 -0.41560348860952728 0 0.042121557959679479 -0.40689397827368962 0 0.030062121183744069 -0.41560348860952728 0 0.039909128579099777 -0.42893709763038412 0 0.046509667952406512 -0.41833555967385072 0 0.030062121183744069 -0.41560348860952728 0 0.042121557959679479 -0.40689397827368962 0 0.046509667952406512 -0.41833555967385072 0 0.054373060569327003 -0.40663711634463268 0 0.050432421370333713 -0.42320051356081623 0 0.046509667952406512 -0.41833555967385072 0 0.054373060569327003 -0.40663711634463268 0 0.050432421370333713 -0.42320051356081623 0 0.054373060569327003 -0.40663711634463268 0 0.060774245729122177 -0.41691050055794487 0 0.050432421370333713 -0.42320051356081623 0 0.046509667952406512 -0.41833555967385072 0 0.050432421370333713 -0.42320051356081623 0 0.042121557959679479 -0.40689397827368962 0 0.046509667952406512 -0.41833555967385072 0 0.054373060569327003 -0.40663711634463268 0 0.069775570718114244 -0.40426700169235308 0 0.054373060569327003 -0.40663711634463268 0 0.060774245729122177 -0.41691050055794487 0 0.050432421370333713 -0.42320051356081623 0 0.04400553312424714 -0.45021417746364167 0 0.065913834705597293 -0.44240038517061198 0 0.050432421370333713 -0.42320051356081623 0 0.065913834705597293 -0.44240038517061198 0 0.065921365320016911 -0.4273577277455588 0 0.050432421370333713 -0.42320051356081623 0 0.065921365320016911 -0.4273577277455588 0 0.060774245729122177 -0.41691050055794487 0 0.050432421370333713 -0.42320051356081623 0 0.065913834705597293 -0.44240038517061198 0 0.050432421370333713 -0.42320051356081623 0 0.04400553312424714 -0.45021417746364167 0 0.065913834705597293 -0.44240038517061198 0 0.057068655694905858 -0.46015288389510001 0 0.04400553312424714 -0.45021417746364167 0 0.057068655694905858 -0.46015288389510001 0 0.048043393468649283 -0.46676160836513853 0 0.04400553312424714 -0.45021417746364167 0 0.067447632246636219 -0.45716428258124142 0 0.057068655694905858 -0.46015288389510001 0 0.05849497948899289 -0.47642287528831911 0 0.057068655694905858 -0.46015288389510001 0 0.048043393468649283 -0.46676160836513853 0 0.052635520687858477 -0.47072247146996382 0 0.04400553312424714 -0.45021417746364167 0 0.037578644878161642 -0.47722784136646751 0 0.048043393468649283 -0.46676160836513853 0 0.04400553312424714 -0.45021417746364167 0 0.037578644878161642 -0.47722784136646751 0 0.04400553312424714 -0.45021417746364167 0 0.030366658319331299 -0.45781827645911538 0 0.037578644878161642 -0.47722784136646751 0 0.028535899264767479 -0.43733174884408438 0 0.039909128579099777 -0.42893709763038412 0 0.04400553312424714 -0.45021417746364167 0 0.028535899264767479 -0.43733174884408438 0 0.04400553312424714 -0.45021417746364167 0 0.030366658319331299 -0.45781827645911538 0 0.028535899264767479 -0.43733174884408438 0 0.01480854687676085 -0.45072328586224342 0 0.030366658319331299 -0.45781827645911538 0 -0.008216644178786571 -0.4466179140804285 0 0.01224976062295041 -0.42183763890738629 0 0.01480854687676085 -0.45072328586224342 0 0.01480854687676085 -0.45072328586224342 0 0.017367333130571299 -0.47960893281710049 0 0.0084119176919832291 -0.471974008478943 0 -0.0021957942935651631 -0.46571035637089769 0 0.01480854687676085 -0.45072328586224342 0 0.0084119176919832291 -0.471974008478943 0 -0.008216644178786571 -0.4466179140804285 0 -0.0021957942935651631 -0.46571035637089769 0 0.01480854687676085 -0.45072328586224342 0 0.01480854687676085 -0.45072328586224342 0 0.017367333130571299 -0.47960893281710049 0 0.01480854687676085 -0.45072328586224342 0 0.030366658319331299 -0.45781827645911538 0 0.0269046674527194 -0.47359432875914009 0 0.01480854687676085 -0.45072328586224342 0 0.0269046674527194 -0.47359432875914009 0 0.017367333130571299 -0.47960893281710049 0 0.017367333130571299 -0.47960893281710049 0 0.012735562036971701 -0.48508522326900949 0 0.035615270762982369 -0.48075404927866472 0 0.012735562036971701 -0.48508522326900949 0 0.035615270762982369 -0.48075404927866472 0 0.0269046674527194 -0.47359432875914009 0 0.017367333130571299 -0.47960893281710049 0 0.035615270762982369 -0.48075404927866472 0 0.017367333130571299 -0.47960893281710049 0 0.0084119176919832291 -0.471974008478943 0 0.012735562036971701 -0.48508522326900949 0 -0.00065605929082254884 -0.47874224407546379 0 0.0084119176919832291 -0.471974008478943 0 0.012735562036971701 -0.48508522326900949 0 -0.0021957942935651631 -0.46571035637089769 0 -0.00065605929082254884 -0.47874224407546379 0 0.0084119176919832291 -0.471974008478943 0 -0.010144146689038991 -0.48941639725935437 0 -0.00065605929082254884 -0.47874224407546379 0 0.012735562036971701 -0.48508522326900949 0 -0.010144146689038991 -0.48941639725935437 0 0.012735562036971701 -0.48508522326900949 0 -0.011489863113854141 -0.5 0 0.012735562036971701 -0.48508522326900949 0 0.01802246382714956 -0.5 0 0.01802246382714956 -0.5 0 0.025329369399590369 -0.48901546815995378 0 0.047534790768153173 -0.50000000000000044 0 0.012735562036971701 -0.48508522326900949 0 0.025329369399590369 -0.48901546815995378 0 0.035615270762982369 -0.48075404927866472 0 0.012735562036971701 -0.48508522326900949 0 0.01802246382714956 -0.5 0 0.025329369399590369 -0.48901546815995378 0 0.025329369399590369 -0.48901546815995378 0 0.035615270762982369 -0.48075404927866472 0 0.047534790768153173 -0.50000000000000044 0 0.030366658319331299 -0.45781827645911538 0 0.0269046674527194 -0.47359432875914009 0 0.037578644878161642 -0.47722784136646751 0 0.0269046674527194 -0.47359432875914009 0 0.037578644878161642 -0.47722784136646751 0 0.035615270762982369 -0.48075404927866472 0 0.048043393468649283 -0.46676160836513853 0 0.037578644878161642 -0.47722784136646751 0 0.046296380844488463 -0.47463440362945558 0 0.035615270762982369 -0.48075404927866472 0 0.046296380844488463 -0.47463440362945558 0 0.049693011087844949 -0.4756354888466594 0 0.037578644878161642 -0.47722784136646751 0 0.035615270762982369 -0.48075404927866472 0 0.046296380844488463 -0.47463440362945558 0 0.057068655694905858 -0.46015288389510001 0 0.052635520687858477 -0.47072247146996382 0 0.05849497948899289 -0.47642287528831911 0 0.035615270762982369 -0.48075404927866472 0 0.049693011087844949 -0.4756354888466594 0 0.05849497948899289 -0.47642287528831911 0 0.035615270762982369 -0.48075404927866472 0 0.05849497948899289 -0.47642287528831911 0 0.048043393468649283 -0.46676160836513853 0 0.046296380844488463 -0.47463440362945558 0 0.052635520687858477 -0.47072247146996382 0 0.049693011087844949 -0.4756354888466594 0 0.052635520687858477 -0.47072247146996382 0 0.05849497948899289 -0.47642287528831911 0 0.046296380844488463 -0.47463440362945558 0 0.049693011087844949 -0.4756354888466594 0 0.052635520687858477 -0.47072247146996382 0 0.05849497948899289 -0.47642287528831911 0 0.061758178687080389 -0.47580514524370598 0 0.062670741706174135 -0.48944359682069549 0 0.064881374578912687 -0.4815757870058418 0 0.05849497948899289 -0.47642287528831911 0 0.064881374578912687 -0.4815757870058418 0 0.05849497948899289 -0.47642287528831911 0 0.061758178687080389 -0.47580514524370598 0 0.069142552082564368 -0.5 0 0.062670741706174135 -0.48944359682069549 0 0.047534790768153173 -0.50000000000000044 0 0.05849497948899289 -0.47642287528831911 0 0.047534790768153173 -0.50000000000000044 0 0.035615270762982369 -0.48075404927866472 0 0.05849497948899289 -0.47642287528831911 0 0.047534790768153173 -0.50000000000000044 0 0.062670741706174135 -0.48944359682069549 0 0.05849497948899289 -0.47642287528831911 0 0.047534790768153173 -0.50000000000000044 0 0.089727975817252392 -0.29646224842349211 0 0.069967983226982527 -0.30495776272600778 0 0.075483032258224086 -0.28815868119130272 0 0.089727975817252392 -0.29646224842349211 0 0.088503230311337153 -0.27716835087377989 0 0.101883582619993 -0.28460947857741209 0 0.089727975817252392 -0.29646224842349211 0 0.075483032258224086 -0.28815868119130272 0 0.088503230311337153 -0.27716835087377989 0 0.089727975817252392 -0.29646224842349211 0 0.086214248119208581 -0.31193359067875348 0 0.069967983226982527 -0.30495776272600778 0 0.089727975817252392 -0.29646224842349211 0 0.086214248119208581 -0.31193359067875348 0 0.10049372866807189 -0.31082656242210721 0 0.069967983226982527 -0.30495776272600778 0 0.075483032258224086 -0.28815868119130272 0 0.059449054433483903 -0.28956707473318272 0 0.075483032258224086 -0.28815868119130272 0 0.0646939085167762 -0.2722383315448984 0 0.059449054433483903 -0.28956707473318272 0 0.0646939085167762 -0.2722383315448984 0 0.077350866508299074 -0.27549126298099152 0 0.080723294946858856 -0.26439968831398508 0 0.075483032258224086 -0.28815868119130272 0 0.0646939085167762 -0.2722383315448984 0 0.077350866508299074 -0.27549126298099152 0 0.0646939085167762 -0.2722383315448984 0 0.070005134957367529 -0.25889031236374099 0 0.080723294946858856 -0.26439968831398508 0 0.070005134957367529 -0.25889031236374099 0 0.061490933840310687 -0.25382890142296882 0 0.070069103552599196 -0.24823964670048029 0 0.0646939085167762 -0.2722383315448984 0 0.070005134957367529 -0.25889031236374099 0 0.060614126731859473 -0.2624009925450973 0 0.070005134957367529 -0.25889031236374099 0 0.061490933840310687 -0.25382890142296882 0 0.060614126731859473 -0.2624009925450973 0 0.070005134957367529 -0.25889031236374099 0 0.080071368274292315 -0.25145738896057979 0 0.080723294946858856 -0.26439968831398508 0 0.070005134957367529 -0.25889031236374099 0 0.080071368274292315 -0.25145738896057979 0 0.070069103552599196 -0.24823964670048029 0 0.080071368274292315 -0.25145738896057979 0 0.080723294946858856 -0.26439968831398508 0 0.090706365013478091 -0.25245448435890872 0 0.080723294946858856 -0.26439968831398508 0 0.090706365013478091 -0.25245448435890872 0 0.095060577752172304 -0.26241188567384149 0 0.075483032258224086 -0.28815868119130272 0 0.077350866508299074 -0.27549126298099152 0 0.088503230311337153 -0.27716835087377989 0 0.077350866508299074 -0.27549126298099152 0 0.080723294946858856 -0.26439968831398508 0 0.088503230311337153 -0.27716835087377989 0 0.080723294946858856 -0.26439968831398508 0 0.088503230311337153 -0.27716835087377989 0 0.095060577752172304 -0.26241188567384149 0 0.088503230311337153 -0.27716835087377989 0 0.1016952336099234 -0.27235330725820578 0 0.101883582619993 -0.28460947857741209 0 0.088503230311337153 -0.27716835087377989 0 0.1016952336099234 -0.27235330725820578 0 0.095060577752172304 -0.26241188567384149 0 0.1016952336099234 -0.27235330725820578 0 0.1104739380917857 -0.2612093749811526 0 0.1125548392743288 -0.27636744618484282 0 0.1016952336099234 -0.27235330725820578 0 0.1125548392743288 -0.27636744618484282 0 0.101883582619993 -0.28460947857741209 0 0.090706365013478091 -0.25245448435890872 0 0.099550463170151926 -0.25262580003909579 0 0.095060577752172304 -0.26241188567384149 0 0.1016952336099234 -0.27235330725820578 0 0.095060577752172304 -0.26241188567384149 0 0.1104739380917857 -0.2612093749811526 0 0.099550463170151926 -0.25262580003909579 0 0.095060577752172304 -0.26241188567384149 0 0.1104739380917857 -0.2612093749811526 0 0.099550463170151926 -0.25262580003909579 0 0.1104739380917857 -0.2612093749811526 0 0.1078238037173969 -0.24832262031645649 0 0.1311170075682456 -0.27142576198599933 0 0.1104739380917857 -0.2612093749811526 0 0.1212054647883809 -0.25073068226796852 0 0.1104739380917857 -0.2612093749811526 0 0.1212054647883809 -0.25073068226796852 0 0.1078238037173969 -0.24832262031645649 0 0.1311170075682456 -0.27142576198599933 0 0.1104739380917857 -0.2612093749811526 0 0.1311170075682456 -0.27142576198599933 0 0.1104739380917857 -0.2612093749811526 0 0.1193620271946058 -0.27249351692823448 0 0.1104739380917857 -0.2612093749811526 0 0.1125548392743288 -0.27636744618484282 0 0.1193620271946058 -0.27249351692823448 0 0.1125548392743288 -0.27636744618484282 0 0.1193620271946058 -0.27249351692823448 0 0.1233023238440631 -0.28097148456094378 0 0.1311170075682456 -0.27142576198599933 0 0.1193620271946058 -0.27249351692823448 0 0.1233023238440631 -0.28097148456094378 0 0.1233023238440631 -0.28097148456094378 0 0.1242383748246253 -0.29131174999725179 0 0.1141297936923768 -0.28878453930630188 0 0.1242383748246253 -0.29131174999725179 0 0.1141297936923768 -0.28878453930630188 0 0.1198701537204314 -0.30089140532399938 0 0.1141297936923768 -0.28878453930630188 0 0.10622170970645189 -0.29895353846799488 0 0.1198701537204314 -0.30089140532399938 0 0.1125548392743288 -0.27636744618484282 0 0.1233023238440631 -0.28097148456094378 0 0.1141297936923768 -0.28878453930630188 0 0.1125548392743288 -0.27636744618484282 0 0.1141297936923768 -0.28878453930630188 0 0.101883582619993 -0.28460947857741209 0 0.089727975817252392 -0.29646224842349211 0 0.101883582619993 -0.28460947857741209 0 0.10622170970645189 -0.29895353846799488 0 0.1141297936923768 -0.28878453930630188 0 0.101883582619993 -0.28460947857741209 0 0.10622170970645189 -0.29895353846799488 0 0.089727975817252392 -0.29646224842349211 0 0.10049372866807189 -0.31082656242210721 0 0.10622170970645189 -0.29895353846799488 0 0.10049372866807189 -0.31082656242210721 0 0.10622170970645189 -0.29895353846799488 0 0.1134387524627216 -0.31086840579325631 0 0.10622170970645189 -0.29895353846799488 0 0.1134387524627216 -0.31086840579325631 0 0.1198701537204314 -0.30089140532399938 0 0.1265219532001009 -0.3124330460259736 0 0.1134387524627216 -0.31086840579325631 0 0.1198701537204314 -0.30089140532399938 0 0.1265219532001009 -0.3124330460259736 0 0.1134387524627216 -0.31086840579325631 0 0.1192961391526948 -0.32261879728377291 0 0.1134387524627216 -0.31086840579325631 0 0.1192961391526948 -0.32261879728377291 0 0.1082288303285789 -0.31948708523568958 0 0.1192961391526948 -0.32261879728377291 0 0.1093748658769356 -0.32997486192450581 0 0.1082288303285789 -0.31948708523568958 0 0.1192961391526948 -0.32261879728377291 0 0.1168506625355451 -0.3296807312869221 0 0.1093748658769356 -0.32997486192450581 0 0.1192961391526948 -0.32261879728377291 0 0.12260601330919629 -0.33072698382653798 0 0.1168506625355451 -0.3296807312869221 0 0.13219802669416811 -0.32498852212276208 0 0.1192961391526948 -0.32261879728377291 0 0.12260601330919629 -0.33072698382653798 0 0.13051916655351839 -0.33696304048325831 0 0.12260601330919629 -0.33072698382653798 0 0.1159240811174677 -0.33775964177068091 0 0.12260601330919629 -0.33072698382653798 0 0.1159240811174677 -0.33775964177068091 0 0.1161256318033537 -0.33540228211287182 0 0.12260601330919629 -0.33072698382653798 0 0.1168506625355451 -0.3296807312869221 0 0.1161256318033537 -0.33540228211287182 0 0.13051916655351839 -0.33696304048325831 0 0.1159240811174677 -0.33775964177068091 0 0.13051916655351839 -0.33696304048325831 0 0.1159240811174677 -0.33775964177068091 0 0.123981461538115 -0.35128285539313481 0 0.1159240811174677 -0.33775964177068091 0 0.1161256318033537 -0.33540228211287182 0 0.1168506625355451 -0.3296807312869221 0 0.1161256318033537 -0.33540228211287182 0 0.1093748658769356 -0.32997486192450581 0 0.1159240811174677 -0.33775964177068091 0 0.1161256318033537 -0.33540228211287182 0 0.1093748658769356 -0.32997486192450581 0 0.1159240811174677 -0.33775964177068091 0 0.092335912071574502 -0.33904708650077298 0 0.1159240811174677 -0.33775964177068091 0 0.1093748658769356 -0.32997486192450581 0 0.092335912071574502 -0.33904708650077298 0 0.1093748658769356 -0.32997486192450581 0 0.096347407600029022 -0.32440529872184809 0 0.092335912071574502 -0.33904708650077298 0 0.1159240811174677 -0.33775964177068091 0 0.10211321446004019 -0.35101158716873732 0 0.092335912071574502 -0.33904708650077298 0 0.086214248119208581 -0.31193359067875348 0 0.10049372866807189 -0.31082656242210721 0 0.096347407600029022 -0.32440529872184809 0 0.10049372866807189 -0.31082656242210721 0 0.1134387524627216 -0.31086840579325631 0 0.1082288303285789 -0.31948708523568958 0 0.10049372866807189 -0.31082656242210721 0 0.096347407600029022 -0.32440529872184809 0 0.1082288303285789 -0.31948708523568958 0 0.1093748658769356 -0.32997486192450581 0 0.096347407600029022 -0.32440529872184809 0 0.1082288303285789 -0.31948708523568958 0 0.12784456261830821 -0.36308533366748658 0 0.12609635470998201 -0.38402791619100712 0 0.113745377556003 -0.36324200547299851 0 0.1159240811174677 -0.33775964177068091 0 0.113745377556003 -0.36324200547299851 0 0.123981461538115 -0.35128285539313481 0 0.1159240811174677 -0.33775964177068091 0 0.113745377556003 -0.36324200547299851 0 0.1159240811174677 -0.33775964177068091 0 0.113745377556003 -0.36324200547299851 0 0.10211321446004019 -0.35101158716873732 0 0.12784456261830821 -0.36308533366748658 0 0.113745377556003 -0.36324200547299851 0 0.123981461538115 -0.35128285539313481 0 0.1115666739945345 -0.38872436917531578 0 0.113745377556003 -0.36324200547299851 0 0.096372132326470572 -0.36542491223168638 0 0.113745377556003 -0.36324200547299851 0 0.10211321446004019 -0.35101158716873732 0 0.096372132326470572 -0.36542491223168638 0 0.089853218628298884 -0.38394717958202601 0 0.096372132326470572 -0.36542491223168638 0 0.07582030708563034 -0.37256671738353597 0 0.096372132326470572 -0.36542491223168638 0 0.082110249222110576 -0.35466523699539548 0 0.07582030708563034 -0.37256671738353597 0 0.10211321446004019 -0.35101158716873732 0 0.096372132326470572 -0.36542491223168638 0 0.082110249222110576 -0.35466523699539548 0 0.082110249222110576 -0.35466523699539548 0 0.092335912071574502 -0.33904708650077298 0 0.068747743025681235 -0.34033453123086538 0 0.10211321446004019 -0.35101158716873732 0 0.082110249222110576 -0.35466523699539548 0 0.092335912071574502 -0.33904708650077298 0 0.082110249222110576 -0.35466523699539548 0 0.068747743025681235 -0.34033453123086538 0 0.057272186363266697 -0.35960658745677498 0 0.082110249222110576 -0.35466523699539548 0 0.07582030708563034 -0.37256671738353597 0 0.057272186363266697 -0.35960658745677498 0 0.05933500968155693 -0.37671477575793533 0 0.07582030708563034 -0.37256671738353597 0 0.057272186363266697 -0.35960658745677498 0 0.086214248119208581 -0.31193359067875348 0 0.096347407600029022 -0.32440529872184809 0 0.078030795921920637 -0.32434601069550512 0 0.092335912071574502 -0.33904708650077298 0 0.068747743025681235 -0.34033453123086538 0 0.078030795921920637 -0.32434601069550512 0 0.092335912071574502 -0.33904708650077298 0 0.068747743025681235 -0.34033453123086538 0 0.096347407600029022 -0.32440529872184809 0 0.092335912071574502 -0.33904708650077298 0 0.078030795921920637 -0.32434601069550512 0 0.068747743025681235 -0.34033453123086538 0 0.078030795921920637 -0.32434601069550512 0 0.053863538987460123 -0.3232816795844588 0 0.069967983226982527 -0.30495776272600778 0 0.078030795921920637 -0.32434601069550512 0 0.053863538987460123 -0.3232816795844588 0 0.086214248119208581 -0.31193359067875348 0 0.069967983226982527 -0.30495776272600778 0 0.078030795921920637 -0.32434601069550512 0 0.068747743025681235 -0.34033453123086538 0 0.045159573979787898 -0.34162197596095778 0 0.068747743025681235 -0.34033453123086538 0 0.053863538987460123 -0.3232816795844588 0 0.045159573979787898 -0.34162197596095778 0 0.053863538987460123 -0.3232816795844588 0 0.034832013842728909 -0.33032259781876938 0 0.045159573979787898 -0.34162197596095778 0 0.034832013842728909 -0.33032259781876938 0 0.045159573979787898 -0.34162197596095778 0 0.02157140493389462 -0.34290942069105018 0 0.045159573979787898 -0.34162197596095778 0 0.02157140493389462 -0.34290942069105018 0 0.053863538987460123 -0.3232816795844588 0 0.034832013842728909 -0.33032259781876938 0 0.03621734991660093 -0.31670946998547028 0 0.053863538987460123 -0.3232816795844588 0 0.03621734991660093 -0.31670946998547028 0 0.048768037075517537 -0.30442990221103089 0 0.05933500968155693 -0.37671477575793533 0 0.057272186363266697 -0.35960658745677498 0 0.039079294002052851 -0.37065651216905859 0 0.068747743025681235 -0.34033453123086538 0 0.045159573979787898 -0.34162197596095778 0 0.057272186363266697 -0.35960658745677498 0 0.045159573979787898 -0.34162197596095778 0 0.034512899630155462 -0.3545258348651717 0 0.02157140493389462 -0.34290942069105018 0 0.045159573979787898 -0.34162197596095778 0 0.057272186363266697 -0.35960658745677498 0 0.034512899630155462 -0.3545258348651717 0 0.057272186363266697 -0.35960658745677498 0 0.034512899630155462 -0.3545258348651717 0 0.039079294002052851 -0.37065651216905859 0 0.025542853711361019 -0.38384675294920401 0 0.039079294002052851 -0.37065651216905859 0 0.016784443680880379 -0.36713146693108112 0 0.034512899630155462 -0.3545258348651717 0 0.039079294002052851 -0.37065651216905859 0 0.016784443680880379 -0.36713146693108112 0 0.034512899630155462 -0.3545258348651717 0 0.016784443680880379 -0.36713146693108112 0 0.02157140493389462 -0.34290942069105018 0 -0.0043130761299947744 -0.35643483176966217 0 0.016784443680880379 -0.36713146693108112 0 0.02157140493389462 -0.34290942069105018 0 -0.0038616663111063101 -0.33241552487502413 0 -0.0043130761299947744 -0.35643483176966217 0 0.02157140493389462 -0.34290942069105018 0 -0.0043130761299947744 -0.35643483176966217 0 -0.0064694903547723136 -0.38059021958606692 0 0.016784443680880379 -0.36713146693108112 0 0.03621734991660093 -0.31670946998547028 0 0.020048637459846991 -0.32439583124448262 0 0.029165048793799431 -0.30349547286963757 0 0.034832013842728909 -0.33032259781876938 0 0.03621734991660093 -0.31670946998547028 0 0.020048637459846991 -0.32439583124448262 0 0.020048637459846991 -0.32439583124448262 0 0.0094652366165251054 -0.31053241408104548 0 0.029165048793799431 -0.30349547286963757 0 0.034832013842728909 -0.33032259781876938 0 0.020048637459846991 -0.32439583124448262 0 0.02157140493389462 -0.34290942069105018 0 -0.0038616663111063101 -0.33241552487502413 0 0.020048637459846991 -0.32439583124448262 0 0.02157140493389462 -0.34290942069105018 0 -0.0038616663111063101 -0.33241552487502413 0 0.020048637459846991 -0.32439583124448262 0 0.0094652366165251054 -0.31053241408104548 0 -0.01007927323019326 -0.3103345258507364 0 0.0094652366165251054 -0.31053241408104548 0 0.0017563221397047381 -0.2997067901486577 0 0.0094652366165251054 -0.31053241408104548 0 0.0017563221397047381 -0.2997067901486577 0 0.017453688627786131 -0.29322190620108468 0 0.0017563221397047381 -0.2997067901486577 0 0.0066437179820165657 -0.2861171845936395 0 0.017453688627786131 -0.29322190620108468 0 -0.0080748459131490501 -0.2914060437848453 0 0.0017563221397047381 -0.2997067901486577 0 0.0066437179820165657 -0.2861171845936395 0 0.0066437179820165657 -0.2861171845936395 0 0.017453688627786131 -0.29322190620108468 0 0.01908241754038794 -0.28073467218482329 0 0.017453688627786131 -0.29322190620108468 0 0.029398966714908509 -0.28692964748338379 0 0.029165048793799431 -0.30349547286963757 0 0.017453688627786131 -0.29322190620108468 0 0.029398966714908509 -0.28692964748338379 0 0.01908241754038794 -0.28073467218482329 0 0.0094652366165251054 -0.31053241408104548 0 0.017453688627786131 -0.29322190620108468 0 0.029165048793799431 -0.30349547286963757 0 0.03621734991660093 -0.31670946998547028 0 0.029165048793799431 -0.30349547286963757 0 0.048768037075517537 -0.30442990221103089 0 0.029165048793799431 -0.30349547286963757 0 0.043029943860180789 -0.28970337243015992 0 0.048768037075517537 -0.30442990221103089 0 0.029398966714908509 -0.28692964748338379 0 0.029165048793799431 -0.30349547286963757 0 0.043029943860180789 -0.28970337243015992 0 0.029398966714908509 -0.28692964748338379 0 0.043029943860180789 -0.28970337243015992 0 0.038396769586432553 -0.27977596087564799 0 0.043029943860180789 -0.28970337243015992 0 0.051749435803858171 -0.27840569125857739 0 0.038396769586432553 -0.27977596087564799 0 0.043029943860180789 -0.28970337243015992 0 0.059449054433483903 -0.28956707473318272 0 0.051749435803858171 -0.27840569125857739 0 0.043029943860180789 -0.28970337243015992 0 0.059449054433483903 -0.28956707473318272 0 0.048768037075517537 -0.30442990221103089 0 0.069967983226982527 -0.30495776272600778 0 0.059449054433483903 -0.28956707473318272 0 0.048768037075517537 -0.30442990221103089 0 0.069967983226982527 -0.30495776272600778 0 0.053863538987460123 -0.3232816795844588 0 0.048768037075517537 -0.30442990221103089 0 0.053380735395516472 -0.25867595766617779 0 0.04428054005230446 -0.26275141268032309 0 0.045372505498807933 -0.25408090721008542 0 0.053380735395516472 -0.25867595766617779 0 0.053158010572478251 -0.26777612517812432 0 0.04428054005230446 -0.26275141268032309 0 0.053380735395516472 -0.25867595766617779 0 0.045372505498807933 -0.25408090721008542 0 0.05268811686830014 -0.24901610311096159 0 0.053380735395516472 -0.25867595766617779 0 0.061490933840310687 -0.25382890142296882 0 0.05268811686830014 -0.24901610311096159 0 0.053380735395516472 -0.25867595766617779 0 0.060614126731859473 -0.2624009925450973 0 0.053158010572478251 -0.26777612517812432 0 0.053380735395516472 -0.25867595766617779 0 0.061490933840310687 -0.25382890142296882 0 0.060614126731859473 -0.2624009925450973 0 0.0646939085167762 -0.2722383315448984 0 0.060614126731859473 -0.2624009925450973 0 0.053158010572478251 -0.26777612517812432 0 0.0646939085167762 -0.2722383315448984 0 0.059449054433483903 -0.28956707473318272 0 0.051749435803858171 -0.27840569125857739 0 0.0646939085167762 -0.2722383315448984 0 0.051749435803858171 -0.27840569125857739 0 0.053158010572478251 -0.26777612517812432 0 0.053158010572478251 -0.26777612517812432 0 0.044229316934554799 -0.27218436537367241 0 0.04428054005230446 -0.26275141268032309 0 0.051749435803858171 -0.27840569125857739 0 0.053158010572478251 -0.26777612517812432 0 0.044229316934554799 -0.27218436537367241 0 0.044229316934554799 -0.27218436537367241 0 0.031885251388666561 -0.26470215361104171 0 0.04428054005230446 -0.26275141268032309 0 0.051749435803858171 -0.27840569125857739 0 0.044229316934554799 -0.27218436537367241 0 0.038396769586432553 -0.27977596087564799 0 0.044229316934554799 -0.27218436537367241 0 0.038396769586432553 -0.27977596087564799 0 0.029696712261103771 -0.27487286106778819 0 0.029398966714908509 -0.28692964748338379 0 0.038396769586432553 -0.27977596087564799 0 0.029696712261103771 -0.27487286106778819 0 0.044229316934554799 -0.27218436537367241 0 0.031885251388666561 -0.26470215361104171 0 0.029696712261103771 -0.27487286106778819 0 0.037315510146954597 -0.25849363249326118 0 0.031885251388666561 -0.26470215361104171 0 0.04428054005230446 -0.26275141268032309 0 0.037315510146954597 -0.25849363249326118 0 0.031885251388666561 -0.26470215361104171 0 0.03069464768829987 -0.25176037071845259 0 0.037315510146954597 -0.25849363249326118 0 0.04428054005230446 -0.26275141268032309 0 0.045372505498807933 -0.25408090721008542 0 0.045372505498807933 -0.25408090721008542 0 0.03069464768829987 -0.25176037071845259 0 0.042588116356466379 -0.2448823624008481 0 0.037315510146954597 -0.25849363249326118 0 0.045372505498807933 -0.25408090721008542 0 0.03069464768829987 -0.25176037071845259 0 0.031885251388666561 -0.26470215361104171 0 0.021199614426200629 -0.26114166245967918 0 0.019908913466960752 -0.27058631964059482 0 0.031885251388666561 -0.26470215361104171 0 0.03069464768829987 -0.25176037071845259 0 0.021199614426200629 -0.26114166245967918 0 0.03069464768829987 -0.25176037071845259 0 0.021199614426200629 -0.26114166245967918 0 0.016145176335298529 -0.25210595968411048 0 0.029398966714908509 -0.28692964748338379 0 0.029696712261103771 -0.27487286106778819 0 0.01908241754038794 -0.28073467218482329 0 0.031885251388666561 -0.26470215361104171 0 0.029696712261103771 -0.27487286106778819 0 0.019908913466960752 -0.27058631964059482 0 0.019908913466960752 -0.27058631964059482 0 0.01908241754038794 -0.28073467218482329 0 0.01128192931255503 -0.27464126756021451 0 0.029696712261103771 -0.27487286106778819 0 0.019908913466960752 -0.27058631964059482 0 0.01908241754038794 -0.28073467218482329 0 -0.01145854626600548 -0.26602311564559261 0 0.01128192931255503 -0.27464126756021451 0 0.0057158633005241696 -0.26337829885565528 0 0.0066437179820165657 -0.2861171845936395 0 0.01908241754038794 -0.28073467218482329 0 0.01128192931255503 -0.27464126756021451 0 0.019908913466960752 -0.27058631964059482 0 0.01128192931255503 -0.27464126756021451 0 0.0057158633005241696 -0.26337829885565528 0 -0.002848760243290064 -0.27761611820401882 0 0.0066437179820165657 -0.2861171845936395 0 0.01128192931255503 -0.27464126756021451 0 0.016145176335298529 -0.25210595968411048 0 0.0057158633005241696 -0.26337829885565528 0 0.0054759062840018038 -0.25064707341720888 0 0.021199614426200629 -0.26114166245967918 0 0.019908913466960752 -0.27058631964059482 0 0.0057158633005241696 -0.26337829885565528 0 0.021199614426200629 -0.26114166245967918 0 0.016145176335298529 -0.25210595968411048 0 0.0057158633005241696 -0.26337829885565528 0 -0.0009620894167222515 -0.25496392916579452 0 0.0057158633005241696 -0.26337829885565528 0 0.0054759062840018038 -0.25064707341720888 0 -0.0009620894167222515 -0.25496392916579452 0 -0.0029313858115674811 -0.24854412401401971 0 0.0054759062840018038 -0.25064707341720888 0 0.0054759062840018038 -0.25064707341720888 0 0.0026199421412959989 -0.2430643023623929 0 0.011589873569895199 -0.24127835128668559 0 -0.0029313858115674811 -0.24854412401401971 0 0.0054759062840018038 -0.25064707341720888 0 0.0026199421412959989 -0.2430643023623929 0 0.016145176335298529 -0.25210595968411048 0 0.0054759062840018038 -0.25064707341720888 0 0.011589873569895199 -0.24127835128668559 0 0.011589873569895199 -0.24127835128668559 0 0.010668172172219499 -0.2272828987723072 0 0.020574075722817331 -0.2351284197632682 0 0.0026199421412959989 -0.2430643023623929 0 0.011589873569895199 -0.24127835128668559 0 0.0017465435191736189 -0.23378549097037141 0 -0.00080535468136348092 -0.21995366459000901 0 0.010668172172219499 -0.2272828987723072 0 0.01016515501406726 -0.20926501301563591 0 -0.00080535468136348092 -0.21995366459000901 0 0.0017465435191736189 -0.23378549097037141 0 0.010668172172219499 -0.2272828987723072 0 0.010668172172219499 -0.2272828987723072 0 0.02170661161633574 -0.22145314359659171 0 0.01016515501406726 -0.20926501301563591 0 0.011589873569895199 -0.24127835128668559 0 0.0017465435191736189 -0.23378549097037141 0 0.010668172172219499 -0.2272828987723072 0 0.010668172172219499 -0.2272828987723072 0 0.02170661161633574 -0.22145314359659171 0 0.020574075722817331 -0.2351284197632682 0 0.02170661161633574 -0.22145314359659171 0 0.02866695829179056 -0.22960637228307629 0 0.036392787169896093 -0.22322562645731159 0 0.02170661161633574 -0.22145314359659171 0 0.02866695829179056 -0.22960637228307629 0 0.020574075722817331 -0.2351284197632682 0 0.02866695829179056 -0.22960637228307629 0 0.020574075722817331 -0.2351284197632682 0 0.032071787069821417 -0.24054619649286721 0 0.022195152742869501 -0.2444300013669817 0 0.020574075722817331 -0.2351284197632682 0 0.032071787069821417 -0.24054619649286721 0 0.03069464768829987 -0.25176037071845259 0 0.022195152742869501 -0.2444300013669817 0 0.032071787069821417 -0.24054619649286721 0 0.03069464768829987 -0.25176037071845259 0 0.016145176335298529 -0.25210595968411048 0 0.022195152742869501 -0.2444300013669817 0 0.016145176335298529 -0.25210595968411048 0 0.011589873569895199 -0.24127835128668559 0 0.022195152742869501 -0.2444300013669817 0 0.011589873569895199 -0.24127835128668559 0 0.022195152742869501 -0.2444300013669817 0 0.020574075722817331 -0.2351284197632682 0 -0.003739977245034012 -0.19168309442994089 0 0.010514116253606281 -0.1925853606064957 0 0.01016515501406726 -0.20926501301563591 0 0.010514116253606281 -0.1925853606064957 0 0.01016515501406726 -0.20926501301563591 0 0.018596641755985681 -0.20049862993462389 0 0.02170661161633574 -0.22145314359659171 0 0.01016515501406726 -0.20926501301563591 0 0.028304225500431591 -0.20785134554231141 0 0.01016515501406726 -0.20926501301563591 0 0.028304225500431591 -0.20785134554231141 0 0.018596641755985681 -0.20049862993462389 0 0.02170661161633574 -0.22145314359659171 0 0.028304225500431591 -0.20785134554231141 0 0.036392787169896093 -0.22322562645731159 0 0.028304225500431591 -0.20785134554231141 0 0.018596641755985681 -0.20049862993462389 0 0.02540307025583758 -0.19229280057405279 0 0.010514116253606281 -0.1925853606064957 0 0.018596641755985681 -0.20049862993462389 0 0.02540307025583758 -0.19229280057405279 0 0.010514116253606281 -0.1925853606064957 0 0.02540307025583758 -0.19229280057405279 0 0.015764016274472759 -0.1812646672695073 0 0.02540307025583758 -0.19229280057405279 0 0.041440672425083092 -0.19607701236864419 0 0.030421272951226121 -0.1778391783376792 0 0.028304225500431591 -0.20785134554231141 0 0.02540307025583758 -0.19229280057405279 0 0.041440672425083092 -0.19607701236864419 0 0.041440672425083092 -0.19607701236864419 0 0.042310424588804782 -0.2140630995529598 0 0.055497750511994078 -0.2086068857692274 0 0.028304225500431591 -0.20785134554231141 0 0.041440672425083092 -0.19607701236864419 0 0.042310424588804782 -0.2140630995529598 0 0.028304225500431591 -0.20785134554231141 0 0.042310424588804782 -0.2140630995529598 0 0.036392787169896093 -0.22322562645731159 0 0.042310424588804782 -0.2140630995529598 0 0.055497750511994078 -0.2086068857692274 0 0.052955454276687589 -0.2198291654371925 0 0.062338921595789062 -0.21792006704763969 0 0.055497750511994078 -0.2086068857692274 0 0.052955454276687589 -0.2198291654371925 0 0.062338921595789062 -0.21792006704763969 0 0.055497750511994078 -0.2086068857692274 0 0.067863046951983474 -0.20503048868511209 0 0.055497750511994078 -0.2086068857692274 0 0.056257937900538298 -0.19577788601322099 0 0.067863046951983474 -0.20503048868511209 0 0.041440672425083092 -0.19607701236864419 0 0.056257937900538298 -0.19577788601322099 0 0.051449240160577621 -0.1762857105508405 0 0.041440672425083092 -0.19607701236864419 0 0.055497750511994078 -0.2086068857692274 0 0.056257937900538298 -0.19577788601322099 0 0.040491861427302538 -0.2355872617630255 0 0.042588116356466379 -0.2448823624008481 0 0.052307832003780613 -0.23884346229351339 0 0.040491861427302538 -0.2355872617630255 0 0.045866106706223042 -0.22907627795895011 0 0.052307832003780613 -0.23884346229351339 0 0.03069464768829987 -0.25176037071845259 0 0.042588116356466379 -0.2448823624008481 0 0.032071787069821417 -0.24054619649286721 0 0.040491861427302538 -0.2355872617630255 0 0.042588116356466379 -0.2448823624008481 0 0.032071787069821417 -0.24054619649286721 0 0.02866695829179056 -0.22960637228307629 0 0.040491861427302538 -0.2355872617630255 0 0.032071787069821417 -0.24054619649286721 0 0.02866695829179056 -0.22960637228307629 0 0.040491861427302538 -0.2355872617630255 0 0.036392787169896093 -0.22322562645731159 0 0.042310424588804782 -0.2140630995529598 0 0.036392787169896093 -0.22322562645731159 0 0.045866106706223042 -0.22907627795895011 0 0.040491861427302538 -0.2355872617630255 0 0.036392787169896093 -0.22322562645731159 0 0.045866106706223042 -0.22907627795895011 0 0.045866106706223042 -0.22907627795895011 0 0.058764067980626958 -0.22947949685718549 0 0.052307832003780613 -0.23884346229351339 0 0.045866106706223042 -0.22907627795895011 0 0.052955454276687589 -0.2198291654371925 0 0.058764067980626958 -0.22947949685718549 0 0.042310424588804782 -0.2140630995529598 0 0.045866106706223042 -0.22907627795895011 0 0.052955454276687589 -0.2198291654371925 0 0.062338921595789062 -0.21792006704763969 0 0.058764067980626958 -0.22947949685718549 0 0.065719467571416057 -0.22489822263154319 0 0.062338921595789062 -0.21792006704763969 0 0.052955454276687589 -0.2198291654371925 0 0.058764067980626958 -0.22947949685718549 0 0.058764067980626958 -0.22947949685718549 0 0.062159259289524899 -0.2368834247622158 0 0.052307832003780613 -0.23884346229351339 0 0.062159259289524899 -0.2368834247622158 0 0.052307832003780613 -0.23884346229351339 0 0.061229972926465738 -0.2445427902389527 0 0.045372505498807933 -0.25408090721008542 0 0.042588116356466379 -0.2448823624008481 0 0.05268811686830014 -0.24901610311096159 0 0.042588116356466379 -0.2448823624008481 0 0.052307832003780613 -0.23884346229351339 0 0.05268811686830014 -0.24901610311096159 0 0.061490933840310687 -0.25382890142296882 0 0.05268811686830014 -0.24901610311096159 0 0.061229972926465738 -0.2445427902389527 0 0.052307832003780613 -0.23884346229351339 0 0.05268811686830014 -0.24901610311096159 0 0.061229972926465738 -0.2445427902389527 0 0.061490933840310687 -0.25382890142296882 0 0.061229972926465738 -0.2445427902389527 0 0.070069103552599196 -0.24823964670048029 0 0.061229972926465738 -0.2445427902389527 0 0.070069103552599196 -0.24823964670048029 0 0.069856411684105391 -0.23913895996007839 0 0.062159259289524899 -0.2368834247622158 0 0.061229972926465738 -0.2445427902389527 0 0.069856411684105391 -0.23913895996007839 0 0.062159259289524899 -0.2368834247622158 0 0.069856411684105391 -0.23913895996007839 0 0.067142239376285745 -0.23139328163069281 0 0.069856411684105391 -0.23913895996007839 0 0.077788170153509889 -0.24196191377257101 0 0.076767606518392539 -0.23187249677345001 0 0.080071368274292315 -0.25145738896057979 0 0.070069103552599196 -0.24823964670048029 0 0.077788170153509889 -0.24196191377257101 0 0.070069103552599196 -0.24823964670048029 0 0.069856411684105391 -0.23913895996007839 0 0.077788170153509889 -0.24196191377257101 0 0.080071368274292315 -0.25145738896057979 0 0.090706365013478091 -0.25245448435890872 0 0.085906732882507178 -0.24385162082211831 0 0.080071368274292315 -0.25145738896057979 0 0.077788170153509889 -0.24196191377257101 0 0.085906732882507178 -0.24385162082211831 0 0.077788170153509889 -0.24196191377257101 0 0.085906732882507178 -0.24385162082211831 0 0.083256636250354649 -0.23616880796388259 0 0.077788170153509889 -0.24196191377257101 0 0.083256636250354649 -0.23616880796388259 0 0.076767606518392539 -0.23187249677345001 0 0.085906732882507178 -0.24385162082211831 0 0.089657973372422345 -0.23730775202069579 0 0.094006026236525903 -0.2441335510050745 0 0.085906732882507178 -0.24385162082211831 0 0.083256636250354649 -0.23616880796388259 0 0.089657973372422345 -0.23730775202069579 0 0.083256636250354649 -0.23616880796388259 0 0.089657973372422345 -0.23730775202069579 0 0.089763789457938253 -0.2306791647953326 0 0.089657973372422345 -0.23730775202069579 0 0.089763789457938253 -0.2306791647953326 0 0.096012267649498176 -0.23702186761809721 0 0.089657973372422345 -0.23730775202069579 0 0.094006026236525903 -0.2441335510050745 0 0.096012267649498176 -0.23702186761809721 0 0.090706365013478091 -0.25245448435890872 0 0.085906732882507178 -0.24385162082211831 0 0.094006026236525903 -0.2441335510050745 0 0.086446736705125371 -0.22420087797706609 0 0.091303359373345411 -0.22339335178318359 0 0.089763789457938253 -0.2306791647953326 0 0.086446736705125371 -0.22420087797706609 0 0.091303359373345411 -0.22339335178318359 0 0.086853981468707001 -0.2185547472363609 0 0.091303359373345411 -0.22339335178318359 0 0.086853981468707001 -0.2185547472363609 0 0.09077468002378962 -0.21857675351640271 0 0.091303359373345411 -0.22339335178318359 0 0.09077468002378962 -0.21857675351640271 0 0.094530837428433365 -0.22086489816084981 0 0.091303359373345411 -0.22339335178318359 0 0.089763789457938253 -0.2306791647953326 0 0.098670227838192195 -0.22970514568366851 0 0.086446736705125371 -0.22420087797706609 0 0.089763789457938253 -0.2306791647953326 0 0.083020570332336119 -0.22791650227557511 0 0.083256636250354649 -0.23616880796388259 0 0.083020570332336119 -0.22791650227557511 0 0.076767606518392539 -0.23187249677345001 0 0.083256636250354649 -0.23616880796388259 0 0.089763789457938253 -0.2306791647953326 0 0.083020570332336119 -0.22791650227557511 0 0.083020570332336119 -0.22791650227557511 0 0.077930889523722374 -0.22519622511208121 0 0.076767606518392539 -0.23187249677345001 0 0.083020570332336119 -0.22791650227557511 0 0.081291982893300085 -0.22046062379487821 0 0.077930889523722374 -0.22519622511208121 0 0.086446736705125371 -0.22420087797706609 0 0.083020570332336119 -0.22791650227557511 0 0.081291982893300085 -0.22046062379487821 0 0.086446736705125371 -0.22420087797706609 0 0.081291982893300085 -0.22046062379487821 0 0.086853981468707001 -0.2185547472363609 0 0.081291982893300085 -0.22046062379487821 0 0.077930889523722374 -0.22519622511208121 0 0.073706539318973169 -0.21796036257100029 0 0.072234091795087663 -0.22574485878751241 0 0.065719467571416057 -0.22489822263154319 0 0.073706539318973169 -0.21796036257100029 0 0.077930889523722374 -0.22519622511208121 0 0.072234091795087663 -0.22574485878751241 0 0.073706539318973169 -0.21796036257100029 0 0.069856411684105391 -0.23913895996007839 0 0.076767606518392539 -0.23187249677345001 0 0.067142239376285745 -0.23139328163069281 0 0.072234091795087663 -0.22574485878751241 0 0.076767606518392539 -0.23187249677345001 0 0.067142239376285745 -0.23139328163069281 0 0.077930889523722374 -0.22519622511208121 0 0.072234091795087663 -0.22574485878751241 0 0.076767606518392539 -0.23187249677345001 0 0.058764067980626958 -0.22947949685718549 0 0.062159259289524899 -0.2368834247622158 0 0.067142239376285745 -0.23139328163069281 0 0.058764067980626958 -0.22947949685718549 0 0.067142239376285745 -0.23139328163069281 0 0.065719467571416057 -0.22489822263154319 0 0.072234091795087663 -0.22574485878751241 0 0.067142239376285745 -0.23139328163069281 0 0.065719467571416057 -0.22489822263154319 0 0.062338921595789062 -0.21792006704763969 0 0.065719467571416057 -0.22489822263154319 0 0.073706539318973169 -0.21796036257100029 0 0.062338921595789062 -0.21792006704763969 0 0.067863046951983474 -0.20503048868511209 0 0.073706539318973169 -0.21796036257100029 0 0.067863046951983474 -0.20503048868511209 0 0.073706539318973169 -0.21796036257100029 0 0.079094442607528917 -0.20913243433380641 0 0.067863046951983474 -0.20503048868511209 0 0.081482512553192915 -0.1953056794767786 0 0.079094442607528917 -0.20913243433380641 0 0.056257937900538298 -0.19577788601322099 0 0.067863046951983474 -0.20503048868511209 0 0.066040058368007956 -0.18964665730407451 0 0.067863046951983474 -0.20503048868511209 0 0.066040058368007956 -0.18964665730407451 0 0.081482512553192915 -0.1953056794767786 0 0.081482512553192915 -0.1953056794767786 0 0.095454742848087734 -0.19451486061966669 0 0.093505174579280592 -0.1731787749771625 0 0.081482512553192915 -0.1953056794767786 0 0.08833530696517819 -0.21036332105093219 0 0.095454742848087734 -0.19451486061966669 0 0.08833530696517819 -0.21036332105093219 0 0.097404311116896569 -0.21585094626217091 0 0.095454742848087734 -0.19451486061966669 0 0.081291982893300085 -0.22046062379487821 0 0.073706539318973169 -0.21796036257100029 0 0.082946926161669862 -0.2149195339015407 0 0.082946926161669862 -0.2149195339015407 0 0.079094442607528917 -0.20913243433380641 0 0.08833530696517819 -0.21036332105093219 0 0.073706539318973169 -0.21796036257100029 0 0.082946926161669862 -0.2149195339015407 0 0.079094442607528917 -0.20913243433380641 0 0.081291982893300085 -0.22046062379487821 0 0.082946926161669862 -0.2149195339015407 0 0.086853981468707001 -0.2185547472363609 0 0.081482512553192915 -0.1953056794767786 0 0.079094442607528917 -0.20913243433380641 0 0.08833530696517819 -0.21036332105093219 0 0.082946926161669862 -0.2149195339015407 0 0.08833530696517819 -0.21036332105093219 0 0.086853981468707001 -0.2185547472363609 0 0.08833530696517819 -0.21036332105093219 0 0.086853981468707001 -0.2185547472363609 0 0.09077468002378962 -0.21857675351640271 0 0.08833530696517819 -0.21036332105093219 0 0.09077468002378962 -0.21857675351640271 0 0.092213447725184278 -0.21529843562297729 0 0.08833530696517819 -0.21036332105093219 0 0.092213447725184278 -0.21529843562297729 0 0.097404311116896569 -0.21585094626217091 0 0.09077468002378962 -0.21857675351640271 0 0.094501608789943028 -0.21679829355882299 0 0.094530837428433365 -0.22086489816084981 0 0.09077468002378962 -0.21857675351640271 0 0.092213447725184278 -0.21529843562297729 0 0.094501608789943028 -0.21679829355882299 0 0.094501608789943028 -0.21679829355882299 0 0.097404311116896569 -0.21585094626217091 0 0.094530837428433365 -0.22086489816084981 0 0.092213447725184278 -0.21529843562297729 0 0.094501608789943028 -0.21679829355882299 0 0.097404311116896569 -0.21585094626217091 0 0.097404311116896569 -0.21585094626217091 0 0.095454742848087734 -0.19451486061966669 0 0.097404311116896569 -0.21585094626217091 0 0.1059898830346106 -0.20430933332548051 0 0.095454742848087734 -0.19451486061966669 0 0.097404311116896569 -0.21585094626217091 0 0.1089347031997706 -0.21297733173581901 0 0.1146171121197104 -0.21980430615730401 0 0.097404311116896569 -0.21585094626217091 0 0.1059898830346106 -0.20430933332548051 0 0.1089347031997706 -0.21297733173581901 0 0.095454742848087734 -0.19451486061966669 0 0.1128143282819509 -0.19216489626002589 0 0.10772522460311169 -0.17968171223372481 0 0.1059898830346106 -0.20430933332548051 0 0.095454742848087734 -0.19451486061966669 0 0.1128143282819509 -0.19216489626002589 0 0.1128143282819509 -0.19216489626002589 0 0.1237689835273371 -0.19605207676116951 0 0.1178461100078927 -0.20838697738218431 0 0.1059898830346106 -0.20430933332548051 0 0.1128143282819509 -0.19216489626002589 0 0.1178461100078927 -0.20838697738218431 0 0.1128143282819509 -0.19216489626002589 0 0.1237689835273371 -0.19605207676116951 0 0.1232013989280239 -0.1819146573535104 0 0.1089347031997706 -0.21297733173581901 0 0.1178461100078927 -0.20838697738218431 0 0.1146171121197104 -0.21980430615730401 0 0.1059898830346106 -0.20430933332548051 0 0.1089347031997706 -0.21297733173581901 0 0.1178461100078927 -0.20838697738218431 0 0.1178461100078927 -0.20838697738218431 0 0.1146171121197104 -0.21980430615730401 0 0.12895394136930069 -0.22163642029703709 0 0.1146171121197104 -0.21980430615730401 0 0.12018370186474731 -0.23305432747703519 0 0.12895394136930069 -0.22163642029703709 0 0.097404311116896569 -0.21585094626217091 0 0.1146171121197104 -0.21980430615730401 0 0.12018370186474731 -0.23305432747703519 0 0.1212054647883809 -0.25073068226796852 0 0.12018370186474731 -0.23305432747703519 0 0.1059281586602189 -0.23527494890652931 0 0.13217397618885759 -0.25462043987800831 0 0.1212054647883809 -0.25073068226796852 0 0.12018370186474731 -0.23305432747703519 0 0.1212054647883809 -0.25073068226796852 0 0.1059281586602189 -0.23527494890652931 0 0.1078238037173969 -0.24832262031645649 0 0.1212054647883809 -0.25073068226796852 0 0.1059281586602189 -0.23527494890652931 0 0.099550463170151926 -0.25262580003909579 0 0.1078238037173969 -0.24832262031645649 0 0.10103467245524091 -0.24298905409433241 0 0.1059281586602189 -0.23527494890652931 0 0.1078238037173969 -0.24832262031645649 0 0.10103467245524091 -0.24298905409433241 0 0.099550463170151926 -0.25262580003909579 0 0.10103467245524091 -0.24298905409433241 0 0.094006026236525903 -0.2441335510050745 0 0.090706365013478091 -0.25245448435890872 0 0.099550463170151926 -0.25262580003909579 0 0.094006026236525903 -0.2441335510050745 0 0.1059281586602189 -0.23527494890652931 0 0.10103467245524091 -0.24298905409433241 0 0.096012267649498176 -0.23702186761809721 0 0.10103467245524091 -0.24298905409433241 0 0.094006026236525903 -0.2441335510050745 0 0.096012267649498176 -0.23702186761809721 0 0.1059281586602189 -0.23527494890652931 0 0.096012267649498176 -0.23702186761809721 0 0.098670227838192195 -0.22970514568366851 0 0.089763789457938253 -0.2306791647953326 0 0.096012267649498176 -0.23702186761809721 0 0.098670227838192195 -0.22970514568366851 0 0.097404311116896569 -0.21585094626217091 0 0.12018370186474731 -0.23305432747703519 0 0.097404311116896569 -0.21585094626217091 0 0.12018370186474731 -0.23305432747703519 0 0.1059281586602189 -0.23527494890652931 0 0.097404311116896569 -0.21585094626217091 0 0.1059281586602189 -0.23527494890652931 0 0.098670227838192195 -0.22970514568366851 0 0.091303359373345411 -0.22339335178318359 0 0.098670227838192195 -0.22970514568366851 0 0.094530837428433365 -0.22086489816084981 0 0.097404311116896569 -0.21585094626217091 0 0.098670227838192195 -0.22970514568366851 0 0.094530837428433365 -0.22086489816084981 0 0.097404311116896569 -0.21585094626217091 0 0.098670227838192195 -0.22970514568366851 0 0.1071373084330472 -0.14482826815459701 0 0.1035248479174861 -0.15311019857333261 0 0.098760878024456711 -0.14050656481393209 0 0.1071373084330472 -0.14482826815459701 0 0.1035248479174861 -0.15311019857333261 0 0.1121477659277255 -0.1503271840913511 0 0.1035248479174861 -0.15311019857333261 0 0.098760878024456711 -0.14050656481393209 0 0.091560400862706559 -0.15189516094014111 0 0.098760878024456711 -0.14050656481393209 0 0.099399694252258627 -0.1328638184600745 0 0.089615627146132512 -0.13061154690311971 0 0.099399694252258627 -0.1328638184600745 0 0.099525338641528904 -0.12611341339503321 0 0.089615627146132512 -0.13061154690311971 0 0.099525338641528904 -0.12611341339503321 0 0.1096969331969164 -0.13422374872821319 0 0.1121708616464093 -0.1216807098986791 0 0.099399694252258627 -0.1328638184600745 0 0.099525338641528904 -0.12611341339503321 0 0.1096969331969164 -0.13422374872821319 0 0.098760878024456711 -0.14050656481393209 0 0.099399694252258627 -0.1328638184600745 0 0.1096969331969164 -0.13422374872821319 0 0.1071373084330472 -0.14482826815459701 0 0.098760878024456711 -0.14050656481393209 0 0.1096969331969164 -0.13422374872821319 0 0.1096969331969164 -0.13422374872821319 0 0.1155243526086871 -0.14484298486410191 0 0.12532898621889721 -0.13663811256420449 0 0.1096969331969164 -0.13422374872821319 0 0.11997683785091839 -0.1276371159963853 0 0.12532898621889721 -0.13663811256420449 0 0.1096969331969164 -0.13422374872821319 0 0.11997683785091839 -0.1276371159963853 0 0.1121708616464093 -0.1216807098986791 0 0.1217036921304827 -0.1482443959076799 0 0.1155243526086871 -0.14484298486410191 0 0.12532898621889721 -0.13663811256420449 0 0.1217036921304827 -0.1482443959076799 0 0.1155243526086871 -0.14484298486410191 0 0.1179114041550178 -0.15136128022523329 0 0.1071373084330472 -0.14482826815459701 0 0.1155243526086871 -0.14484298486410191 0 0.1121477659277255 -0.1503271840913511 0 0.1071373084330472 -0.14482826815459701 0 0.1096969331969164 -0.13422374872821319 0 0.1155243526086871 -0.14484298486410191 0 0.1035248479174861 -0.15311019857333261 0 0.1121477659277255 -0.1503271840913511 0 0.1169082366172023 -0.15609331882735419 0 0.1155243526086871 -0.14484298486410191 0 0.1121477659277255 -0.1503271840913511 0 0.1179114041550178 -0.15136128022523329 0 0.1121477659277255 -0.1503271840913511 0 0.1169082366172023 -0.15609331882735419 0 0.1179114041550178 -0.15136128022523329 0 0.1169082366172023 -0.15609331882735419 0 0.1179114041550178 -0.15136128022523329 0 0.12324902196630889 -0.15465793599018671 0 0.1217036921304827 -0.1482443959076799 0 0.1179114041550178 -0.15136128022523329 0 0.12324902196630889 -0.15465793599018671 0 0.1217036921304827 -0.1482443959076799 0 0.12324902196630889 -0.15465793599018671 0 0.12831016946945831 -0.1492440347933528 0 0.1035248479174861 -0.15311019857333261 0 0.12443417021765769 -0.1709717485187108 0 0.1227471198665283 -0.15880086614903269 0 0.12098675462827781 -0.16200852072179159 0 0.1290045142054978 -0.1612372837293575 0 0.1035248479174861 -0.15311019857333261 0 0.12443417021765769 -0.1709717485187108 0 0.12083528946942131 -0.1711597280255607 0 0.1035248479174861 -0.15311019857333261 0 0.12098675462827781 -0.16200852072179159 0 0.12443417021765769 -0.1709717485187108 0 0.1035248479174861 -0.15311019857333261 0 0.1169082366172023 -0.15609331882735419 0 0.12098675462827781 -0.16200852072179159 0 0.1169082366172023 -0.15609331882735419 0 0.1227471198665283 -0.15880086614903269 0 0.12098675462827781 -0.16200852072179159 0 0.1169082366172023 -0.15609331882735419 0 0.12324902196630889 -0.15465793599018671 0 0.1227471198665283 -0.15880086614903269 0 0.12098675462827781 -0.16200852072179159 0 0.12443417021765769 -0.1709717485187108 0 0.12715697753007521 -0.16591248018761531 0 0.1128143282819509 -0.19216489626002589 0 0.1232013989280239 -0.1819146573535104 0 0.1157139550245927 -0.18029465614444529 0 0.12083528946942131 -0.1711597280255607 0 0.1232013989280239 -0.1819146573535104 0 0.1157139550245927 -0.18029465614444529 0 0.12443417021765769 -0.1709717485187108 0 0.12083528946942131 -0.1711597280255607 0 0.1232013989280239 -0.1819146573535104 0 0.12083528946942131 -0.1711597280255607 0 0.1157139550245927 -0.18029465614444529 0 0.10772522460311169 -0.17968171223372481 0 0.1128143282819509 -0.19216489626002589 0 0.1157139550245927 -0.18029465614444529 0 0.10772522460311169 -0.17968171223372481 0 0.095454742848087734 -0.19451486061966669 0 0.10772522460311169 -0.17968171223372481 0 0.093505174579280592 -0.1731787749771625 0 0.12083528946942131 -0.1711597280255607 0 0.093505174579280592 -0.1731787749771625 0 0.095454742848087734 -0.19451486061966669 0 0.093505174579280592 -0.1731787749771625 0 0.12083528946942131 -0.1711597280255607 0 0.10772522460311169 -0.17968171223372481 0 0.093505174579280592 -0.1731787749771625 0 0.1035248479174861 -0.15311019857333261 0 0.093505174579280592 -0.1731787749771625 0 0.091560400862706559 -0.15189516094014111 0 0.1035248479174861 -0.15311019857333261 0 0.12083528946942131 -0.1711597280255607 0 0.093505174579280592 -0.1731787749771625 0 0.078133883947979807 -0.15717501910519549 0 0.093505174579280592 -0.1731787749771625 0 0.091560400862706559 -0.15189516094014111 0 0.078133883947979807 -0.15717501910519549 0 0.093505174579280592 -0.1731787749771625 0 0.072477207369929117 -0.17473224276400179 0 0.093505174579280592 -0.1731787749771625 0 0.091560400862706559 -0.15189516094014111 0 0.081482512553192915 -0.1953056794767786 0 0.093505174579280592 -0.1731787749771625 0 0.072477207369929117 -0.17473224276400179 0 0.093505174579280592 -0.1731787749771625 0 0.072477207369929117 -0.17473224276400179 0 0.066040058368007956 -0.18964665730407451 0 0.072477207369929117 -0.17473224276400179 0 0.051449240160577621 -0.1762857105508405 0 0.066040058368007956 -0.18964665730407451 0 0.081482512553192915 -0.1953056794767786 0 0.072477207369929117 -0.17473224276400179 0 0.078133883947979807 -0.15717501910519549 0 0.072477207369929117 -0.17473224276400179 0 0.063878974636528515 -0.16401540189567099 0 0.072477207369929117 -0.17473224276400179 0 0.063878974636528515 -0.16401540189567099 0 0.051449240160577621 -0.1762857105508405 0 0.078133883947979807 -0.15717501910519549 0 0.063878974636528515 -0.16401540189567099 0 0.06522271263887458 -0.15305574504012881 0 0.06522271263887458 -0.15305574504012881 0 0.069316279952888193 -0.14186668388360371 0 0.075278834721760557 -0.14616760919767161 0 0.06522271263887458 -0.15305574504012881 0 0.069316279952888193 -0.14186668388360371 0 0.05757515479497001 -0.1486962131740798 0 0.069316279952888193 -0.14186668388360371 0 0.075278834721760557 -0.14616760919767161 0 0.079765110473415279 -0.13788087003968491 0 0.078133883947979807 -0.15717501910519549 0 0.06522271263887458 -0.15305574504012881 0 0.075278834721760557 -0.14616760919767161 0 0.098760878024456711 -0.14050656481393209 0 0.091560400862706559 -0.15189516094014111 0 0.089615627146132512 -0.13061154690311971 0 0.078133883947979807 -0.15717501910519549 0 0.083611330147541921 -0.14459745320402559 0 0.091560400862706559 -0.15189516094014111 0 0.091560400862706559 -0.15189516094014111 0 0.089615627146132512 -0.13061154690311971 0 0.078133883947979807 -0.15717501910519549 0 0.075278834721760557 -0.14616760919767161 0 0.083611330147541921 -0.14459745320402559 0 0.083611330147541921 -0.14459745320402559 0 0.091560400862706559 -0.15189516094014111 0 0.089615627146132512 -0.13061154690311971 0 0.075278834721760557 -0.14616760919767161 0 0.083611330147541921 -0.14459745320402559 0 0.079765110473415279 -0.13788087003968491 0 0.099525338641528904 -0.12611341339503321 0 0.089615627146132512 -0.13061154690311971 0 0.081894058627025895 -0.12584863130967919 0 0.083611330147541921 -0.14459745320402559 0 0.089615627146132512 -0.13061154690311971 0 0.079765110473415279 -0.13788087003968491 0 0.089615627146132512 -0.13061154690311971 0 0.079765110473415279 -0.13788087003968491 0 0.081894058627025895 -0.12584863130967919 0 0.081894058627025895 -0.12584863130967919 0 0.065576399090336079 -0.13067912082877309 0 0.057907204523981459 -0.13951585418161591 0 0.081894058627025895 -0.12584863130967919 0 0.057907204523981459 -0.13951585418161591 0 0.069316279952888193 -0.14186668388360371 0 0.081894058627025895 -0.12584863130967919 0 0.057907204523981459 -0.13951585418161591 0 0.081894058627025895 -0.12584863130967919 0 0.068207364780656948 -0.12563827965844471 0 0.065576399090336079 -0.13067912082877309 0 0.069316279952888193 -0.14186668388360371 0 0.079765110473415279 -0.13788087003968491 0 0.081894058627025895 -0.12584863130967919 0 0.068207364780656948 -0.12563827965844471 0 0.065576399090336079 -0.13067912082877309 0 0.054296968429680029 -0.13171371816535249 0 0.054296968429680029 -0.13171371816535249 0 0.057907204523981459 -0.13951585418161591 0 0.034849001543539322 -0.1503583031021323 0 0.054296968429680029 -0.13171371816535249 0 0.045553716665441668 -0.12681104972785159 0 0.052448498866582129 -0.1166826243517366 0 0.065576399090336079 -0.13067912082877309 0 0.054296968429680029 -0.13171371816535249 0 0.057907204523981459 -0.13951585418161591 0 0.069316279952888193 -0.14186668388360371 0 0.057907204523981459 -0.13951585418161591 0 0.05757515479497001 -0.1486962131740798 0 0.06522271263887458 -0.15305574504012881 0 0.05757515479497001 -0.1486962131740798 0 0.052111829065281459 -0.15882829201818821 0 0.046808539919221563 -0.15014413002933799 0 0.052111829065281459 -0.15882829201818821 0 0.043031393960321331 -0.1571354857308308 0 0.05757515479497001 -0.1486962131740798 0 0.046808539919221563 -0.15014413002933799 0 0.052111829065281459 -0.15882829201818821 0 0.057907204523981459 -0.13951585418161591 0 0.05757515479497001 -0.1486962131740798 0 0.046808539919221563 -0.15014413002933799 0 0.057907204523981459 -0.13951585418161591 0 0.046808539919221563 -0.15014413002933799 0 0.033920350420936912 -0.1531830770535528 0 0.057907204523981459 -0.13951585418161591 0 0.034849001543539322 -0.1503583031021323 0 0.033920350420936912 -0.1531830770535528 0 0.054296968429680029 -0.13171371816535249 0 0.034849001543539322 -0.1503583031021323 0 0.038558521200612962 -0.14006542407622449 0 0.054296968429680029 -0.13171371816535249 0 0.034849001543539322 -0.1503583031021323 0 0.057907204523981459 -0.13951585418161591 0 0.033920350420936912 -0.1531830770535528 0 0.046808539919221563 -0.15014413002933799 0 0.040219483271594643 -0.15466785876887121 0 0.033920350420936912 -0.1531830770535528 0 0.046808539919221563 -0.15014413002933799 0 0.040219483271594643 -0.15466785876887121 0 0.043031393960321331 -0.1571354857308308 0 0.040219483271594643 -0.15466785876887121 0 0.033920350420936912 -0.1531830770535528 0 0.037117648785898759 -0.15820874226176301 0 0.034849001543539322 -0.1503583031021323 0 0.031672068294339203 -0.14528428076340441 0 0.030051573782975471 -0.15027594372919439 0 0.034849001543539322 -0.1503583031021323 0 0.033920350420936912 -0.1531830770535528 0 0.030051573782975471 -0.15027594372919439 0 0.034849001543539322 -0.1503583031021323 0 0.031672068294339203 -0.14528428076340441 0 0.038558521200612962 -0.14006542407622449 0 0.031672068294339203 -0.14528428076340441 0 0.038558521200612962 -0.14006542407622449 0 0.030566093298411881 -0.13865773310914861 0 0.054296968429680029 -0.13171371816535249 0 0.038558521200612962 -0.14006542407622449 0 0.040644455285911409 -0.1338393175667463 0 0.038558521200612962 -0.14006542407622449 0 0.040644455285911409 -0.1338393175667463 0 0.030566093298411881 -0.13865773310914861 0 0.034824944079593127 -0.12500853882757099 0 0.040644455285911409 -0.1338393175667463 0 0.030566093298411881 -0.13865773310914861 0 0.034824944079593127 -0.12500853882757099 0 0.045553716665441668 -0.12681104972785159 0 0.040644455285911409 -0.1338393175667463 0 0.054296968429680029 -0.13171371816535249 0 0.045553716665441668 -0.12681104972785159 0 0.040644455285911409 -0.1338393175667463 0 0.072477207369929117 -0.17473224276400179 0 0.051449240160577621 -0.1762857105508405 0 0.056257937900538298 -0.19577788601322099 0 0.066040058368007956 -0.18964665730407451 0 0.051449240160577621 -0.1762857105508405 0 0.063878974636528515 -0.16401540189567099 0 0.051449240160577621 -0.1762857105508405 0 0.052111829065281459 -0.15882829201818821 0 0.051449240160577621 -0.1762857105508405 0 0.052111829065281459 -0.15882829201818821 0 0.040502396519655252 -0.1663673850483231 0 0.063878974636528515 -0.16401540189567099 0 0.06522271263887458 -0.15305574504012881 0 0.052111829065281459 -0.15882829201818821 0 0.043031393960321331 -0.1571354857308308 0 0.037117648785898759 -0.15820874226176301 0 0.040502396519655252 -0.1663673850483231 0 0.052111829065281459 -0.15882829201818821 0 0.043031393960321331 -0.1571354857308308 0 0.040502396519655252 -0.1663673850483231 0 0.040219483271594643 -0.15466785876887121 0 0.043031393960321331 -0.1571354857308308 0 0.037117648785898759 -0.15820874226176301 0 0.033920350420936912 -0.1531830770535528 0 0.033509818979212957 -0.15868168045615499 0 0.027465449436243041 -0.1628752445715565 0 0.037117648785898759 -0.15820874226176301 0 0.034071859908748191 -0.1623715567021686 0 0.040502396519655252 -0.1663673850483231 0 0.033920350420936912 -0.1531830770535528 0 0.037117648785898759 -0.15820874226176301 0 0.033509818979212957 -0.15868168045615499 0 0.037117648785898759 -0.15820874226176301 0 0.033509818979212957 -0.15868168045615499 0 0.034071859908748191 -0.1623715567021686 0 0.033509818979212957 -0.15868168045615499 0 0.034071859908748191 -0.1623715567021686 0 0.027465449436243041 -0.1628752445715565 0 0.031586668938662611 -0.1691709391612749 0 0.040502396519655252 -0.1663673850483231 0 0.030421272951226121 -0.1778391783376792 0 0.034071859908748191 -0.1623715567021686 0 0.031586668938662611 -0.1691709391612749 0 0.040502396519655252 -0.1663673850483231 0 0.051449240160577621 -0.1762857105508405 0 0.040502396519655252 -0.1663673850483231 0 0.030421272951226121 -0.1778391783376792 0 0.041440672425083092 -0.19607701236864419 0 0.051449240160577621 -0.1762857105508405 0 0.030421272951226121 -0.1778391783376792 0 0.051449240160577621 -0.1762857105508405 0 0.030421272951226121 -0.1778391783376792 0 0.02540307025583758 -0.19229280057405279 0 0.015764016274472759 -0.1812646672695073 0 0.030421272951226121 -0.1778391783376792 0 0.031586668938662611 -0.1691709391612749 0 0.030421272951226121 -0.1778391783376792 0 0.021575687727073561 -0.1734893605992324 0 0.015764016274472759 -0.1812646672695073 0 0.021575687727073561 -0.1734893605992324 0 0.012676990919703311 -0.16924925594887871 0 0.015764016274472759 -0.1812646672695073 0 0.030421272951226121 -0.1778391783376792 0 0.021575687727073561 -0.1734893605992324 0 0.033920350420936912 -0.1531830770535528 0 0.009933496317892726 -0.16685029992549011 0 0.02294500892830088 -0.1542832107784407 0 0.033920350420936912 -0.1531830770535528 0 0.027465449436243041 -0.1628752445715565 0 0.009933496317892726 -0.16685029992549011 0 0.019596439448784399 -0.16744493330375371 0 0.027465449436243041 -0.1628752445715565 0 0.009933496317892726 -0.16685029992549011 0 0.033920350420936912 -0.1531830770535528 0 0.009933496317892726 -0.16685029992549011 0 0.021575687727073561 -0.1734893605992324 0 0.019596439448784399 -0.16744493330375371 0 0.012676990919703311 -0.16924925594887871 0 0.021575687727073561 -0.1734893605992324 0 0.019596439448784399 -0.16744493330375371 0 0.025540403417393751 -0.1677775419388785 0 0.031586668938662611 -0.1691709391612749 0 0.021575687727073561 -0.1734893605992324 0 0.025540403417393751 -0.1677775419388785 0 0.019596439448784399 -0.16744493330375371 0 0.025540403417393751 -0.1677775419388785 0 0.027465449436243041 -0.1628752445715565 0 0.034071859908748191 -0.1623715567021686 0 0.031586668938662611 -0.1691709391612749 0 0.027465449436243041 -0.1628752445715565 0 0.031586668938662611 -0.1691709391612749 0 0.025540403417393751 -0.1677775419388785 0 0.027465449436243041 -0.1628752445715565 0 0.009933496317892726 -0.16685029992549011 0 0.01648447247354291 -0.15404273338364399 0 0.02294500892830088 -0.1542832107784407 0 0.009933496317892726 -0.16685029992549011 0 0.01648447247354291 -0.15404273338364399 0 0.0068311679390763679 -0.1533437069849535 0 0.019596439448784399 -0.16744493330375371 0 0.009933496317892726 -0.16685029992549011 0 0.012676990919703311 -0.16924925594887871 0 0.009933496317892726 -0.16685029992549011 0 0.012676990919703311 -0.16924925594887871 0 0.0034571977838801569 -0.17702496179755631 0 0.009933496317892726 -0.16685029992549011 0 0.012676990919703311 -0.16924925594887871 0 -0.0085976242789068957 -0.177408956520272 0 0.009933496317892726 -0.16685029992549011 0 -0.0085976242789068957 -0.177408956520272 0 0.009933496317892726 -0.16685029992549011 0 0.0034571977838801569 -0.17702496179755631 0 0.015764016274472759 -0.1812646672695073 0 0.012676990919703311 -0.16924925594887871 0 0.0034571977838801569 -0.17702496179755631 0 -0.003739977245034012 -0.19168309442994089 0 0.010514116253606281 -0.1925853606064957 0 0.0034571977838801569 -0.17702496179755631 0 0.010514116253606281 -0.1925853606064957 0 0.015764016274472759 -0.1812646672695073 0 0.0034571977838801569 -0.17702496179755631 0 0.02166725362828328 -0.1398342401410575 0 0.019282665512654749 -0.1297026577714144 0 0.01241268948209219 -0.14437852502616319 0 0.034824944079593127 -0.12500853882757099 0 0.019282665512654749 -0.1297026577714144 0 0.030566093298411881 -0.13865773310914861 0 0.02166725362828328 -0.1398342401410575 0 0.019282665512654749 -0.1297026577714144 0 0.030566093298411881 -0.13865773310914861 0 0.031672068294339203 -0.14528428076340441 0 0.030566093298411881 -0.13865773310914861 0 0.024335151646156381 -0.14706399980032239 0 0.02166725362828328 -0.1398342401410575 0 0.030566093298411881 -0.13865773310914861 0 0.024335151646156381 -0.14706399980032239 0 0.031672068294339203 -0.14528428076340441 0 0.024335151646156381 -0.14706399980032239 0 0.030051573782975471 -0.15027594372919439 0 0.033920350420936912 -0.1531830770535528 0 0.030051573782975471 -0.15027594372919439 0 0.02294500892830088 -0.1542832107784407 0 0.024335151646156381 -0.14706399980032239 0 0.030051573782975471 -0.15027594372919439 0 0.02294500892830088 -0.1542832107784407 0 0.024335151646156381 -0.14706399980032239 0 0.01648447247354291 -0.15404273338364399 0 0.01241268948209219 -0.14437852502616319 0 0.024335151646156381 -0.14706399980032239 0 0.01648447247354291 -0.15404273338364399 0 0.02294500892830088 -0.1542832107784407 0 0.02166725362828328 -0.1398342401410575 0 0.024335151646156381 -0.14706399980032239 0 0.01241268948209219 -0.14437852502616319 0 -0.011505986517222349 -0.14810326960451681 0 0.01241268948209219 -0.14437852502616319 0 0.0068311679390763679 -0.1533437069849535 0 -0.011505986517222349 -0.14810326960451681 0 0.009933496317892726 -0.16685029992549011 0 0.0068311679390763679 -0.1533437069849535 0 -0.011505986517222349 -0.14810326960451681 0 0.01241268948209219 -0.14437852502616319 0 0.0027021066240326768 -0.1317064378292063 0 0.01648447247354291 -0.15404273338364399 0 0.01241268948209219 -0.14437852502616319 0 0.0068311679390763679 -0.1533437069849535 0 0.019282665512654749 -0.1297026577714144 0 0.01241268948209219 -0.14437852502616319 0 0.0027021066240326768 -0.1317064378292063 0 0.019282665512654749 -0.1297026577714144 0 0.0027021066240326768 -0.1317064378292063 0 0.005085065621477718 -0.1151057880332567 0 0.019282665512654749 -0.1297026577714144 0 0.005085065621477718 -0.1151057880332567 0 0.024129304522527751 -0.1089818526354679 0 0.034824944079593127 -0.12500853882757099 0 0.019282665512654749 -0.1297026577714144 0 0.024129304522527751 -0.1089818526354679 0 0.024129304522527751 -0.1089818526354679 0 0.01380815825635252 -0.094132232187142617 0 0.031293966725895003 -0.08518965294817829 0 -0.00044729776891663488 -0.1011528385718463 0 0.005085065621477718 -0.1151057880332567 0 0.01380815825635252 -0.094132232187142617 0 0.005085065621477718 -0.1151057880332567 0 0.024129304522527751 -0.1089818526354679 0 0.01380815825635252 -0.094132232187142617 0 0.01380815825635252 -0.094132232187142617 0 0.0042106568376920582 -0.081118225430045127 0 0.020039989671696231 -0.071989185162356889 0 -0.00044729776891663488 -0.1011528385718463 0 0.01380815825635252 -0.094132232187142617 0 0.0042106568376920582 -0.081118225430045127 0 0.0042106568376920582 -0.081118225430045127 0 0.0052181775422467033 -0.064346337314722044 0 0.020039989671696231 -0.071989185162356889 0 -0.0043762627118289626 -0.071729097412358583 0 0.0042106568376920582 -0.081118225430045127 0 0.0052181775422467033 -0.064346337314722044 0 0.0052181775422467033 -0.064346337314722044 0 0.020039989671696231 -0.071989185162356889 0 0.0052181775422467033 -0.064346337314722044 0 0.020039989671696231 -0.071989185162356889 0 0.017880224012190679 -0.058506375123621113 0 0.020039989671696231 -0.071989185162356889 0 0.017880224012190679 -0.058506375123621113 0 0.035073137211611732 -0.060365082031122411 0 0.020039989671696231 -0.071989185162356889 0 0.031293966725895003 -0.08518965294817829 0 0.035073137211611732 -0.060365082031122411 0 0.01380815825635252 -0.094132232187142617 0 0.020039989671696231 -0.071989185162356889 0 0.031293966725895003 -0.08518965294817829 0 0.031293966725895003 -0.08518965294817829 0 0.050629459546369923 -0.074776417317023003 0 0.042727201812981508 -0.099892478072297022 0 0.050629459546369923 -0.074776417317023003 0 0.042727201812981508 -0.099892478072297022 0 0.031293966725895003 -0.08518965294817829 0 0.050629459546369923 -0.074776417317023003 0 0.035073137211611732 -0.060365082031122411 0 0.050629459546369923 -0.074776417317023003 0 0.058531717279758283 -0.049660356561749108 0 0.072219385832792832 -0.066659644627356851 0 0.050629459546369923 -0.074776417317023003 0 0.042727201812981508 -0.099892478072297022 0 0.069701838591585213 -0.089386546866783212 0 0.059655618646742382 -0.10475769562984739 0 0.052448498866582129 -0.1166826243517366 0 0.042727201812981508 -0.099892478072297022 0 0.059655618646742382 -0.10475769562984739 0 0.042727201812981508 -0.099892478072297022 0 0.069701838591585213 -0.089386546866783212 0 0.054296968429680029 -0.13171371816535249 0 0.052448498866582129 -0.1166826243517366 0 0.073744935315820714 -0.1130691332285727 0 0.059655618646742382 -0.10475769562984739 0 0.052448498866582129 -0.1166826243517366 0 0.073744935315820714 -0.1130691332285727 0 0.034824944079593127 -0.12500853882757099 0 0.045553716665441668 -0.12681104972785159 0 0.052448498866582129 -0.1166826243517366 0 0.034824944079593127 -0.12500853882757099 0 0.052448498866582129 -0.1166826243517366 0 0.042727201812981508 -0.099892478072297022 0 0.034824944079593127 -0.12500853882757099 0 0.024129304522527751 -0.1089818526354679 0 0.042727201812981508 -0.099892478072297022 0 0.034824944079593127 -0.12500853882757099 0 0.042727201812981508 -0.099892478072297022 0 0.024129304522527751 -0.1089818526354679 0 0.031293966725895003 -0.08518965294817829 0 0.042727201812981508 -0.099892478072297022 0 0.034885408484197772 0.0062912350017927032 0 0.01265631079038235 -0.01012693536007268 0 0.042517259973231587 -0.011683923625132649 0 -0.00118246574067416 -0.01324232368796026 0 0.0012074066645448821 -0.00065723147797176382 0 0.01265631079038235 -0.01012693536007268 0 0.01265631079038235 -0.01012693536007268 0 0.02406773205363014 -0.026959444655171291 0 0.0015263381015913891 -0.033415212413580753 0 0.01265631079038235 -0.01012693536007268 0 0.0015263381015913891 -0.033415212413580753 0 -0.00118246574067416 -0.01324232368796026 0 0.01265631079038235 -0.01012693536007268 0 0.0015263381015913891 -0.033415212413580753 0 0.01265631079038235 -0.01012693536007268 0 0.02406773205363014 -0.026959444655171291 0 0.042517259973231587 -0.011683923625132649 0 0.02406773205363014 -0.026959444655171291 0 0.021771409900077709 -0.044354063799483319 0 0.04186734150286768 -0.035217088077587062 0 0.02406773205363014 -0.026959444655171291 0 0.021771409900077709 -0.044354063799483319 0 0.0015263381015913891 -0.033415212413580753 0 0.021771409900077709 -0.044354063799483319 0 0.0015263381015913891 -0.033415212413580753 0 0.007298405735321048 -0.051477207310420908 0 -0.0096036345872028556 -0.056703489467087059 0 0.0052181775422467033 -0.064346337314722044 0 0.007298405735321048 -0.051477207310420908 0 0.0052181775422467033 -0.064346337314722044 0 0.007298405735321048 -0.051477207310420908 0 0.017880224012190679 -0.058506375123621113 0 0.021771409900077709 -0.044354063799483319 0 0.017880224012190679 -0.058506375123621113 0 0.035073137211611732 -0.060365082031122411 0 0.021771409900077709 -0.044354063799483319 0 0.007298405735321048 -0.051477207310420908 0 0.017880224012190679 -0.058506375123621113 0 0.035073137211611732 -0.060365082031122411 0 0.058531717279758283 -0.049660356561749108 0 0.04186734150286768 -0.035217088077587062 0 0.050629459546369923 -0.074776417317023003 0 0.058531717279758283 -0.049660356561749108 0 0.050629459546369923 -0.074776417317023003 0 0.035073137211611732 -0.060365082031122411 0 0.058531717279758283 -0.049660356561749108 0 0.058531717279758283 -0.049660356561749108 0 0.066433975013146629 -0.02454429580647528 0 0.058531717279758283 -0.049660356561749108 0 0.04186734150286768 -0.035217088077587062 0 0.066433975013146629 -0.02454429580647528 0 0.021771409900077709 -0.044354063799483319 0 0.035073137211611732 -0.060365082031122411 0 0.04186734150286768 -0.035217088077587062 0 0.02406773205363014 -0.026959444655171291 0 0.04186734150286768 -0.035217088077587062 0 0.042517259973231587 -0.011683923625132649 0 0.04186734150286768 -0.035217088077587062 0 0.042517259973231587 -0.011683923625132649 0 0.066433975013146629 -0.02454429580647528 0 0.052968053050369737 0.0090809173488315582 0 0.042517259973231587 -0.011683923625132649 0 0.067492943165135169 -0.0019794682467893379 0 0.042517259973231587 -0.011683923625132649 0 0.067492943165135169 -0.0019794682467893379 0 0.066433975013146629 -0.02454429580647528 0 0.087040675587819916 -0.0096101539263870796 0 0.066433975013146629 -0.02454429580647528 0 0.098032226742104309 -0.02831505409649597 0 0.083930998993742512 0.0059737405228527038 0 0.087040675587819916 -0.0096101539263870796 0 0.067492943165135169 -0.0019794682467893379 0 0.083930998993742512 0.0059737405228527038 0 0.098495163759696414 0.0029673617968291321 0 0.087040675587819916 -0.0096101539263870796 0 0.087040675587819916 -0.0096101539263870796 0 0.067492943165135169 -0.0019794682467893379 0 0.066433975013146629 -0.02454429580647528 0 0.066433975013146629 -0.02454429580647528 0 0.080663194565618018 -0.042742664855397232 0 0.098032226742104309 -0.02831505409649597 0 0.080663194565618018 -0.042742664855397232 0 0.099119978598511321 -0.045144617550746849 0 0.098032226742104309 -0.02831505409649597 0 0.058531717279758283 -0.049660356561749108 0 0.066433975013146629 -0.02454429580647528 0 0.080663194565618018 -0.042742664855397232 0 0.058531717279758283 -0.049660356561749108 0 0.080663194565618018 -0.042742664855397232 0 0.072219385832792832 -0.066659644627356851 0 0.080663194565618018 -0.042742664855397232 0 0.091985945990252393 -0.059557823171565508 0 0.072219385832792832 -0.066659644627356851 0 0.080663194565618018 -0.042742664855397232 0 0.091985945990252393 -0.059557823171565508 0 0.099119978598511321 -0.045144617550746849 0 0.091985945990252393 -0.059557823171565508 0 0.109385226414503 -0.056941989317685793 0 0.099119978598511321 -0.045144617550746849 0 0.109385226414503 -0.056941989317685793 0 0.1174221699598199 -0.069046986946925279 0 0.12664898879935529 -0.055605769639440771 0 0.109385226414503 -0.056941989317685793 0 0.1155332992800789 -0.038165556312589707 0 0.12664898879935529 -0.055605769639440771 0 0.1155332992800789 -0.038165556312589707 0 0.12954193793015309 -0.041748568408345607 0 0.12664898879935529 -0.055605769639440771 0 0.1155332992800789 -0.038165556312589707 0 0.1294320674019063 -0.023146095115484211 0 0.12954193793015309 -0.041748568408345607 0 0.109385226414503 -0.056941989317685793 0 0.1155332992800789 -0.038165556312589707 0 0.099119978598511321 -0.045144617550746849 0 0.1155332992800789 -0.038165556312589707 0 0.099119978598511321 -0.045144617550746849 0 0.098032226742104309 -0.02831505409649597 0 0.1155332992800789 -0.038165556312589707 0 0.098032226742104309 -0.02831505409649597 0 0.1112777463759113 -0.012222875866518469 0 0.087040675587819916 -0.0096101539263870796 0 0.098032226742104309 -0.02831505409649597 0 0.1112777463759113 -0.012222875866518469 0 0.1155332992800789 -0.038165556312589707 0 0.1112777463759113 -0.012222875866518469 0 0.1294320674019063 -0.023146095115484211 0 0.1158546052028349 0.0064685721448778594 0 0.13464870039648349 0.00080453217212592717 0 0.1112777463759113 -0.012222875866518469 0 0.098495163759696414 0.0029673617968291321 0 0.087040675587819916 -0.0096101539263870796 0 0.1112777463759113 -0.012222875866518469 0 0.1158546052028349 0.0064685721448778594 0 0.098495163759696414 0.0029673617968291321 0 0.1112777463759113 -0.012222875866518469 0 0.093192902201961414 -0.094424548291792879 0 0.088899626305776192 -0.1113374325741409 0 0.073744935315820714 -0.1130691332285727 0 0.093192902201961414 -0.094424548291792879 0 0.073744935315820714 -0.1130691332285727 0 0.069701838591585213 -0.089386546866783212 0 0.093192902201961414 -0.094424548291792879 0 0.073744935315820714 -0.1130691332285727 0 0.081894058627025895 -0.12584863130967919 0 0.088899626305776192 -0.1113374325741409 0 0.09397493983509804 -0.11322330148444169 0 0.081894058627025895 -0.12584863130967919 0 0.079920122843727764 -0.11786127252462281 0 0.075141871126288284 -0.1211898929860986 0 0.081894058627025895 -0.12584863130967919 0 0.088899626305776192 -0.1113374325741409 0 0.079920122843727764 -0.11786127252462281 0 0.088899626305776192 -0.1113374325741409 0 0.079920122843727764 -0.11786127252462281 0 0.073744935315820714 -0.1130691332285727 0 0.068207364780656948 -0.12563827965844471 0 0.054296968429680029 -0.13171371816535249 0 0.073744935315820714 -0.1130691332285727 0 0.054296968429680029 -0.13171371816535249 0 0.073744935315820714 -0.1130691332285727 0 0.068207364780656948 -0.12563827965844471 0 0.073744935315820714 -0.1130691332285727 0 0.075141871126288284 -0.1211898929860986 0 0.079920122843727764 -0.11786127252462281 0 0.073744935315820714 -0.1130691332285727 0 0.075141871126288284 -0.1211898929860986 0 0.081894058627025895 -0.12584863130967919 0 0.068207364780656948 -0.12563827965844471 0 0.075141871126288284 -0.1211898929860986 0 0.059655618646742382 -0.10475769562984739 0 0.073744935315820714 -0.1130691332285727 0 0.069701838591585213 -0.089386546866783212 0 0.050629459546369923 -0.074776417317023003 0 0.069701838591585213 -0.089386546866783212 0 0.072219385832792832 -0.066659644627356851 0 0.069701838591585213 -0.089386546866783212 0 0.072219385832792832 -0.066659644627356851 0 0.089711563165187497 -0.078251462936863553 0 0.091985945990252393 -0.059557823171565508 0 0.072219385832792832 -0.066659644627356851 0 0.089711563165187497 -0.078251462936863553 0 0.093192902201961414 -0.094424548291792879 0 0.069701838591585213 -0.089386546866783212 0 0.089711563165187497 -0.078251462936863553 0 0.093192902201961414 -0.094424548291792879 0 0.089711563165187497 -0.078251462936863553 0 0.1048667032735431 -0.089595599910983495 0 0.089711563165187497 -0.078251462936863553 0 0.1048667032735431 -0.089595599910983495 0 0.1056935618466131 -0.072691272791708894 0 0.1048667032735431 -0.089595599910983495 0 0.1056935618466131 -0.072691272791708894 0 0.11564058922802831 -0.08068930143821873 0 0.091985945990252393 -0.059557823171565508 0 0.089711563165187497 -0.078251462936863553 0 0.1056935618466131 -0.072691272791708894 0 0.091985945990252393 -0.059557823171565508 0 0.109385226414503 -0.056941989317685793 0 0.1056935618466131 -0.072691272791708894 0 0.1174221699598199 -0.069046986946925279 0 0.12840026197867099 -0.078951386265116219 0 0.12664898879935529 -0.055605769639440771 0 0.109385226414503 -0.056941989317685793 0 0.1056935618466131 -0.072691272791708894 0 0.1174221699598199 -0.069046986946925279 0 0.1056935618466131 -0.072691272791708894 0 0.1174221699598199 -0.069046986946925279 0 0.11564058922802831 -0.08068930143821873 0 0.1174221699598199 -0.069046986946925279 0 0.11564058922802831 -0.08068930143821873 0 0.12840026197867099 -0.078951386265116219 0 0.1048667032735431 -0.089595599910983495 0 0.11564058922802831 -0.08068930143821873 0 0.1191358060176364 -0.092450830711447801 0 0.1191358060176364 -0.092450830711447801 0 0.12840026197867099 -0.078951386265116219 0 0.11564058922802831 -0.08068930143821873 0 0.1191358060176364 -0.092450830711447801 0 0.12840026197867099 -0.078951386265116219 0 0.1058809127300703 -0.11218140843774239 0 0.12023297736745781 -0.1110263554770618 0 0.12986776683311119 -0.098514185565799078 0 0.1058809127300703 -0.11218140843774239 0 0.12986776683311119 -0.098514185565799078 0 0.1048667032735431 -0.089595599910983495 0 0.1191358060176364 -0.092450830711447801 0 0.10987135005660249 -0.1059502751577799 0 0.10987135005660249 -0.1059502751577799 0 0.1058809127300703 -0.11218140843774239 0 0.12986776683311119 -0.098514185565799078 0 0.1191358060176364 -0.092450830711447801 0 0.10987135005660249 -0.1059502751577799 0 0.12986776683311119 -0.098514185565799078 0 0.1191358060176364 -0.092450830711447801 0 0.10987135005660249 -0.1059502751577799 0 0.093192902201961414 -0.094424548291792879 0 0.088899626305776192 -0.1113374325741409 0 0.099225161677519755 -0.1035257336162041 0 0.1048667032735431 -0.089595599910983495 0 0.10987135005660249 -0.1059502751577799 0 0.099225161677519755 -0.1035257336162041 0 0.10987135005660249 -0.1059502751577799 0 0.099225161677519755 -0.1035257336162041 0 0.1058809127300703 -0.11218140843774239 0 0.088899626305776192 -0.1113374325741409 0 0.099225161677519755 -0.1035257336162041 0 0.09397493983509804 -0.11322330148444169 0 0.093192902201961414 -0.094424548291792879 0 0.1048667032735431 -0.089595599910983495 0 0.099225161677519755 -0.1035257336162041 0 0.081894058627025895 -0.12584863130967919 0 0.1058809127300703 -0.11218140843774239 0 0.099525338641528904 -0.12611341339503321 0 0.081894058627025895 -0.12584863130967919 0 0.1058809127300703 -0.11218140843774239 0 0.081894058627025895 -0.12584863130967919 0 0.09397493983509804 -0.11322330148444169 0 0.1058809127300703 -0.11218140843774239 0 0.099225161677519755 -0.1035257336162041 0 0.09397493983509804 -0.11322330148444169 0 0.1058809127300703 -0.11218140843774239 0 0.099525338641528904 -0.12611341339503321 0 0.1058809127300703 -0.11218140843774239 0 0.1121708616464093 -0.1216807098986791 0 0.1058809127300703 -0.11218140843774239 0 0.1121708616464093 -0.1216807098986791 0 0.12023297736745781 -0.1110263554770618 0 0.11997683785091839 -0.1276371159963853 0 0.121067612134044 -0.1214532534018402 0 0.13188977167139071 -0.12546883223523481 0 0.12023297736745781 -0.1110263554770618 0 0.121067612134044 -0.1214532534018402 0 0.13188977167139071 -0.12546883223523481 0 0.11997683785091839 -0.1276371159963853 0 0.1121708616464093 -0.1216807098986791 0 0.121067612134044 -0.1214532534018402 0 0.1121708616464093 -0.1216807098986791 0 0.12023297736745781 -0.1110263554770618 0 0.121067612134044 -0.1214532534018402 0 0.12023297736745781 -0.1110263554770618 0 0.12986776683311119 -0.098514185565799078 0 0.13188977167139071 -0.12546883223523481 0 0.12986776683311119 -0.098514185565799078 0 0.13188977167139071 -0.12546883223523481 0 0.14925441928633251 -0.10969288085116551 0 0.13995942417209239 -0.1034127274713456 0 0.13188977167139071 -0.12546883223523481 0 0.14724036225017881 -0.1245170930860646 0 0.14925441928633251 -0.10969288085116551 0 0.13188977167139071 -0.12546883223523481 0 0.14925441928633251 -0.10969288085116551 0 0.15485465026004211 -0.11932571079310079 0 0.15999890680388329 -0.1096406796162286 0 0.14724036225017881 -0.1245170930860646 0 0.15485465026004211 -0.11932571079310079 0 0.15557261582888751 -0.13003178131142151 0 0.14724036225017881 -0.1245170930860646 0 0.14925441928633251 -0.10969288085116551 0 0.15485465026004211 -0.11932571079310079 0 0.14925441928633251 -0.10969288085116551 0 0.14348993397904131 -0.092765062884646393 0 0.1620153957752187 -0.097165399419701551 0 0.14348993397904131 -0.092765062884646393 0 0.1620153957752187 -0.097165399419701551 0 0.14925441928633251 -0.10969288085116551 0 0.13995942417209239 -0.1034127274713456 0 0.14348993397904131 -0.092765062884646393 0 0.13995942417209239 -0.1034127274713456 0 0.12986776683311119 -0.098514185565799078 0 0.13188977167139071 -0.12546883223523481 0 0.13995942417209239 -0.1034127274713456 0 0.12986776683311119 -0.098514185565799078 0 0.14348993397904131 -0.092765062884646393 0 0.12986776683311119 -0.098514185565799078 0 0.12840026197867099 -0.078951386265116219 0 0.1428482005174804 -0.076716741777837147 0 0.1191358060176364 -0.092450830711447801 0 0.12986776683311119 -0.098514185565799078 0 0.12840026197867099 -0.078951386265116219 0 0.12986776683311119 -0.098514185565799078 0 0.12840026197867099 -0.078951386265116219 0 0.12840026197867099 -0.078951386265116219 0 0.12664898879935529 -0.055605769639440771 0 0.12840026197867099 -0.078951386265116219 0 0.12664898879935529 -0.055605769639440771 0 0.14464694777039611 -0.055277979731059648 0 0.12840026197867099 -0.078951386265116219 0 0.1428482005174804 -0.076716741777837147 0 0.14464694777039611 -0.055277979731059648 0 0.12840026197867099 -0.078951386265116219 0 0.14464694777039611 -0.055277979731059648 0 0.1428482005174804 -0.076716741777837147 0 0.15680899227989839 -0.06637062400294011 0 0.14464694777039611 -0.055277979731059648 0 0.1428482005174804 -0.076716741777837147 0 0.15451703372532541 -0.084469533324270707 0 0.15680899227989839 -0.06637062400294011 0 0.12986776683311119 -0.098514185565799078 0 0.15451703372532541 -0.084469533324270707 0 0.12986776683311119 -0.098514185565799078 0 0.14348993397904131 -0.092765062884646393 0 0.15451703372532541 -0.084469533324270707 0 0.14348993397904131 -0.092765062884646393 0 0.15451703372532541 -0.084469533324270707 0 0.1620153957752187 -0.097165399419701551 0 0.12986776683311119 -0.098514185565799078 0 0.1428482005174804 -0.076716741777837147 0 0.15451703372532541 -0.084469533324270707 0 0.15451703372532541 -0.084469533324270707 0 0.1674193516126988 -0.088794767656503876 0 0.1620153957752187 -0.097165399419701551 0 0.15451703372532541 -0.084469533324270707 0 0.1674193516126988 -0.088794767656503876 0 0.16389165652408541 -0.076485311925560115 0 0.1674193516126988 -0.088794767656503876 0 0.16389165652408541 -0.076485311925560115 0 0.17613181446746839 -0.084287857658230353 0 0.15451703372532541 -0.084469533324270707 0 0.15680899227989839 -0.06637062400294011 0 0.16389165652408541 -0.076485311925560115 0 0.16389165652408541 -0.076485311925560115 0 0.1717227713635387 -0.067009979361705274 0 0.17613181446746839 -0.084287857658230353 0 0.15680899227989839 -0.06637062400294011 0 0.16389165652408541 -0.076485311925560115 0 0.1717227713635387 -0.067009979361705274 0 0.15680899227989839 -0.06637062400294011 0 0.1717227713635387 -0.067009979361705274 0 0.1652446184022294 -0.054500080927008407 0 0.1717227713635387 -0.067009979361705274 0 0.17613181446746839 -0.084287857658230353 0 0.1717227713635387 -0.067009979361705274 0 0.18346211879182289 -0.064955309332027283 0 0.18137547142311691 -0.085525622921553163 0 0.18346211879182289 -0.064955309332027283 0 0.18137547142311691 -0.085525622921553163 0 0.1952329782378138 -0.068464889048657496 0 0.1717227713635387 -0.067009979361705274 0 0.18137547142311691 -0.085525622921553163 0 0.1717227713635387 -0.067009979361705274 0 0.18346211879182289 -0.064955309332027283 0 0.1746283364613696 -0.057560297553190053 0 0.18137547142311691 -0.085525622921553163 0 0.17613181446746839 -0.084287857658230353 0 0.18054085757139629 -0.1015657359547559 0 0.17613181446746839 -0.084287857658230353 0 0.18054085757139629 -0.1015657359547559 0 0.1674193516126988 -0.088794767656503876 0 0.17613181446746839 -0.084287857658230353 0 0.18054085757139629 -0.1015657359547559 0 0.1717227713635387 -0.067009979361705274 0 0.18137547142311691 -0.085525622921553163 0 0.17613181446746839 -0.084287857658230353 0 0.18137547142311691 -0.085525622921553163 0 0.19100769245097829 -0.1040519139747048 0 0.18137547142311691 -0.085525622921553163 0 0.18054085757139629 -0.1015657359547559 0 0.19100769245097829 -0.1040519139747048 0 0.18054085757139629 -0.1015657359547559 0 0.1749190978293893 -0.1165979942053425 0 0.16884250162088479 -0.1080310140379921 0 0.18054085757139629 -0.1015657359547559 0 0.19100769245097829 -0.1040519139747048 0 0.18054085757139629 -0.1015657359547559 0 0.1862357176231304 -0.1238823921021804 0 0.1749190978293893 -0.1165979942053425 0 0.18054085757139629 -0.1015657359547559 0 0.1862357176231304 -0.1238823921021804 0 0.19100769245097829 -0.1040519139747048 0 0.18054085757139629 -0.1015657359547559 0 0.1862357176231304 -0.1238823921021804 0 0.1862357176231304 -0.1238823921021804 0 0.1749190978293893 -0.1165979942053425 0 0.17324983187337631 -0.13165498831909611 0 0.1749190978293893 -0.1165979942053425 0 0.16471491079178111 -0.1205264202314431 0 0.16884250162088479 -0.1080310140379921 0 0.16471491079178111 -0.1205264202314431 0 0.15999890680388329 -0.1096406796162286 0 0.16884250162088479 -0.1080310140379921 0 0.1749190978293893 -0.1165979942053425 0 0.16471491079178111 -0.1205264202314431 0 0.17324983187337631 -0.13165498831909611 0 0.15485465026004211 -0.11932571079310079 0 0.16471491079178111 -0.1205264202314431 0 0.15557261582888751 -0.13003178131142151 0 0.15485465026004211 -0.11932571079310079 0 0.16471491079178111 -0.1205264202314431 0 0.15999890680388329 -0.1096406796162286 0 0.18054085757139629 -0.1015657359547559 0 0.1620153957752187 -0.097165399419701551 0 0.1674193516126988 -0.088794767656503876 0 0.18054085757139629 -0.1015657359547559 0 0.1620153957752187 -0.097165399419701551 0 0.14925441928633251 -0.10969288085116551 0 0.15999890680388329 -0.1096406796162286 0 0.1620153957752187 -0.097165399419701551 0 0.15999890680388329 -0.1096406796162286 0 0.1620153957752187 -0.097165399419701551 0 0.16884250162088479 -0.1080310140379921 0 0.18054085757139629 -0.1015657359547559 0 0.1620153957752187 -0.097165399419701551 0 0.16884250162088479 -0.1080310140379921 0 0.13464870039648349 0.00080453217212592717 0 0.15480995508657039 -0.001084596553268768 0 0.14892696920713289 -0.018041582065753459 0 0.13464870039648349 0.00080453217212592717 0 0.1294320674019063 -0.023146095115484211 0 0.14892696920713289 -0.018041582065753459 0 0.13464870039648349 0.00080453217212592717 0 0.1112777463759113 -0.012222875866518469 0 0.1294320674019063 -0.023146095115484211 0 0.1294320674019063 -0.023146095115484211 0 0.14892696920713289 -0.018041582065753459 0 0.14270131340979469 -0.036531096068384838 0 0.14892696920713289 -0.018041582065753459 0 0.14270131340979469 -0.036531096068384838 0 0.16089363356212191 -0.031604573197003549 0 0.14270131340979469 -0.036531096068384838 0 0.14464694777039611 -0.055277979731059648 0 0.16089363356212191 -0.031604573197003549 0 0.14464694777039611 -0.055277979731059648 0 0.15561449558007559 -0.051164132387281437 0 0.16089363356212191 -0.031604573197003549 0 0.14464694777039611 -0.055277979731059648 0 0.16089363356212191 -0.031604573197003549 0 0.14270131340979469 -0.036531096068384838 0 0.12954193793015309 -0.041748568408345607 0 0.14464694777039611 -0.055277979731059648 0 0.1294320674019063 -0.023146095115484211 0 0.14270131340979469 -0.036531096068384838 0 0.12954193793015309 -0.041748568408345607 0 0.12954193793015309 -0.041748568408345607 0 0.12664898879935529 -0.055605769639440771 0 0.14464694777039611 -0.055277979731059648 0 0.15680899227989839 -0.06637062400294011 0 0.14464694777039611 -0.055277979731059648 0 0.15561449558007559 -0.051164132387281437 0 0.15680899227989839 -0.06637062400294011 0 0.15561449558007559 -0.051164132387281437 0 0.1652446184022294 -0.054500080927008407 0 0.15561449558007559 -0.051164132387281437 0 0.1652446184022294 -0.054500080927008407 0 0.1617942405007988 -0.043199732881276223 0 0.1652446184022294 -0.054500080927008407 0 0.1746283364613696 -0.057560297553190053 0 0.1617942405007988 -0.043199732881276223 0 0.1717227713635387 -0.067009979361705274 0 0.1652446184022294 -0.054500080927008407 0 0.1717227713635387 -0.067009979361705274 0 0.1652446184022294 -0.054500080927008407 0 0.1746283364613696 -0.057560297553190053 0 0.1746283364613696 -0.057560297553190053 0 0.1828119860636557 -0.050363577362968731 0 0.1617942405007988 -0.043199732881276223 0 0.18346211879182289 -0.064955309332027283 0 0.1746283364613696 -0.057560297553190053 0 0.1828119860636557 -0.050363577362968731 0 0.18346211879182289 -0.064955309332027283 0 0.1828119860636557 -0.050363577362968731 0 0.19188844298534441 -0.056659859735039647 0 0.1617942405007988 -0.043199732881276223 0 0.18853740735089011 -0.033706188378118708 0 0.1828119860636557 -0.050363577362968731 0 0.1617942405007988 -0.043199732881276223 0 0.18853740735089011 -0.033706188378118708 0 0.15561449558007559 -0.051164132387281437 0 0.16089363356212191 -0.031604573197003549 0 0.1617942405007988 -0.043199732881276223 0 0.16089363356212191 -0.031604573197003549 0 0.1617942405007988 -0.043199732881276223 0 0.18853740735089011 -0.033706188378118708 0 0.16089363356212191 -0.031604573197003549 0 0.17714031935384769 -0.0079311666629475405 0 0.14892696920713289 -0.018041582065753459 0 0.16089363356212191 -0.031604573197003549 0 0.17714031935384769 -0.0079311666629475405 0 0.16089363356212191 -0.031604573197003549 0 0.17714031935384769 -0.0079311666629475405 0 0.18853740735089011 -0.033706188378118708 0 0.1657030786406338 0.0084270166623369204 0 0.15480995508657039 -0.001084596553268768 0 0.17714031935384769 -0.0079311666629475405 0 0.15480995508657039 -0.001084596553268768 0 0.14892696920713289 -0.018041582065753459 0 0.17714031935384769 -0.0079311666629475405 0 0.21351355446813719 -0.0021103410187178909 0 0.2110126965438916 -0.012672932103663791 0 0.2228246624943325 -0.0092295053444410857 0 0.2110126965438916 -0.012672932103663791 0 0.21911622703360889 -0.015650702578479541 0 0.2228246624943325 -0.0092295053444410857 0 0.21351355446813719 -0.0021103410187178909 0 0.2110126965438916 -0.012672932103663791 0 0.19836939172364151 -0.01016904411482358 0 0.1998105265397013 0.00335350757378736 0 0.21351355446813719 -0.0021103410187178909 0 0.19836939172364151 -0.01016904411482358 0 0.1998105265397013 0.00335350757378736 0 0.17714031935384769 -0.0079311666629475405 0 0.19836939172364151 -0.01016904411482358 0 0.17714031935384769 -0.0079311666629475405 0 0.19836939172364151 -0.01016904411482358 0 0.18853740735089011 -0.033706188378118708 0 0.2110126965438916 -0.012672932103663791 0 0.19836939172364151 -0.01016904411482358 0 0.18853740735089011 -0.033706188378118708 0 0.21528057420098159 -0.024212643874961401 0 0.18853740735089011 -0.033706188378118708 0 0.2110126965438916 -0.012672932103663791 0 0.21528057420098159 -0.024212643874961401 0 0.18853740735089011 -0.033706188378118708 0 0.21528057420098159 -0.024212643874961401 0 0.20886364623554921 -0.031523512657201581 0 0.18853740735089011 -0.033706188378118708 0 0.2110126965438916 -0.012672932103663791 0 0.21528057420098159 -0.024212643874961401 0 0.21911622703360889 -0.015650702578479541 0 0.21528057420098159 -0.024212643874961401 0 0.2158000993154765 -0.027276596113623111 0 0.21360323626451261 -0.02858374534336202 0 0.21528057420098159 -0.024212643874961401 0 0.2158000993154765 -0.027276596113623111 0 0.21995729679401421 -0.029331280632926501 0 0.2158000993154765 -0.027276596113623111 0 0.21503400689837671 -0.030930810510401429 0 0.21995729679401421 -0.029331280632926501 0 0.2158000993154765 -0.027276596113623111 0 0.21503400689837671 -0.030930810510401429 0 0.21360323626451261 -0.02858374534336202 0 0.21528057420098159 -0.024212643874961401 0 0.21360323626451261 -0.02858374534336202 0 0.20886364623554921 -0.031523512657201581 0 0.21503400689837671 -0.030930810510401429 0 0.21360323626451261 -0.02858374534336202 0 0.20886364623554921 -0.031523512657201581 0 0.2128060919330283 -0.035124071741943173 0 0.2180191377477218 -0.035203133534298187 0 0.2167024847658664 -0.043974661413588162 0 0.21503400689837671 -0.030930810510401429 0 0.2128060919330283 -0.035124071741943173 0 0.20886364623554921 -0.031523512657201581 0 0.21503400689837671 -0.030930810510401429 0 0.2128060919330283 -0.035124071741943173 0 0.2180191377477218 -0.035203133534298187 0 0.21503400689837671 -0.030930810510401429 0 0.2180191377477218 -0.035203133534298187 0 0.21995729679401421 -0.029331280632926501 0 0.2167024847658664 -0.043974661413588162 0 0.20890374551960481 -0.040729144831228678 0 0.20897987019450001 -0.050060865146210963 0 0.2128060919330283 -0.035124071741943173 0 0.2167024847658664 -0.043974661413588162 0 0.20890374551960481 -0.040729144831228678 0 0.20890374551960481 -0.040729144831228678 0 0.19655169947710091 -0.043788383486002072 0 0.20897987019450001 -0.050060865146210963 0 0.2128060919330283 -0.035124071741943173 0 0.20890374551960481 -0.040729144831228678 0 0.20886364623554921 -0.031523512657201581 0 0.20890374551960481 -0.040729144831228678 0 0.20886364623554921 -0.031523512657201581 0 0.19655169947710091 -0.043788383486002072 0 0.1828119860636557 -0.050363577362968731 0 0.18853740735089011 -0.033706188378118708 0 0.19655169947710091 -0.043788383486002072 0 0.20886364623554921 -0.031523512657201581 0 0.18853740735089011 -0.033706188378118708 0 0.19655169947710091 -0.043788383486002072 0 0.19655169947710091 -0.043788383486002072 0 0.20138343235632811 -0.055727139445542639 0 0.20897987019450001 -0.050060865146210963 0 0.19655169947710091 -0.043788383486002072 0 0.19188844298534441 -0.056659859735039647 0 0.20138343235632811 -0.055727139445542639 0 0.1828119860636557 -0.050363577362968731 0 0.19655169947710091 -0.043788383486002072 0 0.19188844298534441 -0.056659859735039647 0 0.19188844298534441 -0.056659859735039647 0 0.20138343235632811 -0.055727139445542639 0 0.1952329782378138 -0.068464889048657496 0 0.20138343235632811 -0.055727139445542639 0 0.22670270369963491 -0.067064047377793826 0 0.20138343235632811 -0.055727139445542639 0 0.21577564808412511 -0.056666161138016313 0 0.22670270369963491 -0.067064047377793826 0 0.20138343235632811 -0.055727139445542639 0 0.20897987019450001 -0.050060865146210963 0 0.21577564808412511 -0.056666161138016313 0 0.2167024847658664 -0.043974661413588162 0 0.20897987019450001 -0.050060865146210963 0 0.21577564808412511 -0.056666161138016313 0 0.21577564808412511 -0.056666161138016313 0 0.23694359709532001 -0.061394592404840097 0 0.22670270369963491 -0.067064047377793826 0 0.21577564808412511 -0.056666161138016313 0 0.22648325856373289 -0.049317463857355977 0 0.23694359709532001 -0.061394592404840097 0 0.21577564808412511 -0.056666161138016313 0 0.23694359709532001 -0.061394592404840097 0 0.2167024847658664 -0.043974661413588162 0 0.21577564808412511 -0.056666161138016313 0 0.22648325856373289 -0.049317463857355977 0 0.22648325856373289 -0.049317463857355977 0 0.23694359709532001 -0.061394592404840097 0 0.23716366819637241 -0.046229271507985323 0 0.25811154610651499 -0.066123023671663908 0 0.23694359709532001 -0.061394592404840097 0 0.24870160087168189 -0.052882304334001928 0 0.23694359709532001 -0.061394592404840097 0 0.24870160087168189 -0.052882304334001928 0 0.23716366819637241 -0.046229271507985323 0 0.24870160087168189 -0.052882304334001928 0 0.23716366819637241 -0.046229271507985323 0 0.24731406762381819 -0.035960341631652723 0 0.23716366819637241 -0.046229271507985323 0 0.24731406762381819 -0.035960341631652723 0 0.23342582712955959 -0.033308149953783547 0 0.23342582712955959 -0.033308149953783547 0 0.2258308946769807 -0.038322632822349968 0 0.22548915127375299 -0.027513718828695861 0 0.22648325856373289 -0.049317463857355977 0 0.23716366819637241 -0.046229271507985323 0 0.2258308946769807 -0.038322632822349968 0 0.23716366819637241 -0.046229271507985323 0 0.23342582712955959 -0.033308149953783547 0 0.2258308946769807 -0.038322632822349968 0 0.2180191377477218 -0.035203133534298187 0 0.2167024847658664 -0.043974661413588162 0 0.2258308946769807 -0.038322632822349968 0 0.2167024847658664 -0.043974661413588162 0 0.22648325856373289 -0.049317463857355977 0 0.2258308946769807 -0.038322632822349968 0 0.2180191377477218 -0.035203133534298187 0 0.2258308946769807 -0.038322632822349968 0 0.21995729679401421 -0.029331280632926501 0 0.2258308946769807 -0.038322632822349968 0 0.22548915127375299 -0.027513718828695861 0 0.21995729679401421 -0.029331280632926501 0 0.21528057420098159 -0.024212643874961401 0 0.2313313538768734 -0.018514784978234038 0 0.22829619310998309 -0.01520182636873813 0 0.21528057420098159 -0.024212643874961401 0 0.2313313538768734 -0.018514784978234038 0 0.21528057420098159 -0.024212643874961401 0 0.22548915127375299 -0.027513718828695861 0 0.2313313538768734 -0.018514784978234038 0 0.21528057420098159 -0.024212643874961401 0 0.22548915127375299 -0.027513718828695861 0 0.21995729679401421 -0.029331280632926501 0 0.21528057420098159 -0.024212643874961401 0 0.22829619310998309 -0.01520182636873813 0 0.21528057420098159 -0.024212643874961401 0 0.21911622703360889 -0.015650702578479541 0 0.22829619310998309 -0.01520182636873813 0 0.2313313538768734 -0.018514784978234038 0 0.22829619310998309 -0.01520182636873813 0 0.23342582712955959 -0.033308149953783547 0 0.22548915127375299 -0.027513718828695861 0 0.2313313538768734 -0.018514784978234038 0 0.25508119948702751 -0.010083838205662381 0 0.2313313538768734 -0.018514784978234038 0 0.2482857443068576 -0.021714794414400052 0 0.24731406762381819 -0.035960341631652723 0 0.2313313538768734 -0.018514784978234038 0 0.2482857443068576 -0.021714794414400052 0 0.24731406762381819 -0.035960341631652723 0 0.23342582712955959 -0.033308149953783547 0 0.2313313538768734 -0.018514784978234038 0 0.24731406762381819 -0.035960341631652723 0 0.2313313538768734 -0.018514784978234038 0 0.25508119948702751 -0.010083838205662381 0 0.2313313538768734 -0.018514784978234038 0 0.24138147174972829 -0.0061427828714447699 0 0.25508119948702751 -0.010083838205662381 0 0.2313313538768734 -0.018514784978234038 0 0.24138147174972829 -0.0061427828714447699 0 0.22829619310998309 -0.01520182636873813 0 0.25446675038947358 0.0029162606258486688 0 0.2541426920980116 -0.0036136263454906951 0 0.24138147174972829 -0.0061427828714447699 0 0.25446675038947358 0.0029162606258486688 0 0.24138147174972829 -0.0061427828714447699 0 0.22999165343287109 0.0038227322559807589 0 0.24138147174972829 -0.0061427828714447699 0 0.23189167676904729 -0.0064153040848911828 0 0.22999165343287109 0.0038227322559807589 0 0.23189167676904729 -0.0064153040848911828 0 0.2228246624943325 -0.0092295053444410857 0 0.22999165343287109 0.0038227322559807589 0 0.21351355446813719 -0.0021103410187178909 0 0.2228246624943325 -0.0092295053444410857 0 0.23189167676904729 -0.0064153040848911828 0 0.22829619310998309 -0.01520182636873813 0 0.2228246624943325 -0.0092295053444410857 0 0.2313313538768734 -0.018514784978234038 0 0.24138147174972829 -0.0061427828714447699 0 0.22829619310998309 -0.01520182636873813 0 0.24138147174972829 -0.0061427828714447699 0 0.23189167676904729 -0.0064153040848911828 0 0.22829619310998309 -0.01520182636873813 0 0.21911622703360889 -0.015650702578479541 0 0.22829619310998309 -0.01520182636873813 0 0.2228246624943325 -0.0092295053444410857 0 0.22829619310998309 -0.01520182636873813 0 0.2228246624943325 -0.0092295053444410857 0 0.2084634723971549 -0.097930235578601213 0 0.21737999015654699 -0.1103161024944793 0 0.2275791846540145 -0.10054182369239011 0 0.21737999015654699 -0.1103161024944793 0 0.19100769245097829 -0.1040519139747048 0 0.2084634723971549 -0.097930235578601213 0 0.21140608144591419 -0.084503356370523836 0 0.2275791846540145 -0.10054182369239011 0 0.2084634723971549 -0.097930235578601213 0 0.21737999015654699 -0.1103161024944793 0 0.19100769245097829 -0.1040519139747048 0 0.21737999015654699 -0.1103161024944793 0 0.21277072480774051 -0.1248863227998855 0 0.20025029595199689 -0.1218288277367077 0 0.21737999015654699 -0.1103161024944793 0 0.21277072480774051 -0.1248863227998855 0 0.2239597136694004 -0.1277946194696456 0 0.1862357176231304 -0.1238823921021804 0 0.20025029595199689 -0.1218288277367077 0 0.19100769245097829 -0.1040519139747048 0 0.21737999015654699 -0.1103161024944793 0 0.20025029595199689 -0.1218288277367077 0 0.19100769245097829 -0.1040519139747048 0 0.20025029595199689 -0.1218288277367077 0 0.19100769245097829 -0.1040519139747048 0 0.2084634723971549 -0.097930235578601213 0 0.19100769245097829 -0.1040519139747048 0 0.19624682445825681 -0.08914472739044943 0 0.18137547142311691 -0.085525622921553163 0 0.19100769245097829 -0.1040519139747048 0 0.19624682445825681 -0.08914472739044943 0 0.19624682445825681 -0.08914472739044943 0 0.1952329782378138 -0.068464889048657496 0 0.21140608144591419 -0.084503356370523836 0 0.18137547142311691 -0.085525622921553163 0 0.19624682445825681 -0.08914472739044943 0 0.1952329782378138 -0.068464889048657496 0 0.20138343235632811 -0.055727139445542639 0 0.1952329782378138 -0.068464889048657496 0 0.21149591893834541 -0.070957707586151192 0 0.18346211879182289 -0.064955309332027283 0 0.19188844298534441 -0.056659859735039647 0 0.1952329782378138 -0.068464889048657496 0 0.1952329782378138 -0.068464889048657496 0 0.21140608144591419 -0.084503356370523836 0 0.20138343235632811 -0.055727139445542639 0 0.21149591893834541 -0.070957707586151192 0 0.22670270369963491 -0.067064047377793826 0 0.1952329782378138 -0.068464889048657496 0 0.21149591893834541 -0.070957707586151192 0 0.21140608144591419 -0.084503356370523836 0 0.2084634723971549 -0.097930235578601213 0 0.19624682445825681 -0.08914472739044943 0 0.21140608144591419 -0.084503356370523836 0 0.21149591893834541 -0.070957707586151192 0 0.21140608144591419 -0.084503356370523836 0 0.2227543989520358 -0.079029105688238177 0 0.21140608144591419 -0.084503356370523836 0 0.2275791846540145 -0.10054182369239011 0 0.2227543989520358 -0.079029105688238177 0 0.23449163343577681 -0.083610487294907485 0 0.2275791846540145 -0.10054182369239011 0 0.21140608144591419 -0.084503356370523836 0 0.2227543989520358 -0.079029105688238177 0 0.2275791846540145 -0.10054182369239011 0 0.2227543989520358 -0.079029105688238177 0 0.22670270369963491 -0.067064047377793826 0 0.23449163343577681 -0.083610487294907485 0 0.21149591893834541 -0.070957707586151192 0 0.2227543989520358 -0.079029105688238177 0 0.22670270369963491 -0.067064047377793826 0 0.25202197504294188 -0.078400955310045109 0 0.25811154610651499 -0.066123023671663908 0 0.23694359709532001 -0.061394592404840097 0 0.25202197504294188 -0.078400955310045109 0 0.22670270369963491 -0.067064047377793826 0 0.25202197504294188 -0.078400955310045109 0 0.22670270369963491 -0.067064047377793826 0 0.23449163343577681 -0.083610487294907485 0 0.25202197504294188 -0.078400955310045109 0 0.23694359709532001 -0.061394592404840097 0 0.22670270369963491 -0.067064047377793826 0 0.25811154610651499 -0.066123023671663908 0 0.23694359709532001 -0.061394592404840097 0 0.25202197504294188 -0.078400955310045109 0 0.23449163343577681 -0.083610487294907485 0 0.24624903761231479 -0.086847438891893419 0 0.23449163343577681 -0.083610487294907485 0 0.24292322406264641 -0.096552741650977186 0 0.2275791846540145 -0.10054182369239011 0 0.23449163343577681 -0.083610487294907485 0 0.24624903761231479 -0.086847438891893419 0 0.24292322406264641 -0.096552741650977186 0 0.25304747237378489 -0.090741332181114118 0 0.24624903761231479 -0.086847438891893419 0 0.24292322406264641 -0.096552741650977186 0 0.2275791846540145 -0.10054182369239011 0 0.24375228786211539 -0.116580291014256 0 0.24292322406264641 -0.096552741650977186 0 0.2275791846540145 -0.10054182369239011 0 0.24375228786211539 -0.116580291014256 0 0.25771864553297669 -0.099620140202181948 0 0.24292322406264641 -0.096552741650977186 0 0.24375228786211539 -0.116580291014256 0 0.21737999015654699 -0.1103161024944793 0 0.2275791846540145 -0.10054182369239011 0 0.24375228786211539 -0.116580291014256 0 0.21737999015654699 -0.1103161024944793 0 0.24375228786211539 -0.116580291014256 0 0.2239597136694004 -0.1277946194696456 0 0.21737999015654699 -0.1103161024944793 0 0.24375228786211539 -0.116580291014256 0 0.24375228786211539 -0.116580291014256 0 0.235054631712311 -0.13955626642273861 0 0.24955680073527009 -0.143898101237383 0 0.235054631712311 -0.13955626642273861 0 0.24955680073527009 -0.143898101237383 0 0.23627457688356679 -0.15840319400941011 0 0.25449645062408999 -0.16331052089379791 0 0.24955680073527009 -0.143898101237383 0 0.23627457688356679 -0.15840319400941011 0 0.235054631712311 -0.13955626642273861 0 0.22199130801810529 -0.1478171468904442 0 0.23627457688356679 -0.15840319400941011 0 0.24375228786211539 -0.116580291014256 0 0.235054631712311 -0.13955626642273861 0 0.2239597136694004 -0.1277946194696456 0 0.235054631712311 -0.13955626642273861 0 0.22199130801810529 -0.1478171468904442 0 0.2239597136694004 -0.1277946194696456 0 0.20025029595199689 -0.1218288277367077 0 0.20949289945301761 -0.1396057414987095 0 0.22199130801810529 -0.1478171468904442 0 0.2239597136694004 -0.1277946194696456 0 0.20949289945301761 -0.1396057414987095 0 0.21277072480774051 -0.1248863227998855 0 0.20025029595199689 -0.1218288277367077 0 0.20949289945301761 -0.1396057414987095 0 0.21277072480774051 -0.1248863227998855 0 0.2239597136694004 -0.1277946194696456 0 0.20949289945301761 -0.1396057414987095 0 0.22199130801810529 -0.1478171468904442 0 0.20949289945301761 -0.1396057414987095 0 0.2069794531536403 -0.1537888919124783 0 0.20949289945301761 -0.1396057414987095 0 0.2069794531536403 -0.1537888919124783 0 0.1919305776748628 -0.1461990482496055 0 0.2069794531536403 -0.1537888919124783 0 0.1919305776748628 -0.1461990482496055 0 0.19225769977326759 -0.16432491474026781 0 0.1862357176231304 -0.1238823921021804 0 0.1919305776748628 -0.1461990482496055 0 0.19714487019074359 -0.1333469628700395 0 0.20025029595199689 -0.1218288277367077 0 0.20949289945301761 -0.1396057414987095 0 0.19714487019074359 -0.1333469628700395 0 0.20949289945301761 -0.1396057414987095 0 0.1919305776748628 -0.1461990482496055 0 0.19714487019074359 -0.1333469628700395 0 0.1862357176231304 -0.1238823921021804 0 0.1919305776748628 -0.1461990482496055 0 0.1862357176231304 -0.1238823921021804 0 0.20025029595199689 -0.1218288277367077 0 0.19714487019074359 -0.1333469628700395 0 0.19629081049063871 -0.1815365299480412 0 0.19225769977326759 -0.16432491474026781 0 0.17982600751226671 -0.1762593337595659 0 0.19629081049063871 -0.1815365299480412 0 0.19225769977326759 -0.16432491474026781 0 0.22018657323669569 -0.16775416802968299 0 0.2069794531536403 -0.1537888919124783 0 0.19225769977326759 -0.16432491474026781 0 0.22018657323669569 -0.16775416802968299 0 0.22199130801810529 -0.1478171468904442 0 0.2069794531536403 -0.1537888919124783 0 0.22018657323669569 -0.16775416802968299 0 0.19629081049063871 -0.1815365299480412 0 0.22018657323669569 -0.16775416802968299 0 0.21237941264848451 -0.18810475376770611 0 0.22018657323669569 -0.16775416802968299 0 0.23934418379307471 -0.18436482883247621 0 0.22018657323669569 -0.16775416802968299 0 0.23934418379307471 -0.18436482883247621 0 0.21237941264848451 -0.18810475376770611 0 0.22018657323669569 -0.16775416802968299 0 0.23627457688356679 -0.15840319400941011 0 0.23934418379307471 -0.18436482883247621 0 0.22199130801810529 -0.1478171468904442 0 0.22018657323669569 -0.16775416802968299 0 0.23627457688356679 -0.15840319400941011 0 0.25449645062408999 -0.16331052089379791 0 0.23627457688356679 -0.15840319400941011 0 0.23934418379307471 -0.18436482883247621 0 0.25850179434945381 -0.20097548963526929 0 0.23934418379307471 -0.18436482883247621 0 0.25850179434945381 -0.20097548963526929 0 0.23934418379307471 -0.18436482883247621 0 0.23907695871134879 -0.21289681242661959 0 0.23907695871134879 -0.21289681242661959 0 0.22308479462261119 -0.20217133576560289 0 0.21722062693650279 -0.2226466586169516 0 0.23934418379307471 -0.18436482883247621 0 0.22308479462261119 -0.20217133576560289 0 0.21237941264848451 -0.18810475376770611 0 0.23934418379307471 -0.18436482883247621 0 0.23907695871134879 -0.21289681242661959 0 0.22308479462261119 -0.20217133576560289 0 0.25037283077400019 -0.2416092145933311 0 0.23239962387573149 -0.2337287944253621 0 0.2339549802858914 -0.24933471903745599 0 0.25658827463044448 -0.2222138965281123 0 0.23907695871134879 -0.21289681242661959 0 0.2446094219978813 -0.2276121794933563 0 0.25037283077400019 -0.2416092145933311 0 0.2446094219978813 -0.2276121794933563 0 0.23239962387573149 -0.2337287944253621 0 0.23907695871134879 -0.21289681242661959 0 0.2446094219978813 -0.2276121794933563 0 0.23239962387573149 -0.2337287944253621 0 0.23907695871134879 -0.21289681242661959 0 0.23239962387573149 -0.2337287944253621 0 0.21722062693650279 -0.2226466586169516 0 0.23239962387573149 -0.2337287944253621 0 0.2194561222393229 -0.23682627783696539 0 0.21722062693650279 -0.2226466586169516 0 0.23239962387573149 -0.2337287944253621 0 0.22502312889380549 -0.2426362774769398 0 0.2339549802858914 -0.24933471903745599 0 0.2194561222393229 -0.23682627783696539 0 0.22502312889380549 -0.2426362774769398 0 0.21456577207223029 -0.24270171036535029 0 0.23239962387573149 -0.2337287944253621 0 0.2194561222393229 -0.23682627783696539 0 0.22502312889380549 -0.2426362774769398 0 0.22331750647786899 -0.25281133177650322 0 0.22502312889380549 -0.2426362774769398 0 0.21456577207223029 -0.24270171036535029 0 0.22331750647786899 -0.25281133177650322 0 0.22502312889380549 -0.2426362774769398 0 0.2339549802858914 -0.24933471903745599 0 0.2084475354763706 -0.25511513831035743 0 0.2080714594183444 -0.2424179483002232 0 0.21336353465090491 -0.24693864317134839 0 0.2080714594183444 -0.2424179483002232 0 0.21336353465090491 -0.24693864317134839 0 0.2080714594183444 -0.2424179483002232 0 0.21336353465090491 -0.24693864317134839 0 0.21456577207223029 -0.24270171036535029 0 0.2194561222393229 -0.23682627783696539 0 0.2080714594183444 -0.2424179483002232 0 0.21456577207223029 -0.24270171036535029 0 0.21722062693650279 -0.2226466586169516 0 0.20244123733496699 -0.2260211367091485 0 0.19848523837712481 -0.2136299623964425 0 0.2080714594183444 -0.2424179483002232 0 0.21722062693650279 -0.2226466586169516 0 0.2194561222393229 -0.23682627783696539 0 0.2080714594183444 -0.2424179483002232 0 0.21722062693650279 -0.2226466586169516 0 0.2080714594183444 -0.2424179483002232 0 0.21722062693650279 -0.2226466586169516 0 0.20244123733496699 -0.2260211367091485 0 0.2080714594183444 -0.2424179483002232 0 0.18716213711817259 -0.22455639835484539 0 0.2080714594183444 -0.2424179483002232 0 0.20244123733496699 -0.2260211367091485 0 0.18716213711817259 -0.22455639835484539 0 0.20244123733496699 -0.2260211367091485 0 0.19848523837712481 -0.2136299623964425 0 0.18716213711817259 -0.22455639835484539 0 0.2080714594183444 -0.2424179483002232 0 0.19254414318066221 -0.24961624770678509 0 0.1866817818972302 -0.23981118877977231 0 0.2080714594183444 -0.2424179483002232 0 0.1866817818972302 -0.23981118877977231 0 0.18716213711817259 -0.22455639835484539 0 0.19254414318066221 -0.24961624770678509 0 0.18399505531774341 -0.24981832115951039 0 0.1866817818972302 -0.23981118877977231 0 0.21237941264848451 -0.18810475376770611 0 0.20793523744788639 -0.20366419955677639 0 0.19447652973028121 -0.19759128756789451 0 0.22308479462261119 -0.20217133576560289 0 0.21237941264848451 -0.18810475376770611 0 0.20793523744788639 -0.20366419955677639 0 0.22308479462261119 -0.20217133576560289 0 0.21722062693650279 -0.2226466586169516 0 0.20793523744788639 -0.20366419955677639 0 0.21722062693650279 -0.2226466586169516 0 0.20793523744788639 -0.20366419955677639 0 0.19848523837712481 -0.2136299623964425 0 0.19848523837712481 -0.2136299623964425 0 0.19447652973028121 -0.19759128756789451 0 0.1831457957419608 -0.2071674304332729 0 0.20793523744788639 -0.20366419955677639 0 0.19848523837712481 -0.2136299623964425 0 0.19447652973028121 -0.19759128756789451 0 0.19848523837712481 -0.2136299623964425 0 0.1831457957419608 -0.2071674304332729 0 0.18716213711817259 -0.22455639835484539 0 0.19629081049063871 -0.1815365299480412 0 0.19447652973028121 -0.19759128756789451 0 0.1840061663436266 -0.1900566622106199 0 0.19629081049063871 -0.1815365299480412 0 0.21237941264848451 -0.18810475376770611 0 0.19447652973028121 -0.19759128756789451 0 0.19447652973028121 -0.19759128756789451 0 0.1840061663436266 -0.1900566622106199 0 0.1831457957419608 -0.2071674304332729 0 0.1840061663436266 -0.1900566622106199 0 0.1831457957419608 -0.2071674304332729 0 0.16486725365112659 -0.18785963188663279 0 0.1831457957419608 -0.2071674304332729 0 0.16486725365112659 -0.18785963188663279 0 0.1831457957419608 -0.2071674304332729 0 0.16625281481800089 -0.2066948484094672 0 0.18716213711817259 -0.22455639835484539 0 0.16625281481800089 -0.2066948484094672 0 0.18716213711817259 -0.22455639835484539 0 0.16625281481800089 -0.2066948484094672 0 0.18716213711817259 -0.22455639835484539 0 0.16937657335138201 -0.22198425569814831 0 0.16625281481800089 -0.2066948484094672 0 0.15661990237239229 -0.21733625041789439 0 0.14909823278687431 -0.20687378182447139 0 0.16625281481800089 -0.2066948484094672 0 0.15661990237239229 -0.21733625041789439 0 0.16937657335138201 -0.22198425569814831 0 0.1831457957419608 -0.2071674304332729 0 0.16625281481800089 -0.2066948484094672 0 0.16486725365112659 -0.18785963188663279 0 0.16625281481800089 -0.2066948484094672 0 0.16486725365112659 -0.18785963188663279 0 0.14534349251782941 -0.188833298464089 0 0.17619278994504239 -0.24587918172992959 0 0.18399505531774341 -0.24981832115951039 0 0.1866817818972302 -0.23981118877977231 0 0.17619278994504239 -0.24587918172992959 0 0.17450151464944069 -0.23276490516368609 0 0.16609645978724119 -0.24143951784646769 0 0.17619278994504239 -0.24587918172992959 0 0.1866817818972302 -0.23981118877977231 0 0.17450151464944069 -0.23276490516368609 0 0.17450151464944069 -0.23276490516368609 0 0.18716213711817259 -0.22455639835484539 0 0.16937657335138201 -0.22198425569814831 0 0.1866817818972302 -0.23981118877977231 0 0.17450151464944069 -0.23276490516368609 0 0.18716213711817259 -0.22455639835484539 0 0.15661990237239229 -0.21733625041789439 0 0.1623464977989032 -0.22856887614484861 0 0.15090654410468329 -0.22688320449844629 0 0.15661990237239229 -0.21733625041789439 0 0.16937657335138201 -0.22198425569814831 0 0.1623464977989032 -0.22856887614484861 0 0.17450151464944069 -0.23276490516368609 0 0.1623464977989032 -0.22856887614484861 0 0.16609645978724119 -0.24143951784646769 0 0.17450151464944069 -0.23276490516368609 0 0.16937657335138201 -0.22198425569814831 0 0.1623464977989032 -0.22856887614484861 0 0.1623464977989032 -0.22856887614484861 0 0.16609645978724119 -0.24143951784646769 0 0.1528270009437688 -0.23836283418195289 0 0.16001236861667459 -0.2513654190734112 0 0.16609645978724119 -0.24143951784646769 0 0.1528270009437688 -0.23836283418195289 0 0.16978669848249819 -0.25098739912941831 0 0.17619278994504239 -0.24587918172992959 0 0.16609645978724119 -0.24143951784646769 0 0.16001236861667459 -0.2513654190734112 0 0.16978669848249819 -0.25098739912941831 0 0.16609645978724119 -0.24143951784646769 0 0.1429630926125974 -0.2502577086919005 0 0.16001236861667459 -0.2513654190734112 0 0.1528270009437688 -0.23836283418195289 0 0.1429630926125974 -0.2502577086919005 0 0.1528270009437688 -0.23836283418195289 0 0.13988621804673579 -0.23152362256679451 0 0.1528270009437688 -0.23836283418195289 0 0.15090654410468329 -0.22688320449844629 0 0.13988621804673579 -0.23152362256679451 0 0.1623464977989032 -0.22856887614484861 0 0.1528270009437688 -0.23836283418195289 0 0.15090654410468329 -0.22688320449844629 0 0.15661990237239229 -0.21733625041789439 0 0.15090654410468329 -0.22688320449844629 0 0.1428531013616163 -0.21862443918074129 0 0.15090654410468329 -0.22688320449844629 0 0.13988621804673579 -0.23152362256679451 0 0.1428531013616163 -0.21862443918074129 0 0.12018370186474731 -0.23305432747703519 0 0.12895394136930069 -0.22163642029703709 0 0.13988621804673579 -0.23152362256679451 0 0.12895394136930069 -0.22163642029703709 0 0.13988621804673579 -0.23152362256679451 0 0.1428531013616163 -0.21862443918074129 0 0.1429630926125974 -0.2502577086919005 0 0.12018370186474731 -0.23305432747703519 0 0.1429630926125974 -0.2502577086919005 0 0.12018370186474731 -0.23305432747703519 0 0.13988621804673579 -0.23152362256679451 0 0.13217397618885759 -0.25462043987800831 0 0.1429630926125974 -0.2502577086919005 0 0.12018370186474731 -0.23305432747703519 0 0.16625281481800089 -0.2066948484094672 0 0.14534349251782941 -0.188833298464089 0 0.16625281481800089 -0.2066948484094672 0 0.14534349251782941 -0.188833298464089 0 0.14909823278687431 -0.20687378182447139 0 0.14534349251782941 -0.188833298464089 0 0.14909823278687431 -0.20687378182447139 0 0.1346280568372662 -0.20359450925845249 0 0.15661990237239229 -0.21733625041789439 0 0.14909823278687431 -0.20687378182447139 0 0.1428531013616163 -0.21862443918074129 0 0.14909823278687431 -0.20687378182447139 0 0.1428531013616163 -0.21862443918074129 0 0.1346280568372662 -0.20359450925845249 0 0.1178461100078927 -0.20838697738218431 0 0.12895394136930069 -0.22163642029703709 0 0.1346280568372662 -0.20359450925845249 0 0.12895394136930069 -0.22163642029703709 0 0.1428531013616163 -0.21862443918074129 0 0.1346280568372662 -0.20359450925845249 0 0.14534349251782941 -0.188833298464089 0 0.1346280568372662 -0.20359450925845249 0 0.13128332926409281 -0.18787359724935929 0 0.1237689835273371 -0.19605207676116951 0 0.1178461100078927 -0.20838697738218431 0 0.1346280568372662 -0.20359450925845249 0 0.1237689835273371 -0.19605207676116951 0 0.1346280568372662 -0.20359450925845249 0 0.13128332926409281 -0.18787359724935929 0 0.1237689835273371 -0.19605207676116951 0 0.1232013989280239 -0.1819146573535104 0 0.13128332926409281 -0.18787359724935929 0 0.12443417021765769 -0.1709717485187108 0 0.14534349251782941 -0.188833298464089 0 0.12443417021765769 -0.1709717485187108 0 0.1232013989280239 -0.1819146573535104 0 0.13128332926409281 -0.18787359724935929 0 0.12443417021765769 -0.1709717485187108 0 0.14534349251782941 -0.188833298464089 0 0.13128332926409281 -0.18787359724935929 0 0.12443417021765769 -0.1709717485187108 0 0.14534349251782941 -0.188833298464089 0 0.13540865390058859 -0.1688207667960602 0 0.14534349251782941 -0.188833298464089 0 0.14658871156029241 -0.16855183333999291 0 0.13540865390058859 -0.1688207667960602 0 0.16486725365112659 -0.18785963188663279 0 0.14658871156029241 -0.16855183333999291 0 0.16486725365112659 -0.18785963188663279 0 0.14534349251782941 -0.188833298464089 0 0.14658871156029241 -0.16855183333999291 0 0.14658871156029241 -0.16855183333999291 0 0.13391177650968769 -0.15242347890466901 0 0.14971917460686079 -0.1530450482394467 0 0.14658871156029241 -0.16855183333999291 0 0.14971917460686079 -0.1530450482394467 0 0.16192904395431579 -0.15800089119817939 0 0.14658871156029241 -0.16855183333999291 0 0.13391177650968769 -0.15242347890466901 0 0.12831016946945831 -0.1492440347933528 0 0.14658871156029241 -0.16855183333999291 0 0.12831016946945831 -0.1492440347933528 0 0.14658871156029241 -0.16855183333999291 0 0.13540865390058859 -0.1688207667960602 0 0.1290045142054978 -0.1612372837293575 0 0.14658871156029241 -0.16855183333999291 0 0.1290045142054978 -0.1612372837293575 0 0.12831016946945831 -0.1492440347933528 0 0.13540865390058859 -0.1688207667960602 0 0.12715697753007521 -0.16591248018761531 0 0.1290045142054978 -0.1612372837293575 0 0.12443417021765769 -0.1709717485187108 0 0.13540865390058859 -0.1688207667960602 0 0.12715697753007521 -0.16591248018761531 0 0.12098675462827781 -0.16200852072179159 0 0.12715697753007521 -0.16591248018761531 0 0.1290045142054978 -0.1612372837293575 0 0.12324902196630889 -0.15465793599018671 0 0.1227471198665283 -0.15880086614903269 0 0.1290045142054978 -0.1612372837293575 0 0.13391177650968769 -0.15242347890466901 0 0.12831016946945831 -0.1492440347933528 0 0.12532898621889721 -0.13663811256420449 0 0.12324902196630889 -0.15465793599018671 0 0.1290045142054978 -0.1612372837293575 0 0.12831016946945831 -0.1492440347933528 0 0.1217036921304827 -0.1482443959076799 0 0.12831016946945831 -0.1492440347933528 0 0.12532898621889721 -0.13663811256420449 0 0.13391177650968769 -0.15242347890466901 0 0.13188977167139071 -0.12546883223523481 0 0.13391177650968769 -0.15242347890466901 0 0.13188977167139071 -0.12546883223523481 0 0.1446303542042412 -0.1380662602394005 0 0.13391177650968769 -0.15242347890466901 0 0.13188977167139071 -0.12546883223523481 0 0.12532898621889721 -0.13663811256420449 0 0.11997683785091839 -0.1276371159963853 0 0.13188977167139071 -0.12546883223523481 0 0.12532898621889721 -0.13663811256420449 0 0.1446303542042412 -0.1380662602394005 0 0.15557261582888751 -0.13003178131142151 0 0.1621281360659286 -0.14191921566573409 0 0.14724036225017881 -0.1245170930860646 0 0.13188977167139071 -0.12546883223523481 0 0.1446303542042412 -0.1380662602394005 0 0.14724036225017881 -0.1245170930860646 0 0.1446303542042412 -0.1380662602394005 0 0.15557261582888751 -0.13003178131142151 0 0.13391177650968769 -0.15242347890466901 0 0.1446303542042412 -0.1380662602394005 0 0.14971917460686079 -0.1530450482394467 0 0.1446303542042412 -0.1380662602394005 0 0.14971917460686079 -0.1530450482394467 0 0.1621281360659286 -0.14191921566573409 0 0.1621281360659286 -0.14191921566573409 0 0.17324983187337631 -0.13165498831909611 0 0.17651024624945799 -0.1485415537171802 0 0.14971917460686079 -0.1530450482394467 0 0.1621281360659286 -0.14191921566573409 0 0.16192904395431579 -0.15800089119817939 0 0.1621281360659286 -0.14191921566573409 0 0.17651024624945799 -0.1485415537171802 0 0.16192904395431579 -0.15800089119817939 0 0.16471491079178111 -0.1205264202314431 0 0.15557261582888751 -0.13003178131142151 0 0.1639163736399934 -0.1310331013819237 0 0.15557261582888751 -0.13003178131142151 0 0.1621281360659286 -0.14191921566573409 0 0.1639163736399934 -0.1310331013819237 0 0.1621281360659286 -0.14191921566573409 0 0.1639163736399934 -0.1310331013819237 0 0.17324983187337631 -0.13165498831909611 0 0.16471491079178111 -0.1205264202314431 0 0.1639163736399934 -0.1310331013819237 0 0.17324983187337631 -0.13165498831909611 0 0.1862357176231304 -0.1238823921021804 0 0.1919305776748628 -0.1461990482496055 0 0.17324983187337631 -0.13165498831909611 0 0.1919305776748628 -0.1461990482496055 0 0.17324983187337631 -0.13165498831909611 0 0.17651024624945799 -0.1485415537171802 0 0.1919305776748628 -0.1461990482496055 0 0.19225769977326759 -0.16432491474026781 0 0.17651024624945799 -0.1485415537171802 0 0.19225769977326759 -0.16432491474026781 0 0.17526083145963689 -0.16308053239281189 0 0.17982600751226671 -0.1762593337595659 0 0.19225769977326759 -0.16432491474026781 0 0.17651024624945799 -0.1485415537171802 0 0.17526083145963689 -0.16308053239281189 0 0.17526083145963689 -0.16308053239281189 0 0.17982600751226671 -0.1762593337595659 0 0.16627328335530381 -0.17069773137902189 0 0.1840061663436266 -0.1900566622106199 0 0.16486725365112659 -0.18785963188663279 0 0.17982600751226671 -0.1762593337595659 0 0.19629081049063871 -0.1815365299480412 0 0.1840061663436266 -0.1900566622106199 0 0.17982600751226671 -0.1762593337595659 0 0.16486725365112659 -0.18785963188663279 0 0.14658871156029241 -0.16855183333999291 0 0.16627328335530381 -0.17069773137902189 0 0.16486725365112659 -0.18785963188663279 0 0.17982600751226671 -0.1762593337595659 0 0.16627328335530381 -0.17069773137902189 0 0.14658871156029241 -0.16855183333999291 0 0.16192904395431579 -0.15800089119817939 0 0.16627328335530381 -0.17069773137902189 0 0.17526083145963689 -0.16308053239281189 0 0.16192904395431579 -0.15800089119817939 0 0.16627328335530381 -0.17069773137902189 0 0.17651024624945799 -0.1485415537171802 0 0.17526083145963689 -0.16308053239281189 0 0.16192904395431579 -0.15800089119817939 0 
</DataArray>
</Points>
<Cells>
<DataArray type="UInt32" Name="connectivity" format="ascii">
0 1 2 3 4 5 6 7 8 9 10 11 12 13 14 15 16 17 18 19 20 21 22 23 24 25 26 27 28 29 30 31 32 33 34 35 36 37 38 39 40 41 42 43 44 45 46 47 48 49 50 51 52 53 54 55 56 57 58 59 60 61 62 63 64 65 66 67 68 69 70 71 72 73 74 75 76 77 78 79 80 81 82 83 84 85 86 87 88 89 90 91 92 93 94 95 96 97 98 99 100 101 102 103 104 105 106 107 108 109 110 111 112 113 114 115 116 117 118 119 120 121 122 123 124 125 126 127 128 129 130 131 132 133 134 135 136 137 138 139 140 141 142 143 144 145 146 147 148 149 150 151 152 153 154 155 156 157 158 159 160 161 162 163 164 165 166 167 168 169 170 171 172 173 174 175 176 177 178 179 180 181 182 183 184 185 186 187 188 189 190 191 192 193 194 195 196 197 198 199 200 201 202 203 204 205 206 207 208 209 210 211 212 213 214 215 216 217 218 219 220 221 222 223 224 225 226 227 228 229 230 231 232 233 234 235 236 237 238 239 240 241 242 243 244 245 246 247 248 249 250 251 252 253 254 255 256 257 258 259 260 261 262 263 264 265 266 267 268 269 270 271 272 273 274 275 276 277 278 279 280 281 282 283 284 285 286 287 288 289 290 291 292 293 294 295 296 297 298 299 300 301 302 303 304 305 306 307 308 309 310 311 312 313 314 315 316 317 318 319 320 321 322 323 324 325 326 327 328 329 330 331 332 333 334 335 336 337 338 339 340 341 342 343 344 345 346 347 348 349 350 351 352 353 354 355 356 357 358 359 360 361 362 363 364 365 366 367 368 369 370 371 372 373 374 375 376 377 378 379 380 381 382 383 384 385 386 387 388 389 390 391 392 393 394 395 396 397 398 399 400 401 402 403 404 405 406 407 408 409 410 411 412 413 414 415 416 417 418 419 420 421 422 423 424 425 426 427 428 429 430 431 432 433 434 435 436 437 438 439 440 441 442 443 444 445 446 447 448 449 450 451 452 453 454 455 456 457 458 459 460 461 462 463 464 465 466 467 468 469 470 471 472 473 474 475 476 477 478 479 480 481 482 483 484 485 486 487 488 489 490 491 492 493 494 495 496 497 498 499 500 501 502 503 504 505 506 507 508 509 510 511 512 513 514 515 516 517 518 519 520 521 522 523 524 525 526 527 528 529 530 531 532 533 534 535 536 537 538 539 540 541 542 543 544 545 546 547 548 549 550 551 552 553 554 555 556 557 558 559 560 561 562 563 564 565 566 567 568 569 570 571 572 573 574 575 576 577 578 579 580 581 582 583 584 585 586 587 588 589 590 591 592 593 594 595 596 597 598 599 600 601 602 603 604 605 606 607 608 609 610 611 612 613 614 615 616 617 618 619 620 621 622 623 624 625 626 627 628 629 630 631 632 633 634 635 636 637 638 639 640 641 642 643 644 645 646 647 648 649 650 651 652 653 654 655 656 657 658 659 660 661 662 663 664 665 666 667 668 669 670 671 672 673 674 675 676 677 678 679 680 681 682 683 684 685 686 687 688 689 690 691 692 693 694 695 696 697 698 699 700 701 702 703 704 705 706 707 708 709 710 711 712 713 714 715 716 717 718 719 720 721 722 723 724 725 726 727 728 729 730 731 732 733 734 735 736 737 738 739 740 741 742 743 744 745 746 747 748 749 750 751 752 753 754 755 756 757 758 759 760 761 762 763 764 765 766 767 768 769 770 771 772 773 774 775 776 777 778 779 780 781 782 783 784 785 786 787 788 789 790 791 792 793 794 795 796 797 798 799 800 801 802 803 804 805 806 807 808 809 810 811 812 813 814 815 816 817 818 819 820 821 822 823 824 825 826 827 828 829 830 831 832 833 834 835 836 837 838 839 840 841 842 843 844 845 846 847 848 849 850 851 852 853 854 855 856 857 858 859 860 861 862 863 864 865 866 867 868 869 870 871 872 873 874 875 876 877 878 879 880 881 882 883 884 885 886 887 888 889 890 891 892 893 894 895 896 897 898 899 900 901 902 903 904 905 906 907 908 909 910 911 912 913 914 915 916 917 918 919 920 921 922 923 924 925 926 927 928 929 930 931 932 933 934 935 936 937 938 939 940 941 942 943 944 945 946 947 948 949 950 951 952 953 954 955 956 957 958 959 960 961 962 963 964 965 966 967 968 969 970 971 972 973 974 975 976 977 978 979 980 981 982 983 984 985 986 987 988 989 990 991 992 993 994 995 996 997 998 999 1000 1001 1002 1003 1004 1005 1006 1007 1008 1009 1010 1011 1012 1013 1014 1015 1016 1017 1018 1019 1020 1021 1022 1023 1024 1025 1026 1027 1028 1029 1030 1031 1032 1033 1034 1035 1036 1037 1038 1039 1040 1041 1042 1043 1044 1045 1046 1047 1048 1049 1050 1051 1052 1053 1054 1055 1056 1057 1058 1059 1060 1061 1062 1063 1064 1065 1066 1067 1068 1069 1070 1071 1072 1073 1074 1075 1076 1077 1078 1079 1080 1081 1082 1083 1084 1085 1086 1087 1088 1089 1090 1091 1092 1093 1094 1095 1096 1097 1098 1099 1100 1101 1102 1103 1104 1105 1106 1107 1108 1109 1110 1111 1112 1113 1114 1115 1116 1117 1118 1119 1120 1121 1122 1123 1124 1125 1126 1127 1128 1129 1130 1131 1132 1133 1134 1135 1136 1137 1138 1139 1140 1141 1142 1143 1144 1145 1146 1147 1148 1149 1150 1151 1152 1153 1154 1155 1156 1157 1158 1159 1160 1161 1162 1163 1164 1165 1166 1167 1168 1169 1170 1171 1172 1173 1174 1175 1176 1177 1178 1179 1180 1181 1182 1183 1184 1185 1186 1187 1188 1189 1190 1191 1192 1193 1194 1195 1196 1197 1198 1199 1200 1201 1202 1203 1204 1205 1206 1207 1208 1209 1210 1211 1212 1213 1214 1215 1216 1217 1218 1219 1220 1221 1222 1223 1224 1225 1226 1227 1228 1229 1230 1231 1232 1233 1234 1235 1236 1237 1238 1239 1240 1241 1242 1243 1244 1245 1246 1247 1248 1249 1250 1251 1252 1253 1254 1255 1256 1257 1258 1259 1260 1261 1262 1263 1264 1265 1266 1267 1268 1269 1270 1271 1272 1273 1274 1275 1276 1277 1278 1279 1280 1281 1282 1283 1284 1285 1286 1287 1288 1289 1290 1291 1292 1293 1294 1295 1296 1297 1298 1299 1300 1301 1302 1303 1304 1305 1306 1307 1308 1309 1310 1311 1312 1313 1314 1315 1316 1317 1318 1319 1320 1321 1322 1323 1324 1325 1326 1327 1328 1329 1330 1331 1332 1333 1334 1335 1336 1337 1338 1339 1340 1341 1342 1343 1344 1345 1346 1347 1348 1349 1350 1351 1352 1353 1354 1355 1356 1357 1358 1359 1360 1361 1362 1363 1364 1365 1366 1367 1368 1369 1370 1371 1372 1373 1374 1375 1376 1377 1378 1379 1380 1381 1382 1383 1384 1385 1386 1387 1388 1389 1390 1391 1392 1393 1394 1395 1396 1397 1398 1399 1400 1401 1402 1403 1404 1405 1406 1407 1408 1409 1410 1411 1412 1413 1414 1415 1416 1417 1418 1419 1420 1421 1422 1423 1424 1425 1426 1427 1428 1429 1430 1431 1432 1433 1434 1435 1436 1437 1438 1439 1440 1441 1442 1443 1444 1445 1446 1447 1448 1449 1450 1451 1452 1453 1454 1455 1456 1457 1458 1459 1460 1461 1462 1463 1464 1465 1466 1467 1468 1469 1470 1471 1472 1473 1474 1475 1476 1477 1478 1479 1480 1481 1482 1483 1484 1485 1486 1487 1488 1489 1490 1491 1492 1493 1494 1495 1496 1497 1498 1499 1500 1501 1502 1503 1504 1505 1506 1507 1508 1509 1510 1511 1512 1513 1514 1515 1516 1517 1518 1519 1520 1521 1522 1523 1524 1525 1526 1527 1528 1529 1530 1531 1532 1533 1534 1535 1536 1537 1538 1539 1540 1541 1542 1543 1544 1545 1546 1547 1548 1549 1550 1551 1552 1553 1554 1555 1556 1557 1558 1559 1560 1561 1562 1563 1564 1565 1566 1567 1568 1569 1570 1571 1572 1573 1574 1575 1576 1577 1578 1579 1580 1581 1582 1583 1584 1585 1586 1587 1588 1589 1590 1591 1592 1593 1594 1595 1596 1597 1598 1599 1600 1601 1602 1603 1604 1605 1606 1607 1608 1609 1610 1611 1612 1613 1614 1615 1616 1617 1618 1619 1620 1621 1622 1623 1624 1625 1626 1627 1628 1629 1630 1631 1632 1633 1634 1635 1636 1637 1638 1639 1640 1641 1642 1643 1644 1645 1646 1647 1648 1649 1650 1651 1652 1653 1654 1655 1656 1657 1658 1659 1660 1661 1662 1663 1664 1665 1666 1667 1668 1669 1670 1671 1672 1673 1674 1675 1676 1677 1678 1679 1680 1681 1682 1683 1684 1685 1686 1687 1688 1689 1690 1691 1692 1693 1694 1695 1696 1697 1698 1699 1700 1701 1702 1703 1704 1705 1706 1707 1708 1709 1710 1711 1712 1713 1714 1715 1716 1717 1718 1719 1720 1721 1722 1723 1724 1725 1726 1727 1728 1729 1730 1731 1732 1733 1734 1735 1736 1737 1738 1739 1740 1741 1742 1743 1744 1745 1746 1747 1748 1749 1750 1751 1752 1753 1754 1755 1756 1757 1758 1759 1760 1761 1762 1763 1764 1765 1766 1767 1768 1769 1770 1771 1772 1773 1774 1775 1776 1777 1778 1779 1780 1781 1782 1783 1784 1785 1786 1787 1788 1789 1790 1791 1792 1793 1794 1795 1796 1797 1798 1799 1800 1801 1802 1803 1804 1805 1806 1807 1808 1809 1810 1811 1812 1813 1814 1815 1816 1817 1818 1819 1820 1821 1822 1823 1824 1825 1826 1827 1828 1829 1830 1831 1832 1833 1834 1835 1836 1837 1838 1839 1840 1841 1842 1843 1844 1845 1846 1847 1848 1849 1850 1851 1852 1853 1854 1855 1856 1857 1858 1859 1860 1861 1862 1863 1864 1865 1866 1867 1868 1869 1870 1871 1872 1873 1874 1875 1876 1877 1878 1879 1880 1881 1882 1883 1884 1885 1886 1887 1888 1889 1890 1891 1892 1893 1894 1895 1896 1897 1898 1899 1900 1901 1902 1903 1904 1905 1906 1907 1908 1909 1910 1911 1912 1913 1914 1915 1916 1917 1918 1919 1920 1921 1922 1923 1924 1925 1926 1927 1928 1929 1930 1931 1932 1933 1934 1935 1936 1937 1938 1939 1940 1941 1942 1943 1944 1945 1946 1947 1948 1949 1950 1951 1952 1953 1954 1955 1956 1957 1958 1959 1960 1961 1962 1963 1964 1965 1966 1967 1968 1969 1970 1971 1972 1973 1974 1975 1976 1977 1978 1979 1980 1981 1982 1983 1984 1985 1986 1987 1988 1989 1990 1991 1992 1993 1994 1995 1996 1997 1998 1999 2000 2001 2002 2003 2004 2005 2006 2007 2008 2009 2010 2011 2012 2013 2014 2015 2016 2017 2018 2019 2020 2021 2022 2023 2024 2025 2026 2027 2028 2029 2030 2031 2032 2033 2034 2035 2036 2037 2038 2039 2040 2041 2042 2043 2044 2045 2046 2047 2048 2049 2050 2051 2052 2053 2054 2055 2056 2057 2058 2059 2060 2061 2062 2063 2064 2065 2066 2067 2068 2069 2070 2071 2072 2073 2074 2075 2076 2077 2078 2079 2080 2081 2082 2083 2084 2085 2086 2087 2088 2089 2090 2091 2092 2093 2094 2095 2096 2097 2098 2099 2100 2101 2102 2103 2104 2105 2106 2107 2108 2109 2110 2111 2112 2113 2114 2115 2116 2117 2118 2119 2120 2121 2122 2123 2124 2125 2126 2127 2128 2129 2130 2131 2132 2133 2134 2135 2136 2137 2138 2139 2140 2141 2142 2143 2144 2145 2146 2147 2148 2149 2150 2151 2152 2153 2154 2155 2156 2157 2158 2159 2160 2161 2162 2163 2164 2165 2166 2167 2168 2169 2170 2171 2172 2173 2174 2175 2176 2177 2178 2179 2180 2181 2182 2183 2184 2185 2186 2187 2188 2189 2190 2191 2192 2193 2194 2195 2196 2197 2198 2199 2200 2201 2202 2203 2204 2205 2206 2207 2208 2209 2210 2211 2212 2213 2214 2215 2216 2217 2218 2219 2220 2221 2222 2223 2224 2225 2226 2227 2228 2229 2230 2231 2232 2233 2234 2235 2236 2237 2238 2239 2240 2241 2242 2243 2244 2245 2246 2247 2248 2249 2250 2251 2252 2253 2254 2255 2256 2257 2258 2259 2260 2261 2262 2263 2264 2265 2266 2267 2268 2269 2270 2271 2272 2273 2274 2275 2276 2277 2278 2279 2280 2281 2282 2283 2284 2285 2286 2287 2288 2289 2290 2291 2292 2293 2294 2295 2296 2297 2298 2299 2300 2301 2302 2303 2304 2305 2306 2307 2308 2309 2310 2311 2312 2313 2314 2315 2316 2317 2318 2319 2320 2321 2322 2323 2324 2325 2326 2327 2328 2329 2330 2331 2332 2333 2334 2335 2336 2337 2338 2339 2340 2341 2342 2343 2344 2345 2346 2347 2348 2349 2350 2351 2352 2353 2354 2355 2356 2357 2358 2359 2360 2361 2362 2363 2364 2365 2366 2367 2368 2369 2370 2371 2372 2373 2374 2375 2376 2377 2378 2379 2380 2381 2382 2383 2384 2385 2386 2387 2388 2389 2390 2391 2392 2393 2394 2395 2396 2397 2398 2399 2400 2401 2402 2403 2404 2405 2406 2407 2408 2409 2410 2411 2412 2413 2414 2415 2416 2417 2418 2419 2420 2421 2422 2423 2424 2425 2426 2427 2428 2429 2430 2431 2432 2433 2434 2435 2436 2437 2438 2439 2440 2441 2442 2443 2444 2445 2446 2447 2448 2449 2450 2451 2452 2453 2454 2455 2456 2457 2458 2459 2460 2461 2462 2463 2464 2465 2466 2467 2468 2469 2470 2471 2472 2473 2474 2475 2476 2477 2478 2479 2480 2481 2482 2483 2484 2485 2486 2487 2488 2489 2490 2491 2492 2493 2494 2495 2496 2497 2498 2499 2500 2501 2502 2503 2504 2505 2506 2507 2508 2509 2510 2511 2512 2513 2514 2515 2516 2517 2518 2519 2520 2521 2522 2523 2524 2525 2526 2527 2528 2529 2530 2531 2532 2533 2534 2535 2536 2537 2538 2539 2540 2541 2542 2543 2544 2545 2546 2547 2548 2549 2550 2551 2552 2553 2554 2555 2556 2557 2558 2559 2560 2561 2562 2563 2564 2565 2566 2567 2568 2569 2570 2571 2572 2573 2574 2575 2576 2577 2578 2579 2580 2581 2582 2583 2584 2585 2586 2587 2588 2589 2590 2591 2592 2593 2594 2595 2596 2597 2598 2599 2600 2601 2602 2603 2604 2605 2606 2607 2608 2609 2610 2611 2612 2613 2614 2615 2616 2617 2618 2619 2620 2621 2622 2623 2624 2625 2626 2627 2628 2629 2630 2631 2632 2633 2634 2635 2636 2637 2638 2639 2640 2641 2642 2643 2644 2645 2646 2647 2648 2649 2650 2651 2652 2653 2654 2655 2656 2657 2658 2659 2660 2661 2662 2663 2664 2665 2666 2667 2668 2669 2670 2671 2672 2673 2674 2675 2676 2677 2678 2679 2680 2681 2682 2683 2684 2685 2686 2687 2688 2689 2690 2691 2692 2693 2694 2695 2696 2697 2698 2699 2700 2701 2702 2703 2704 2705 2706 2707 2708 2709 2710 2711 2712 2713 2714 2715 2716 2717 2718 2719 2720 2721 2722 2723 2724 2725 2726 2727 2728 2729 2730 2731 2732 2733 2734 2735 2736 2737 2738 2739 2740 2741 2742 2743 2744 2745 2746 2747 2748 2749 2750 2751 2752 2753 2754 2755 2756 2757 2758 2759 2760 2761 2762 2763 2764 2765 2766 2767 2768 2769 2770 2771 2772 2773 2774 2775 2776 2777 2778 2779 2780 2781 2782 2783 2784 2785 2786 2787 2788 2789 2790 2791 2792 2793 2794 2795 2796 2797 2798 2799 2800 2801 2802 2803 2804 2805 2806 2807 2808 2809 2810 2811 2812 2813 2814 2815 2816 2817 2818 2819 2820 2821 2822 2823 2824 2825 2826 2827 2828 2829 2830 2831 2832 2833 2834 2835 2836 2837 2838 2839 2840 2841 2842 2843 2844 2845 2846 2847 2848 2849 2850 2851 2852 2853 2854 2855 2856 2857 2858 2859 2860 2861 2862 2863 2864 2865 2866 2867 2868 2869 2870 2871 2872 2873 2874 2875 2876 2877 2878 2879 2880 2881 2882 2883 2884 2885 2886 2887 2888 2889 2890 2891 2892 2893 2894 2895 2896 2897 2898 2899 2900 2901 2902 2903 2904 2905 2906 2907 2908 2909 2910 2911 2912 2913 2914 2915 2916 2917 2918 2919 2920 2921 2922 2923 2924 2925 2926 2927 2928 2929 2930 2931 2932 2933 2934 2935 2936 2937 2938 2939 2940 2941 2942 2943 2944 2945 2946 2947 2948 2949 2950 2951 2952 2953 2954 2955 2956 2957 2958 2959 2960 2961 2962 2963 2964 2965 2966 2967 2968 2969 2970 2971 2972 2973 2974 2975 2976 2977 2978 2979 2980 2981 2982 2983 2984 2985 2986 2987 2988 2989 2990 2991 2992 2993 2994 2995 2996 2997 2998 2999 3000 3001 3002 3003 3004 3005 3006 3007 3008 3009 3010 3011 3012 3013 3014 3015 3016 3017 3018 3019 3020 3021 3022 3023 3024 3025 3026 3027 3028 3029 3030 3031 3032 3033 3034 3035 3036 3037 3038 3039 3040 3041 3042 3043 3044 3045 3046 3047 3048 3049 3050 3051 3052 3053 3054 3055 3056 3057 3058 3059 3060 3061 3062 3063 3064 3065 3066 3067 3068 3069 3070 3071 3072 3073 3074 3075 3076 3077 3078 3079 3080 3081 3082 3083 3084 3085 3086 3087 3088 3089 3090 3091 3092 3093 3094 3095 3096 3097 3098 3099 3100 3101 3102 3103 3104 3105 3106 3107 3108 3109 3110 3111 3112 3113 3114 3115 3116 3117 3118 3119 3120 3121 3122 3123 3124 3125 3126 3127 3128 3129 3130 3131 3132 3133 3134 3135 3136 3137 3138 3139 3140 3141 3142 3143 3144 3145 3146 3147 3148 3149 3150 3151 3152 3153 3154 3155 3156 3157 3158 3159 3160 3161 3162 3163 3164 3165 3166 3167 3168 3169 3170 3171 3172 3173 3174 3175 3176 3177 3178 3179 3180 3181 3182 3183 3184 3185 3186 3187 3188 3189 3190 3191 3192 3193 3194 3195 3196 3197 3198 3199 3200 3201 3202 3203 3204 3205 3206 3207 3208 3209 3210 3211 3212 3213 3214 3215 3216 3217 3218 3219 3220 3221 3222 3223 3224 3225 3226 3227 3228 3229 3230 3231 3232 3233 3234 3235 3236 3237 3238 3239 3240 3241 3242 3243 3244 3245 3246 3247 3248 3249 3250 3251 3252 3253 3254 3255 3256 3257 3258 3259 3260 3261 3262 3263 3264 3265 3266 3267 3268 3269 3270 3271 3272 3273 3274 3275 3276 3277 3278 3279 3280 3281 3282 3283 3284 3285 3286 3287 3288 3289 3290 3291 3292 3293 3294 3295 3296 3297 3298 3299 3300 3301 3302 3303 3304 3305 3306 3307 3308 3309 3310 3311 3312 3313 3314 3315 3316 3317 3318 3319 3320 3321 3322 3323 3324 3325 3326 3327 3328 3329 3330 3331 3332 3333 3334 3335 3336 3337 3338 3339 3340 3341 3342 3343 3344 3345 3346 3347 3348 3349 3350 3351 3352 3353 3354 3355 3356 3357 3358 3359 3360 3361 3362 3363 3364 3365 3366 3367 3368 3369 3370 3371 3372 3373 3374 3375 3376 3377 3378 3379 3380 3381 3382 3383 3384 3385 3386 3387 3388 3389 3390 3391 3392 3393 3394 3395 3396 3397 3398 3399 3400 3401 3402 3403 3404 3405 3406 3407 3408 3409 3410 3411 3412 3413 3414 3415 3416 3417 3418 3419 3420 3421 3422 3423 3424 3425 3426 3427 3428 3429 3430 3431 3432 3433 3434 3435 3436 3437 3438 3439 3440 3441 3442 3443 3444 3445 3446 3447 3448 3449 3450 3451 3452 3453 3454 3455 3456 3457 3458 3459 3460 3461 3462 3463 3464 3465 3466 3467 3468 3469 3470 3471 3472 3473 3474 3475 3476 3477 3478 3479 3480 3481 3482 3483 3484 3485 3486 3487 3488 3489 3490 3491 3492 3493 3494 3495 3496 3497 3498 3499 3500 3501 3502 3503 3504 3505 3506 3507 3508 3509 3510 3511 3512 3513 3514 3515 3516 3517 3518 3519 3520 3521 3522 3523 3524 3525 3526 3527 3528 3529 3530 3531 3532 3533 3534 3535 3536 3537 3538 3539 3540 3541 3542 3543 3544 3545 3546 3547 3548 3549 3550 3551 3552 3553 3554 3555 3556 3557 3558 3559 3560 3561 3562 3563 3564 3565 3566 3567 3568 3569 3570 3571 3572 3573 3574 3575 3576 3577 3578 3579 3580 3581 3582 3583 3584 3585 3586 3587 3588 3589 3590 3591 3592 3593 3594 3595 3596 3597 3598 3599 3600 3601 3602 3603 3604 3605 3606 3607 3608 3609 3610 3611 3612 3613 3614 3615 3616 3617 3618 3619 3620 3621 3622 3623 3624 3625 3626 3627 3628 3629 3630 3631 3632 3633 3634 3635 3636 3637 3638 3639 3640 3641 3642 3643 3644 3645 3646 3647 3648 3649 3650 3651 3652 3653 3654 3655 3656 3657 3658 3659 3660 3661 3662 3663 3664 3665 3666 3667 3668 3669 3670 3671 3672 3673 3674 3675 3676 3677 3678 3679 3680 3681 3682 3683 3684 3685 3686 3687 3688 3689 3690 3691 3692 3693 3694 3695 3696 3697 3698 3699 3700 3701 3702 3703 3704 3705 3706 3707 3708 3709 3710 3711 3712 3713 3714 3715 3716 3717 3718 3719 3720 3721 3722 3723 3724 3725 3726 3727 3728 3729 3730 3731 3732 3733 3734 3735 3736 3737 3738 3739 3740 3741 3742 3743 3744 3745 3746 3747 3748 3749 3750 3751 3752 3753 3754 3755 3756 3757 3758 3759 3760 3761 3762 3763 3764 3765 3766 3767 3768 3769 3770 3771 3772 3773 3774 3775 3776 3777 3778 3779 3780 3781 3782 3783 3784 3785 3786 3787 3788 3789 3790 3791 3792 3793 3794 3795 3796 3797 3798 3799 3800 3801 3802 3803 3804 3805 3806 3807 3808 3809 3810 3811 3812 3813 3814 3815 3816 3817 3818 3819 3820 3821 3822 3823 3824 3825 3826 3827 3828 3829 3830 3831 3832 3833 3834 3835 3836 3837 3838 3839 3840 3841 3842 3843 3844 3845 3846 3847 3848 3849 3850 3851 3852 3853 3854 3855 3856 3857 3858 3859 3860 3861 3862 3863 3864 3865 3866 3867 3868 3869 3870 3871 3872 3873 3874 3875 3876 3877 3878 3879 3880 3881 3882 3883 3884 3885 3886 3887 3888 3889 3890 3891 3892 3893 3894 3895 3896 3897 3898 3899 3900 3901 3902 3903 3904 3905 3906 3907 3908 3909 3910 3911 3912 3913 3914 3915 3916 3917 3918 3919 3920 3921 3922 3923 3924 3925 3926 3927 3928 3929 3930 3931 3932 3933 3934 3935 3936 3937 3938 3939 3940 3941 3942 3943 3944 3945 3946 3947 3948 3949 3950 3951 3952 3953 3954 3955 3956 3957 3958 3959 3960 3961 3962 3963 3964 3965 3966 3967 3968 3969 3970 3971 3972 3973 3974 3975 3976 3977 3978 3979 3980 3981 3982 3983 3984 3985 3986 3987 3988 3989 3990 3991 3992 3993 3994 3995 3996 3997 3998 3999 4000 4001 4002 4003 4004 4005 4006 4007 4008 4009 4010 4011 4012 4013 4014 4015 4016 4017 4018 4019 4020 4021 4022 4023 4024 4025 4026 4027 4028 4029 4030 4031 4032 4033 4034 4035 4036 4037 4038 4039 4040 4041 4042 4043 4044 4045 4046 4047 4048 4049 4050 4051 4052 4053 4054 4055 4056 4057 4058 4059 4060 4061 4062 4063 4064 4065 4066 4067 4068 4069 4070 4071 4072 4073 4074 4075 4076 4077 4078 4079 4080 4081 4082 4083 4084 4085 4086 4087 4088 4089 4090 4091 4092 4093 4094 4095 4096 4097 4098 4099 4100 4101 4102 4103 4104 4105 4106 4107 4108 4109 4110 4111 4112 4113 4114 4115 4116 4117 4118 4119 4120 4121 4122 4123 4124 4125 4126 4127 4128 4129 4130 4131 4132 4133 4134 4135 4136 4137 4138 4139 4140 4141 4142 4143 4144 4145 4146 4147 4148 4149 4150 4151 4152 4153 4154 4155 4156 4157 4158 4159 4160 4161 4162 4163 4164 4165 4166 4167 4168 4169 4170 4171 4172 4173 4174 4175 4176 4177 4178 4179 4180 4181 4182 4183 4184 4185 4186 4187 4188 4189 4190 4191 4192 4193 4194 4195 4196 4197 4198 4199 4200 4201 4202 4203 4204 4205 4206 4207 4208 4209 4210 4211 4212 4213 4214 4215 4216 4217 4218 4219 4220 4221 4222 4223 4224 4225 4226 4227 4228 4229 4230 4231 4232 4233 4234 4235 4236 4237 4238 4239 4240 4241 4242 4243 4244 4245 4246 4247 4248 4249 4250 4251 4252 4253 4254 4255 4256 4257 4258 4259 4260 4261 4262 4263 4264 4265 4266 4267 4268 4269 4270 4271 4272 4273 4274 4275 4276 4277 4278 4279 4280 4281 4282 4283 4284 4285 4286 4287 4288 4289 4290 4291 4292 4293 4294 4295 4296 4297 4298 4299 4300 4301 4302 4303 4304 4305 4306 4307 4308 4309 4310 4311 4312 4313 4314 4315 4316 4317 4318 4319 4320 4321 4322 4323 4324 4325 4326 4327 4328 4329 4330 4331 4332 4333 4334 4335 4336 4337 4338 4339 4340 4341 4342 4343 4344 4345 4346 4347 4348 4349 4350 4351 4352 4353 4354 4355 4356 4357 4358 4359 4360 4361 4362 4363 4364 4365 4366 4367 4368 4369 4370 4371 4372 4373 4374 4375 4376 4377 4378 4379 4380 4381 4382 4383 4384 4385 4386 4387 4388 4389 4390 4391 4392 4393 4394 4395 4396 4397 4398 4399 4400 4401 4402 4403 4404 4405 4406 4407 4408 4409 4410 4411 4412 4413 4414 4415 4416 4417 4418 4419 4420 4421 4422 4423 4424 4425 4426 4427 4428 4429 4430 4431 4432 4433 4434 4435 4436 4437 4438 4439 4440 4441 4442 4443 4444 4445 4446 4447 4448 4449 4450 4451 4452 4453 4454 4455 4456 4457 4458 4459 4460 4461 4462 4463 4464 4465 4466 4467 4468 4469 4470 4471 4472 4473 4474 4475 4476 4477 4478 4479 4480 4481 4482 4483 4484 4485 4486 4487 4488 4489 4490 4491 4492 4493 4494 4495 4496 4497 4498 4499 4500 4501 4502 4503 4504 4505 4506 4507 4508 4509 4510 4511 4512 4513 4514 4515 4516 4517 4518 4519 4520 4521 4522 4523 4524 4525 4526 4527 4528 4529 4530 4531 4532 4533 4534 4535 4536 4537 4538 4539 4540 4541 4542 4543 4544 4545 4546 4547 4548 4549 4550 4551 4552 4553 4554 4555 4556 4557 4558 4559 4560 4561 4562 4563 4564 4565 4566 4567 4568 4569 4570 4571 4572 4573 4574 4575 4576 4577 4578 4579 4580 4581 4582 4583 4584 4585 4586 4587 4588 4589 4590 4591 4592 4593 4594 4595 4596 4597 4598 4599 4600 4601 4602 4603 4604 4605 4606 4607 4608 4609 4610 4611 4612 4613 4614 4615 4616 4617 4618 4619 4620 4621 4622 4623 4624 4625 4626 4627 4628 4629 4630 4631 4632 4633 4634 4635 4636 4637 4638 4639 4640 4641 4642 4643 4644 4645 4646 4647 4648 4649 4650 4651 4652 4653 4654 4655 4656 4657 4658 4659 4660 4661 4662 4663 4664 4665 4666 4667 4668 4669 4670 4671 4672 4673 4674 4675 4676 4677 4678 4679 4680 4681 4682 4683 4684 4685 4686 4687 4688 4689 4690 4691 4692 4693 4694 4695 4696 4697 4698 4699 4700 4701 4702 4703 4704 4705 4706 4707 4708 4709 4710 4711 4712 4713 4714 4715 4716 4717 4718 4719 4720 4721 4722 4723 4724 4725 4726 4727 4728 4729 4730 4731 4732 4733 4734 4735 4736 4737 4738 4739 4740 4741 4742 4743 4744 4745 4746 4747 4748 4749 4750 4751 4752 4753 4754 4755 4756 4757 4758 4759 4760 4761 4762 4763 4764 4765 4766 4767 4768 4769 4770 4771 4772 4773 4774 4775 4776 4777 4778 4779 4780 4781 4782 4783 4784 4785 4786 4787 4788 4789 4790 4791 4792 4793 4794 4795 4796 4797 4798 4799 4800 4801 4802 4803 4804 4805 4806 4807 4808 4809 4810 4811 4812 4813 4814 4815 4816 4817 4818 4819 4820 4821 4822 4823 4824 4825 4826 4827 4828 4829 4830 4831 4832 4833 4834 4835 4836 4837 4838 4839 4840 4841 4842 4843 4844 4845 4846 4847 4848 4849 4850 4851 4852 4853 4854 4855 4856 4857 4858 4859 4860 4861 4862 4863 4864 4865 4866 4867 4868 4869 4870 4871 4872 4873 4874 4875 4876 4877 4878 4879 4880 4881 4882 4883 4884 4885 4886 4887 4888 4889 4890 4891 4892 4893 4894 4895 4896 4897 4898 4899 4900 4901 4902 4903 4904 4905 4906 4907 4908 4909 4910 4911 4912 4913 4914 4915 4916 4917 4918 4919 4920 4921 4922 4923 4924 4925 4926 4927 4928 4929 4930 4931 4932 4933 4934 4935 4936 4937 4938 4939 4940 4941 4942 4943 4944 4945 4946 4947 4948 4949 4950 4951 4952 4953 4954 4955 4956 4957 4958 4959 4960 4961 4962 4963 4964 4965 4966 4967 4968 4969 4970 4971 4972 4973 4974 4975 4976 4977 4978 4979 4980 4981 4982 4983 4984 4985 4986 4987 4988 4989 4990 4991 4992 4993 4994 4995 4996 4997 4998 4999 5000 5001 5002 5003 5004 5005 5006 5007 5008 5009 5010 5011 5012 5013 5014 5015 5016 5017 5018 5019 5020 5021 5022 5023 5024 5025 5026 5027 5028 5029 5030 5031 5032 5033 5034 5035 5036 5037 5038 5039 5040 5041 5042 5043 5044 5045 5046 5047 5048 5049 5050 5051 5052 5053 5054 5055 5056 5057 5058 5059 5060 5061 5062 5063 5064 5065 5066 5067 5068 5069 5070 5071 5072 5073 5074 5075 5076 5077 5078 5079 5080 5081 5082 5083 5084 5085 5086 5087 5088 5089 5090 5091 5092 5093 5094 5095 5096 5097 5098 5099 5100 5101 5102 5103 5104 5105 5106 5107 5108 5109 5110 5111 5112 5113 5114 5115 5116 5117 5118 5119 5120 5121 5122 5123 5124 5125 5126 5127 5128 5129 5130 5131 5132 5133 5134 5135 5136 5137 5138 5139 5140 5141 5142 5143 5144 5145 5146 5147 5148 5149 5150 5151 5152 5153 5154 5155 5156 5157 5158 5159 5160 5161 5162 5163 5164 5165 5166 5167 5168 5169 5170 5171 5172 5173 5174 5175 5176 5177 5178 5179 5180 5181 5182 5183 5184 5185 5186 5187 5188 5189 5190 5191 5192 5193 5194 5195 5196 5197 5198 5199 5200 5201 5202 5203 5204 5205 5206 5207 5208 5209 5210 5211 5212 5213 5214 5215 5216 5217 5218 5219 5220 5221 5222 5223 5224 5225 5226 5227 5228 5229 5230 5231 5232 5233 5234 5235 5236 5237 5238 5239 5240 5241 5242 5243 5244 5245 5246 5247 5248 5249 5250 5251 5252 5253 5254 5255 5256 5257 5258 5259 5260 5261 5262 5263 5264 5265 5266 5267 5268 5269 5270 5271 5272 5273 5274 5275 5276 5277 5278 5279 5280 5281 5282 5283 5284 5285 5286 5287 5288 5289 5290 5291 5292 5293 5294 5295 5296 5297 5298 5299 5300 5301 5302 5303 5304 5305 5306 5307 5308 5309 5310 5311 5312 5313 5314 5315 5316 5317 5318 5319 5320 5321 5322 5323 5324 5325 5326 5327 5328 5329 5330 5331 5332 5333 5334 5335 5336 5337 5338 5339 5340 5341 5342 5343 5344 5345 5346 5347 5348 5349 5350 5351 5352 5353 5354 5355 5356 5357 5358 5359 5360 5361 5362 5363 5364 5365 5366 5367 5368 5369 5370 5371 5372 5373 5374 5375 5376 5377 5378 5379 5380 5381 5382 5383 5384 5385 5386 5387 5388 5389 5390 5391 5392 5393 5394 5395 5396 5397 5398 5399 5400 5401 5402 5403 5404 5405 5406 5407 5408 5409 5410 5411 5412 5413 5414 5415 5416 5417 5418 5419 5420 5421 5422 5423 5424 5425 5426 5427 5428 5429 5430 5431 5432 5433 5434 5435 5436 5437 5438 5439 5440 5441 5442 5443 5444 5445 5446 5447 5448 5449 5450 5451 5452 5453 5454 5455 5456 5457 5458 5459 5460 5461 5462 5463 5464 5465 5466 5467 5468 5469 5470 5471 5472 5473 5474 5475 5476 5477 5478 5479 5480 5481 5482 5483 5484 5485 5486 5487 5488 5489 5490 5491 5492 5493 5494 5495 5496 5497 5498 5499 5500 5501 5502 5503 5504 5505 5506 5507 5508 5509 5510 5511 5512 5513 5514 5515 5516 5517 5518 5519 5520 5521 5522 5523 5524 5525 5526 5527 5528 5529 5530 5531 5532 5533 5534 5535 5536 5537 5538 5539 5540 5541 5542 5543 5544 5545 5546 5547 5548 5549 5550 5551 5552 5553 5554 5555 5556 5557 5558 5559 5560 5561 5562 5563 5564 5565 5566 5567 5568 5569 5570 5571 5572 5573 5574 5575 5576 5577 5578 5579 5580 5581 5582 5583 5584 5585 5586 5587 5588 5589 5590 5591 5592 5593 5594 5595 5596 5597 5598 5599 5600 5601 5602 5603 5604 5605 5606 5607 5608 5609 5610 5611 5612 5613 5614 5615 5616 5617 5618 5619 5620 5621 5622 5623 5624 5625 5626 5627 5628 5629 5630 5631 5632 5633 5634 5635 5636 5637 5638 5639 5640 5641 5642 5643 5644 5645 5646 5647 5648 5649 5650 5651 5652 5653 5654 5655 5656 5657 5658 5659 5660 5661 5662 5663 5664 5665 5666 5667 5668 5669 5670 5671 5672 5673 5674 5675 5676 5677 5678 5679 5680 5681 5682 5683 5684 5685 5686 5687 5688 5689 5690 5691 5692 5693 5694 5695 5696 5697 5698 5699 5700 5701 5702 5703 5704 5705 5706 5707 5708 5709 5710 5711 5712 5713 5714 5715 5716 5717 5718 5719 5720 5721 5722 5723 5724 5725 5726 5727 5728 5729 5730 5731 5732 5733 5734 5735 5736 5737 5738 5739 5740 5741 5742 5743 5744 5745 5746 5747 5748 5749 5750 5751 5752 5753 5754 5755 5756 5757 5758 5759 5760 5761 5762 5763 5764 5765 5766 5767 5768 5769 5770 5771 5772 5773 5774 5775 5776 5777 5778 5779 5780 5781 5782 5783 5784 5785 5786 5787 5788 5789 5790 5791 5792 5793 5794 5795 5796 5797 5798 5799 5800 5801 5802 5803 5804 5805 5806 5807 5808 5809 5810 5811 5812 5813 5814 5815 5816 5817 5818 5819 5820 5821 5822 5823 5824 5825 5826 5827 5828 5829 5830 5831 5832 5833 5834 5835 5836 5837 5838 5839 5840 5841 5842 5843 5844 5845 5846 5847 5848 5849 5850 5851 5852 5853 5854 5855 5856 5857 5858 5859 5860 5861 5862 5863 5864 5865 5866 5867 5868 5869 5870 5871 5872 5873 5874 5875 5876 5877 5878 5879 5880 5881 5882 5883 5884 5885 5886 5887 5888 5889 5890 5891 5892 5893 5894 5895 5896 5897 5898 5899 5900 5901 5902 5903 5904 5905 5906 5907 5908 5909 5910 5911 5912 5913 5914 5915 5916 5917 5918 5919 5920 5921 5922 5923 5924 5925 5926 5927 5928 5929 5930 5931 5932 5933 5934 5935 5936 5937 5938 5939 5940 5941 5942 5943 5944 5945 5946 5947 5948 5949 5950 5951 5952 5953 5954 5955 5956 5957 5958 5959 5960 5961 5962 5963 5964 5965 5966 5967 5968 5969 5970 5971 5972 5973 5974 5975 5976 5977 5978 5979 5980 5981 5982 5983 5984 5985 5986 5987 5988 5989 5990 5991 5992 5993 5994 5995 5996 5997 5998 5999 6000 6001 6002 6003 6004 6005 6006 6007 6008 6009 6010 6011 6012 6013 6014 6015 6016 6017 6018 6019 6020 6021 6022 6023 6024 6025 6026 6027 6028 6029 6030 6031 6032 6033 6034 6035 6036 6037 6038 6039 6040 6041 6042 6043 6044 6045 6046 6047 6048 6049 6050 6051 6052 6053 6054 6055 6056 6057 6058 6059 6060 6061 6062 6063 6064 6065 6066 6067 6068 6069 6070 6071 6072 6073 6074 6075 6076 6077 6078 6079 6080 6081 6082 6083 6084 6085 6086 6087 6088 6089 6090 6091 6092 6093 6094 6095 6096 6097 6098 6099 6100 6101 6102 6103 6104 6105 6106 6107 6108 6109 6110 6111 6112 6113 6114 6115 6116 6117 6118 6119 6120 6121 6122 6123 6124 6125 6126 6127 6128 6129 6130 6131 6132 6133 6134 6135 6136 6137 6138 6139 6140 6141 6142 6143 6144 6145 6146 6147 6148 6149 6150 6151 6152 6153 6154 6155 6156 6157 6158 6159 6160 6161 6162 6163 6164 6165 6166 6167 6168 6169 6170 6171 6172 6173 6174 6175 6176 6177 6178 6179 6180 6181 6182 6183 6184 6185 6186 6187 6188 6189 6190 6191 6192 6193 6194 6195 6196 6197 6198 6199 6200 6201 6202 6203 6204 6205 6206 6207 6208 6209 6210 6211 6212 6213 6214 6215 6216 6217 6218 6219 6220 6221 6222 6223 6224 6225 6226 6227 6228 6229 6230 6231 6232 6233 6234 6235 6236 6237 6238 6239 6240 6241 6242 6243 6244 6245 6246 6247 6248 6249 6250 6251 6252 6253 6254 6255 6256 6257 6258 6259 6260 6261 6262 6263 6264 6265 6266 6267 6268 6269 6270 6271 6272 6273 6274 6275 6276 6277 6278 6279 6280 6281 6282 6283 6284 6285 6286 6287 6288 6289 6290 6291 6292 6293 6294 6295 6296 6297 6298 6299 6300 6301 6302 6303 6304 6305 6306 6307 6308 6309 6310 6311 6312 6313 6314 6315 6316 6317 6318 6319 6320 6321 6322 6323 6324 6325 6326 6327 6328 6329 6330 6331 6332 6333 6334 6335 6336 6337 6338 6339 6340 6341 6342 6343 6344 6345 6346 6347 6348 6349 6350 6351 6352 6353 6354 6355 6356 6357 6358 6359 6360 6361 6362 6363 6364 6365 6366 6367 6368 6369 6370 6371 6372 6373 6374 6375 6376 6377 6378 6379 6380 6381 6382 6383 6384 6385 6386 6387 6388 6389 6390 6391 6392 6393 6394 6395 6396 6397 6398 6399 6400 6401 6402 6403 6404 6405 6406 6407 6408 6409 6410 6411 6412 6413 6414 6415 6416 6417 6418 6419 6420 6421 6422 6423 6424 6425 6426 6427 6428 6429 6430 6431 6432 6433 6434 6435 6436 6437 6438 6439 6440 6441 6442 6443 6444 6445 6446 6447 6448 6449 6450 6451 6452 6453 6454 6455 6456 6457 6458 6459 6460 6461 6462 6463 6464 6465 6466 6467 6468 6469 6470 6471 6472 6473 6474 6475 6476 6477 6478 6479 6480 6481 6482 6483 6484 6485 6486 6487 6488 6489 6490 6491 6492 6493 6494 6495 6496 6497 6498 6499 6500 6501 6502 6503 6504 6505 6506 6507 6508 6509 6510 6511 6512 6513 6514 6515 6516 6517 6518 6519 6520 6521 6522 6523 6524 6525 6526 6527 6528 6529 6530 6531 6532 6533 6534 6535 6536 6537 6538 6539 6540 6541 6542 6543 6544 6545 6546 6547 6548 6549 6550 6551 6552 6553 6554 6555 6556 6557 6558 6559 6560 6561 6562 6563 6564 6565 6566 6567 6568 6569 6570 6571 6572 6573 6574 6575 6576 6577 6578 6579 6580 6581 6582 6583 6584 6585 6586 6587 6588 6589 6590 6591 6592 6593 6594 6595 6596 6597 6598 6599 6600 6601 6602 6603 6604 6605 6606 6607 6608 6609 6610 6611 6612 6613 6614 6615 6616 6617 6618 6619 6620 6621 6622 6623 6624 6625 6626 6627 6628 6629 6630 6631 6632 6633 6634 6635 6636 6637 6638 6639 6640 6641 6642 6643 6644 6645 6646 6647 6648 6649 6650 6651 6652 6653 6654 6655 6656 6657 6658 6659 6660 6661 6662 6663 6664 6665 6666 6667 6668 6669 6670 6671 6672 6673 6674 6675 6676 6677 6678 6679 6680 6681 6682 6683 6684 6685 6686 6687 6688 6689 6690 6691 6692 6693 6694 6695 6696 6697 6698 6699 6700 6701 6702 6703 6704 6705 6706 6707 6708 6709 6710 6711 6712 6713 6714 6715 6716 6717 6718 6719 6720 6721 6722 6723 6724 6725 6726 6727 6728 6729 6730 6731 6732 6733 6734 6735 6736 6737 6738 6739 6740 6741 6742 6743 6744 6745 6746 6747 6748 6749 6750 6751 6752 6753 6754 6755 6756 6757 6758 6759 6760 6761 6762 6763 6764 6765 6766 6767 6768 6769 6770 6771 6772 6773 6774 6775 6776 6777 6778 6779 6780 6781 6782 6783 6784 6785 6786 6787 6788 6789 6790 6791 6792 6793 6794 6795 6796 6797 6798 6799 6800 6801 6802 6803 6804 6805 6806 6807 6808 6809 6810 6811 6812 6813 6814 6815 6816 6817 6818 6819 6820 6821 6822 6823 6824 6825 6826 6827 6828 6829 6830 6831 6832 6833 6834 6835 6836 6837 6838 6839 6840 6841 6842 6843 6844 6845 6846 6847 6848 6849 6850 6851 6852 6853 6854 6855 6856 6857 6858 6859 6860 6861 6862 6863 6864 6865 6866 6867 6868 6869 6870 6871 6872 6873 6874 6875 6876 6877 6878 6879 6880 6881 6882 6883 6884 6885 6886 6887 6888 6889 6890 6891 6892 6893 6894 6895 6896 6897 6898 6899 6900 6901 6902 6903 6904 6905 6906 6907 6908 6909 6910 6911 6912 6913 6914 6915 6916 6917 6918 6919 6920 6921 6922 6923 6924 6925 6926 6927 6928 6929 6930 6931 6932 6933 6934 6935 6936 6937 6938 6939 6940 6941 6942 6943 6944 6945 6946 6947 6948 6949 6950 6951 6952 6953 6954 6955 6956 6957 6958 6959 6960 6961 6962 6963 6964 6965 6966 6967 6968 6969 6970 6971 6972 6973 6974 6975 6976 6977 6978 6979 6980 6981 6982 6983 6984 6985 6986 6987 6988 6989 6990 6991 6992 6993 6994 6995 6996 6997 6998 6999 7000 7001 7002 7003 7004 7005 7006 7007 7008 7009 7010 7011 7012 7013 7014 7015 7016 7017 7018 7019 7020 7021 7022 7023 7024 7025 7026 7027 7028 7029 7030 7031 7032 7033 7034 7035 7036 7037 7038 7039 7040 7041 7042 7043 7044 7045 7046 7047 7048 7049 7050 7051 7052 7053 7054 7055 7056 7057 7058 7059 7060 7061 7062 7063 7064 7065 7066 7067 7068 7069 7070 7071 7072 7073 7074 7075 7076 7077 7078 7079 7080 7081 7082 7083 7084 7085 7086 7087 7088 7089 7090 7091 7092 7093 7094 7095 7096 7097 7098 7099 7100 7101 7102 7103 7104 7105 7106 7107 7108 7109 7110 7111 7112 7113 7114 7115 7116 7117 7118 7119 7120 7121 7122 7123 7124 7125 7126 7127 7128 7129 7130 7131 7132 7133 7134 7135 7136 7137 7138 7139 7140 7141 7142 7143 7144 7145 7146 7147 7148 7149 7150 7151 7152 7153 7154 7155 7156 7157 7158 7159 7160 7161 7162 7163 7164 7165 7166 7167 7168 7169 7170 7171 7172 7173 7174 7175 7176 7177 7178 7179 7180 7181 7182 7183 7184 7185 7186 7187 7188 7189 7190 7191 7192 7193 7194 7195 7196 7197 7198 7199 7200 7201 7202 7203 7204 7205 7206 7207 7208 7209 7210 7211 7212 7213 7214 7215 7216 7217 7218 7219 7220 7221 7222 7223 7224 7225 7226 7227 7228 7229 7230 7231 7232 7233 7234 7235 7236 7237 7238 7239 7240 7241 7242 7243 7244 7245 7246 7247 7248 7249 7250 7251 7252 7253 7254 7255 7256 7257 7258 7259 7260 7261 7262 7263 7264 7265 7266 7267 7268 7269 7270 7271 7272 7273 7274 7275 7276 7277 7278 7279 7280 7281 7282 7283 7284 7285 7286 7287 7288 7289 7290 7291 7292 7293 7294 7295 7296 7297 7298 7299 7300 7301 7302 7303 7304 7305 7306 7307 7308 7309 7310 7311 7312 7313 7314 7315 7316 7317 7318 7319 7320 7321 7322 7323 7324 7325 7326 7327 7328 7329 7330 7331 7332 7333 7334 7335 7336 7337 7338 7339 7340 7341 7342 7343 7344 7345 7346 7347 7348 7349 7350 7351 7352 7353 7354 7355 7356 7357 7358 7359 7360 7361 7362 7363 7364 7365 7366 7367 7368 7369 7370 7371 7372 7373 7374 7375 7376 7377 7378 7379 7380 7381 7382 7383 7384 7385 7386 7387 7388 7389 7390 7391 7392 7393 7394 7395 7396 7397 7398 7399 7400 7401 7402 7403 7404 7405 7406 7407 7408 7409 7410 7411 7412 7413 7414 7415 7416 7417 7418 7419 7420 7421 7422 7423 7424 7425 7426 7427 7428 7429 7430 7431 7432 7433 7434 7435 7436 7437 7438 7439 7440 7441 7442 7443 7444 7445 7446 7447 7448 7449 7450 7451 7452 7453 7454 7455 7456 7457 7458 7459 7460 7461 7462 7463 7464 7465 7466 7467 7468 7469 7470 7471 7472 7473 7474 7475 7476 7477 7478 7479 7480 7481 7482 7483 7484 7485 7486 7487 7488 7489 7490 7491 7492 7493 7494 7495 7496 7497 7498 7499 7500 7501 7502 7503 7504 7505 7506 7507 7508 7509 7510 7511 7512 7513 7514 7515 7516 7517 7518 7519 7520 7521 7522 7523 7524 7525 7526 7527 7528 7529 7530 7531 7532 7533 7534 7535 7536 7537 7538 7539 7540 7541 7542 7543 7544 7545 7546 7547 7548 7549 7550 7551 7552 7553 7554 7555 7556 7557 7558 7559 7560 7561 7562 7563 7564 7565 7566 7567 7568 7569 7570 7571 7572 7573 7574 7575 7576 7577 7578 7579 7580 7581 7582 7583 7584 7585 7586 7587 7588 7589 7590 7591 7592 7593 7594 7595 7596 7597 7598 7599 7600 7601 7602 7603 7604 7605 7606 7607 7608 7609 7610 7611 7612 7613 7614 7615 7616 7617 7618 7619 7620 7621 7622 7623 7624 7625 7626 7627 7628 7629 7630 7631 7632 7633 7634 7635 7636 7637 7638 7639 7640 7641 7642 7643 7644 7645 7646 7647 7648 7649 7650 7651 7652 7653 7654 7655 7656 7657 7658 7659 7660 7661 7662 7663 7664 7665 7666 7667 7668 7669 7670 7671 7672 7673 7674 7675 7676 7677 7678 7679 7680 7681 7682 7683 7684 7685 7686 7687 7688 7689 7690 7691 7692 7693 7694 7695 7696 7697 7698 7699 7700 7701 7702 7703 7704 7705 7706 7707 7708 7709 7710 7711 7712 7713 7714 7715 7716 7717 7718 7719 7720 7721 7722 7723 7724 7725 7726 7727 7728 7729 7730 7731 7732 7733 7734 7735 7736 7737 7738 7739 7740 7741 7742 7743 7744 7745 7746 7747 7748 7749 7750 7751 7752 7753 7754 7755 7756 7757 7758 7759 7760 7761 7762 7763 7764 7765 7766 7767 7768 7769 7770 7771 7772 7773 7774 7775 7776 7777 7778 7779 7780 7781 7782 7783 7784 7785 7786 7787 7788 7789 7790 7791 7792 7793 7794 7795 7796 7797 7798 7799 7800 7801 7802 7803 7804 7805 7806 7807 7808 7809 7810 7811 7812 7813 7814 7815 7816 7817 7818 7819 7820 7821 7822 7823 7824 7825 7826 7827 7828 7829 7830 7831 7832 7833 7834 7835 7836 7837 7838 7839 7840 7841 7842 7843 7844 7845 7846 7847 7848 7849 7850 7851 7852 7853 7854 7855 7856 7857 7858 7859 7860 7861 7862 7863 7864 7865 7866 7867 7868 7869 7870 7871 7872 7873 7874 7875 7876 7877 7878 7879 7880 7881 7882 7883 7884 7885 7886 7887 7888 7889 7890 7891 7892 7893 7894 7895 7896 7897 7898 7899 7900 7901 7902 7903 7904 7905 7906 7907 7908 7909 7910 7911 7912 7913 7914 7915 7916 7917 7918 7919 7920 7921 7922 7923 7924 7925 7926 7927 7928 7929 7930 7931 7932 7933 7934 7935 7936 7937 7938 7939 7940 7941 7942 7943 7944 7945 7946 7947 7948 7949 7950 7951 7952 7953 7954 7955 7956 7957 7958 7959 7960 7961 7962 7963 7964 7965 7966 7967 7968 7969 7970 7971 7972 7973 7974 7975 7976 7977 7978 7979 7980 7981 7982 7983 7984 7985 7986 7987 7988 7989 7990 7991 7992 7993 7994 7995 7996 7997 7998 7999 8000 8001 8002 8003 8004 8005 8006 8007 8008 8009 8010 8011 8012 8013 8014 8015 8016 8017 8018 8019 8020 8021 8022 8023 8024 8025 8026 8027 8028 8029 8030 8031 8032 8033 8034 8035 8036 8037 8038 8039 8040 8041 8042 8043 8044 8045 8046 8047 8048 8049 8050 8051 8052 8053 8054 8055 8056 8057 8058 8059 8060 8061 8062 8063 8064 8065 8066 8067 8068 8069 8070 8071 8072 8073 8074 8075 8076 8077 8078 8079 8080 8081 8082 8083 8084 8085 8086 8087 8088 8089 8090 8091 8092 8093 8094 8095 8096 8097 8098 8099 8100 8101 8102 8103 8104 8105 8106 8107 8108 8109 8110 8111 8112 8113 8114 8115 8116 8117 8118 8119 8120 8121 8122 8123 8124 8125 8126 8127 8128 8129 8130 8131 8132 8133 8134 8135 8136 8137 8138 8139 8140 8141 8142 8143 8144 8145 8146 8147 8148 8149 8150 8151 8152 8153 8154 8155 8156 8157 8158 8159 8160 8161 8162 8163 8164 8165 8166 8167 8168 8169 8170 8171 8172 8173 8174 8175 8176 8177 8178 8179 8180 8181 8182 8183 8184 8185 8186 8187 8188 8189 8190 8191 8192 8193 8194 8195 8196 8197 8198 8199 8200 8201 8202 8203 8204 8205 8206 8207 8208 8209 8210 8211 8212 8213 8214 8215 8216 8217 8218 8219 8220 8221 8222 8223 8224 8225 8226 8227 8228 8229 8230 8231 8232 8233 8234 8235 8236 8237 8238 8239 8240 8241 8242 8243 8244 8245 8246 8247 8248 8249 8250 8251 8252 8253 8254 8255 8256 8257 8258 8259 8260 8261 8262 8263 8264 8265 8266 8267 8268 8269 8270 8271 8272 8273 8274 8275 8276 8277 8278 8279 8280 8281 8282 8283 8284 8285 8286 8287 8288 8289 8290 8291 8292 8293 8294 8295 8296 8297 8298 8299 8300 8301 8302 8303 8304 8305 8306 8307 8308 8309 8310 8311 8312 8313 8314 8315 8316 8317 8318 8319 8320 8321 8322 8323 8324 8325 8326 8327 8328 8329 8330 8331 8332 8333 8334 8335 8336 8337 8338 8339 8340 8341 8342 8343 8344 8345 8346 8347 8348 8349 8350 8351 8352 8353 8354 8355 8356 8357 8358 8359 8360 8361 8362 8363 8364 8365 8366 8367 8368 8369 8370 8371 8372 8373 8374 8375 8376 8377 8378 8379 8380 8381 8382 8383 8384 8385 8386 8387 8388 8389 8390 8391 8392 8393 8394 8395 8396 8397 8398 8399 8400 8401 8402 8403 8404 8405 8406 8407 8408 8409 8410 8411 8412 8413 8414 8415 8416 8417 8418 8419 8420 8421 8422 8423 8424 8425 8426 8427 8428 8429 8430 8431 8432 8433 8434 8435 8436 8437 8438 8439 8440 8441 8442 8443 8444 8445 8446 8447 8448 8449 8450 8451 8452 8453 8454 8455 8456 8457 8458 8459 8460 8461 8462 8463 8464 8465 8466 8467 8468 8469 8470 8471 8472 8473 8474 8475 8476 8477 8478 8479 8480 8481 8482 8483 8484 8485 8486 8487 8488 8489 8490 8491 8492 8493 8494 8495 8496 8497 8498 8499 8500 8501 8502 8503 8504 8505 8506 8507 8508 8509 8510 8511 8512 8513 8514 8515 8516 8517 8518 8519 8520 8521 8522 8523 8524 8525 8526 8527 8528 8529 8530 8531 8532 8533 8534 8535 8536 8537 8538 8539 8540 8541 8542 8543 8544 8545 8546 8547 8548 8549 8550 8551 8552 8553 8554 8555 8556 8557 8558 8559 8560 8561 8562 8563 8564 8565 8566 8567 8568 8569 8570 8571 8572 8573 8574 8575 8576 8577 8578 8579 8580 8581 8582 8583 8584 8585 8586 8587 8588 8589 8590 8591 8592 8593 8594 8595 8596 8597 8598 8599 8600 8601 8602 8603 8604 8605 8606 8607 8608 8609 8610 8611 8612 8613 8614 8615 8616 8617 8618 8619 8620 8621 8622 8623 8624 8625 8626 8627 8628 8629 8630 8631 8632 8633 8634 8635 8636 8637 8638 8639 8640 8641 8642 8643 8644 8645 8646 8647 8648 8649 8650 8651 8652 8653 8654 8655 8656 8657 8658 8659 8660 8661 8662 8663 8664 8665 8666 8667 8668 8669 8670 8671 8672 8673 8674 8675 8676 8677 8678 8679 8680 8681 8682 8683 8684 8685 8686 8687 8688 8689 8690 8691 8692 8693 8694 8695 8696 8697 8698 8699 8700 8701 8702 8703 8704 8705 8706 8707 8708 8709 8710 8711 8712 8713 8714 8715 8716 8717 8718 8719 8720 8721 8722 8723 8724 8725 8726 8727 8728 8729 8730 8731 8732 8733 8734 8735 8736 8737 8738 8739 8740 8741 8742 8743 8744 8745 8746 8747 8748 8749 8750 8751 8752 8753 8754 8755 8756 8757 8758 8759 8760 8761 8762 8763 8764 8765 8766 8767 8768 8769 8770 8771 8772 8773 8774 8775 8776 8777 8778 8779 8780 8781 8782 8783 8784 8785 8786 8787 8788 8789 8790 8791 8792 8793 8794 8795 8796 8797 8798 8799 8800 8801 8802 8803 8804 8805 8806 8807 8808 8809 8810 8811 8812 8813 8814 8815 8816 8817 8818 8819 8820 8821 8822 8823 8824 8825 8826 8827 8828 8829 8830 8831 8832 8833 8834 8835 8836 8837 8838 8839 8840 8841 8842 8843 8844 8845 8846 8847 8848 8849 8850 8851 8852 8853 8854 8855 8856 8857 8858 8859 8860 8861 8862 8863 8864 8865 8866 8867 8868 8869 8870 8871 8872 8873 8874 8875 8876 8877 8878 8879 8880 8881 8882 8883 8884 8885 8886 8887 8888 8889 8890 8891 8892 8893 8894 8895 8896 8897 8898 8899 8900 8901 8902 8903 8904 8905 8906 8907 8908 8909 8910 8911 8912 8913 8914 8915 8916 8917 8918 8919 8920 8921 8922 8923 8924 8925 8926 8927 8928 8929 8930 8931 8932 8933 8934 8935 8936 8937 8938 8939 8940 8941 8942 8943 8944 8945 8946 8947 8948 8949 8950 8951 8952 8953 8954 8955 8956 8957 8958 8959 8960 8961 8962 8963 8964 8965 8966 8967 8968 8969 8970 8971 8972 8973 8974 8975 8976 8977 8978 8979 8980 8981 8982 8983 8984 8985 8986 8987 8988 8989 8990 8991 8992 8993 8994 8995 8996 8997 8998 8999 9000 9001 9002 9003 9004 9005 9006 9007 9008 9009 9010 9011 9012 9013 9014 9015 9016 9017 9018 9019 9020 9021 9022 9023 9024 9025 9026 9027 9028 9029 9030 9031 9032 9033 9034 9035 9036 9037 9038 9039 9040 9041 9042 9043 9044 9045 9046 9047 9048 9049 9050 9051 9052 9053 9054 9055 9056 9057 9058 9059 9060 9061 9062 9063 9064 9065 9066 9067 9068 9069 9070 9071 9072 9073 9074 9075 9076 9077 9078 9079 9080 9081 9082 9083 9084 9085 9086 9087 9088 9089 9090 9091 9092 9093 9094 9095 9096 9097 9098 9099 9100 9101 9102 9103 9104 9105 9106 9107 9108 9109 9110 9111 9112 9113 9114 9115 9116 9117 9118 9119 9120 9121 9122 9123 9124 9125 9126 9127 9128 9129 9130 9131 9132 9133 9134 9135 9136 9137 9138 9139 9140 9141 9142 9143 9144 9145 9146 9147 9148 9149 9150 9151 9152 9153 9154 9155 9156 9157 9158 9159 9160 9161 9162 9163 9164 9165 9166 9167 9168 9169 9170 9171 9172 9173 9174 9175 9176 9177 9178 9179 9180 9181 9182 9183 9184 9185 9186 9187 9188 9189 9190 9191 9192 9193 9194 9195 9196 9197 9198 9199 9200 9201 9202 9203 9204 9205 9206 9207 9208 9209 9210 9211 9212 9213 9214 9215 9216 9217 9218 9219 9220 9221 9222 9223 9224 9225 9226 9227 9228 9229 9230 9231 9232 9233 9234 9235 9236 9237 9238 9239 9240 9241 9242 9243 9244 9245 9246 9247 9248 9249 9250 9251 9252 9253 9254 9255 9256 9257 9258 9259 9260 9261 9262 9263 9264 9265 9266 9267 9268 9269 9270 9271 9272 9273 9274 9275 9276 9277 9278 9279 9280 9281 9282 9283 9284 9285 9286 9287 9288 9289 9290 9291 9292 9293 9294 9295 9296 9297 9298 9299 9300 9301 9302 9303 9304 9305 9306 9307 9308 9309 9310 9311 9312 9313 9314 9315 9316 9317 9318 9319 9320 9321 9322 9323 9324 9325 9326 9327 9328 9329 9330 9331 9332 9333 9334 9335 9336 9337 9338 9339 9340 9341 9342 9343 9344 9345 9346 9347 9348 9349 9350 9351 9352 9353 9354 9355 9356 9357 9358 9359 9360 9361 9362 9363 9364 9365 9366 9367 9368 9369 9370 9371 9372 9373 9374 9375 9376 9377 9378 9379 9380 9381 9382 9383 9384 9385 9386 9387 9388 9389 9390 9391 9392 9393 9394 9395 9396 9397 9398 9399 9400 9401 9402 9403 9404 9405 9406 9407 9408 9409 9410 9411 9412 9413 9414 9415 9416 9417 9418 9419 9420 9421 9422 9423 9424 9425 9426 9427 9428 9429 9430 9431 9432 9433 9434 9435 9436 9437 9438 9439 9440 9441 9442 9443 9444 9445 9446 9447 9448 9449 9450 9451 9452 9453 9454 9455 9456 9457 9458 9459 9460 9461 9462 9463 9464 9465 9466 9467 9468 9469 9470 9471 9472 9473 9474 9475 9476 9477 9478 9479 9480 9481 9482 9483 9484 9485 9486 9487 9488 9489 9490 9491 9492 9493 9494 9495 9496 9497 9498 9499 9500 9501 9502 9503 9504 9505 9506 9507 9508 9509 9510 9511 9512 9513 9514 9515 9516 9517 9518 9519 9520 9521 9522 9523 9524 9525 9526 9527 9528 9529 9530 9531 9532 9533 9534 9535 9536 9537 9538 9539 9540 9541 9542 9543 9544 9545 9546 9547 9548 9549 9550 9551 9552 9553 9554 9555 9556 9557 9558 9559 9560 9561 9562 9563 9564 9565 9566 9567 9568 9569 9570 9571 9572 9573 9574 9575 9576 9577 9578 9579 9580 9581 9582 9583 9584 9585 9586 9587 9588 9589 9590 9591 9592 9593 9594 9595 9596 9597 9598 9599 9600 9601 9602 9603 9604 9605 9606 9607 9608 9609 9610 9611 9612 9613 9614 9615 9616 9617 9618 9619 9620 9621 9622 9623 9624 9625 9626 9627 9628 9629 9630 9631 9632 9633 9634 9635 9636 9637 9638 9639 9640 9641 9642 9643 9644 9645 9646 9647 9648 9649 9650 9651 9652 9653 9654 9655 9656 9657 9658 9659 9660 9661 9662 9663 9664 9665 9666 9667 9668 9669 9670 9671 9672 9673 9674 9675 9676 9677 9678 9679 9680 9681 9682 9683 9684 9685 9686 9687 9688 9689 9690 9691 9692 9693 9694 9695 9696 9697 9698 9699 9700 9701 9702 9703 9704 9705 9706 9707 9708 9709 9710 9711 9712 9713 9714 9715 9716 9717 9718 9719 9720 9721 9722 9723 9724 9725 9726 9727 9728 9729 9730 9731 9732 9733 9734 9735 9736 9737 9738 9739 9740 9741 9742 9743 9744 9745 9746 9747 9748 9749 9750 9751 9752 9753 9754 9755 9756 9757 9758 9759 9760 9761 9762 9763 9764 9765 9766 9767 9768 9769 9770 9771 9772 9773 9774 9775 9776 9777 9778 9779 9780 9781 9782 9783 9784 9785 9786 9787 9788 9789 9790 9791 9792 9793 9794 9795 9796 9797 9798 9799 9800 9801 9802 9803 9804 9805 9806 9807 9808 9809 9810 9811 9812 9813 9814 9815 9816 9817 9818 9819 9820 9821 9822 9823 9824 9825 9826 9827 9828 9829 9830 9831 9832 9833 9834 9835 9836 9837 9838 9839 9840 9841 9842 9843 9844 9845 9846 9847 9848 9849 9850 9851 9852 9853 9854 9855 9856 9857 9858 9859 9860 9861 9862 9863 9864 9865 9866 9867 9868 9869 9870 9871 9872 9873 9874 9875 9876 9877 9878 9879 9880 9881 9882 9883 9884 9885 9886 9887 9888 9889 9890 9891 9892 9893 9894 9895 9896 9897 9898 9899 9900 9901 9902 9903 9904 9905 9906 9907 9908 9909 9910 9911 9912 9913 9914 9915 9916 9917 9918 9919 9920 9921 9922 9923 9924 9925 9926 9927 9928 9929 9930 9931 9932 9933 9934 9935 9936 9937 9938 9939 9940 9941 9942 9943 9944 9945 9946 9947 9948 9949 9950 9951 9952 9953 9954 9955 9956 9957 9958 9959 9960 9961 9962 9963 9964 9965 9966 9967 9968 9969 9970 9971 9972 9973 9974 9975 9976 9977 9978 9979 9980 9981 9982 9983 9984 9985 9986 9987 9988 9989 9990 9991 9992 9993 9994 9995 9996 9997 9998 9999 10000 10001 10002 10003 10004 10005 10006 10007 10008 10009 10010 10011 10012 10013 10014 10015 10016 10017 10018 10019 10020 10021 10022 10023 10024 10025 10026 10027 10028 10029 10030 10031 10032 10033 10034 10035 10036 10037 10038 10039 10040 10041 10042 10043 10044 10045 10046 10047 10048 10049 10050 10051 10052 10053 10054 10055 10056 10057 10058 10059 10060 10061 10062 10063 10064 10065 10066 10067 10068 10069 10070 10071 10072 10073 10074 10075 10076 10077 10078 10079 10080 10081 10082 10083 10084 10085 10086 10087 10088 10089 10090 10091 10092 10093 10094 10095 10096 10097 10098 10099 10100 10101 10102 10103 10104 10105 10106 10107 10108 10109 10110 10111 10112 10113 10114 10115 10116 10117 10118 10119 10120 10121 10122 10123 10124 10125 10126 10127 10128 10129 10130 10131 10132 10133 10134 10135 10136 10137 10138 10139 10140 10141 10142 10143 10144 10145 10146 10147 10148 10149 10150 10151 10152 10153 10154 10155 10156 10157 10158 10159 10160 10161 10162 10163 10164 10165 10166 10167 10168 10169 10170 10171 10172 10173 10174 10175 10176 10177 10178 10179 10180 10181 10182 10183 10184 10185 10186 10187 10188 10189 10190 10191 10192 10193 10194 10195 10196 10197 10198 10199 10200 10201 10202 10203 10204 10205 10206 10207 10208 10209 10210 10211 10212 10213 10214 10215 10216 10217 10218 10219 10220 10221 10222 10223 10224 10225 10226 10227 10228 10229 10230 10231 10232 10233 10234 10235 10236 10237 10238 10239 10240 10241 10242 10243 10244 10245 10246 10247 10248 10249 10250 10251 10252 10253 10254 10255 10256 10257 10258 10259 10260 10261 10262 10263 10264 10265 10266 10267 10268 10269 10270 10271 10272 10273 10274 10275 10276 10277 10278 10279 10280 10281 10282 10283 10284 10285 10286 10287 10288 10289 10290 10291 10292 10293 10294 10295 10296 10297 10298 10299 10300 10301 10302 10303 10304 10305 10306 10307 10308 10309 10310 10311 10312 10313 10314 10315 10316 10317 10318 10319 10320 10321 10322 10323 10324 10325 10326 10327 10328 10329 10330 10331 10332 10333 10334 10335 10336 10337 10338 10339 10340 10341 10342 10343 10344 10345 10346 10347 10348 10349 10350 10351 10352 10353 10354 10355 10356 10357 10358 10359 10360 10361 10362 10363 10364 10365 10366 10367 10368 10369 10370 10371 10372 10373 10374 10375 10376 10377 10378 10379 10380 10381 10382 10383 10384 10385 10386 10387 10388 10389 10390 10391 10392 10393 10394 10395 10396 10397 10398 10399 10400 10401 10402 10403 10404 10405 10406 10407 10408 10409 10410 10411 10412 10413 10414 10415 10416 10417 10418 10419 10420 10421 10422 10423 10424 10425 10426 10427 10428 10429 10430 10431 10432 10433 10434 10435 10436 10437 10438 10439 10440 10441 10442 10443 10444 10445 10446 10447 10448 10449 10450 10451 10452 10453 10454 10455 10456 10457 10458 10459 10460 10461 10462 10463 10464 10465 10466 10467 10468 10469 10470 10471 10472 10473 10474 10475 10476 10477 10478 10479 10480 10481 10482 10483 10484 10485 10486 10487 10488 10489 10490 10491 10492 10493 10494 10495 10496 10497 10498 10499 10500 10501 10502 10503 10504 10505 10506 10507 10508 10509 10510 10511 10512 10513 10514 10515 10516 10517 10518 10519 10520 10521 10522 10523 10524 10525 10526 10527 10528 10529 10530 10531 10532 10533 10534 10535 10536 10537 10538 10539 10540 10541 10542 10543 10544 10545 10546 10547 10548 10549 10550 10551 10552 10553 10554 10555 10556 10557 10558 10559 10560 10561 10562 10563 10564 10565 10566 10567 10568 10569 10570 10571 10572 10573 10574 10575 10576 10577 10578 10579 10580 10581 10582 10583 10584 10585 10586 10587 10588 10589 10590 10591 10592 10593 10594 10595 10596 10597 10598 10599 10600 10601 10602 10603 10604 10605 10606 10607 10608 10609 10610 10611 10612 10613 10614 10615 10616 10617 10618 10619 10620 10621 10622 10623 10624 10625 10626 10627 10628 10629 10630 10631 10632 10633 10634 10635 10636 10637 10638 10639 10640 10641 10642 10643 10644 10645 10646 10647 10648 10649 10650 10651 10652 10653 10654 10655 10656 10657 10658 10659 10660 10661 10662 10663 10664 10665 10666 10667 10668 10669 10670 10671 10672 10673 10674 10675 10676 10677 10678 10679 10680 10681 10682 10683 10684 10685 10686 10687 10688 10689 10690 10691 10692 10693 10694 10695 10696 10697 10698 10699 10700 10701 10702 10703 10704 10705 10706 10707 10708 10709 10710 10711 10712 10713 10714 10715 10716 10717 10718 10719 10720 10721 10722 10723 10724 10725 10726 10727 10728 10729 10730 10731 10732 10733 10734 10735 10736 10737 10738 10739 10740 10741 10742 10743 10744 10745 10746 10747 10748 10749 10750 10751 10752 10753 10754 10755 10756 10757 10758 10759 10760 10761 10762 10763 10764 10765 10766 10767 10768 10769 10770 10771 10772 10773 10774 10775 10776 10777 10778 10779 10780 10781 10782 10783 10784 10785 10786 10787 10788 10789 10790 10791 10792 10793 10794 10795 10796 10797 10798 10799 10800 10801 10802 10803 10804 10805 10806 10807 10808 10809 10810 10811 10812 10813 10814 10815 10816 10817 10818 10819 10820 10821 10822 10823 10824 10825 10826 10827 10828 10829 10830 10831 10832 10833 10834 10835 10836 10837 10838 10839 10840 10841 10842 10843 10844 10845 10846 10847 10848 10849 10850 10851 10852 10853 10854 10855 10856 10857 10858 10859 10860 10861 10862 10863 10864 10865 10866 10867 10868 10869 10870 10871 10872 10873 10874 10875 10876 10877 10878 10879 10880 10881 10882 10883 10884 10885 10886 10887 10888 10889 10890 10891 10892 10893 10894 10895 10896 10897 10898 10899 10900 10901 10902 10903 10904 10905 10906 10907 10908 10909 10910 10911 10912 10913 10914 10915 10916 10917 10918 10919 10920 10921 10922 10923 10924 10925 10926 10927 10928 10929 10930 10931 10932 10933 10934 10935 10936 10937 10938 10939 10940 10941 10942 10943 10944 10945 10946 10947 10948 10949 10950 10951 10952 10953 10954 10955 10956 10957 10958 10959 10960 10961 10962 10963 10964 10965 10966 10967 10968 10969 10970 10971 10972 10973 10974 10975 10976 10977 10978 10979 10980 10981 10982 10983 10984 10985 10986 10987 10988 10989 10990 10991 10992 10993 10994 10995 10996 10997 10998 10999 11000 11001 11002 11003 11004 11005 11006 11007 11008 11009 11010 11011 11012 11013 11014 11015 11016 11017 11018 11019 11020 11021 11022 11023 11024 11025 11026 11027 11028 11029 11030 11031 11032 11033 11034 11035 11036 11037 11038 11039 11040 11041 11042 11043 11044 11045 11046 11047 11048 11049 11050 11051 11052 11053 11054 11055 11056 11057 11058 11059 11060 11061 11062 11063 11064 11065 11066 11067 11068 11069 11070 11071 11072 11073 11074 11075 11076 11077 11078 11079 11080 11081 11082 11083 11084 11085 11086 11087 11088 11089 11090 11091 11092 11093 11094 11095 11096 11097 11098 11099 11100 11101 11102 11103 11104 11105 11106 11107 11108 11109 11110 11111 11112 11113 11114 11115 11116 11117 11118 11119 11120 11121 11122 11123 11124 11125 11126 11127 11128 11129 11130 11131 11132 11133 11134 11135 11136 11137 11138 11139 11140 11141 11142 11143 11144 11145 11146 11147 11148 11149 11150 11151 11152 11153 11154 11155 11156 11157 11158 11159 11160 11161 11162 11163 11164 11165 11166 11167 11168 11169 11170 11171 11172 11173 11174 11175 11176 11177 11178 11179 11180 11181 11182 11183 11184 11185 11186 11187 11188 11189 11190 11191 11192 11193 11194 11195 11196 11197 11198 11199 11200 11201 11202 11203 11204 11205 11206 11207 11208 11209 11210 11211 11212 11213 11214 11215 11216 11217 11218 11219 11220 11221 11222 11223 11224 11225 11226 11227 11228 11229 11230 11231 11232 11233 11234 11235 11236 11237 11238 11239 11240 11241 11242 11243 11244 11245 11246 11247 11248 11249 11250 11251 11252 11253 11254 11255 11256 11257 11258 11259 11260 11261 11262 11263 11264 11265 11266 11267 11268 11269 11270 11271 11272 11273 11274 11275 11276 11277 11278 11279 11280 11281 11282 11283 11284 11285 11286 11287 11288 11289 11290 11291 11292 11293 11294 11295 11296 11297 11298 11299 11300 11301 11302 11303 11304 11305 11306 11307 11308 11309 11310 11311 11312 11313 11314 11315 11316 11317 11318 11319 11320 11321 11322 11323 11324 11325 11326 11327 11328 11329 11330 11331 11332 11333 11334 11335 11336 11337 11338 11339 11340 11341 11342 11343 11344 11345 11346 11347 11348 11349 11350 11351 11352 11353 11354 11355 11356 11357 11358 11359 11360 11361 11362 11363 11364 11365 11366 11367 11368 11369 11370 11371 11372 11373 11374 11375 11376 11377 11378 11379 11380 11381 11382 11383 11384 11385 11386 11387 11388 11389 11390 11391 11392 11393 11394 11395 11396 11397 11398 11399 11400 11401 11402 11403 11404 11405 11406 11407 11408 11409 11410 11411 11412 11413 11414 11415 11416 11417 11418 11419 11420 11421 11422 11423 11424 11425 11426 11427 11428 11429 11430 11431 11432 11433 11434 11435 11436 11437 11438 11439 11440 11441 11442 11443 11444 11445 11446 11447 11448 11449 11450 11451 11452 11453 11454 11455 11456 11457 11458 11459 11460 11461 11462 11463 11464 11465 11466 11467 11468 11469 11470 11471 11472 11473 11474 11475 11476 11477 11478 11479 11480 11481 11482 11483 11484 11485 11486 11487 11488 11489 11490 11491 11492 11493 11494 11495 11496 11497 11498 11499 11500 11501 11502 11503 11504 11505 11506 11507 11508 11509 11510 11511 11512 11513 11514 11515 11516 11517 11518 11519 11520 11521 11522 11523 11524 11525 11526 11527 11528 11529 11530 11531 11532 11533 11534 11535 11536 11537 11538 11539 11540 11541 11542 11543 11544 11545 11546 11547 11548 11549 11550 11551 11552 11553 11554 11555 11556 11557 11558 11559 11560 11561 11562 11563 11564 11565 11566 11567 11568 11569 11570 11571 11572 11573 11574 11575 11576 11577 11578 11579 11580 11581 11582 11583 11584 11585 11586 11587 11588 11589 11590 11591 11592 11593 11594 11595 11596 11597 11598 11599 11600 11601 11602 11603 11604 11605 11606 11607 11608 11609 11610 11611 11612 11613 11614 11615 11616 11617 11618 11619 11620 11621 11622 11623 11624 11625 11626 11627 11628 11629 11630 11631 11632 11633 11634 11635 11636 11637 11638 11639 11640 11641 11642 11643 11644 11645 11646 11647 11648 11649 11650 11651 11652 11653 11654 11655 11656 11657 11658 11659 11660 11661 11662 11663 11664 11665 11666 11667 11668 11669 11670 11671 11672 11673 11674 11675 11676 11677 11678 11679 11680 11681 11682 11683 11684 11685 11686 11687 11688 11689 11690 11691 11692 11693 11694 11695 11696 11697 11698 11699 11700 11701 11702 11703 11704 11705 11706 11707 11708 11709 11710 11711 11712 11713 11714 11715 11716 11717 11718 11719 11720 11721 11722 11723 11724 11725 11726 11727 11728 11729 11730 11731 11732 11733 11734 11735 11736 11737 11738 11739 11740 11741 11742 11743 11744 11745 11746 11747 11748 11749 11750 11751 11752 11753 11754 11755 11756 11757 11758 11759 11760 11761 11762 11763 11764 11765 11766 11767 11768 11769 11770 11771 11772 11773 11774 11775 11776 11777 11778 11779 11780 11781 11782 11783 11784 11785 11786 11787 11788 11789 11790 11791 11792 11793 11794 11795 11796 11797 11798 11799 11800 11801 11802 11803 11804 11805 11806 11807 11808 11809 11810 11811 11812 11813 11814 11815 11816 11817 11818 11819 11820 11821 11822 11823 11824 11825 11826 11827 11828 11829 11830 11831 11832 11833 11834 11835 11836 11837 11838 11839 11840 11841 11842 11843 11844 11845 11846 11847 11848 11849 11850 11851 11852 11853 11854 11855 11856 11857 11858 11859 11860 11861 11862 11863 11864 11865 11866 11867 11868 11869 11870 11871 11872 11873 11874 11875 11876 11877 11878 11879 11880 11881 11882 11883 11884 11885 11886 11887 11888 11889 11890 11891 11892 11893 11894 11895 11896 11897 11898 11899 11900 11901 11902 11903 11904 11905 11906 11907 11908 11909 11910 11911 11912 11913 11914 11915 11916 11917 11918 11919 11920 11921 11922 11923 11924 11925 11926 11927 11928 11929 11930 11931 11932 11933 11934 11935 11936 11937 11938 11939 11940 11941 11942 11943 11944 11945 11946 11947 11948 11949 11950 11951 11952 11953 11954 11955 11956 11957 11958 11959 11960 11961 11962 11963 11964 11965 11966 11967 11968 11969 11970 11971 11972 11973 11974 11975 11976 11977 11978 11979 11980 11981 11982 11983 11984 11985 11986 11987 11988 11989 11990 11991 11992 11993 11994 11995 11996 11997 11998 11999 12000 12001 12002 12003 12004 12005 12006 12007 12008 12009 12010 12011 12012 12013 12014 12015 12016 12017 12018 12019 12020 12021 12022 12023 12024 12025 12026 12027 12028 12029 12030 12031 12032 12033 12034 12035 12036 12037 12038 12039 12040 12041 12042 12043 12044 12045 12046 12047 12048 12049 12050 12051 12052 12053 12054 12055 12056 12057 12058 12059 12060 12061 12062 12063 12064 12065 12066 12067 12068 12069 12070 12071 12072 12073 12074 12075 12076 12077 12078 12079 12080 12081 12082 12083 12084 12085 12086 12087 12088 12089 12090 12091 12092 12093 12094 12095 12096 12097 12098 12099 12100 12101 12102 12103 12104 12105 12106 12107 12108 12109 12110 12111 12112 12113 12114 12115 12116 12117 12118 12119 12120 12121 12122 12123 12124 12125 12126 12127 12128 12129 12130 12131 12132 12133 12134 12135 12136 12137 12138 12139 12140 12141 12142 12143 12144 12145 12146 12147 12148 12149 12150 12151 12152 12153 12154 12155 12156 12157 12158 12159 12160 12161 12162 12163 12164 12165 12166 12167 12168 12169 12170 12171 12172 12173 12174 12175 12176 12177 12178 12179 12180 12181 12182 12183 12184 12185 12186 12187 12188 12189 12190 12191 12192 12193 12194 12195 12196 12197 12198 12199 12200 12201 12202 12203 12204 12205 12206 12207 12208 12209 12210 12211 12212 12213 12214 12215 12216 12217 12218 12219 12220 12221 12222 12223 12224 12225 12226 12227 12228 12229 12230 12231 12232 12233 12234 12235 12236 12237 12238 12239 12240 12241 12242 12243 12244 12245 12246 12247 12248 12249 12250 12251 12252 12253 12254 12255 12256 12257 12258 12259 12260 12261 12262 12263 12264 12265 12266 12267 12268 12269 12270 12271 12272 12273 12274 12275 12276 12277 12278 12279 12280 12281 12282 12283 12284 12285 12286 12287 12288 12289 12290 12291 12292 12293 12294 12295 12296 12297 12298 12299 12300 12301 12302 12303 12304 12305 12306 12307 12308 12309 12310 12311 12312 12313 12314 12315 12316 12317 12318 12319 12320 12321 12322 12323 12324 12325 12326 12327 12328 12329 12330 12331 12332 12333 12334 12335 12336 12337 12338 12339 12340 12341 12342 12343 12344 12345 12346 12347 12348 12349 12350 12351 12352 12353 12354 12355 12356 12357 12358 12359 12360 12361 12362 12363 12364 12365 12366 12367 12368 12369 12370 12371 12372 12373 12374 12375 12376 12377 12378 12379 12380 12381 12382 12383 12384 12385 12386 12387 12388 12389 12390 12391 12392 12393 12394 12395 12396 12397 12398 12399 12400 12401 12402 12403 12404 12405 12406 12407 12408 12409 12410 12411 12412 12413 12414 12415 12416 12417 12418 12419 12420 12421 12422 12423 12424 12425 12426 12427 12428 12429 12430 12431 12432 12433 12434 12435 12436 12437 12438 12439 12440 12441 12442 12443 12444 12445 12446 12447 12448 12449 12450 12451 12452 12453 12454 12455 12456 12457 12458 12459 12460 12461 12462 12463 12464 12465 12466 12467 12468 12469 12470 12471 12472 12473 12474 12475 12476 12477 12478 12479 12480 12481 12482 12483 12484 12485 12486 12487 12488 12489 12490 12491 12492 12493 12494 12495 12496 12497 12498 12499 12500 12501 12502 12503 12504 12505 12506 12507 12508 12509 12510 12511 12512 12513 12514 12515 12516 12517 12518 12519 12520 12521 12522 12523 12524 12525 12526 12527 12528 12529 12530 12531 12532 12533 12534 12535 12536 12537 12538 12539 12540 12541 12542 12543 12544 12545 12546 12547 12548 12549 12550 12551 12552 12553 12554 12555 12556 12557 12558 12559 12560 12561 12562 12563 12564 12565 12566 12567 12568 12569 12570 12571 12572 12573 12574 12575 12576 12577 12578 12579 12580 12581 12582 12583 12584 12585 12586 12587 12588 12589 12590 12591 12592 12593 12594 12595 12596 12597 12598 12599 12600 12601 12602 12603 12604 12605 12606 12607 12608 12609 12610 12611 12612 12613 12614 12615 12616 12617 12618 12619 12620 12621 12622 12623 12624 12625 12626 12627 12628 12629 12630 12631 12632 12633 12634 12635 12636 12637 12638 12639 12640 12641 12642 12643 12644 12645 12646 12647 12648 12649 12650 12651 12652 12653 12654 12655 12656 12657 12658 12659 12660 12661 12662 12663 12664 12665 12666 12667 12668 12669 12670 12671 12672 12673 12674 12675 12676 12677 12678 12679 12680 12681 12682 12683 12684 12685 12686 12687 12688 12689 12690 12691 12692 12693 12694 12695 12696 12697 12698 12699 12700 12701 12702 12703 12704 12705 12706 12707 12708 12709 12710 12711 12712 12713 12714 12715 12716 12717 12718 12719 12720 12721 12722 12723 12724 12725 12726 12727 12728 12729 12730 12731 12732 12733 12734 12735 12736 12737 12738 12739 12740 12741 12742 12743 12744 12745 12746 12747 12748 12749 12750 12751 12752 12753 12754 12755 12756 12757 12758 12759 12760 12761 12762 12763 12764 12765 12766 12767 12768 12769 12770 12771 12772 12773 12774 12775 12776 12777 12778 12779 12780 12781 12782 12783 12784 12785 12786 12787 12788 12789 12790 12791 12792 12793 12794 12795 12796 12797 12798 12799 12800 12801 12802 12803 12804 12805 12806 12807 12808 12809 12810 12811 12812 12813 12814 12815 12816 12817 12818 12819 12820 12821 12822 12823 12824 12825 12826 12827 12828 12829 12830 12831 12832 12833 12834 12835 12836 12837 12838 12839 12840 12841 12842 12843 12844 12845 12846 12847 12848 12849 12850 12851 12852 12853 12854 12855 12856 12857 12858 12859 12860 12861 12862 12863 12864 12865 12866 12867 12868 12869 12870 12871 12872 12873 12874 12875 12876 12877 12878 12879 12880 12881 12882 12883 12884 12885 12886 12887 12888 12889 12890 12891 12892 12893 12894 12895 12896 12897 12898 12899 12900 12901 12902 12903 12904 12905 12906 12907 12908 12909 12910 12911 12912 12913 12914 12915 12916 12917 12918 12919 12920 12921 12922 12923 12924 12925 12926 12927 12928 12929 12930 12931 12932 12933 12934 12935 12936 12937 12938 12939 12940 12941 12942 12943 12944 12945 12946 12947 12948 12949 12950 12951 12952 12953 12954 12955 12956 12957 12958 12959 12960 12961 12962 12963 12964 12965 12966 12967 12968 12969 12970 12971 12972 12973 12974 12975 12976 12977 12978 12979 12980 12981 12982 12983 12984 12985 12986 12987 12988 12989 12990 12991 12992 12993 12994 12995 12996 12997 12998 12999 13000 13001 13002 13003 13004 13005 13006 13007 13008 13009 13010 13011 13012 13013 13014 13015 13016 13017 13018 13019 13020 13021 13022 13023 13024 13025 13026 13027 13028 13029 13030 13031 13032 13033 13034 13035 13036 13037 13038 13039 13040 13041 13042 13043 13044 13045 13046 13047 13048 13049 13050 13051 13052 13053 13054 13055 13056 13057 13058 13059 13060 13061 13062 13063 13064 13065 13066 13067 13068 13069 13070 13071 13072 13073 13074 13075 13076 13077 13078 13079 13080 13081 13082 13083 13084 13085 13086 13087 13088 13089 13090 13091 13092 13093 13094 13095 13096 13097 13098 13099 13100 13101 13102 13103 13104 13105 13106 13107 13108 13109 13110 13111 13112 13113 13114 13115 13116 13117 13118 13119 13120 13121 13122 13123 13124 13125 13126 13127 13128 13129 13130 13131 13132 13133 13134 13135 13136 13137 13138 13139 13140 13141 13142 13143 13144 13145 13146 13147 13148 13149 13150 13151 13152 13153 13154 13155 13156 13157 13158 13159 13160 13161 13162 13163 13164 13165 13166 13167 13168 13169 13170 13171 13172 13173 13174 13175 13176 13177 13178 13179 13180 13181 13182 13183 13184 13185 13186 13187 13188 13189 13190 13191 13192 13193 13194 13195 13196 13197 13198 13199 13200 13201 13202 13203 13204 13205 13206 13207 13208 13209 13210 13211 13212 13213 13214 13215 13216 13217 13218 13219 13220 13221 13222 13223 13224 13225 13226 13227 13228 13229 13230 13231 13232 13233 13234 13235 13236 13237 13238 13239 13240 13241 13242 13243 13244 13245 13246 13247 13248 13249 13250 13251 13252 13253 13254 13255 13256 13257 13258 13259 13260 13261 13262 13263 13264 13265 13266 13267 13268 13269 13270 13271 13272 13273 13274 13275 13276 13277 13278 13279 13280 13281 13282 13283 13284 13285 13286 13287 13288 13289 13290 13291 13292 13293 13294 13295 13296 13297 13298 13299 13300 13301 13302 13303 13304 13305 13306 13307 13308 13309 13310 13311 13312 13313 13314 13315 13316 13317 13318 13319 13320 13321 13322 13323 13324 13325 13326 13327 13328 13329 13330 13331 13332 13333 13334 13335 13336 13337 13338 13339 13340 13341 13342 13343 13344 13345 13346 13347 13348 13349 13350 13351 13352 13353 13354 13355 13356 13357 13358 13359 13360 13361 13362 13363 13364 13365 13366 13367 13368 13369 13370 13371 13372 13373 13374 13375 13376 13377 13378 13379 13380 13381 13382 13383 13384 13385 13386 13387 13388 13389 13390 13391 13392 13393 13394 13395 13396 13397 13398 13399 13400 13401 13402 13403 13404 13405 13406 13407 13408 13409 13410 13411 13412 13413 13414 13415 13416 13417 13418 13419 13420 13421 13422 13423 13424 13425 13426 13427 13428 13429 13430 13431 13432 13433 13434 13435 13436 13437 13438 13439 13440 13441 13442 13443 13444 13445 13446 13447 13448 13449 13450 13451 13452 13453 13454 13455 13456 13457 13458 13459 13460 13461 13462 13463 13464 13465 13466 13467 13468 13469 13470 13471 13472 13473 13474 13475 13476 13477 13478 13479 13480 13481 13482 13483 13484 13485 13486 13487 13488 13489 13490 13491 13492 13493 13494 13495 13496 13497 13498 13499 13500 13501 13502 13503 13504 13505 13506 13507 13508 13509 13510 13511 13512 13513 13514 13515 13516 13517 13518 13519 13520 13521 13522 13523 13524 13525 13526 13527 13528 13529 13530 13531 13532 13533 13534 13535 13536 13537 13538 13539 13540 13541 13542 13543 13544 13545 13546 13547 13548 13549 13550 13551 13552 13553 13554 13555 13556 13557 13558 13559 13560 13561 13562 13563 13564 13565 13566 13567 13568 13569 13570 13571 13572 13573 13574 13575 13576 13577 13578 13579 13580 13581 13582 13583 13584 13585 13586 13587 13588 13589 13590 13591 13592 13593 13594 13595 13596 13597 13598 13599 13600 13601 13602 13603 13604 13605 13606 13607 13608 13609 13610 13611 13612 13613 13614 13615 13616 13617 13618 13619 13620 13621 13622 13623 13624 13625 13626 13627 13628 13629 13630 13631 13632 13633 13634 13635 13636 13637 13638 13639 13640 13641 13642 13643 13644 13645 13646 13647 13648 13649 13650 13651 13652 13653 13654 13655 13656 13657 13658 13659 13660 13661 13662 13663 13664 13665 13666 13667 13668 13669 13670 13671 13672 13673 13674 13675 13676 13677 13678 13679 13680 13681 13682 13683 13684 13685 13686 13687 13688 13689 13690 13691 13692 13693 13694 13695 13696 13697 13698 13699 13700 13701 13702 13703 13704 13705 13706 13707 13708 13709 13710 13711 13712 13713 13714 13715 13716 13717 13718 13719 13720 13721 13722 13723 13724 13725 13726 13727 13728 13729 13730 13731 13732 13733 13734 13735 13736 13737 13738 13739 13740 13741 13742 13743 13744 13745 13746 13747 13748 13749 13750 13751 13752 13753 13754 13755 13756 13757 13758 13759 13760 13761 13762 13763 13764 13765 13766 13767 13768 13769 13770 13771 13772 13773 13774 13775 13776 13777 13778 13779 13780 13781 13782 13783 13784 13785 13786 13787 13788 13789 13790 13791 13792 13793 13794 13795 13796 13797 13798 13799 13800 13801 13802 13803 13804 13805 13806 13807 13808 13809 13810 13811 13812 13813 13814 13815 13816 13817 13818 13819 13820 13821 13822 13823 13824 13825 13826 13827 13828 13829 13830 13831 13832 13833 13834 13835 13836 13837 13838 13839 13840 13841 13842 13843 13844 13845 13846 13847 13848 13849 13850 13851 13852 13853 13854 13855 13856 13857 13858 13859 13860 13861 13862 13863 13864 13865 13866 13867 13868 13869 13870 13871 13872 13873 13874 13875 13876 13877 13878 13879 13880 13881 13882 13883 13884 13885 13886 13887 13888 13889 13890 13891 13892 13893 13894 13895 13896 13897 13898 13899 13900 13901 13902 13903 13904 13905 13906 13907 13908 13909 13910 13911 13912 13913 13914 13915 13916 13917 13918 13919 13920 13921 13922 13923 13924 13925 13926 13927 13928 13929 13930 13931 13932 13933 13934 13935 13936 13937 13938 13939 13940 13941 13942 13943 13944 13945 13946 13947 13948 13949 13950 13951 13952 13953 13954 13955 13956 13957 13958 13959 13960 13961 13962 13963 13964 13965 13966 13967 13968 13969 13970 13971 13972 13973 13974 13975 13976 13977 13978 13979 13980 13981 13982 13983 13984 13985 13986 13987 13988 13989 13990 13991 13992 13993 13994 13995 13996 13997 13998 13999 14000 14001 14002 14003 14004 14005 14006 14007 14008 14009 14010 14011 14012 14013 14014 14015 14016 14017 14018 14019 14020 14021 14022 14023 14024 14025 14026 14027 14028 14029 14030 14031 14032 14033 14034 14035 14036 14037 14038 14039 14040 14041 14042 14043 14044 14045 14046 14047 14048 14049 14050 14051 14052 14053 14054 14055 14056 14057 14058 14059 14060 14061 14062 14063 14064 14065 14066 14067 14068 14069 14070 14071 14072 14073 14074 14075 14076 14077 14078 14079 14080 14081 14082 14083 14084 14085 14086 14087 14088 14089 14090 14091 14092 14093 14094 14095 14096 14097 14098 14099 14100 14101 14102 14103 14104 14105 14106 14107 14108 14109 14110 14111 14112 14113 14114 14115 14116 14117 14118 14119 14120 14121 14122 14123 14124 14125 14126 14127 14128 14129 14130 14131 14132 14133 14134 14135 14136 14137 14138 14139 14140 14141 14142 14143 14144 14145 14146 14147 14148 14149 14150 14151 14152 14153 14154 14155 14156 14157 14158 14159 14160 14161 14162 14163 14164 14165 14166 14167 14168 14169 14170 14171 14172 14173 14174 14175 14176 14177 14178 14179 14180 14181 14182 14183 14184 14185 14186 14187 14188 14189 14190 14191 14192 14193 14194 14195 14196 14197 14198 14199 14200 14201 14202 14203 14204 14205 14206 14207 14208 14209 14210 14211 14212 14213 14214 14215 14216 14217 14218 14219 14220 14221 14222 14223 14224 14225 14226 14227 14228 14229 14230 14231 14232 14233 14234 14235 14236 14237 14238 14239 14240 14241 14242 14243 14244 14245 14246 14247 14248 14249 14250 14251 14252 14253 14254 14255 14256 14257 14258 14259 14260 14261 14262 14263 14264 14265 14266 14267 14268 14269 14270 14271 14272 14273 14274 14275 14276 14277 14278 14279 14280 14281 14282 14283 14284 14285 14286 14287 14288 14289 14290 14291 14292 14293 14294 14295 14296 14297 14298 14299 14300 14301 14302 14303 14304 14305 14306 14307 14308 14309 14310 14311 14312 14313 14314 14315 14316 14317 14318 14319 14320 14321 14322 14323 14324 14325 14326 14327 14328 14329 14330 14331 14332 14333 14334 14335 14336 14337 14338 14339 14340 14341 14342 14343 14344 14345 14346 14347 14348 14349 14350 14351 14352 14353 14354 14355 14356 14357 14358 14359 14360 14361 14362 14363 14364 14365 14366 14367 14368 14369 14370 14371 14372 14373 14374 14375 14376 14377 14378 14379 14380 14381 14382 14383 14384 14385 14386 14387 14388 14389 14390 14391 14392 14393 14394 14395 14396 14397 14398 14399 14400 14401 14402 14403 14404 14405 14406 14407 14408 14409 14410 14411 14412 14413 14414 14415 14416 14417 14418 14419 14420 14421 14422 14423 14424 14425 14426 14427 14428 14429 14430 14431 14432 14433 14434 14435 14436 14437 14438 14439 14440 14441 14442 14443 14444 14445 14446 14447 14448 14449 14450 14451 14452 14453 14454 14455 14456 14457 14458 14459 14460 14461 14462 14463 14464 14465 14466 14467 14468 14469 14470 14471 14472 14473 14474 14475 14476 14477 14478 14479 14480 14481 14482 14483 14484 14485 14486 14487 14488 14489 14490 14491 14492 14493 14494 14495 14496 14497 14498 14499 14500 14501 14502 14503 14504 14505 14506 14507 14508 14509 14510 14511 14512 14513 14514 14515 14516 14517 14518 14519 14520 14521 14522 14523 14524 14525 14526 14527 14528 14529 14530 14531 14532 14533 14534 14535 14536 14537 14538 14539 14540 14541 14542 14543 14544 14545 14546 14547 14548 14549 14550 14551 14552 14553 14554 14555 14556 14557 14558 14559 14560 14561 14562 14563 14564 14565 14566 14567 14568 14569 14570 14571 14572 14573 14574 14575 14576 14577 14578 14579 14580 14581 14582 14583 14584 14585 14586 14587 14588 14589 14590 14591 14592 14593 14594 14595 14596 14597 14598 14599 14600 14601 14602 14603 14604 14605 14606 14607 14608 14609 14610 14611 14612 14613 14614 14615 14616 14617 14618 14619 14620 14621 14622 14623 14624 14625 14626 14627 14628 14629 14630 14631 14632 14633 14634 14635 14636 14637 14638 14639 14640 14641 14642 14643 14644 14645 14646 14647 14648 14649 14650 14651 14652 14653 14654 14655 14656 14657 14658 14659 14660 14661 14662 14663 14664 14665 14666 14667 14668 14669 14670 14671 14672 14673 14674 14675 14676 14677 14678 14679 14680 14681 14682 14683 14684 14685 14686 14687 14688 14689 14690 14691 14692 14693 14694 14695 14696 14697 14698 14699 14700 14701 14702 14703 14704 14705 14706 14707 14708 14709 14710 14711 14712 14713 14714 14715 14716 14717 14718 14719 14720 14721 14722 14723 14724 14725 14726 14727 14728 14729 14730 14731 14732 14733 14734 14735 14736 14737 14738 14739 14740 14741 14742 14743 14744 14745 14746 14747 14748 14749 14750 14751 14752 14753 14754 14755 14756 14757 14758 14759 14760 14761 14762 14763 14764 14765 14766 14767 14768 14769 14770 14771 14772 14773 14774 14775 14776 14777 14778 14779 14780 14781 14782 14783 14784 14785 14786 14787 14788 14789 14790 14791 14792 14793 14794 14795 14796 14797 14798 14799 14800 14801 14802 14803 14804 14805 14806 14807 14808 14809 14810 14811 14812 14813 14814 14815 14816 14817 14818 14819 14820 14821 14822 14823 14824 14825 14826 14827 14828 14829 14830 14831 14832 14833 14834 14835 14836 14837 14838 14839 14840 14841 14842 14843 14844 14845 14846 14847 14848 14849 14850 14851 14852 14853 14854 14855 14856 14857 14858 14859 14860 14861 14862 14863 14864 14865 14866 14867 14868 14869 14870 14871 14872 14873 14874 14875 14876 14877 14878 14879 14880 14881 14882 14883 14884 14885 14886 14887 14888 14889 14890 14891 14892 14893 14894 14895 14896 14897 14898 14899 14900 14901 14902 14903 14904 14905 14906 14907 14908 14909 14910 14911 14912 14913 14914 14915 14916 14917 14918 14919 14920 14921 14922 14923 14924 14925 14926 14927 14928 14929 14930 14931 14932 14933 14934 14935 14936 14937 14938 14939 14940 14941 14942 14943 14944 14945 14946 14947 14948 14949 14950 14951 14952 14953 14954 14955 14956 14957 14958 14959 14960 14961 14962 14963 14964 14965 14966 14967 14968 14969 14970 14971 14972 14973 14974 14975 14976 14977 14978 14979 14980 14981 14982 14983 14984 14985 14986 14987 14988 14989 14990 14991 14992 14993 14994 14995 14996 14997 14998 14999 15000 15001 15002 15003 15004 15005 15006 15007 15008 15009 15010 15011 15012 15013 15014 15015 15016 15017 15018 15019 15020 15021 15022 15023 15024 15025 15026 15027 15028 15029 15030 15031 15032 15033 15034 15035 15036 15037 15038 15039 15040 15041 15042 15043 15044 15045 15046 15047 15048 15049 15050 15051 15052 15053 15054 15055 15056 15057 15058 15059 15060 15061 15062 15063 15064 15065 15066 15067 15068 15069 15070 15071 15072 15073 15074 15075 15076 15077 15078 15079 15080 15081 15082 15083 15084 15085 15086 15087 15088 15089 15090 15091 15092 15093 15094 15095 15096 15097 15098 15099 15100 15101 15102 15103 15104 15105 15106 15107 15108 15109 15110 15111 15112 15113 15114 15115 15116 15117 15118 15119 15120 15121 15122 15123 15124 15125 15126 15127 15128 15129 15130 15131 15132 15133 15134 15135 15136 15137 15138 15139 15140 15141 15142 15143 15144 15145 15146 15147 15148 15149 15150 15151 15152 15153 15154 15155 15156 15157 15158 15159 15160 15161 15162 15163 15164 15165 15166 15167 15168 15169 15170 15171 15172 15173 15174 15175 15176 15177 15178 15179 15180 15181 15182 15183 15184 15185 15186 15187 15188 15189 15190 15191 15192 15193 15194 15195 15196 15197 15198 15199 15200 15201 15202 15203 15204 15205 15206 15207 15208 15209 15210 15211 15212 15213 15214 15215 15216 15217 15218 15219 15220 15221 15222 15223 15224 15225 15226 15227 15228 15229 15230 15231 15232 15233 15234 15235 15236 15237 15238 15239 15240 15241 15242 15243 15244 15245 15246 15247 15248 15249 15250 15251 15252 15253 15254 15255 15256 15257 15258 15259 15260 15261 15262 15263 15264 15265 15266 15267 15268 15269 15270 15271 15272 15273 15274 15275 15276 15277 15278 15279 15280 15281 15282 15283 15284 15285 15286 15287 15288 15289 15290 15291 15292 15293 15294 15295 15296 15297 15298 15299 15300 15301 15302 15303 15304 15305 15306 15307 15308 15309 15310 15311 15312 15313 15314 15315 15316 15317 15318 15319 15320 15321 15322 15323 15324 15325 15326 15327 15328 15329 15330 15331 15332 15333 15334 15335 15336 15337 15338 15339 15340 15341 15342 15343 15344 15345 15346 15347 15348 15349 15350 15351 15352 15353 15354 15355 15356 15357 15358 15359 15360 15361 15362 15363 15364 15365 15366 15367 15368 15369 15370 15371 15372 15373 15374 15375 15376 15377 15378 15379 15380 15381 15382 15383 15384 15385 15386 15387 15388 15389 15390 15391 15392 15393 15394 15395 15396 15397 15398 15399 15400 15401 15402 15403 15404 15405 15406 15407 15408 15409 15410 15411 15412 15413 15414 15415 15416 15417 15418 15419 15420 15421 15422 15423 15424 15425 15426 15427 15428 15429 15430 15431 15432 15433 15434 15435 15436 15437 15438 15439 15440 15441 15442 15443 15444 15445 15446 15447 15448 15449 15450 15451 15452 15453 15454 15455 15456 15457 15458 15459 15460 15461 15462 15463 15464 15465 15466 15467 15468 15469 15470 15471 15472 15473 15474 15475 15476 15477 15478 15479 15480 15481 15482 15483 15484 15485 15486 15487 15488 15489 15490 15491 15492 15493 15494 15495 15496 15497 15498 15499 15500 15501 15502 15503 15504 15505 15506 15507 15508 15509 15510 15511 15512 15513 15514 15515 15516 15517 15518 15519 15520 15521 15522 15523 15524 15525 15526 15527 15528 15529 15530 15531 15532 15533 15534 15535 15536 15537 15538 15539 15540 15541 15542 15543 15544 15545 15546 15547 15548 15549 15550 15551 15552 15553 15554 15555 15556 15557 15558 15559 15560 15561 15562 15563 15564 15565 15566 15567 15568 15569 15570 15571 15572 15573 15574 15575 15576 15577 15578 15579 15580 15581 15582 15583 15584 15585 15586 15587 15588 15589 15590 15591 15592 15593 15594 15595 15596 15597 15598 15599 15600 15601 15602 15603 15604 15605 15606 15607 15608 15609 15610 15611 15612 15613 15614 15615 15616 15617 15618 15619 15620 15621 15622 15623 15624 15625 15626 15627 15628 15629 15630 15631 15632 15633 15634 15635 15636 15637 15638 15639 15640 15641 15642 15643 15644 15645 15646 15647 15648 15649 15650 15651 15652 15653 15654 15655 15656 15657 15658 15659 15660 15661 15662 15663 15664 15665 15666 15667 15668 15669 15670 15671 15672 15673 15674 15675 15676 15677 15678 15679 15680 15681 15682 15683 15684 15685 15686 15687 15688 15689 15690 15691 15692 15693 15694 15695 15696 15697 15698 15699 15700 15701 15702 15703 15704 15705 15706 15707 15708 15709 15710 15711 15712 15713 15714 15715 15716 15717 15718 15719 15720 15721 15722 15723 15724 15725 15726 15727 15728 15729 15730 15731 15732 15733 15734 15735 15736 15737 15738 15739 15740 15741 15742 15743 15744 15745 15746 15747 15748 15749 15750 15751 15752 15753 15754 15755 15756 15757 15758 15759 15760 15761 15762 15763 15764 15765 15766 15767 15768 15769 15770 15771 15772 15773 15774 15775 15776 15777 15778 15779 15780 15781 15782 15783 15784 15785 15786 15787 15788 15789 15790 15791 15792 15793 15794 15795 15796 15797 15798 15799 15800 15801 15802 15803 15804 15805 15806 15807 15808 15809 15810 15811 15812 15813 15814 15815 15816 15817 15818 15819 15820 15821 15822 15823 15824 15825 15826 15827 15828 15829 15830 15831 15832 15833 15834 15835 15836 15837 15838 15839 15840 15841 15842 15843 15844 15845 15846 15847 15848 15849 15850 15851 15852 15853 15854 15855 15856 15857 15858 15859 15860 15861 15862 15863 15864 15865 15866 15867 15868 15869 15870 15871 15872 15873 15874 15875 15876 15877 15878 15879 15880 15881 15882 15883 15884 15885 15886 15887 15888 15889 15890 15891 15892 15893 15894 15895 15896 15897 15898 15899 15900 15901 15902 15903 15904 15905 15906 15907 15908 15909 15910 15911 15912 15913 15914 15915 15916 15917 15918 15919 15920 15921 15922 15923 15924 15925 15926 15927 15928 15929 15930 15931 15932 15933 15934 15935 15936 15937 15938 15939 15940 15941 15942 15943 15944 15945 15946 15947 15948 15949 15950 15951 15952 15953 15954 15955 15956 15957 15958 15959 15960 15961 15962 15963 15964 15965 15966 15967 15968 15969 15970 15971 15972 15973 15974 15975 15976 15977 15978 15979 15980 15981 15982 15983 15984 15985 15986 15987 15988 15989 15990 15991 15992 15993 15994 15995 15996 15997 15998 15999 16000 16001 16002 16003 16004 16005 16006 16007 16008 16009 16010 16011 16012 16013 16014 16015 16016 16017 16018 16019 16020 16021 16022 16023 16024 16025 16026 16027 16028 16029 16030 16031 16032 16033 16034 16035 16036 16037 16038 16039 16040 16041 16042 16043 16044 16045 16046 16047 16048 16049 16050 16051 16052 16053 16054 16055 16056 16057 16058 16059 16060 16061 16062 16063 16064 16065 16066 16067 16068 16069 16070 16071 16072 16073 16074 16075 16076 16077 16078 16079 16080 16081 16082 16083 16084 16085 16086 16087 16088 16089 16090 16091 16092 16093 16094 16095 16096 16097 16098 16099 16100 16101 16102 16103 16104 16105 16106 16107 16108 16109 16110 16111 16112 16113 16114 16115 16116 16117 16118 16119 16120 16121 16122 16123 16124 16125 16126 16127 16128 16129 16130 16131 16132 16133 16134 16135 16136 16137 16138 16139 16140 16141 16142 16143 16144 16145 16146 16147 16148 16149 16150 16151 16152 16153 16154 16155 16156 16157 16158 16159 16160 16161 16162 16163 16164 16165 16166 16167 16168 16169 16170 16171 16172 16173 16174 16175 16176 16177 16178 16179 16180 16181 16182 16183 16184 16185 16186 16187 16188 16189 16190 16191 16192 16193 16194 16195 16196 16197 16198 16199 16200 16201 16202 16203 16204 16205 16206 16207 16208 16209 16210 16211 16212 16213 16214 16215 16216 16217 16218 16219 16220 16221 16222 16223 16224 16225 16226 16227 16228 16229 16230 16231 16232 16233 16234 16235 16236 16237 16238 16239 16240 16241 16242 16243 16244 16245 16246 16247 16248 16249 16250 16251 16252 16253 16254 16255 16256 16257 16258 16259 16260 16261 16262 16263 16264 16265 16266 16267 16268 16269 16270 16271 16272 16273 16274 16275 16276 16277 16278 16279 16280 16281 16282 16283 16284 16285 16286 16287 16288 16289 16290 16291 16292 16293 16294 16295 16296 16297 16298 16299 16300 16301 16302 16303 16304 16305 16306 16307 16308 16309 16310 16311 16312 16313 16314 16315 16316 16317 16318 16319 16320 16321 16322 16323 16324 16325 16326 16327 16328 16329 16330 16331 16332 16333 16334 16335 16336 16337 16338 16339 16340 16341 16342 16343 16344 16345 16346 16347 16348 16349 16350 16351 16352 16353 16354 16355 16356 16357 16358 16359 16360 16361 16362 16363 16364 16365 16366 16367 16368 16369 16370 16371 16372 16373 16374 16375 16376 16377 16378 16379 16380 16381 16382 16383 16384 16385 16386 16387 16388 16389 16390 16391 16392 16393 16394 16395 16396 16397 16398 16399 16400 16401 16402 16403 16404 16405 16406 16407 16408 16409 16410 16411 16412 16413 16414 16415 16416 16417 16418 16419 16420 16421 16422 16423 16424 16425 16426 16427 16428 16429 16430 16431 16432 16433 16434 16435 16436 16437 16438 16439 16440 16441 16442 16443 16444 16445 16446 16447 16448 16449 16450 16451 16452 16453 16454 16455 16456 16457 16458 16459 16460 16461 16462 16463 16464 16465 16466 16467 16468 16469 16470 16471 16472 16473 16474 16475 16476 16477 16478 16479 16480 16481 16482 16483 16484 16485 16486 16487 16488 16489 16490 16491 16492 16493 16494 16495 16496 16497 16498 16499 16500 16501 16502 16503 16504 16505 16506 16507 16508 16509 16510 16511 16512 16513 16514 16515 16516 16517 16518 16519 16520 16521 16522 16523 16524 16525 16526 16527 16528 16529 16530 16531 16532 16533 16534 16535 16536 16537 16538 16539 16540 16541 16542 16543 16544 16545 16546 16547 16548 16549 16550 16551 16552 16553 16554 16555 16556 16557 16558 16559 16560 16561 16562 16563 16564 16565 16566 16567 16568 16569 16570 16571 16572 16573 16574 16575 16576 16577 16578 16579 16580 16581 16582 16583 16584 16585 16586 16587 16588 16589 16590 16591 16592 16593 16594 16595 16596 16597 16598 16599 16600 16601 16602 16603 16604 16605 16606 16607 16608 16609 16610 16611 16612 16613 16614 16615 16616 16617 16618 16619 16620 16621 16622 16623 16624 16625 16626 16627 16628 16629 16630 16631 16632 16633 16634 16635 16636 16637 16638 16639 16640 16641 16642 16643 16644 16645 16646 16647 16648 16649 16650 16651 16652 16653 16654 16655 16656 16657 16658 16659 16660 16661 16662 16663 16664 16665 16666 16667 16668 16669 16670 16671 16672 16673 16674 16675 16676 16677 16678 16679 16680 16681 16682 16683 16684 16685 16686 16687 16688 16689 16690 16691 16692 16693 16694 16695 16696 16697 16698 16699 16700 16701 16702 16703 16704 16705 16706 16707 16708 16709 16710 16711 16712 16713 16714 16715 16716 16717 16718 16719 16720 16721 16722 16723 16724 16725 16726 16727 16728 16729 16730 16731 16732 16733 16734 16735 16736 16737 16738 16739 16740 16741 16742 16743 16744 16745 16746 16747 16748 16749 16750 16751 16752 16753 16754 16755 16756 16757 16758 16759 16760 16761 16762 16763 16764 16765 16766 16767 16768 16769 16770 16771 16772 16773 16774 16775 16776 16777 16778 16779 16780 16781 16782 16783 16784 16785 16786 16787 16788 16789 16790 16791 16792 16793 16794 16795 16796 16797 16798 16799 16800 16801 16802 16803 16804 16805 16806 16807 16808 16809 16810 16811 16812 16813 16814 16815 16816 16817 16818 16819 16820 16821 16822 16823 16824 16825 16826 16827 16828 16829 16830 16831 16832 16833 16834 16835 16836 16837 16838 16839 16840 16841 16842 16843 16844 16845 16846 16847 16848 16849 16850 16851 16852 16853 16854 16855 16856 16857 16858 16859 16860 16861 16862 16863 16864 16865 16866 16867 16868 16869 16870 16871 16872 16873 16874 16875 16876 16877 16878 16879 16880 16881 16882 16883 16884 16885 16886 16887 16888 16889 16890 16891 16892 16893 16894 16895 16896 16897 16898 16899 16900 16901 16902 16903 16904 16905 16906 16907 16908 16909 16910 16911 16912 16913 16914 16915 16916 16917 16918 16919 16920 16921 16922 16923 16924 16925 16926 16927 16928 16929 16930 16931 16932 16933 16934 16935 16936 16937 16938 16939 16940 16941 16942 16943 16944 16945 16946 16947 16948 16949 16950 16951 16952 16953 16954 16955 16956 16957 16958 16959 16960 16961 16962 16963 16964 16965 16966 16967 16968 16969 16970 16971 16972 16973 16974 16975 16976 16977 16978 16979 16980 16981 16982 16983 16984 16985 16986 16987 16988 16989 16990 16991 16992 16993 16994 16995 16996 16997 16998 16999 17000 17001 17002 17003 17004 17005 17006 17007 17008 17009 17010 17011 17012 17013 17014 17015 17016 17017 17018 17019 17020 17021 17022 17023 17024 17025 17026 17027 17028 17029 17030 17031 17032 17033 17034 17035 17036 17037 17038 17039 17040 17041 17042 17043 17044 17045 17046 17047 17048 17049 17050 17051 17052 17053 17054 17055 17056 17057 17058 17059 17060 17061 17062 17063 17064 17065 17066 17067 17068 17069 17070 17071 17072 17073 17074 17075 17076 17077 17078 17079 17080 17081 17082 17083 17084 17085 17086 17087 17088 17089 17090 17091 17092 17093 17094 17095 17096 17097 17098 17099 17100 17101 17102 17103 17104 17105 17106 17107 17108 17109 17110 17111 17112 17113 17114 17115 17116 17117 17118 17119 17120 17121 17122 17123 17124 17125 17126 17127 17128 17129 17130 17131 17132 17133 17134 17135 17136 17137 17138 17139 17140 17141 17142 17143 17144 17145 17146 17147 17148 17149 17150 17151 17152 17153 17154 17155 17156 17157 17158 17159 17160 17161 17162 17163 17164 17165 17166 17167 17168 17169 17170 17171 17172 17173 17174 17175 17176 17177 17178 17179 17180 17181 17182 17183 17184 17185 17186 17187 17188 17189 17190 17191 17192 17193 17194 17195 17196 17197 17198 17199 17200 17201 17202 17203 17204 17205 17206 17207 17208 17209 17210 17211 17212 17213 17214 17215 17216 17217 17218 17219 17220 17221 17222 17223 17224 17225 17226 17227 17228 17229 17230 17231 17232 17233 17234 17235 17236 17237 17238 17239 17240 17241 17242 17243 17244 17245 17246 17247 17248 17249 17250 17251 17252 17253 17254 17255 17256 17257 17258 17259 17260 17261 17262 17263 17264 17265 17266 17267 17268 17269 17270 17271 17272 17273 17274 17275 17276 17277 17278 17279 17280 17281 17282 17283 17284 17285 17286 17287 17288 17289 17290 17291 17292 17293 17294 17295 17296 17297 17298 17299 17300 17301 17302 17303 17304 17305 17306 17307 17308 17309 17310 17311 17312 17313 17314 17315 17316 17317 17318 17319 17320 17321 17322 17323 17324 17325 17326 17327 17328 17329 17330 17331 17332 17333 17334 17335 17336 17337 17338 17339 17340 17341 17342 17343 17344 17345 17346 17347 17348 17349 17350 17351 17352 17353 17354 17355 17356 17357 17358 17359 17360 17361 17362 17363 17364 17365 17366 17367 17368 17369 17370 17371 17372 17373 17374 17375 17376 17377 17378 17379 17380 17381 17382 17383 17384 17385 17386 17387 17388 17389 17390 17391 17392 17393 17394 17395 17396 17397 17398 17399 17400 17401 17402 17403 17404 17405 17406 17407 17408 17409 17410 17411 17412 17413 17414 17415 17416 17417 17418 17419 17420 17421 17422 17423 17424 17425 17426 17427 17428 17429 17430 17431 17432 17433 17434 17435 17436 17437 17438 17439 17440 17441 17442 17443 17444 17445 17446 17447 17448 17449 17450 17451 17452 17453 17454 17455 17456 17457 17458 17459 17460 17461 17462 17463 17464 17465 17466 17467 17468 17469 17470 17471 17472 17473 17474 17475 17476 17477 17478 17479 17480 17481 17482 17483 17484 17485 17486 17487 17488 17489 17490 17491 17492 17493 17494 17495 17496 17497 17498 17499 17500 17501 17502 17503 17504 17505 17506 17507 17508 17509 17510 17511 17512 17513 17514 17515 17516 17517 17518 17519 17520 17521 17522 17523 17524 17525 17526 17527 17528 17529 17530 17531 17532 17533 17534 17535 17536 17537 17538 17539 17540 17541 17542 17543 17544 17545 17546 17547 17548 17549 17550 17551 17552 17553 17554 17555 17556 17557 17558 17559 17560 17561 17562 17563 17564 17565 17566 17567 17568 17569 17570 17571 17572 17573 17574 17575 17576 17577 17578 17579 17580 17581 17582 17583 17584 17585 17586 17587 17588 17589 17590 17591 17592 17593 17594 17595 17596 17597 17598 17599 17600 17601 17602 17603 17604 17605 17606 17607 17608 17609 17610 17611 17612 17613 17614 17615 17616 17617 17618 17619 17620 17621 17622 17623 17624 17625 17626 17627 17628 17629 17630 17631 17632 17633 17634 17635 17636 17637 17638 17639 17640 17641 17642 17643 17644 17645 17646 17647 17648 17649 17650 17651 17652 17653 17654 17655 17656 17657 17658 17659 17660 17661 17662 17663 17664 17665 17666 17667 17668 17669 17670 17671 17672 17673 17674 17675 17676 17677 17678 17679 17680 17681 17682 17683 17684 17685 17686 17687 17688 17689 17690 17691 17692 17693 17694 17695 17696 17697 17698 17699 17700 17701 17702 17703 17704 17705 17706 17707 17708 17709 17710 17711 17712 17713 17714 17715 17716 17717 17718 17719 17720 17721 17722 17723 17724 17725 17726 17727 17728 17729 17730 17731 17732 17733 17734 17735 17736 17737 17738 17739 17740 17741 17742 17743 17744 17745 17746 17747 17748 17749 17750 17751 17752 17753 17754 17755 17756 17757 17758 17759 17760 17761 17762 17763 17764 17765 17766 17767 17768 17769 17770 17771 17772 17773 17774 17775 17776 17777 17778 17779 17780 17781 17782 17783 17784 17785 17786 17787 17788 17789 17790 17791 17792 17793 17794 17795 17796 17797 17798 17799 17800 17801 17802 17803 17804 17805 17806 17807 17808 17809 17810 17811 17812 17813 17814 17815 17816 17817 17818 17819 17820 17821 17822 17823 17824 17825 17826 17827 17828 17829 17830 17831 17832 17833 17834 17835 17836 17837 17838 17839 17840 17841 17842 17843 17844 17845 17846 17847 17848 17849 17850 17851 17852 17853 17854 17855 17856 17857 17858 17859 17860 17861 17862 17863 17864 17865 17866 17867 17868 17869 17870 17871 17872 17873 17874 17875 17876 17877 17878 17879 17880 17881 17882 17883 17884 17885 17886 17887 17888 17889 17890 17891 17892 17893 17894 17895 17896 17897 17898 17899 17900 17901 17902 17903 17904 17905 17906 17907 17908 17909 17910 17911 17912 17913 17914 17915 17916 17917 17918 17919 17920 17921 17922 17923 17924 17925 17926 17927 17928 17929 17930 17931 17932 17933 17934 17935 17936 17937 17938 17939 17940 17941 17942 17943 17944 17945 17946 17947 17948 17949 17950 17951 17952 17953 17954 17955 17956 17957 17958 17959 17960 17961 17962 17963 17964 17965 17966 17967 17968 17969 17970 17971 17972 17973 17974 17975 17976 17977 17978 17979 17980 17981 17982 17983 17984 17985 17986 17987 17988 17989 17990 17991 17992 17993 17994 17995 17996 17997 17998 17999 18000 18001 18002 18003 18004 18005 18006 18007 18008 18009 18010 18011 18012 18013 18014 18015 18016 18017 18018 18019 18020 18021 18022 18023 18024 18025 18026 18027 18028 18029 18030 18031 18032 18033 18034 18035 18036 18037 18038 18039 18040 18041 18042 18043 18044 18045 18046 18047 18048 18049 18050 18051 18052 18053 18054 18055 18056 18057 18058 18059 18060 18061 18062 18063 18064 18065 18066 18067 18068 18069 18070 18071 18072 18073 18074 18075 18076 18077 18078 18079 18080 18081 18082 18083 18084 18085 18086 18087 18088 18089 18090 18091 18092 18093 18094 18095 18096 18097 18098 18099 18100 18101 18102 18103 18104 18105 18106 18107 18108 18109 18110 18111 18112 18113 18114 18115 18116 18117 18118 18119 18120 18121 18122 18123 18124 18125 18126 18127 18128 18129 18130 18131 18132 18133 18134 18135 18136 18137 18138 18139 18140 18141 18142 18143 18144 18145 18146 18147 18148 18149 18150 18151 18152 18153 18154 18155 18156 18157 18158 18159 18160 18161 18162 18163 18164 18165 18166 18167 18168 18169 18170 18171 18172 18173 18174 18175 18176 18177 18178 18179 18180 18181 18182 18183 18184 18185 18186 18187 18188 18189 18190 18191 18192 18193 18194 18195 18196 18197 18198 18199 18200 18201 18202 18203 18204 18205 18206 18207 18208 18209 18210 18211 18212 18213 18214 18215 18216 18217 18218 18219 18220 18221 18222 18223 18224 18225 18226 18227 18228 18229 18230 18231 18232 18233 18234 18235 18236 18237 18238 18239 18240 18241 18242 18243 18244 18245 18246 18247 18248 18249 18250 18251 18252 18253 18254 18255 18256 18257 18258 18259 18260 18261 18262 18263 18264 18265 18266 18267 18268 18269 18270 18271 18272 18273 18274 18275 18276 18277 18278 18279 18280 18281 18282 18283 18284 18285 18286 18287 18288 18289 18290 18291 18292 18293 18294 18295 18296 18297 18298 18299 18300 18301 18302 18303 18304 18305 18306 18307 18308 18309 18310 18311 18312 18313 18314 18315 18316 18317 18318 18319 18320 18321 18322 18323 18324 18325 18326 18327 18328 18329 18330 18331 18332 18333 18334 18335 18336 18337 18338 18339 18340 18341 18342 18343 18344 18345 18346 18347 18348 18349 18350 18351 18352 18353 18354 18355 18356 18357 18358 18359 18360 18361 18362 18363 18364 18365 18366 18367 18368 18369 18370 18371 18372 18373 18374 18375 18376 18377 18378 18379 18380 18381 18382 18383 18384 18385 18386 18387 18388 18389 18390 18391 18392 18393 18394 18395 18396 18397 18398 18399 18400 18401 18402 18403 18404 18405 18406 18407 18408 18409 18410 18411 18412 18413 18414 18415 18416 18417 18418 18419 18420 18421 18422 18423 18424 18425 18426 18427 18428 18429 18430 18431 18432 18433 18434 18435 18436 18437 18438 18439 18440 18441 18442 18443 18444 18445 18446 18447 18448 18449 18450 18451 18452 18453 18454 18455 18456 18457 18458 18459 18460 18461 18462 18463 18464 18465 18466 18467 18468 18469 18470 18471 18472 18473 18474 18475 18476 18477 18478 18479 18480 18481 18482 18483 18484 18485 18486 18487 18488 18489 18490 18491 18492 18493 18494 18495 18496 18497 18498 18499 18500 18501 18502 18503 18504 18505 18506 18507 18508 18509 18510 18511 18512 18513 18514 18515 18516 18517 18518 18519 18520 18521 18522 18523 18524 18525 18526 18527 18528 18529 18530 18531 18532 18533 18534 18535 18536 18537 18538 18539 18540 18541 18542 18543 18544 18545 18546 18547 18548 18549 18550 18551 18552 18553 18554 18555 18556 18557 18558 18559 18560 18561 18562 18563 18564 18565 18566 18567 18568 18569 18570 18571 18572 18573 18574 18575 18576 18577 18578 18579 18580 18581 18582 18583 18584 18585 18586 18587 18588 18589 18590 18591 18592 18593 18594 18595 18596 18597 18598 18599 18600 18601 18602 18603 18604 18605 18606 18607 18608 18609 18610 18611 18612 18613 18614 18615 18616 18617 18618 18619 18620 18621 18622 18623 18624 18625 18626 18627 18628 18629 18630 18631 18632 18633 18634 18635 18636 18637 18638 18639 18640 18641 18642 18643 18644 18645 18646 18647 18648 18649 18650 18651 18652 18653 18654 18655 18656 18657 18658 18659 18660 18661 18662 18663 18664 18665 18666 18667 18668 18669 18670 18671 18672 18673 18674 18675 18676 18677 18678 18679 18680 18681 18682 18683 18684 18685 18686 18687 18688 18689 18690 18691 18692 18693 18694 18695 18696 18697 18698 18699 18700 18701 18702 18703 18704 18705 18706 18707 18708 18709 18710 18711 18712 18713 18714 18715 18716 18717 18718 18719 18720 18721 18722 18723 18724 18725 18726 18727 18728 18729 18730 18731 18732 18733 18734 18735 18736 18737 18738 18739 18740 18741 18742 18743 18744 18745 18746 18747 18748 18749 18750 18751 18752 18753 18754 18755 18756 18757 18758 18759 18760 18761 18762 18763 18764 18765 18766 18767 18768 18769 18770 18771 18772 18773 18774 18775 18776 18777 18778 18779 18780 18781 18782 18783 18784 18785 18786 18787 18788 18789 18790 18791 18792 18793 18794 18795 18796 18797 18798 18799 18800 18801 18802 18803 18804 18805 18806 18807 18808 18809 18810 18811 18812 18813 18814 18815 18816 18817 18818 18819 18820 18821 18822 18823 18824 18825 18826 18827 18828 18829 18830 18831 18832 18833 18834 18835 18836 18837 18838 18839 18840 18841 18842 18843 18844 18845 18846 18847 18848 18849 18850 18851 18852 18853 18854 18855 18856 18857 18858 18859 18860 18861 18862 18863 18864 18865 18866 18867 18868 18869 18870 18871 18872 18873 18874 18875 18876 18877 18878 18879 18880 18881 18882 18883 18884 18885 18886 18887 18888 18889 18890 18891 18892 18893 18894 18895 18896 18897 18898 18899 18900 18901 18902 18903 18904 18905 18906 18907 18908 18909 18910 18911 18912 18913 18914 18915 18916 18917 18918 18919 18920 18921 18922 18923 18924 18925 18926 18927 18928 18929 18930 18931 18932 18933 18934 18935 18936 18937 18938 18939 18940 18941 18942 18943 18944 18945 18946 18947 18948 18949 18950 18951 18952 18953 18954 18955 18956 18957 18958 18959 18960 18961 18962 18963 18964 18965 18966 18967 18968 18969 18970 18971 18972 18973 18974 18975 18976 18977 18978 18979 18980 18981 18982 18983 18984 18985 18986 18987 18988 18989 18990 18991 18992 18993 18994 18995 18996 18997 18998 18999 19000 19001 19002 19003 19004 19005 19006 19007 19008 19009 19010 19011 19012 19013 19014 19015 19016 19017 19018 19019 19020 19021 19022 19023 19024 19025 19026 19027 19028 19029 19030 19031 19032 19033 19034 19035 19036 19037 19038 19039 19040 19041 19042 19043 19044 19045 19046 19047 19048 19049 19050 19051 19052 19053 19054 19055 19056 19057 19058 19059 19060 19061 19062 19063 19064 19065 19066 19067 19068 19069 19070 19071 19072 19073 19074 19075 19076 19077 19078 19079 19080 19081 19082 19083 19084 19085 19086 19087 19088 19089 19090 19091 19092 19093 19094 19095 19096 19097 19098 19099 19100 19101 19102 19103 19104 19105 19106 19107 19108 19109 19110 19111 19112 19113 19114 19115 19116 19117 19118 19119 19120 19121 19122 19123 19124 19125 19126 19127 19128 19129 19130 19131 19132 19133 19134 19135 19136 19137 19138 19139 19140 19141 19142 19143 19144 19145 19146 19147 19148 19149 19150 19151 19152 19153 19154 19155 19156 19157 19158 19159 19160 19161 19162 19163 19164 19165 19166 19167 19168 19169 19170 19171 19172 19173 19174 19175 19176 19177 19178 19179 19180 19181 19182 19183 19184 19185 19186 19187 19188 19189 19190 19191 19192 19193 19194 19195 19196 19197 19198 19199 19200 19201 19202 19203 19204 19205 19206 19207 19208 19209 19210 19211 19212 19213 19214 19215 19216 19217 19218 19219 19220 19221 19222 19223 19224 19225 19226 19227 19228 19229 19230 19231 19232 19233 19234 19235 19236 19237 19238 19239 19240 19241 19242 19243 19244 19245 19246 19247 19248 19249 19250 19251 19252 19253 19254 19255 19256 19257 19258 19259 19260 19261 19262 19263 19264 19265 19266 19267 19268 19269 19270 19271 19272 19273 19274 19275 19276 19277 19278 19279 19280 19281 19282 19283 19284 19285 19286 19287 19288 19289 19290 19291 19292 19293 19294 19295 19296 19297 19298 19299 19300 19301 19302 19303 19304 19305 19306 19307 19308 19309 19310 19311 19312 19313 19314 19315 19316 19317 19318 19319 19320 19321 19322 19323 19324 19325 19326 19327 19328 19329 19330 19331 19332 19333 19334 19335 19336 19337 19338 19339 19340 19341 19342 19343 19344 19345 19346 19347 19348 19349 19350 19351 19352 19353 19354 19355 19356 19357 19358 19359 19360 19361 19362 19363 19364 19365 19366 19367 19368 19369 19370 19371 19372 19373 19374 19375 19376 19377 19378 19379 19380 19381 19382 19383 19384 19385 19386 19387 19388 19389 19390 19391 19392 19393 19394 19395 19396 19397 19398 19399 19400 19401 19402 19403 19404 19405 19406 19407 19408 19409 19410 19411 19412 19413 19414 19415 19416 19417 19418 19419 19420 19421 19422 19423 19424 19425 19426 19427 19428 19429 19430 19431 19432 19433 19434 19435 19436 19437 19438 19439 19440 19441 19442 19443 19444 19445 19446 19447 19448 19449 19450 19451 19452 19453 19454 19455 19456 19457 19458 19459 19460 19461 19462 19463 19464 19465 19466 19467 19468 19469 19470 19471 19472 19473 19474 19475 19476 19477 19478 19479 19480 19481 19482 19483 19484 19485 19486 19487 19488 19489 19490 19491 19492 19493 19494 19495 19496 19497 19498 19499 19500 19501 19502 19503 19504 19505 19506 19507 19508 19509 19510 19511 19512 19513 19514 19515 19516 19517 19518 19519 19520 19521 19522 19523 19524 19525 19526 19527 19528 19529 19530 19531 19532 19533 19534 19535 19536 19537 19538 19539 19540 19541 19542 19543 19544 19545 19546 19547 19548 19549 19550 19551 19552 19553 19554 19555 19556 19557 19558 19559 19560 19561 19562 19563 19564 19565 19566 19567 19568 19569 19570 19571 19572 19573 19574 19575 19576 19577 19578 19579 19580 19581 19582 19583 19584 19585 19586 19587 19588 19589 19590 19591 19592 19593 19594 19595 19596 19597 19598 19599 19600 19601 19602 19603 19604 19605 19606 19607 19608 19609 19610 19611 19612 19613 19614 19615 19616 19617 19618 19619 19620 19621 19622 19623 19624 19625 19626 19627 19628 19629 19630 19631 19632 19633 19634 19635 19636 19637 19638 19639 19640 19641 19642 19643 19644 19645 19646 19647 19648 19649 19650 19651 19652 19653 19654 19655 19656 19657 19658 19659 19660 19661 19662 19663 19664 19665 19666 19667 19668 19669 19670 19671 19672 19673 19674 19675 19676 19677 19678 19679 19680 19681 19682 19683 19684 19685 19686 19687 19688 19689 19690 19691 19692 19693 19694 19695 19696 19697 19698 19699 19700 19701 19702 19703 19704 19705 19706 19707 19708 19709 19710 19711 19712 19713 19714 19715 19716 19717 19718 19719 19720 19721 19722 19723 19724 19725 19726 19727 19728 19729 19730 19731 19732 19733 19734 19735 19736 19737 19738 19739 19740 19741 19742 19743 19744 19745 19746 19747 19748 19749 19750 19751 19752 19753 19754 19755 19756 19757 19758 19759 19760 19761 19762 19763 19764 19765 19766 19767 19768 19769 19770 19771 19772 19773 19774 19775 19776 19777 19778 19779 19780 19781 19782 19783 19784 19785 19786 19787 19788 19789 19790 19791 19792 19793 19794 19795 19796 19797 19798 19799 19800 19801 19802 19803 19804 19805 19806 19807 19808 19809 19810 19811 19812 19813 19814 19815 19816 19817 19818 19819 19820 19821 19822 19823 19824 19825 19826 19827 19828 19829 19830 19831 19832 19833 19834 19835 19836 19837 19838 19839 19840 19841 19842 19843 19844 19845 19846 19847 19848 19849 19850 19851 19852 19853 19854 19855 19856 19857 19858 19859 19860 19861 19862 19863 19864 19865 19866 19867 19868 19869 19870 19871 19872 19873 19874 19875 19876 19877 19878 19879 19880 19881 19882 19883 19884 19885 19886 19887 19888 19889 19890 19891 19892 19893 19894 19895 19896 19897 19898 19899 19900 19901 19902 19903 19904 19905 19906 19907 19908 19909 19910 19911 19912 19913 19914 19915 19916 19917 19918 19919 19920 19921 19922 19923 19924 19925 19926 19927 19928 19929 19930 19931 19932 19933 19934 19935 19936 19937 19938 19939 19940 19941 19942 19943 19944 19945 19946 19947 19948 19949 19950 19951 19952 19953 19954 19955 19956 19957 19958 19959 19960 19961 19962 19963 19964 19965 19966 19967 19968 19969 19970 19971 19972 19973 19974 19975 19976 19977 19978 19979 19980 19981 19982 19983 19984 19985 19986 19987 19988 19989 19990 19991 19992 19993 19994 19995 19996 19997 19998 19999 20000 20001 20002 20003 20004 20005 20006 20007 20008 20009 20010 20011 20012 20013 20014 20015 20016 20017 20018 20019 20020 20021 20022 20023 20024 20025 20026 20027 20028 20029 20030 20031 20032 20033 20034 20035 20036 20037 20038 20039 20040 20041 20042 20043 20044 20045 20046 20047 20048 20049 20050 20051 20052 20053 20054 20055 20056 20057 20058 20059 20060 20061 20062 20063 20064 20065 20066 20067 20068 20069 20070 20071 20072 20073 20074 20075 20076 20077 20078 20079 20080 20081 20082 20083 20084 20085 20086 20087 20088 20089 20090 20091 20092 20093 20094 20095 20096 20097 20098 20099 20100 20101 20102 20103 20104 20105 20106 20107 20108 20109 20110 20111 20112 20113 20114 20115 20116 20117 20118 20119 20120 20121 20122 20123 20124 20125 20126 20127 20128 20129 20130 20131 20132 20133 20134 20135 20136 20137 20138 20139 20140 20141 20142 20143 20144 20145 20146 20147 20148 20149 20150 20151 20152 20153 20154 20155 20156 20157 20158 20159 20160 20161 20162 20163 20164 20165 20166 20167 20168 20169 20170 20171 20172 20173 20174 20175 20176 20177 20178 20179 20180 20181 20182 20183 20184 20185 20186 20187 20188 20189 20190 20191 20192 20193 20194 20195 20196 20197 20198 20199 20200 20201 20202 20203 20204 20205 20206 20207 20208 20209 20210 20211 20212 20213 20214 20215 20216 20217 20218 20219 20220 20221 20222 20223 20224 20225 20226 20227 20228 20229 20230 20231 20232 20233 20234 20235 20236 20237 20238 20239 20240 20241 20242 20243 20244 20245 20246 20247 20248 20249 20250 20251 20252 20253 20254 20255 20256 20257 20258 20259 20260 20261 20262 20263 20264 20265 20266 20267 20268 20269 20270 20271 20272 20273 20274 20275 20276 20277 20278 20279 20280 20281 20282 20283 20284 20285 20286 20287 20288 20289 20290 20291 20292 20293 20294 20295 20296 20297 20298 20299 20300 20301 20302 20303 20304 20305 20306 20307 20308 20309 20310 20311 20312 20313 20314 20315 20316 20317 20318 20319 20320 20321 20322 20323 20324 20325 20326 20327 20328 20329 20330 20331 20332 20333 20334 20335 20336 20337 20338 20339 20340 20341 20342 20343 20344 20345 20346 20347 20348 20349 20350 20351 20352 20353 20354 20355 20356 20357 20358 20359 20360 20361 20362 20363 20364 20365 20366 20367 20368 20369 20370 20371 20372 20373 20374 20375 20376 20377 20378 20379 20380 20381 20382 20383 20384 20385 20386 20387 20388 20389 20390 20391 20392 20393 20394 20395 20396 20397 20398 20399 20400 20401 20402 20403 20404 20405 20406 20407 20408 20409 20410 20411 20412 20413 20414 20415 20416 20417 20418 20419 20420 20421 20422 20423 20424 20425 20426 20427 20428 20429 20430 20431 20432 20433 20434 20435 20436 20437 20438 20439 20440 20441 20442 20443 20444 20445 20446 20447 20448 20449 20450 20451 20452 20453 20454 20455 20456 20457 20458 20459 20460 20461 20462 20463 20464 20465 20466 20467 20468 20469 20470 20471 20472 20473 20474 20475 20476 20477 20478 20479 20480 20481 20482 20483 20484 20485 20486 20487 20488 20489 20490 20491 20492 20493 20494 20495 20496 20497 20498 20499 20500 20501 20502 20503 20504 20505 20506 20507 20508 20509 20510 20511 20512 20513 20514 20515 20516 20517 20518 20519 20520 20521 20522 20523 20524 20525 20526 20527 20528 20529 20530 20531 20532 20533 20534 20535 20536 20537 20538 20539 20540 20541 20542 20543 20544 20545 20546 20547 20548 20549 20550 20551 20552 20553 20554 20555 20556 20557 20558 20559 20560 20561 20562 20563 20564 20565 20566 20567 20568 20569 20570 20571 20572 20573 20574 20575 20576 20577 20578 20579 20580 20581 20582 20583 20584 20585 20586 20587 20588 20589 20590 20591 20592 20593 20594 20595 20596 20597 20598 20599 20600 20601 20602 20603 20604 20605 20606 20607 20608 20609 20610 20611 20612 20613 20614 20615 20616 20617 20618 20619 20620 20621 20622 20623 20624 20625 20626 20627 20628 20629 20630 20631 20632 20633 20634 20635 20636 20637 20638 20639 20640 20641 20642 20643 20644 20645 20646 20647 20648 20649 20650 20651 20652 20653 20654 20655 20656 20657 20658 20659 20660 20661 20662 20663 20664 20665 20666 20667 20668 20669 20670 20671 20672 20673 20674 20675 20676 20677 20678 20679 20680 20681 20682 20683 20684 20685 20686 20687 20688 20689 20690 20691 20692 20693 20694 20695 20696 20697 20698 20699 20700 20701 20702 20703 20704 20705 20706 20707 20708 20709 20710 20711 20712 20713 20714 20715 20716 20717 20718 20719 20720 20721 20722 20723 20724 20725 20726 20727 20728 20729 20730 20731 20732 20733 20734 20735 20736 20737 20738 20739 20740 20741 20742 20743 20744 20745 20746 20747 20748 20749 20750 20751 20752 20753 20754 20755 20756 20757 20758 20759 20760 20761 20762 20763 20764 20765 20766 20767 20768 20769 20770 20771 20772 20773 20774 20775 20776 20777 20778 20779 20780 20781 20782 20783 20784 20785 20786 20787 20788 20789 20790 20791 20792 20793 20794 20795 20796 20797 20798 20799 20800 20801 20802 20803 20804 20805 20806 20807 20808 20809 20810 20811 20812 20813 20814 20815 20816 20817 20818 20819 20820 20821 20822 20823 20824 20825 20826 20827 20828 20829 20830 20831 20832 20833 20834 20835 20836 20837 20838 20839 20840 20841 20842 20843 20844 20845 20846 20847 20848 20849 20850 20851 20852 20853 20854 20855 20856 20857 20858 20859 20860 20861 20862 20863 20864 20865 20866 20867 20868 20869 20870 20871 20872 20873 20874 20875 20876 20877 20878 20879 20880 20881 20882 20883 20884 20885 20886 20887 20888 20889 20890 20891 20892 20893 20894 20895 20896 20897 20898 20899 20900 20901 20902 20903 20904 20905 20906 20907 20908 20909 20910 20911 20912 20913 20914 20915 20916 20917 20918 20919 20920 20921 20922 20923 20924 20925 20926 20927 20928 20929 20930 20931 20932 20933 20934 20935 20936 20937 20938 20939 20940 20941 20942 20943 20944 20945 20946 20947 20948 20949 20950 20951 20952 20953 20954 20955 20956 20957 20958 20959 20960 20961 20962 20963 20964 20965 20966 20967 20968 20969 20970 20971 20972 20973 20974 20975 20976 20977 20978 20979 20980 20981 20982 20983 20984 20985 20986 20987 20988 20989 20990 20991 20992 20993 20994 20995 20996 20997 20998 20999 21000 21001 21002 21003 21004 21005 21006 21007 21008 21009 21010 21011 21012 21013 21014 21015 21016 21017 21018 21019 21020 21021 21022 21023 21024 21025 21026 21027 21028 21029 21030 21031 21032 21033 21034 21035 21036 21037 21038 21039 21040 21041 21042 21043 21044 21045 21046 21047 21048 21049 21050 21051 21052 21053 21054 21055 21056 21057 21058 21059 21060 21061 21062 21063 21064 21065 21066 21067 21068 21069 21070 21071 21072 21073 21074 21075 21076 21077 21078 21079 21080 21081 21082 21083 21084 21085 21086 21087 21088 21089 21090 21091 21092 21093 21094 21095 21096 21097 21098 21099 21100 21101 21102 21103 21104 21105 21106 21107 21108 21109 21110 21111 21112 21113 21114 21115 21116 21117 21118 21119 21120 21121 21122 21123 21124 21125 21126 21127 21128 21129 21130 21131 21132 21133 21134 21135 21136 21137 21138 21139 21140 21141 21142 21143 21144 21145 21146 21147 21148 21149 21150 21151 21152 21153 21154 21155 21156 21157 21158 21159 21160 21161 21162 21163 21164 21165 21166 21167 21168 21169 21170 21171 21172 21173 21174 21175 21176 21177 21178 21179 21180 21181 21182 21183 21184 21185 21186 21187 21188 21189 21190 21191 21192 21193 21194 21195 21196 21197 21198 21199 21200 21201 21202 21203 21204 21205 21206 21207 21208 21209 21210 21211 21212 21213 21214 21215 21216 21217 21218 21219 21220 21221 21222 21223 21224 21225 21226 21227 21228 21229 21230 21231 21232 21233 21234 21235 21236 21237 21238 21239 21240 21241 21242 21243 21244 21245 21246 21247 21248 21249 21250 21251 21252 21253 21254 21255 21256 21257 21258 21259 21260 21261 21262 21263 21264 21265 21266 21267 21268 21269 21270 21271 21272 21273 21274 21275 21276 21277 21278 21279 21280 21281 21282 21283 21284 21285 21286 21287 21288 21289 21290 21291 21292 21293 21294 21295 21296 21297 21298 21299 21300 21301 21302 21303 21304 21305 21306 21307 21308 21309 21310 21311 21312 21313 21314 21315 21316 21317 21318 21319 21320 21321 21322 21323 21324 21325 21326 21327 21328 21329 21330 21331 21332 21333 21334 21335 21336 21337 21338 21339 21340 21341 21342 21343 21344 21345 21346 21347 21348 21349 21350 21351 21352 21353 21354 21355 21356 21357 21358 21359 21360 21361 21362 21363 21364 21365 21366 21367 21368 21369 21370 21371 21372 21373 21374 21375 21376 21377 21378 21379 21380 21381 21382 21383 21384 21385 21386 21387 21388 21389 21390 21391 21392 21393 21394 21395 21396 21397 21398 21399 21400 21401 21402 21403 21404 21405 21406 21407 21408 21409 21410 21411 21412 21413 21414 21415 21416 21417 21418 21419 21420 21421 21422 21423 21424 21425 21426 21427 21428 21429 21430 21431 21432 21433 21434 21435 21436 21437 21438 21439 21440 21441 21442 21443 21444 21445 21446 21447 21448 21449 21450 21451 21452 21453 21454 21455 21456 21457 21458 21459 21460 21461 21462 21463 21464 21465 21466 21467 21468 21469 21470 21471 21472 21473 21474 21475 21476 21477 21478 21479 21480 21481 21482 21483 21484 21485 21486 21487 21488 21489 21490 21491 21492 21493 21494 21495 21496 21497 21498 21499 21500 21501 21502 21503 21504 21505 21506 21507 21508 21509 21510 21511 21512 21513 21514 21515 21516 21517 21518 21519 21520 21521 21522 21523 21524 21525 21526 21527 21528 21529 21530 21531 21532 21533 21534 21535 21536 21537 21538 21539 21540 21541 21542 21543 21544 21545 21546 21547 21548 21549 21550 21551 21552 21553 21554 21555 21556 21557 21558 21559 21560 21561 21562 21563 21564 21565 21566 21567 21568 21569 21570 21571 21572 21573 21574 21575 21576 21577 21578 21579 21580 21581 21582 21583 21584 21585 21586 21587 21588 21589 21590 21591 21592 21593 21594 21595 21596 21597 21598 21599 21600 21601 21602 21603 21604 21605 21606 21607 21608 21609 21610 21611 21612 21613 21614 21615 21616 21617 21618 21619 21620 21621 21622 21623 21624 21625 21626 21627 21628 21629 21630 21631 21632 21633 21634 21635 21636 21637 21638 21639 21640 21641 21642 21643 21644 21645 21646 21647 21648 21649 21650 21651 21652 21653 21654 21655 21656 21657 21658 21659 21660 21661 21662 21663 21664 21665 21666 21667 21668 21669 21670 21671 21672 21673 21674 21675 21676 21677 21678 21679 21680 21681 21682 21683 21684 21685 21686 21687 21688 21689 21690 21691 21692 21693 21694 21695 21696 21697 21698 21699 21700 21701 21702 21703 21704 21705 21706 21707 21708 21709 21710 21711 21712 21713 21714 21715 21716 21717 21718 21719 21720 21721 21722 21723 21724 21725 21726 21727 21728 21729 21730 21731 21732 21733 21734 21735 21736 21737 21738 21739 21740 21741 21742 21743 21744 21745 21746 21747 21748 21749 21750 21751 21752 21753 21754 21755 21756 21757 21758 21759 21760 21761 21762 21763 21764 21765 21766 21767 21768 21769 21770 21771 21772 21773 21774 21775 21776 21777 21778 21779 21780 21781 21782 21783 21784 21785 21786 21787 21788 21789 21790 21791 21792 21793 21794 21795 21796 21797 21798 21799 21800 21801 21802 21803 21804 21805 21806 21807 21808 21809 21810 21811 21812 21813 21814 21815 21816 21817 21818 21819 21820 21821 21822 21823 21824 21825 21826 21827 21828 21829 21830 21831 21832 21833 21834 21835 21836 21837 21838 21839 21840 21841 21842 21843 21844 21845 21846 21847 21848 21849 21850 21851 21852 21853 21854 21855 21856 21857 21858 21859 21860 21861 21862 21863 21864 21865 21866 21867 21868 21869 21870 21871 21872 21873 21874 21875 21876 21877 21878 21879 21880 21881 21882 21883 21884 21885 21886 21887 21888 21889 21890 21891 21892 21893 21894 21895 21896 21897 21898 21899 21900 21901 21902 21903 21904 21905 21906 21907 21908 21909 21910 21911 21912 21913 21914 21915 21916 21917 21918 21919 21920 21921 21922 21923 21924 21925 21926 21927 21928 21929 21930 21931 21932 21933 21934 21935 21936 21937 21938 21939 21940 21941 21942 21943 21944 21945 21946 21947 21948 21949 21950 21951 21952 21953 21954 21955 21956 21957 21958 21959 21960 21961 21962 21963 21964 21965 21966 21967 21968 21969 21970 21971 21972 21973 21974 21975 21976 21977 21978 21979 21980 21981 21982 21983 21984 21985 21986 21987 21988 21989 21990 21991 21992 21993 21994 21995 21996 21997 21998 21999 22000 22001 22002 22003 22004 22005 22006 22007 22008 22009 22010 22011 22012 22013 22014 22015 22016 22017 22018 22019 22020 22021 22022 22023 22024 22025 22026 22027 22028 22029 22030 22031 22032 22033 22034 22035 22036 22037 22038 22039 22040 22041 22042 22043 22044 22045 22046 22047 22048 22049 22050 22051 22052 22053 22054 22055 22056 22057 22058 22059 22060 22061 22062 22063 22064 22065 22066 22067 22068 22069 22070 22071 22072 22073 22074 22075 22076 22077 22078 22079 22080 22081 22082 22083 22084 22085 22086 22087 22088 22089 22090 22091 22092 22093 22094 22095 22096 22097 22098 22099 22100 22101 22102 22103 22104 22105 22106 22107 22108 22109 22110 22111 22112 22113 22114 22115 22116 22117 22118 22119 22120 22121 22122 22123 22124 22125 22126 22127 22128 22129 22130 22131 22132 22133 22134 22135 22136 22137 22138 22139 22140 22141 22142 22143 22144 22145 22146 22147 22148 22149 22150 22151 22152 22153 22154 22155 22156 22157 22158 22159 22160 22161 22162 22163 22164 22165 22166 22167 22168 22169 22170 22171 22172 22173 22174 22175 22176 22177 22178 22179 22180 22181 22182 22183 22184 22185 22186 22187 22188 22189 22190 22191 22192 22193 22194 22195 22196 22197 22198 22199 22200 22201 22202 22203 22204 22205 22206 22207 22208 22209 22210 22211 22212 22213 22214 22215 22216 22217 22218 22219 22220 22221 22222 22223 22224 22225 22226 22227 22228 22229 22230 22231 22232 22233 22234 22235 22236 22237 22238 22239 22240 22241 22242 22243 22244 22245 22246 22247 22248 22249 22250 22251 22252 22253 22254 22255 22256 22257 22258 22259 22260 22261 22262 22263 22264 22265 22266 22267 22268 22269 22270 22271 22272 22273 22274 22275 22276 22277 22278 22279 22280 22281 22282 22283 22284 22285 22286 22287 22288 22289 22290 22291 22292 22293 22294 22295 22296 22297 22298 22299 22300 22301 22302 22303 22304 22305 22306 22307 22308 22309 22310 22311 22312 22313 22314 22315 22316 22317 22318 22319 22320 22321 22322 22323 22324 22325 22326 22327 22328 22329 22330 22331 22332 22333 22334 22335 22336 22337 22338 22339 22340 22341 22342 22343 22344 22345 22346 22347 22348 22349 22350 22351 22352 22353 22354 22355 22356 22357 22358 22359 22360 22361 22362 22363 22364 22365 22366 22367 22368 22369 22370 22371 22372 22373 22374 22375 22376 22377 22378 22379 22380 22381 22382 22383 22384 22385 22386 22387 22388 22389 22390 22391 22392 22393 22394 22395 22396 22397 22398 22399 22400 22401 22402 22403 22404 22405 22406 22407 22408 22409 22410 22411 22412 22413 22414 22415 22416 22417 22418 22419 22420 22421 22422 22423 22424 22425 22426 22427 22428 22429 22430 22431 22432 22433 22434 22435 22436 22437 22438 22439 22440 22441 22442 22443 22444 22445 22446 22447 22448 22449 22450 22451 22452 22453 22454 22455 22456 22457 22458 22459 22460 22461 22462 22463 22464 22465 22466 22467 22468 22469 22470 22471 22472 22473 22474 22475 22476 22477 22478 22479 22480 22481 22482 22483 22484 22485 22486 22487 22488 22489 22490 22491 22492 22493 22494 22495 22496 22497 22498 22499 22500 22501 22502 22503 22504 22505 22506 22507 22508 22509 22510 22511 22512 22513 22514 22515 22516 22517 22518 22519 22520 22521 22522 22523 22524 22525 22526 22527 22528 22529 22530 22531 22532 22533 22534 22535 22536 22537 22538 22539 22540 22541 22542 22543 22544 22545 22546 22547 22548 22549 22550 22551 22552 22553 22554 22555 22556 22557 22558 22559 22560 22561 22562 22563 22564 22565 22566 22567 22568 22569 22570 22571 22572 22573 22574 22575 22576 22577 22578 22579 22580 22581 22582 22583 22584 22585 22586 22587 22588 22589 22590 22591 22592 22593 22594 22595 22596 22597 22598 22599 22600 22601 22602 22603 22604 22605 22606 22607 22608 22609 22610 22611 22612 22613 22614 22615 22616 22617 22618 22619 22620 22621 22622 22623 22624 22625 22626 22627 22628 22629 22630 22631 22632 22633 22634 22635 22636 22637 22638 22639 22640 22641 22642 22643 22644 22645 22646 22647 22648 22649 22650 22651 22652 22653 22654 22655 22656 22657 22658 22659 22660 22661 22662 22663 22664 22665 22666 22667 22668 22669 22670 22671 22672 22673 22674 22675 22676 22677 22678 22679 22680 22681 22682 22683 22684 22685 22686 22687 22688 22689 22690 22691 22692 22693 22694 22695 22696 22697 22698 22699 22700 22701 22702 22703 22704 22705 22706 22707 22708 22709 22710 22711 22712 22713 22714 22715 22716 22717 22718 22719 22720 22721 22722 22723 22724 22725 22726 22727 22728 22729 22730 22731 22732 22733 22734 22735 22736 22737 22738 22739 22740 22741 22742 22743 22744 22745 22746 22747 22748 22749 22750 22751 22752 22753 22754 22755 22756 22757 22758 22759 22760 22761 22762 22763 22764 22765 22766 22767 22768 22769 22770 22771 22772 22773 22774 22775 22776 22777 22778 22779 22780 22781 22782 22783 22784 22785 22786 22787 22788 22789 22790 22791 22792 22793 22794 22795 22796 22797 22798 22799 22800 22801 22802 22803 22804 22805 22806 22807 22808 22809 22810 22811 22812 22813 22814 22815 22816 22817 22818 22819 22820 22821 22822 22823 22824 22825 22826 22827 22828 22829 22830 22831 22832 22833 22834 22835 22836 22837 22838 22839 22840 22841 22842 22843 22844 22845 22846 22847 22848 22849 22850 22851 22852 22853 22854 22855 22856 22857 22858 22859 22860 22861 22862 22863 22864 22865 22866 22867 22868 22869 22870 22871 22872 22873 22874 22875 22876 22877 22878 22879 22880 22881 22882 22883 22884 22885 22886 22887 22888 22889 22890 22891 22892 22893 22894 22895 22896 22897 22898 22899 22900 22901 22902 22903 22904 22905 22906 22907 22908 22909 22910 22911 22912 22913 22914 22915 22916 22917 22918 22919 22920 22921 22922 22923 22924 22925 22926 22927 22928 22929 22930 22931 22932 22933 22934 22935 22936 22937 22938 22939 22940 22941 22942 22943 22944 22945 22946 22947 22948 22949 22950 22951 22952 22953 22954 22955 22956 22957 22958 22959 22960 22961 22962 22963 22964 22965 22966 22967 22968 22969 22970 22971 22972 22973 22974 22975 22976 22977 22978 22979 22980 22981 22982 22983 22984 22985 22986 22987 22988 22989 22990 22991 22992 22993 22994 22995 22996 22997 22998 22999 23000 23001 23002 23003 23004 23005 23006 23007 23008 23009 23010 23011 23012 23013 23014 23015 23016 23017 23018 23019 23020 23021 23022 23023 23024 23025 23026 23027 23028 23029 23030 23031 23032 23033 23034 23035 23036 23037 23038 23039 23040 23041 23042 23043 23044 23045 23046 23047 23048 23049 23050 23051 23052 23053 23054 23055 23056 23057 23058 23059 23060 23061 23062 23063 23064 23065 23066 23067 23068 23069 23070 23071 23072 23073 23074 23075 23076 23077 23078 23079 23080 23081 23082 23083 23084 23085 23086 23087 23088 23089 23090 23091 23092 23093 23094 23095 23096 23097 23098 23099 23100 23101 23102 23103 23104 23105 23106 23107 23108 23109 23110 23111 23112 23113 23114 23115 23116 23117 23118 23119 23120 23121 23122 23123 23124 23125 23126 23127 23128 23129 23130 23131 23132 23133 23134 23135 23136 23137 23138 23139 23140 23141 23142 23143 23144 23145 23146 23147 23148 23149 23150 23151 23152 23153 23154 23155 23156 23157 23158 23159 23160 23161 23162 23163 23164 23165 23166 23167 23168 23169 23170 23171 23172 23173 23174 23175 23176 23177 23178 23179 23180 23181 23182 23183 23184 23185 23186 23187 23188 23189 23190 23191 23192 23193 23194 23195 23196 23197 23198 23199 23200 23201 23202 23203 23204 23205 23206 23207 23208 23209 23210 23211 23212 23213 23214 23215 23216 23217 23218 23219 23220 23221 23222 23223 23224 23225 23226 23227 23228 23229 23230 23231 23232 23233 23234 23235 23236 23237 23238 23239 23240 23241 23242 23243 23244 23245 23246 23247 23248 23249 23250 23251 23252 23253 23254 23255 23256 23257 23258 23259 23260 23261 23262 23263 23264 23265 23266 23267 23268 23269 23270 23271 23272 23273 23274 23275 23276 23277 23278 23279 23280 23281 23282 23283 23284 23285 23286 23287 23288 23289 23290 23291 23292 23293 23294 23295 23296 23297 23298 23299 23300 23301 23302 23303 23304 23305 23306 23307 23308 23309 23310 23311 23312 23313 23314 23315 23316 23317 23318 23319 23320 23321 23322 23323 23324 23325 23326 23327 23328 23329 23330 23331 23332 23333 23334 23335 23336 23337 23338 23339 23340 23341 23342 23343 23344 23345 23346 23347 23348 23349 23350 23351 23352 23353 23354 23355 23356 23357 23358 23359 23360 23361 23362 23363 23364 23365 23366 23367 23368 23369 23370 23371 23372 23373 23374 23375 23376 23377 23378 23379 23380 23381 23382 23383 23384 23385 23386 23387 23388 23389 23390 23391 23392 23393 23394 23395 23396 23397 23398 23399 23400 23401 23402 23403 23404 23405 23406 23407 23408 23409 23410 23411 23412 23413 23414 23415 23416 23417 23418 23419 23420 23421 23422 23423 23424 23425 23426 23427 23428 23429 23430 23431 23432 23433 23434 23435 23436 23437 23438 23439 23440 23441 23442 23443 23444 23445 23446 23447 23448 23449 23450 23451 23452 23453 23454 23455 23456 23457 23458 23459 23460 23461 23462 23463 23464 23465 23466 23467 23468 23469 23470 23471 23472 23473 23474 23475 23476 23477 23478 23479 23480 23481 23482 23483 23484 23485 23486 23487 23488 23489 23490 23491 23492 23493 23494 23495 23496 23497 23498 23499 23500 23501 23502 23503 23504 23505 23506 23507 23508 23509 23510 23511 23512 23513 23514 23515 23516 23517 23518 23519 23520 23521 23522 23523 23524 23525 23526 23527 23528 23529 23530 23531 23532 23533 23534 23535 23536 23537 23538 23539 23540 23541 23542 23543 23544 23545 23546 23547 23548 23549 23550 23551 23552 23553 23554 23555 23556 23557 23558 23559 23560 23561 23562 23563 23564 23565 23566 23567 23568 23569 23570 23571 23572 23573 23574 23575 23576 23577 23578 23579 23580 23581 23582 23583 23584 23585 23586 23587 23588 23589 23590 23591 23592 23593 23594 23595 23596 23597 23598 23599 23600 23601 23602 23603 23604 23605 23606 23607 23608 23609 23610 23611 23612 23613 23614 23615 23616 23617 23618 23619 23620 23621 23622 23623 23624 23625 23626 23627 23628 23629 23630 23631 23632 23633 23634 23635 23636 23637 23638 23639 23640 23641 23642 23643 23644 23645 23646 23647 23648 23649 23650 23651 23652 23653 23654 23655 23656 23657 23658 23659 23660 23661 23662 23663 23664 23665 23666 23667 23668 23669 23670 23671 23672 23673 23674 23675 23676 23677 23678 23679 23680 23681 23682 23683 23684 23685 23686 23687 23688 23689 23690 23691 23692 23693 23694 23695 23696 23697 23698 23699 23700 23701 23702 23703 23704 23705 23706 23707 23708 23709 23710 23711 23712 23713 23714 23715 23716 23717 23718 23719 23720 23721 23722 23723 23724 23725 23726 23727 23728 23729 23730 23731 23732 23733 23734 23735 23736 23737 23738 23739 23740 23741 23742 23743 23744 23745 23746 23747 23748 23749 23750 23751 23752 23753 23754 23755 23756 23757 23758 23759 23760 23761 23762 23763 23764 23765 23766 23767 23768 23769 23770 23771 23772 23773 23774 23775 23776 23777 23778 23779 23780 23781 23782 23783 23784 23785 23786 23787 23788 23789 23790 23791 23792 23793 23794 23795 23796 23797 23798 23799 23800 23801 23802 23803 23804 23805 23806 23807 23808 23809 23810 23811 23812 23813 23814 23815 23816 23817 23818 23819 23820 23821 23822 23823 23824 23825 23826 23827 23828 23829 23830 23831 23832 23833 23834 23835 23836 23837 23838 23839 23840 23841 23842 23843 23844 23845 23846 23847 23848 23849 23850 23851 23852 23853 23854 23855 23856 23857 23858 23859 23860 23861 23862 23863 23864 23865 23866 23867 23868 23869 23870 23871 23872 23873 23874 23875 23876 23877 23878 23879 23880 23881 23882 23883 23884 23885 23886 23887 23888 23889 23890 23891 23892 23893 23894 23895 23896 23897 23898 23899 23900 23901 23902 23903 23904 23905 23906 23907 23908 23909 23910 23911 23912 23913 23914 23915 23916 23917 23918 23919 23920 23921 23922 23923 23924 23925 23926 23927 23928 23929 23930 23931 23932 23933 23934 23935 23936 23937 23938 23939 23940 23941 23942 23943 23944 23945 23946 23947 23948 23949 23950 23951 23952 23953 23954 23955 23956 23957 23958 23959 23960 23961 23962 23963 23964 23965 23966 23967 23968 23969 23970 23971 23972 23973 23974 23975 23976 23977 23978 23979 23980 23981 23982 23983 23984 23985 23986 23987 23988 23989 23990 23991 23992 23993 23994 23995 23996 23997 23998 23999 24000 24001 24002 24003 24004 24005 24006 24007 24008 24009 24010 24011 24012 24013 24014 24015 24016 24017 24018 24019 24020 24021 24022 24023 24024 24025 24026 24027 24028 24029 24030 24031 24032 24033 24034 24035 24036 24037 24038 24039 24040 24041 24042 24043 24044 24045 24046 24047 24048 24049 24050 24051 24052 24053 24054 24055 24056 24057 24058 24059 24060 24061 24062 24063 24064 24065 24066 24067 24068 24069 24070 24071 24072 24073 24074 24075 24076 24077 24078 24079 24080 24081 24082 24083 24084 24085 24086 24087 24088 24089 24090 24091 24092 24093 24094 24095 24096 24097 24098 24099 24100 24101 24102 24103 24104 24105 24106 24107 24108 24109 24110 24111 24112 24113 24114 24115 24116 24117 24118 24119 24120 24121 24122 24123 24124 24125 24126 24127 24128 24129 24130 24131 24132 24133 24134 24135 24136 24137 24138 24139 24140 24141 24142 24143 24144 24145 24146 24147 24148 24149 24150 24151 24152 24153 24154 24155 24156 24157 24158 24159 24160 24161 24162 24163 24164 24165 24166 24167 24168 24169 24170 24171 24172 24173 24174 24175 24176 24177 24178 24179 24180 24181 24182 24183 24184 24185 24186 24187 24188 24189 24190 24191 24192 24193 24194 24195 24196 24197 24198 24199 24200 24201 24202 24203 24204 24205 24206 24207 24208 24209 24210 24211 24212 24213 24214 24215 24216 24217 24218 24219 24220 24221 24222 24223 24224 24225 24226 24227 24228 24229 24230 24231 24232 24233 24234 24235 24236 24237 24238 24239 24240 24241 24242 24243 24244 24245 24246 24247 24248 24249 24250 24251 24252 24253 24254 24255 24256 24257 24258 24259 24260 24261 24262 24263 24264 24265 24266 24267 24268 24269 24270 24271 24272 24273 24274 24275 24276 24277 24278 24279 24280 24281 24282 24283 24284 24285 24286 24287 24288 24289 24290 24291 24292 24293 24294 24295 24296 24297 24298 24299 24300 24301 24302 24303 24304 24305 24306 24307 24308 24309 24310 24311 24312 24313 24314 24315 24316 24317 24318 24319 24320 24321 24322 24323 24324 24325 24326 24327 24328 24329 24330 24331 24332 24333 24334 24335 24336 24337 24338 24339 24340 24341 24342 24343 24344 24345 24346 24347 24348 24349 24350 24351 24352 24353 24354 24355 24356 24357 24358 24359 24360 24361 24362 24363 24364 24365 24366 24367 24368 24369 24370 24371 24372 24373 24374 24375 24376 24377 24378 24379 24380 24381 24382 24383 24384 24385 24386 24387 24388 24389 24390 24391 24392 24393 24394 24395 24396 24397 24398 24399 24400 24401 24402 24403 24404 24405 24406 24407 24408 24409 24410 24411 24412 24413 24414 24415 24416 24417 24418 24419 24420 24421 24422 24423 24424 24425 24426 24427 24428 24429 24430 24431 24432 24433 24434 24435 24436 24437 24438 24439 24440 24441 24442 24443 24444 24445 24446 24447 24448 24449 24450 24451 24452 24453 24454 24455 24456 24457 24458 24459 24460 24461 24462 24463 24464 24465 24466 24467 24468 24469 24470 24471 24472 24473 24474 24475 24476 24477 24478 24479 24480 24481 24482 24483 24484 24485 24486 24487 24488 24489 24490 24491 24492 24493 24494 24495 24496 24497 24498 24499 24500 24501 24502 24503 24504 24505 24506 24507 24508 24509 24510 24511 24512 24513 24514 24515 24516 24517 24518 24519 24520 24521 24522 24523 24524 24525 24526 24527 24528 24529 24530 24531 24532 24533 24534 24535 24536 24537 24538 24539 24540 24541 24542 24543 24544 24545 24546 24547 24548 24549 24550 24551 24552 24553 24554 24555 24556 24557 24558 24559 24560 24561 24562 24563 24564 24565 24566 24567 24568 24569 24570 24571 24572 24573 24574 24575 24576 24577 24578 24579 24580 24581 24582 24583 24584 24585 24586 24587 24588 24589 24590 24591 24592 24593 24594 24595 24596 24597 24598 24599 24600 24601 24602 24603 24604 24605 24606 24607 24608 24609 24610 24611 24612 24613 24614 24615 24616 24617 24618 24619 24620 24621 24622 24623 24624 24625 24626 24627 24628 24629 24630 24631 24632 24633 24634 24635 24636 24637 24638 24639 24640 24641 24642 24643 24644 24645 24646 24647 24648 24649 24650 24651 24652 24653 24654 24655 24656 24657 24658 24659 24660 24661 24662 24663 24664 24665 24666 24667 24668 24669 24670 24671 24672 24673 24674 24675 24676 24677 24678 24679 24680 24681 24682 24683 24684 24685 24686 24687 24688 24689 24690 24691 24692 24693 24694 24695 24696 24697 24698 24699 24700 24701 24702 24703 24704 24705 24706 24707 24708 24709 24710 24711 24712 24713 24714 24715 24716 24717 24718 24719 24720 24721 24722 24723 24724 24725 24726 24727 24728 24729 24730 24731 24732 24733 24734 24735 24736 24737 24738 24739 24740 24741 24742 24743 24744 24745 24746 24747 24748 24749 24750 24751 24752 24753 24754 24755 24756 24757 24758 24759 24760 24761 24762 24763 24764 24765 24766 24767 24768 24769 24770 24771 24772 24773 24774 24775 24776 24777 24778 24779 24780 24781 24782 24783 24784 24785 24786 24787 24788 24789 24790 24791 24792 24793 24794 24795 24796 24797 24798 24799 24800 24801 24802 24803 24804 24805 24806 24807 24808 24809 24810 24811 24812 24813 24814 24815 24816 24817 24818 24819 24820 24821 24822 24823 24824 24825 24826 24827 24828 24829 24830 24831 24832 24833 24834 24835 24836 24837 24838 24839 24840 24841 24842 24843 24844 24845 24846 24847 24848 24849 24850 24851 24852 24853 24854 24855 24856 24857 24858 24859 24860 24861 24862 24863 24864 24865 24866 24867 24868 24869 24870 24871 24872 24873 24874 24875 24876 24877 24878 24879 24880 24881 24882 24883 24884 24885 24886 24887 24888 24889 24890 24891 24892 24893 24894 24895 24896 24897 24898 24899 24900 24901 24902 24903 24904 24905 24906 24907 24908 24909 24910 24911 24912 24913 24914 24915 24916 24917 24918 24919 24920 24921 24922 24923 24924 24925 24926 24927 24928 24929 24930 24931 24932 24933 24934 24935 24936 24937 24938 24939 24940 24941 24942 24943 24944 24945 24946 24947 24948 24949 24950 24951 24952 24953 24954 24955 24956 24957 24958 24959 24960 24961 24962 24963 24964 24965 24966 24967 24968 24969 24970 24971 24972 24973 24974 24975 24976 24977 24978 24979 24980 24981 24982 24983 24984 24985 24986 24987 24988 24989 24990 24991 24992 24993 24994 24995 24996 24997 24998 24999 25000 25001 25002 25003 25004 25005 25006 25007 25008 25009 25010 25011 25012 25013 25014 25015 25016 25017 25018 25019 25020 25021 25022 25023 25024 25025 25026 25027 25028 25029 25030 25031 25032 25033 25034 25035 25036 25037 25038 25039 25040 25041 25042 25043 25044 25045 25046 25047 25048 25049 25050 25051 25052 25053 25054 25055 25056 25057 25058 25059 25060 25061 25062 25063 25064 25065 25066 25067 25068 25069 25070 25071 25072 25073 25074 25075 25076 25077 25078 25079 25080 25081 25082 25083 25084 25085 25086 25087 25088 25089 25090 25091 25092 25093 25094 25095 25096 25097 25098 25099 25100 25101 25102 25103 25104 25105 25106 25107 25108 25109 25110 25111 25112 25113 25114 25115 25116 25117 25118 25119 25120 25121 25122 25123 25124 25125 25126 25127 25128 25129 25130 25131 25132 25133 25134 25135 25136 25137 25138 25139 25140 25141 25142 25143 25144 25145 25146 25147 25148 25149 25150 25151 25152 25153 25154 25155 25156 25157 25158 25159 25160 25161 25162 25163 25164 25165 25166 25167 25168 25169 25170 25171 25172 25173 25174 25175 25176 25177 25178 25179 25180 25181 25182 25183 25184 25185 25186 25187 25188 25189 25190 25191 25192 25193 25194 25195 25196 25197 25198 25199 25200 25201 25202 25203 25204 25205 25206 25207 25208 25209 25210 25211 25212 25213 25214 25215 25216 25217 25218 25219 25220 25221 25222 25223 25224 25225 25226 25227 25228 25229 25230 25231 25232 25233 25234 25235 25236 25237 25238 25239 25240 25241 25242 25243 25244 25245 25246 25247 25248 25249 25250 25251 25252 25253 25254 25255 25256 25257 25258 25259 25260 25261 25262 25263 25264 25265 25266 25267 25268 25269 25270 25271 25272 25273 25274 25275 25276 25277 25278 25279 25280 25281 25282 25283 25284 25285 25286 25287 25288 25289 25290 25291 25292 25293 25294 25295 25296 25297 25298 25299 25300 25301 25302 25303 25304 25305 25306 25307 25308 25309 25310 25311 25312 25313 25314 25315 25316 25317 25318 25319 25320 25321 25322 25323 25324 25325 25326 25327 25328 25329 25330 25331 25332 25333 25334 25335 25336 25337 25338 25339 25340 25341 25342 25343 25344 25345 25346 25347 25348 25349 25350 25351 25352 25353 25354 25355 25356 25357 25358 25359 25360 25361 25362 25363 25364 25365 25366 25367 25368 25369 25370 25371 25372 25373 25374 25375 25376 25377 25378 25379 25380 25381 25382 25383 25384 25385 25386 25387 25388 25389 25390 25391 25392 25393 25394 25395 25396 25397 25398 25399 25400 25401 25402 25403 25404 25405 25406 25407 25408 25409 25410 25411 25412 25413 25414 25415 25416 25417 25418 25419 25420 25421 25422 25423 25424 25425 25426 25427 25428 25429 25430 25431 25432 25433 25434 25435 25436 25437 25438 25439 25440 25441 25442 25443 25444 25445 25446 25447 25448 25449 25450 25451 25452 25453 25454 25455 25456 25457 25458 25459 25460 25461 25462 25463 25464 25465 25466 25467 25468 25469 25470 25471 25472 25473 25474 25475 25476 25477 25478 25479 25480 25481 25482 25483 25484 25485 25486 25487 25488 25489 25490 25491 25492 25493 25494 25495 25496 25497 25498 25499 25500 25501 25502 25503 25504 25505 25506 25507 25508 25509 25510 25511 25512 25513 25514 25515 25516 25517 25518 25519 25520 25521 25522 25523 25524 25525 25526 25527 25528 25529 25530 25531 25532 25533 25534 25535 25536 25537 25538 25539 25540 25541 25542 25543 25544 25545 25546 25547 25548 25549 25550 25551 25552 25553 25554 25555 25556 25557 25558 25559 25560 25561 25562 25563 25564 25565 25566 25567 25568 25569 25570 25571 25572 25573 25574 25575 25576 25577 25578 25579 25580 25581 25582 25583 25584 25585 25586 25587 25588 25589 25590 25591 25592 25593 25594 25595 25596 25597 25598 25599 25600 25601 25602 25603 25604 25605 25606 25607 25608 25609 25610 25611 25612 25613 25614 25615 25616 25617 25618 25619 25620 25621 25622 25623 25624 25625 25626 25627 25628 25629 25630 25631 25632 25633 25634 25635 25636 25637 25638 25639 25640 25641 25642 25643 25644 25645 25646 25647 25648 25649 25650 25651 25652 25653 25654 25655 25656 25657 25658 25659 25660 25661 25662 25663 25664 25665 25666 25667 25668 25669 25670 25671 25672 25673 25674 25675 25676 25677 25678 25679 25680 25681 25682 25683 25684 25685 25686 25687 25688 25689 25690 25691 25692 25693 25694 25695 25696 25697 25698 25699 25700 25701 25702 25703 25704 25705 25706 25707 25708 25709 25710 25711 25712 25713 25714 25715 25716 25717 25718 25719 25720 25721 25722 25723 25724 25725 25726 25727 25728 25729 25730 25731 25732 25733 25734 25735 25736 25737 25738 25739 25740 25741 25742 25743 25744 25745 25746 25747 25748 25749 25750 25751 25752 25753 25754 25755 25756 25757 25758 25759 25760 25761 25762 25763 25764 25765 25766 25767 25768 25769 25770 25771 25772 25773 25774 25775 25776 25777 25778 25779 25780 25781 25782 25783 25784 25785 25786 25787 25788 25789 25790 25791 25792 25793 25794 25795 25796 25797 25798 25799 25800 25801 25802 25803 25804 25805 25806 25807 25808 25809 25810 25811 25812 25813 25814 25815 25816 25817 25818 25819 25820 25821 25822 25823 25824 25825 25826 25827 25828 25829 25830 25831 25832 25833 25834 25835 25836 25837 25838 25839 25840 25841 25842 25843 25844 25845 25846 25847 25848 25849 25850 25851 25852 25853 25854 25855 25856 25857 25858 25859 25860 25861 25862 25863 25864 25865 25866 25867 25868 25869 25870 25871 25872 25873 25874 25875 25876 25877 25878 25879 25880 25881 25882 25883 25884 25885 25886 25887 25888 25889 25890 25891 25892 25893 25894 25895 25896 25897 25898 25899 25900 25901 25902 25903 25904 25905 25906 25907 25908 25909 25910 25911 25912 25913 25914 25915 25916 25917 25918 25919 25920 25921 25922 25923 25924 25925 25926 25927 25928 25929 25930 25931 25932 25933 25934 25935 25936 25937 25938 25939 25940 25941 25942 25943 25944 25945 25946 25947 25948 25949 25950 25951 25952 25953 25954 25955 25956 25957 25958 25959 25960 25961 25962 25963 25964 25965 25966 25967 25968 25969 25970 25971 25972 25973 25974 25975 25976 25977 25978 25979 25980 25981 25982 25983 25984 25985 25986 25987 25988 25989 25990 25991 25992 25993 25994 25995 25996 25997 25998 25999 26000 26001 26002 26003 26004 26005 26006 26007 26008 26009 26010 26011 26012 26013 26014 26015 26016 26017 26018 26019 26020 26021 26022 26023 26024 26025 26026 26027 26028 26029 26030 26031 26032 26033 26034 26035 26036 26037 26038 26039 26040 26041 26042 26043 26044 26045 26046 26047 26048 26049 26050 26051 26052 26053 26054 26055 26056 26057 26058 26059 26060 26061 26062 26063 26064 26065 26066 26067 26068 26069 26070 26071 26072 26073 26074 26075 26076 26077 26078 26079 26080 26081 26082 26083 26084 26085 26086 26087 26088 26089 26090 26091 26092 26093 26094 26095 26096 26097 26098 26099 26100 26101 26102 26103 26104 26105 26106 26107 26108 26109 26110 26111 26112 26113 26114 26115 26116 26117 26118 26119 26120 26121 26122 26123 26124 26125 26126 26127 26128 26129 26130 26131 26132 26133 26134 26135 26136 26137 26138 26139 26140 26141 26142 26143 26144 26145 26146 26147 26148 26149 26150 26151 26152 26153 26154 26155 26156 26157 26158 26159 26160 26161 26162 26163 26164 26165 26166 26167 26168 26169 26170 26171 26172 26173 26174 26175 26176 26177 26178 26179 26180 26181 26182 26183 26184 26185 26186 26187 26188 26189 26190 26191 26192 26193 26194 26195 26196 26197 26198 26199 26200 26201 26202 26203 26204 26205 26206 26207 26208 26209 26210 26211 26212 26213 26214 26215 26216 26217 26218 26219 26220 26221 26222 26223 26224 26225 26226 26227 26228 26229 26230 26231 26232 26233 26234 26235 26236 26237 26238 26239 26240 26241 26242 26243 26244 26245 26246 26247 26248 26249 26250 26251 26252 26253 26254 26255 26256 26257 26258 26259 26260 26261 26262 26263 26264 26265 26266 26267 26268 26269 26270 26271 26272 26273 26274 26275 26276 26277 26278 26279 26280 26281 26282 26283 26284 26285 26286 26287 26288 26289 26290 26291 26292 26293 26294 26295 26296 26297 26298 26299 26300 26301 26302 26303 26304 26305 26306 26307 26308 26309 26310 26311 26312 26313 26314 26315 26316 26317 26318 26319 26320 26321 26322 26323 26324 26325 26326 26327 26328 26329 26330 26331 26332 26333 26334 26335 26336 26337 26338 26339 26340 26341 26342 26343 26344 26345 26346 26347 26348 26349 26350 26351 26352 26353 26354 26355 26356 26357 26358 26359 26360 26361 26362 26363 26364 26365 26366 26367 26368 26369 26370 26371 26372 26373 26374 26375 26376 26377 26378 26379 26380 26381 26382 26383 26384 26385 26386 26387 26388 26389 26390 26391 26392 26393 26394 26395 26396 26397 26398 26399 26400 26401 26402 26403 26404 26405 26406 26407 26408 26409 26410 26411 26412 26413 26414 26415 26416 26417 26418 26419 26420 26421 26422 26423 26424 26425 26426 26427 26428 26429 26430 26431 26432 26433 26434 26435 26436 26437 26438 26439 26440 26441 26442 26443 26444 26445 26446 26447 26448 26449 26450 26451 26452 26453 26454 26455 26456 26457 26458 26459 26460 26461 26462 26463 26464 26465 26466 26467 26468 26469 26470 26471 26472 26473 26474 26475 26476 26477 26478 26479 26480 26481 26482 26483 26484 26485 26486 26487 26488 26489 26490 26491 26492 26493 26494 26495 26496 26497 26498 26499 26500 26501 26502 26503 26504 26505 26506 26507 26508 26509 26510 26511 26512 26513 26514 26515 26516 26517 26518 26519 26520 26521 26522 26523 26524 26525 26526 26527 26528 26529 26530 26531 26532 26533 26534 26535 26536 26537 26538 26539 26540 26541 26542 26543 26544 26545 26546 26547 26548 26549 26550 26551 26552 26553 26554 26555 26556 26557 26558 26559 26560 26561 26562 26563 26564 26565 26566 26567 26568 26569 26570 26571 26572 26573 26574 26575 26576 26577 26578 26579 26580 26581 26582 26583 26584 26585 26586 26587 26588 26589 26590 26591 26592 26593 26594 26595 26596 26597 26598 26599 26600 26601 26602 26603 26604 26605 26606 26607 26608 26609 26610 26611 26612 26613 26614 26615 26616 26617 26618 26619 26620 26621 26622 26623 26624 26625 26626 26627 26628 26629 26630 26631 26632 26633 26634 26635 26636 26637 26638 26639 26640 26641 26642 26643 26644 26645 26646 26647 26648 26649 26650 26651 26652 26653 26654 26655 26656 26657 26658 26659 26660 26661 26662 26663 26664 26665 26666 26667 26668 26669 26670 26671 26672 26673 26674 26675 26676 26677 26678 26679 26680 26681 26682 26683 26684 26685 26686 26687 26688 26689 26690 26691 26692 26693 26694 26695 26696 26697 26698 26699 26700 26701 26702 26703 26704 26705 26706 26707 26708 26709 26710 26711 26712 26713 26714 26715 26716 26717 26718 26719 26720 26721 26722 26723 26724 26725 26726 26727 26728 26729 26730 26731 26732 26733 26734 26735 26736 26737 26738 26739 26740 26741 26742 26743 26744 26745 26746 26747 26748 26749 26750 26751 26752 26753 26754 26755 26756 26757 26758 26759 26760 26761 26762 26763 26764 26765 26766 26767 26768 26769 26770 26771 26772 26773 26774 26775 26776 26777 26778 26779 26780 26781 26782 26783 26784 26785 26786 26787 26788 26789 26790 26791 26792 26793 26794 26795 26796 26797 26798 26799 26800 26801 26802 26803 26804 26805 26806 26807 26808 26809 26810 26811 26812 26813 26814 26815 26816 26817 26818 26819 26820 26821 26822 26823 26824 26825 26826 26827 26828 26829 26830 26831 26832 26833 26834 26835 26836 26837 26838 26839 26840 26841 26842 26843 26844 26845 26846 26847 26848 26849 26850 26851 26852 26853 26854 26855 26856 26857 26858 26859 26860 26861 26862 26863 26864 26865 26866 26867 26868 26869 26870 26871 26872 26873 26874 26875 26876 26877 26878 26879 26880 26881 26882 26883 26884 26885 26886 26887 26888 26889 26890 26891 26892 26893 26894 26895 26896 26897 26898 26899 26900 26901 26902 26903 26904 26905 26906 26907 26908 26909 26910 26911 26912 26913 26914 26915 26916 26917 26918 26919 26920 26921 26922 26923 26924 26925 26926 26927 26928 26929 26930 26931 26932 26933 26934 26935 26936 26937 26938 26939 26940 26941 26942 26943 26944 26945 26946 26947 26948 26949 26950 26951 26952 26953 26954 26955 26956 26957 26958 26959 26960 26961 26962 26963 26964 26965 26966 26967 26968 26969 26970 26971 26972 26973 26974 26975 26976 26977 26978 26979 26980 26981 26982 26983 26984 26985 26986 26987 26988 26989 26990 26991 26992 26993 26994 26995 26996 26997 26998 26999 27000 27001 27002 27003 27004 27005 27006 27007 27008 27009 27010 27011 27012 27013 27014 27015 27016 27017 27018 27019 27020 27021 27022 27023 27024 27025 27026 27027 27028 27029 27030 27031 27032 27033 27034 27035 27036 27037 27038 27039 27040 27041 27042 27043 27044 27045 27046 27047 27048 27049 27050 27051 27052 27053 27054 27055 27056 27057 27058 27059 27060 27061 27062 27063 27064 27065 27066 27067 27068 27069 27070 27071 27072 27073 27074 27075 27076 27077 27078 27079 27080 27081 27082 27083 27084 27085 27086 27087 27088 27089 27090 27091 27092 27093 27094 27095 27096 27097 27098 27099 27100 27101 27102 27103 27104 27105 27106 27107 27108 27109 27110 27111 27112 27113 27114 27115 27116 27117 27118 27119 27120 27121 27122 27123 27124 27125 27126 27127 27128 27129 27130 27131 27132 27133 27134 27135 27136 27137 27138 27139 27140 27141 27142 27143 27144 27145 27146 27147 27148 27149 27150 27151 27152 27153 27154 27155 27156 27157 27158 27159 27160 27161 27162 27163 27164 27165 27166 27167 27168 27169 27170 27171 27172 27173 27174 27175 27176 27177 27178 27179 27180 27181 27182 27183 27184 27185 27186 27187 27188 27189 27190 27191 27192 27193 27194 27195 27196 27197 27198 27199 27200 27201 27202 27203 27204 27205 27206 27207 27208 27209 27210 27211 27212 27213 27214 27215 27216 27217 27218 27219 27220 27221 27222 27223 27224 27225 27226 27227 27228 27229 27230 27231 27232 27233 27234 27235 27236 27237 27238 27239 27240 27241 27242 27243 27244 27245 27246 27247 27248 27249 27250 27251 27252 27253 27254 27255 27256 27257 27258 27259 27260 27261 27262 27263 27264 27265 27266 27267 27268 27269 27270 27271 27272 27273 27274 27275 27276 27277 27278 27279 27280 27281 27282 27283 27284 27285 27286 27287 27288 27289 27290 27291 27292 27293 27294 27295 27296 27297 27298 27299 27300 27301 27302 27303 27304 27305 27306 27307 27308 27309 27310 27311 27312 27313 27314 27315 27316 27317 27318 27319 27320 27321 27322 27323 27324 27325 27326 27327 27328 27329 27330 27331 27332 27333 27334 27335 27336 27337 27338 27339 27340 27341 27342 27343 27344 27345 27346 27347 27348 27349 27350 27351 27352 27353 27354 27355 27356 27357 27358 27359 27360 27361 27362 27363 27364 27365 27366 27367 27368 27369 27370 27371 27372 27373 27374 27375 27376 27377 27378 27379 27380 27381 27382 27383 27384 27385 27386 27387 27388 27389 27390 27391 27392 27393 27394 27395 27396 27397 27398 27399 27400 27401 27402 27403 27404 27405 27406 27407 27408 27409 27410 27411 27412 27413 27414 27415 27416 27417 27418 27419 27420 27421 27422 27423 27424 27425 27426 27427 27428 27429 27430 27431 27432 27433 27434 27435 27436 27437 27438 27439 27440 27441 27442 27443 27444 27445 27446 27447 27448 27449 27450 27451 27452 27453 27454 27455 27456 27457 27458 27459 27460 27461 27462 27463 27464 27465 27466 27467 27468 27469 27470 27471 27472 27473 27474 27475 27476 27477 27478 27479 27480 27481 27482 27483 27484 27485 27486 27487 27488 27489 27490 27491 27492 27493 27494 27495 27496 27497 27498 27499 27500 27501 27502 27503 27504 27505 27506 27507 27508 27509 27510 27511 27512 27513 27514 27515 27516 27517 27518 27519 27520 27521 27522 27523 27524 27525 27526 27527 27528 27529 27530 27531 27532 27533 27534 27535 27536 27537 27538 27539 27540 27541 27542 27543 27544 27545 27546 27547 27548 27549 27550 27551 27552 27553 27554 27555 27556 27557 27558 27559 27560 27561 27562 27563 27564 27565 27566 27567 27568 27569 27570 27571 27572 27573 27574 27575 27576 27577 27578 27579 27580 27581 27582 27583 27584 27585 27586 27587 27588 27589 27590 27591 27592 27593 27594 27595 27596 27597 27598 27599 27600 27601 27602 27603 27604 27605 27606 27607 27608 27609 27610 27611 27612 27613 27614 27615 27616 27617 27618 27619 27620 27621 27622 27623 27624 27625 27626 27627 27628 27629 27630 27631 27632 27633 27634 27635 27636 27637 27638 27639 27640 27641 27642 27643 27644 27645 27646 27647 27648 27649 27650 27651 27652 27653 27654 27655 27656 27657 27658 27659 27660 27661 27662 27663 27664 27665 27666 27667 27668 27669 27670 27671 27672 27673 27674 27675 27676 27677 27678 27679 27680 27681 27682 27683 27684 27685 27686 27687 27688 27689 27690 27691 27692 27693 27694 27695 27696 27697 27698 27699 27700 27701 27702 27703 27704 27705 27706 27707 27708 27709 27710 27711 27712 27713 27714 27715 27716 27717 27718 27719 27720 27721 27722 27723 27724 27725 27726 27727 27728 27729 27730 27731 27732 27733 27734 27735 27736 27737 27738 27739 27740 27741 27742 27743 27744 27745 27746 27747 27748 27749 27750 27751 27752 27753 27754 27755 27756 27757 27758 27759 27760 27761 27762 27763 27764 27765 27766 27767 27768 27769 27770 27771 27772 27773 27774 27775 27776 27777 27778 27779 27780 27781 27782 27783 27784 27785 27786 27787 27788 27789 27790 27791 27792 27793 27794 27795 27796 27797 27798 27799 27800 27801 27802 27803 27804 27805 27806 27807 27808 27809 27810 27811 27812 27813 27814 27815 27816 27817 27818 27819 27820 27821 27822 27823 27824 27825 27826 27827 27828 27829 27830 27831 27832 27833 27834 27835 27836 27837 27838 27839 27840 27841 27842 27843 27844 27845 27846 27847 27848 27849 27850 27851 27852 27853 27854 27855 27856 27857 27858 27859 27860 27861 27862 27863 27864 27865 27866 27867 27868 27869 27870 27871 27872 27873 27874 27875 27876 27877 27878 27879 27880 27881 27882 27883 27884 27885 27886 27887 27888 27889 27890 27891 27892 27893 27894 27895 27896 27897 27898 27899 27900 27901 27902 27903 27904 27905 27906 27907 27908 27909 27910 27911 27912 27913 27914 27915 27916 27917 27918 27919 27920 27921 27922 27923 27924 27925 27926 27927 27928 27929 27930 27931 27932 27933 27934 27935 27936 27937 27938 27939 27940 27941 27942 27943 27944 27945 27946 27947 27948 27949 27950 27951 27952 27953 27954 27955 27956 27957 27958 27959 27960 27961 27962 27963 27964 27965 27966 27967 27968 27969 27970 27971 27972 27973 27974 27975 27976 27977 27978 27979 27980 27981 27982 27983 27984 27985 27986 27987 27988 27989 27990 27991 27992 27993 27994 27995 27996 27997 27998 27999 28000 28001 28002 28003 28004 28005 28006 28007 28008 28009 28010 28011 28012 28013 28014 28015 28016 28017 28018 28019 28020 28021 28022 28023 28024 28025 28026 28027 28028 28029 28030 28031 28032 28033 28034 28035 28036 28037 28038 28039 28040 28041 28042 28043 28044 28045 28046 28047 28048 28049 28050 28051 28052 28053 28054 28055 28056 28057 28058 28059 28060 28061 28062 28063 28064 28065 28066 28067 28068 28069 28070 28071 28072 28073 28074 28075 28076 28077 28078 28079 28080 28081 28082 28083 28084 28085 28086 28087 28088 28089 28090 28091 28092 28093 28094 28095 28096 28097 28098 28099 28100 28101 28102 28103 28104 28105 28106 28107 28108 28109 28110 28111 28112 28113 28114 28115 28116 28117 28118 28119 28120 28121 28122 28123 28124 28125 28126 28127 28128 28129 28130 28131 28132 28133 28134 28135 28136 28137 28138 28139 28140 28141 28142 28143 28144 28145 28146 28147 28148 28149 28150 28151 28152 28153 28154 28155 28156 28157 28158 28159 28160 28161 28162 28163 28164 28165 28166 28167 28168 28169 28170 28171 28172 28173 28174 28175 28176 28177 28178 28179 28180 28181 28182 28183 28184 28185 28186 28187 28188 28189 28190 28191 28192 28193 28194 28195 28196 28197 28198 28199 28200 28201 28202 28203 28204 28205 28206 28207 28208 28209 28210 28211 28212 28213 28214 28215 28216 28217 28218 28219 28220 28221 28222 28223 28224 28225 28226 28227 28228 28229 28230 28231 28232 28233 28234 28235 28236 28237 28238 28239 28240 28241 28242 28243 28244 28245 28246 28247 28248 28249 28250 28251 28252 28253 28254 28255 28256 28257 28258 28259 28260 28261 28262 28263 28264 28265 28266 28267 28268 28269 28270 28271 28272 28273 28274 28275 28276 28277 28278 28279 28280 28281 28282 28283 28284 28285 28286 28287 28288 28289 28290 28291 28292 28293 28294 28295 28296 28297 28298 28299 28300 28301 28302 28303 28304 28305 28306 28307 28308 28309 28310 28311 28312 28313 28314 28315 28316 28317 28318 28319 28320 28321 28322 28323 28324 28325 28326 28327 28328 28329 28330 28331 28332 28333 28334 28335 28336 28337 28338 28339 28340 28341 28342 28343 28344 28345 28346 28347 28348 28349 28350 28351 28352 28353 28354 28355 28356 28357 28358 28359 28360 28361 28362 28363 28364 28365 28366 28367 28368 28369 28370 28371 28372 28373 28374 28375 28376 28377 28378 28379 28380 28381 28382 28383 28384 28385 28386 28387 28388 28389 28390 28391 28392 28393 28394 28395 28396 28397 28398 28399 28400 28401 28402 28403 28404 28405 28406 28407 28408 28409 28410 28411 28412 28413 28414 28415 28416 28417 28418 28419 28420 28421 28422 28423 28424 28425 28426 28427 28428 28429 28430 28431 28432 28433 28434 28435 28436 28437 28438 28439 28440 28441 28442 28443 28444 28445 28446 28447 28448 28449 28450 28451 28452 28453 28454 28455 28456 28457 28458 28459 28460 28461 28462 28463 28464 28465 28466 28467 28468 28469 28470 28471 28472 28473 28474 28475 28476 28477 28478 28479 28480 28481 28482 28483 28484 28485 28486 28487 28488 28489 28490 28491 28492 28493 28494 28495 28496 28497 28498 28499 28500 28501 28502 28503 28504 28505 28506 28507 28508 28509 28510 28511 28512 28513 28514 28515 28516 28517 28518 28519 28520 28521 28522 28523 28524 28525 28526 28527 28528 28529 28530 28531 28532 28533 28534 28535 28536 28537 28538 28539 28540 28541 28542 28543 28544 28545 28546 28547 28548 28549 28550 28551 28552 28553 28554 28555 28556 28557 28558 28559 28560 28561 28562 28563 28564 28565 28566 28567 28568 28569 28570 28571 28572 28573 28574 28575 28576 28577 28578 28579 28580 28581 28582 28583 28584 28585 28586 28587 28588 28589 28590 28591 28592 28593 28594 28595 28596 28597 28598 28599 28600 28601 28602 28603 28604 28605 28606 28607 28608 28609 28610 28611 28612 28613 28614 28615 28616 28617 28618 28619 28620 28621 28622 28623 28624 28625 28626 28627 28628 28629 28630 28631 28632 28633 28634 28635 28636 28637 28638 28639 28640 28641 28642 28643 28644 28645 28646 28647 28648 28649 28650 28651 28652 28653 28654 28655 28656 28657 28658 28659 28660 28661 28662 28663 28664 28665 28666 28667 28668 28669 28670 28671 28672 28673 28674 28675 28676 28677 28678 28679 28680 28681 28682 28683 28684 28685 28686 28687 28688 28689 28690 28691 28692 28693 28694 28695 28696 28697 28698 28699 28700 28701 28702 28703 28704 28705 28706 28707 28708 28709 28710 28711 28712 28713 28714 28715 28716 28717 28718 28719 28720 28721 28722 28723 28724 28725 28726 28727 28728 28729 28730 28731 28732 28733 28734 28735 28736 28737 28738 28739 28740 28741 28742 28743 28744 28745 28746 28747 28748 28749 28750 28751 28752 28753 28754 28755 28756 28757 28758 28759 28760 28761 28762 28763 28764 28765 28766 28767 28768 28769 28770 28771 28772 28773 28774 28775 28776 28777 28778 28779 28780 28781 28782 28783 28784 28785 28786 28787 28788 28789 28790 28791 28792 28793 28794 28795 28796 28797 28798 28799 28800 28801 28802 28803 28804 28805 28806 28807 28808 28809 28810 28811 28812 28813 28814 28815 28816 28817 28818 28819 28820 28821 28822 28823 28824 28825 28826 28827 28828 28829 28830 28831 28832 28833 28834 28835 28836 28837 28838 28839 28840 28841 28842 28843 28844 28845 28846 28847 28848 28849 28850 28851 28852 28853 28854 28855 28856 28857 28858 28859 28860 28861 28862 28863 28864 28865 28866 28867 28868 28869 28870 28871 28872 28873 28874 28875 28876 28877 28878 28879 28880 28881 28882 28883 28884 28885 28886 28887 28888 28889 28890 28891 28892 28893 28894 28895 28896 28897 28898 28899 28900 28901 28902 28903 28904 28905 28906 28907 28908 28909 28910 28911 28912 28913 28914 28915 28916 28917 28918 28919 28920 28921 28922 28923 28924 28925 28926 28927 28928 28929 28930 28931 28932 28933 28934 28935 28936 28937 28938 28939 28940 28941 28942 28943 28944 28945 28946 28947 28948 28949 28950 28951 28952 28953 28954 28955 28956 28957 28958 28959 28960 28961 28962 28963 28964 28965 28966 28967 28968 28969 28970 28971 28972 28973 28974 28975 28976 28977 28978 28979 28980 28981 28982 28983 28984 28985 28986 28987 28988 28989 28990 28991 28992 28993 28994 28995 28996 28997 28998 28999 29000 29001 29002 29003 29004 29005 29006 29007 29008 29009 29010 29011 29012 29013 29014 29015 29016 29017 29018 29019 29020 29021 29022 29023 29024 29025 29026 29027 29028 29029 29030 29031 29032 29033 29034 29035 29036 29037 29038 29039 29040 29041 29042 29043 29044 29045 29046 29047 29048 29049 29050 29051 29052 29053 29054 29055 29056 29057 29058 29059 29060 29061 29062 29063 29064 29065 29066 29067 29068 29069 29070 29071 29072 29073 29074 29075 29076 29077 29078 29079 29080 29081 29082 29083 29084 29085 29086 29087 29088 29089 29090 29091 29092 29093 29094 29095 29096 29097 29098 29099 29100 29101 29102 29103 29104 29105 29106 29107 29108 29109 29110 29111 29112 29113 29114 29115 29116 29117 29118 29119 29120 29121 29122 29123 29124 29125 29126 29127 29128 29129 29130 29131 29132 29133 29134 29135 29136 29137 29138 29139 29140 29141 29142 29143 29144 29145 29146 29147 29148 29149 29150 29151 29152 29153 29154 29155 29156 29157 29158 29159 29160 29161 29162 29163 29164 29165 29166 29167 29168 29169 29170 29171 29172 29173 29174 29175 29176 29177 29178 29179 29180 29181 29182 29183 29184 29185 29186 29187 29188 29189 29190 29191 29192 29193 29194 29195 29196 29197 29198 29199 29200 29201 29202 29203 29204 29205 29206 29207 29208 29209 29210 29211 29212 29213 29214 29215 29216 29217 29218 29219 29220 29221 29222 29223 29224 29225 29226 29227 29228 29229 29230 29231 29232 29233 29234 29235 29236 29237 29238 29239 29240 29241 29242 29243 29244 29245 29246 29247 29248 29249 29250 29251 29252 29253 29254 29255 29256 29257 29258 29259 29260 29261 29262 29263 29264 29265 29266 29267 29268 29269 29270 29271 29272 29273 29274 29275 29276 29277 29278 29279 29280 29281 29282 29283 29284 29285 29286 29287 29288 29289 29290 29291 29292 29293 29294 29295 29296 29297 29298 29299 29300 29301 29302 29303 29304 29305 29306 29307 29308 29309 29310 29311 29312 29313 29314 29315 29316 29317 29318 29319 29320 29321 29322 29323 29324 29325 29326 29327 29328 29329 29330 29331 29332 29333 29334 29335 29336 29337 29338 29339 29340 29341 29342 29343 29344 29345 29346 29347 29348 29349 29350 29351 29352 29353 29354 29355 29356 29357 29358 29359 29360 29361 29362 29363 29364 29365 29366 29367 29368 29369 29370 29371 29372 29373 29374 29375 29376 29377 29378 29379 29380 29381 29382 29383 29384 29385 29386 29387 29388 29389 29390 29391 29392 29393 29394 29395 29396 29397 29398 29399 29400 29401 29402 29403 29404 29405 29406 29407 29408 29409 29410 29411 29412 29413 29414 29415 29416 29417 29418 29419 29420 29421 29422 29423 29424 29425 29426 29427 29428 29429 29430 29431 29432 29433 29434 29435 29436 29437 29438 29439 29440 29441 29442 29443 29444 29445 29446 29447 29448 29449 29450 29451 29452 29453 29454 29455 29456 29457 29458 29459 29460 29461 29462 29463 29464 29465 29466 29467 29468 29469 29470 29471 29472 29473 29474 29475 29476 29477 29478 29479 29480 29481 29482 29483 29484 29485 29486 29487 29488 29489 29490 29491 29492 29493 29494 29495 29496 29497 29498 29499 29500 29501 29502 29503 29504 29505 29506 29507 29508 29509 29510 29511 29512 29513 29514 29515 29516 29517 29518 29519 29520 29521 29522 29523 29524 29525 29526 29527 29528 29529 29530 29531 29532 29533 29534 29535 29536 29537 29538 29539 29540 29541 29542 29543 29544 29545 29546 29547 29548 29549 29550 29551 29552 29553 29554 29555 29556 29557 29558 29559 29560 29561 29562 29563 29564 29565 29566 29567 29568 29569 29570 29571 29572 29573 29574 29575 29576 29577 29578 29579 29580 29581 29582 29583 29584 29585 29586 29587 29588 29589 29590 29591 29592 29593 29594 29595 29596 29597 29598 29599 29600 29601 29602 29603 29604 29605 29606 29607 29608 29609 29610 29611 29612 29613 29614 29615 29616 29617 29618 29619 29620 29621 29622 29623 29624 29625 29626 29627 29628 29629 29630 29631 29632 29633 29634 29635 29636 29637 29638 29639 29640 29641 29642 29643 29644 29645 29646 29647 29648 29649 29650 29651 29652 29653 29654 29655 29656 29657 29658 29659 29660 29661 29662 29663 29664 29665 29666 29667 29668 29669 29670 29671 29672 29673 29674 29675 29676 29677 29678 29679 29680 29681 29682 29683 29684 29685 29686 29687 29688 29689 29690 29691 29692 29693 29694 29695 29696 29697 29698 29699 29700 29701 29702 29703 29704 29705 29706 29707 29708 29709 29710 29711 29712 29713 29714 29715 29716 29717 29718 29719 29720 29721 29722 29723 29724 29725 29726 29727 29728 29729 29730 29731 29732 29733 29734 29735 29736 29737 29738 29739 29740 29741 29742 29743 29744 29745 29746 29747 29748 29749 29750 29751 29752 29753 29754 29755 29756 29757 29758 29759 29760 29761 29762 29763 29764 29765 29766 29767 29768 29769 29770 29771 29772 29773 29774 29775 29776 29777 29778 29779 29780 29781 29782 29783 29784 29785 29786 29787 29788 29789 29790 29791 29792 29793 29794 29795 29796 29797 29798 29799 29800 29801 29802 29803 29804 29805 29806 29807 29808 29809 29810 29811 29812 29813 29814 29815 29816 29817 29818 29819 29820 29821 29822 29823 29824 29825 29826 29827 29828 29829 29830 29831 29832 29833 29834 29835 29836 29837 29838 29839 29840 29841 29842 29843 29844 29845 29846 29847 29848 29849 29850 29851 29852 29853 29854 29855 29856 29857 29858 29859 29860 29861 29862 29863 29864 29865 29866 29867 29868 29869 29870 29871 29872 29873 29874 29875 29876 29877 29878 29879 29880 29881 29882 29883 29884 29885 29886 29887 29888 29889 29890 29891 29892 29893 29894 29895 29896 29897 29898 29899 29900 29901 29902 29903 29904 29905 29906 29907 29908 29909 29910 29911 29912 29913 29914 29915 29916 29917 29918 29919 29920 29921 29922 29923 29924 29925 29926 29927 29928 29929 29930 29931 29932 29933 29934 29935 29936 29937 29938 29939 29940 29941 29942 29943 29944 29945 29946 29947 29948 29949 29950 29951 29952 29953 29954 29955 29956 29957 29958 29959 29960 29961 29962 29963 29964 29965 29966 29967 29968 29969 29970 29971 29972 29973 29974 29975 29976 29977 29978 29979 29980 29981 29982 29983 29984 29985 29986 29987 29988 29989 29990 29991 29992 29993 29994 29995 29996 29997 29998 29999 30000 30001 30002 30003 30004 30005 30006 30007 30008 30009 30010 30011 30012 30013 30014 30015 30016 30017 30018 30019 30020 30021 30022 30023 30024 30025 30026 30027 30028 30029 30030 30031 30032 30033 30034 30035 30036 30037 30038 30039 30040 30041 30042 30043 30044 30045 30046 30047 30048 30049 30050 30051 30052 30053 30054 30055 30056 30057 30058 30059 30060 30061 30062 30063 30064 30065 30066 30067 30068 30069 30070 30071 30072 30073 30074 30075 30076 30077 30078 30079 30080 30081 30082 30083 30084 30085 30086 30087 30088 30089 30090 30091 30092 30093 30094 30095 30096 30097 30098 30099 30100 30101 30102 30103 30104 30105 30106 30107 30108 30109 30110 30111 30112 30113 30114 30115 30116 30117 30118 30119 30120 30121 30122 30123 30124 30125 30126 30127 30128 30129 30130 30131 30132 30133 30134 30135 30136 30137 30138 30139 30140 30141 30142 30143 30144 30145 30146 30147 30148 30149 30150 30151 30152 30153 30154 30155 30156 30157 30158 30159 30160 30161 30162 30163 30164 30165 30166 30167 30168 30169 30170 30171 30172 30173 30174 30175 30176 30177 30178 30179 30180 30181 30182 30183 30184 30185 30186 30187 30188 30189 30190 30191 30192 30193 30194 30195 30196 30197 30198 30199 30200 30201 30202 30203 30204 30205 30206 30207 30208 30209 30210 30211 30212 30213 30214 30215 30216 30217 30218 30219 30220 30221 30222 30223 30224 30225 30226 30227 30228 30229 30230 30231 30232 30233 30234 30235 30236 30237 30238 30239 30240 30241 30242 30243 30244 30245 30246 30247 30248 30249 30250 30251 30252 30253 30254 30255 30256 30257 30258 30259 30260 30261 30262 30263 30264 30265 30266 30267 30268 30269 30270 30271 30272 30273 30274 30275 30276 30277 30278 30279 30280 30281 30282 30283 30284 30285 30286 30287 30288 30289 30290 30291 30292 30293 30294 30295 30296 30297 30298 30299 30300 30301 30302 30303 30304 30305 30306 30307 30308 30309 30310 30311 30312 30313 30314 30315 30316 30317 30318 30319 30320 30321 30322 30323 30324 30325 30326 30327 30328 30329 30330 30331 30332 30333 30334 30335 30336 30337 30338 30339 30340 30341 30342 30343 30344 30345 30346 30347 30348 30349 30350 30351 30352 30353 30354 30355 30356 30357 30358 30359 30360 30361 30362 30363 30364 30365 30366 30367 30368 30369 30370 30371 30372 30373 30374 30375 30376 30377 30378 30379 30380 30381 30382 30383 30384 30385 30386 30387 30388 30389 30390 30391 30392 30393 30394 30395 30396 30397 30398 30399 30400 30401 30402 30403 30404 30405 30406 30407 30408 30409 30410 30411 30412 30413 30414 30415 30416 30417 30418 30419 30420 30421 30422 30423 30424 30425 30426 30427 30428 30429 30430 30431 30432 30433 30434 30435 30436 30437 30438 30439 30440 30441 30442 30443 30444 30445 30446 30447 30448 30449 30450 30451 30452 30453 30454 30455 30456 30457 30458 30459 30460 30461 30462 30463 30464 30465 30466 30467 30468 30469 30470 30471 30472 30473 30474 30475 30476 30477 30478 30479 30480 30481 30482 30483 30484 30485 30486 30487 30488 30489 30490 30491 30492 30493 30494 30495 30496 30497 30498 30499 30500 30501 30502 30503 30504 30505 30506 30507 30508 30509 30510 30511 30512 30513 30514 30515 30516 30517 30518 30519 30520 30521 30522 30523 30524 30525 30526 30527 30528 30529 30530 30531 30532 30533 30534 30535 30536 30537 30538 30539 30540 30541 30542 30543 30544 30545 30546 30547 30548 30549 30550 30551 30552 30553 30554 30555 30556 30557 30558 30559 30560 30561 30562 30563 30564 30565 30566 30567 30568 30569 30570 30571 30572 30573 30574 30575 30576 30577 30578 30579 30580 30581 30582 30583 30584 30585 30586 30587 30588 30589 30590 30591 30592 30593 30594 30595 30596 30597 30598 30599 30600 30601 30602 30603 30604 30605 30606 30607 30608 30609 30610 30611 30612 30613 30614 30615 30616 30617 30618 30619 30620 30621 30622 30623 30624 30625 30626 30627 30628 30629 30630 30631 30632 30633 30634 30635 30636 30637 30638 30639 30640 30641 30642 30643 30644 30645 30646 30647 30648 30649 30650 30651 30652 30653 30654 30655 30656 30657 30658 30659 30660 30661 30662 30663 30664 30665 30666 30667 30668 30669 30670 30671 30672 30673 30674 30675 30676 30677 30678 30679 30680 30681 30682 30683 30684 30685 30686 30687 30688 30689 30690 30691 30692 30693 30694 30695 30696 30697 30698 30699 30700 30701 30702 30703 30704 30705 30706 30707 30708 30709 30710 30711 30712 30713 30714 30715 30716 30717 30718 30719 30720 30721 30722 30723 30724 30725 30726 30727 30728 30729 30730 30731 30732 30733 30734 30735 30736 30737 30738 30739 30740 30741 30742 30743 30744 30745 30746 30747 30748 30749 30750 30751 30752 30753 30754 30755 30756 30757 30758 30759 30760 30761 30762 30763 30764 30765 30766 30767 30768 30769 30770 30771 30772 30773 30774 30775 30776 30777 30778 30779 30780 30781 30782 30783 30784 30785 30786 30787 30788 30789 30790 30791 30792 30793 30794 30795 30796 30797 30798 30799 30800 30801 30802 30803 30804 30805 30806 30807 30808 30809 30810 30811 30812 30813 30814 30815 30816 30817 30818 30819 30820 30821 30822 30823 30824 30825 30826 30827 30828 30829 30830 30831 30832 30833 30834 30835 30836 30837 30838 30839 30840 30841 30842 30843 30844 30845 30846 30847 30848 30849 30850 30851 30852 30853 30854 30855 30856 30857 30858 30859 30860 30861 30862 30863 30864 30865 30866 30867 30868 30869 30870 30871 30872 30873 30874 30875 30876 30877 30878 30879 30880 30881 30882 30883 30884 30885 30886 30887 30888 30889 30890 30891 30892 30893 30894 30895 30896 30897 30898 30899 30900 30901 30902 30903 30904 30905 30906 30907 30908 30909 30910 30911 30912 30913 30914 30915 30916 30917 30918 30919 30920 30921 30922 30923 30924 30925 30926 30927 30928 30929 30930 30931 30932 30933 30934 30935 30936 30937 30938 30939 30940 30941 30942 30943 30944 30945 30946 30947 30948 30949 30950 30951 30952 30953 30954 30955 30956 30957 30958 30959 30960 30961 30962 30963 30964 30965 30966 30967 30968 30969 30970 30971 30972 30973 30974 30975 30976 30977 30978 30979 30980 30981 30982 30983 30984 30985 30986 30987 30988 30989 30990 30991 30992 30993 30994 30995 30996 30997 30998 30999 31000 31001 31002 31003 31004 31005 31006 31007 31008 31009 31010 31011 31012 31013 31014 31015 31016 31017 31018 31019 31020 31021 31022 31023 31024 31025 31026 31027 31028 31029 31030 31031 31032 31033 31034 31035 31036 31037 31038 31039 31040 31041 31042 31043 31044 31045 31046 31047 31048 31049 31050 31051 31052 31053 31054 31055 31056 31057 31058 31059 31060 31061 31062 31063 31064 31065 31066 31067 31068 31069 31070 31071 31072 31073 31074 31075 31076 31077 31078 31079 31080 31081 31082 31083 31084 31085 31086 31087 31088 31089 31090 31091 31092 31093 31094 31095 31096 31097 31098 31099 31100 31101 31102 31103 31104 31105 31106 31107 31108 31109 31110 31111 31112 31113 31114 31115 31116 31117 31118 31119 31120 31121 31122 31123 31124 31125 31126 31127 31128 31129 31130 31131 31132 31133 31134 31135 31136 31137 31138 31139 31140 31141 31142 31143 31144 31145 31146 31147 31148 31149 31150 31151 31152 31153 31154 31155 31156 31157 31158 31159 31160 31161 31162 31163 31164 31165 31166 31167 31168 31169 31170 31171 31172 31173 31174 31175 31176 31177 31178 31179 31180 31181 31182 31183 31184 31185 31186 31187 31188 31189 31190 31191 31192 31193 31194 31195 31196 31197 31198 31199 31200 31201 31202 31203 31204 31205 31206 31207 31208 31209 31210 31211 31212 31213 31214 31215 31216 31217 31218 31219 31220 31221 31222 31223 31224 31225 31226 31227 31228 31229 31230 31231 31232 31233 31234 31235 31236 31237 31238 31239 31240 31241 31242 31243 31244 31245 31246 31247 31248 31249 31250 31251 31252 31253 31254 31255 31256 31257 31258 31259 31260 31261 31262 31263 31264 31265 31266 31267 31268 31269 31270 31271 31272 31273 31274 31275 31276 31277 31278 31279 31280 31281 31282 31283 31284 31285 31286 31287 31288 31289 31290 31291 31292 31293 31294 31295 31296 31297 31298 31299 31300 31301 31302 31303 31304 31305 31306 31307 31308 31309 31310 31311 31312 31313 31314 31315 31316 31317 31318 31319 31320 31321 31322 31323 31324 31325 31326 31327 31328 31329 31330 31331 31332 31333 31334 31335 31336 31337 31338 31339 31340 31341 31342 31343 31344 31345 31346 31347 31348 31349 31350 31351 31352 31353 31354 31355 31356 31357 31358 31359 31360 31361 31362 31363 31364 31365 31366 31367 31368 31369 31370 31371 31372 31373 31374 31375 31376 31377 31378 31379 31380 31381 31382 31383 31384 31385 31386 31387 31388 31389 31390 31391 31392 31393 31394 31395 31396 31397 31398 31399 31400 31401 31402 31403 31404 31405 31406 31407 31408 31409 31410 31411 31412 31413 31414 31415 31416 31417 31418 31419 31420 31421 31422 31423 31424 31425 31426 31427 31428 31429 31430 31431 31432 31433 31434 31435 31436 31437 31438 31439 31440 31441 31442 31443 31444 31445 31446 31447 31448 31449 31450 31451 31452 31453 31454 31455 31456 31457 31458 31459 31460 31461 31462 31463 31464 31465 31466 31467 31468 31469 31470 31471 31472 31473 31474 31475 31476 31477 31478 31479 31480 31481 31482 31483 31484 31485 31486 31487 31488 31489 31490 31491 31492 31493 31494 31495 31496 31497 31498 31499 31500 31501 31502 31503 31504 31505 31506 31507 31508 31509 31510 31511 31512 31513 31514 31515 31516 31517 31518 31519 31520 31521 31522 31523 31524 31525 31526 31527 31528 31529 31530 31531 31532 31533 31534 31535 31536 31537 31538 31539 31540 31541 31542 31543 31544 31545 31546 31547 31548 31549 31550 31551 31552 31553 31554 31555 31556 31557 31558 31559 31560 31561 31562 31563 31564 31565 31566 31567 31568 31569 31570 31571 31572 31573 31574 31575 31576 31577 31578 31579 31580 31581 31582 31583 31584 31585 31586 31587 31588 31589 31590 31591 31592 31593 31594 31595 31596 31597 31598 31599 31600 31601 31602 31603 31604 31605 31606 31607 31608 31609 31610 31611 31612 31613 31614 31615 31616 31617 31618 31619 31620 31621 31622 31623 31624 31625 31626 31627 31628 31629 31630 31631 31632 31633 31634 31635 31636 31637 31638 31639 31640 31641 31642 31643 31644 31645 31646 31647 31648 31649 31650 31651 31652 31653 31654 31655 31656 31657 31658 31659 31660 31661 31662 31663 31664 31665 31666 31667 31668 31669 31670 31671 31672 31673 31674 31675 31676 31677 31678 31679 31680 31681 31682 31683 31684 31685 31686 31687 31688 31689 31690 31691 31692 31693 31694 31695 31696 31697 31698 31699 31700 31701 31702 31703 31704 31705 31706 31707 31708 31709 31710 31711 31712 31713 31714 31715 31716 31717 31718 31719 31720 31721 31722 31723 31724 31725 31726 31727 31728 31729 31730 31731 31732 31733 31734 31735 31736 31737 31738 31739 31740 31741 31742 31743 31744 31745 31746 31747 31748 31749 31750 31751 31752 31753 31754 31755 31756 31757 31758 31759 31760 31761 31762 31763 31764 31765 31766 31767 31768 31769 31770 31771 31772 31773 31774 31775 31776 31777 31778 31779 31780 31781 31782 31783 31784 31785 31786 31787 31788 31789 31790 31791 31792 31793 31794 31795 31796 31797 31798 31799 31800 31801 31802 31803 31804 31805 31806 31807 31808 31809 31810 31811 31812 31813 31814 31815 31816 31817 31818 31819 31820 31821 31822 31823 31824 31825 31826 31827 31828 31829 31830 31831 31832 31833 31834 31835 31836 31837 31838 31839 31840 31841 31842 31843 31844 31845 31846 31847 31848 31849 31850 31851 31852 31853 31854 31855 31856 31857 31858 31859 31860 31861 31862 31863 31864 31865 31866 31867 31868 31869 31870 31871 31872 31873 31874 31875 31876 31877 31878 31879 31880 31881 31882 31883 31884 31885 31886 31887 31888 31889 31890 31891 31892 31893 31894 31895 31896 31897 
</DataArray>
<DataArray type="UInt32" Name="offsets" format="ascii">
3 6 9 12 15 17 20 23 26 29 32 35 38 40 43 46 49 52 54 57 60 62 65 68 71 74 76 79 82 85 88 90 93 96 99 102 105 108 111 114 117 120 123 126 129 131 134 137 139 142 145 148 151 154 156 159 162 165 168 171 174 177 179 182 185 188 191 193 196 199 202 205 208 211 214 217 220 222 225 228 230 233 236 238 241 244 247 250 252 255 258 261 264 267 270 273 275 277 279 282 285 287 290 293 296 299 302 304 307 310 313 316 319 322 325 328 331 334 337 340 343 345 348 351 354 356 359 362 365 368 371 374 376 379 382 385 388 391 394 397 400 403 406 409 412 415 418 421 424 427 430 433 436 439 442 445 448 451 453 456 459 462 464 467 470 472 475 478 481 484 487 490 493 496 499 502 505 507 510 513 516 519 522 525 528 531 533 536 539 542 545 548 551 554 557 559 562 565 568 571 574 577 580 583 586 588 591 594 597 600 603 606 609 612 615 618 621 624 627 630 633 636 639 642 645 648 651 654 657 659 662 665 668 670 673 675 678 680 683 686 688 691 694 697 699 702 704 707 709 712 714 716 719 721 724 727 729 732 734 737 740 743 745 748 750 752 755 758 760 763 766 769 771 774 776 778 780 783 785 788 791 794 796 799 801 803 805 808 811 813 815 818 821 824 827 829 832 834 837 840 842 845 848 851 853 856 858 860 862 865 868 871 873 876 878 880 882 884 887 890 893 895 897 900 903 905 907 909 912 914 917 920 923 926 928 931 934 937 940 943 946 949 951 954 957 960 963 966 969 971 973 976 979 982 984 987 990 993 995 998 1000 1003 1005 1007 1010 1013 1016 1019 1021 1024 1027 1029 1032 1035 1038 1041 1043 1046 1048 1051 1054 1057 1060 1063 1065 1067 1070 1073 1076 1079 1082 1085 1088 1091 1093 1096 1099 1102 1104 1107 1110 1112 1115 1117 1120 1123 1126 1129 1132 1135 1138 1141 1144 1147 1150 1152 1155 1157 1160 1162 1165 1168 1171 1173 1176 1178 1181 1183 1186 1189 1192 1195 1198 1201 1203 1206 1208 1211 1214 1217 1219 1222 1225 1228 1230 1233 1235 1237 1240 1243 1246 1249 1251 1254 1257 1260 1263 1265 1267 1270 1273 1275 1278 1280 1283 1285 1287 1290 1293 1296 1298 1301 1304 1307 1310 1312 1315 1318 1321 1324 1327 1330 1333 1336 1339 1342 1345 1347 1350 1353 1356 1359 1361 1364 1367 1370 1372 1375 1377 1379 1381 1384 1387 1390 1392 1394 1397 1399 1402 1405 1407 1410 1413 1416 1419 1421 1424 1427 1430 1433 1436 1439 1442 1445 1448 1451 1454 1456 1458 1461 1464 1466 1469 1472 1475 1477 1480 1483 1486 1489 1492 1495 1497 1500 1503 1506 1508 1511 1514 1517 1519 1522 1525 1528 1531 1534 1537 1540 1543 1546 1549 1552 1554 1557 1560 1563 1565 1568 1571 1574 1577 1580 1583 1586 1588 1591 1594 1597 1600 1603 1605 1608 1611 1614 1617 1620 1623 1626 1629 1632 1635 1638 1641 1644 1647 1650 1653 1656 1659 1662 1664 1667 1670 1673 1676 1678 1681 1684 1686 1689 1692 1695 1698 1701 1704 1707 1709 1712 1715 1718 1721 1724 1727 1730 1733 1735 1738 1740 1743 1746 1748 1751 1754 1757 1759 1762 1765 1767 1770 1773 1776 1778 1781 1783 1786 1789 1791 1794 1796 1799 1802 1805 1808 1811 1814 1817 1820 1823 1826 1829 1832 1835 1838 1841 1844 1847 1850 1853 1856 1859 1862 1864 1867 1869 1872 1874 1877 1880 1883 1886 1889 1892 1895 1898 1901 1904 1907 1910 1913 1916 1919 1921 1924 1927 1930 1933 1936 1939 1942 1945 1948 1950 1953 1956 1959 1962 1965 1968 1971 1974 1977 1980 1983 1986 1989 1992 1995 1998 2001 2004 2007 2010 2013 2016 2019 2022 2025 2028 2031 2034 2037 2039 2042 2045 2047 2050 2053 2056 2058 2060 2063 2065 2068 2071 2074 2077 2080 2082 2085 2088 2091 2094 2097 2099 2102 2105 2108 2111 2114 2117 2120 2123 2126 2129 2132 2135 2138 2141 2144 2147 2150 2153 2156 2159 2162 2165 2168 2171 2174 2177 2180 2183 2186 2189 2192 2195 2198 2201 2204 2207 2210 2213 2216 2219 2222 2225 2228 2231 2234 2237 2240 2243 2246 2248 2251 2254 2257 2260 2263 2266 2269 2272 2275 2278 2281 2284 2287 2290 2293 2295 2298 2301 2304 2307 2309 2312 2315 2318 2321 2324 2327 2330 2333 2336 2339 2342 2345 2348 2351 2354 2357 2360 2363 2366 2369 2372 2375 2378 2381 2384 2387 2390 2392 2395 2398 2400 2403 2405 2407 2409 2411 2414 2417 2419 2422 2425 2428 2431 2434 2437 2440 2443 2446 2449 2452 2455 2458 2461 2464 2467 2470 2472 2475 2478 2480 2483 2485 2488 2491 2494 2497 2499 2502 2504 2507 2510 2513 2516 2518 2521 2524 2527 2529 2532 2535 2538 2541 2544 2546 2549 2551 2554 2557 2559 2561 2564 2566 2569 2572 2575 2578 2581 2584 2587 2590 2593 2596 2599 2601 2604 2607 2610 2612 2615 2618 2621 2623 2626 2629 2631 2633 2635 2638 2641 2644 2647 2650 2653 2656 2659 2662 2665 2668 2670 2673 2676 2679 2682 2685 2688 2691 2694 2696 2698 2700 2703 2706 2709 2712 2715 2718 2721 2724 2726 2728 2731 2734 2737 2739 2742 2745 2747 2750 2753 2756 2759 2762 2765 2768 2771 2774 2777 2780 2782 2785 2788 2791 2794 2797 2800 2803 2806 2808 2811 2814 2817 2820 2823 2826 2829 2832 2835 2838 2840 2843 2845 2847 2849 2852 2855 2858 2861 2864 2867 2870 2872 2874 2877 2879 2882 2885 2888 2891 2894 2896 2899 2901 2903 2906 2909 2912 2914 2917 2919 2922 2925 2928 2931 2933 2936 2939 2942 2945 2948 2951 2954 2957 2960 2963 2966 2969 2972 2975 2978 2981 2984 2986 2989 2992 2995 2997 3000 3003 3006 3009 3012 3014 3017 3020 3023 3026 3029 3032 3034 3037 3039 3042 3045 3048 3051 3054 3057 3060 3063 3065 3068 3071 3074 3076 3079 3082 3085 3088 3091 3094 3097 3100 3103 3106 3109 3112 3115 3118 3121 3124 3127 3130 3133 3136 3139 3142 3145 3148 3151 3153 3155 3157 3160 3163 3166 3169 3171 3174 3177 3180 3183 3185 3188 3191 3194 3197 3200 3203 3206 3208 3211 3214 3217 3220 3223 3226 3229 3232 3234 3237 3240 3243 3246 3249 3252 3255 3258 3261 3264 3267 3270 3272 3275 3278 3281 3284 3287 3290 3292 3295 3298 3301 3304 3307 3310 3313 3316 3318 3321 3324 3327 3329 3332 3335 3338 3341 3344 3347 3350 3353 3356 3359 3362 3365 3367 3370 3373 3376 3379 3382 3385 3388 3391 3394 3397 3400 3403 3406 3409 3412 3415 3418 3421 3424 3427 3430 3433 3436 3439 3442 3445 3448 3451 3454 3457 3460 3463 3466 3469 3472 3475 3478 3481 3484 3487 3490 3493 3496 3499 3502 3505 3508 3510 3513 3516 3519 3522 3525 3528 3531 3534 3537 3540 3543 3546 3549 3552 3555 3558 3561 3564 3567 3570 3573 3576 3579 3582 3584 3587 3590 3593 3596 3599 3602 3605 3608 3611 3614 3616 3619 3622 3624 3627 3630 3633 3636 3639 3642 3645 3648 3651 3653 3656 3658 3661 3664 3667 3670 3672 3675 3678 3680 3683 3685 3688 3691 3694 3697 3700 3702 3705 3708 3711 3714 3717 3720 3723 3726 3728 3731 3734 3737 3740 3743 3746 3749 3752 3755 3758 3761 3764 3767 3770 3772 3775 3777 3779 3782 3785 3788 3791 3794 3796 3799 3802 3805 3808 3811 3814 3817 3820 3823 3826 3829 3832 3835 3838 3841 3843 3846 3849 3852 3855 3858 3861 3864 3867 3870 3873 3876 3879 3882 3885 3888 3891 3893 3896 3899 3902 3905 3908 3910 3912 3915 3918 3920 3923 3926 3929 3932 3935 3938 3941 3944 3947 3950 3952 3955 3958 3961 3964 3967 3970 3973 3976 3979 3981 3984 3986 3989 3992 3995 3998 4001 4003 4006 4009 4012 4015 4017 4020 4023 4026 4028 4031 4034 4037 4039 4042 4045 4047 4050 4053 4056 4059 4062 4065 4068 4071 4074 4077 4080 4083 4086 4089 4092 4095 4097 4100 4103 4106 4109 4112 4115 4118 4120 4123 4126 4129 4132 4135 4138 4141 4144 4147 4150 4153 4156 4159 4162 4165 4168 4171 4174 4177 4180 4183 4186 4189 4192 4195 4198 4201 4203 4206 4209 4212 4215 4217 4220 4223 4226 4228 4231 4234 4237 4240 4243 4246 4249 4252 4255 4257 4260 4262 4265 4268 4271 4274 4277 4280 4283 4286 4289 4292 4295 4298 4301 4304 4307 4310 4313 4316 4318 4320 4323 4326 4329 4331 4334 4337 4339 4342 4345 4347 4350 4353 4356 4358 4361 4364 4366 4369 4372 4375 4378 4381 4384 4387 4390 4393 4396 4399 4402 4405 4408 4411 4414 4417 4420 4423 4426 4428 4431 4433 4436 4439 4442 4445 4448 4451 4454 4457 4460 4463 4466 4468 4471 4473 4476 4479 4482 4484 4487 4490 4493 4496 4499 4501 4504 4507 4510 4513 4516 4519 4521 4524 4527 4530 4533 4536 4539 4542 4545 4548 4551 4554 4556 4559 4562 4565 4568 4571 4574 4577 4580 4582 4585 4588 4591 4593 4596 4599 4601 4604 4607 4610 4613 4616 4618 4621 4624 4627 4630 4633 4636 4639 4642 4645 4647 4650 4653 4655 4658 4660 4663 4665 4667 4669 4672 4674 4677 4680 4683 4686 4689 4692 4694 4697 4700 4703 4706 4709 4712 4714 4717 4720 4723 4726 4729 4732 4735 4737 4740 4743 4746 4749 4751 4754 4757 4760 4763 4766 4768 4771 4773 4776 4779 4782 4785 4788 4791 4794 4797 4800 4803 4805 4808 4811 4814 4817 4820 4823 4826 4828 4831 4834 4837 4840 4843 4846 4849 4851 4854 4856 4859 4862 4865 4868 4871 4874 4877 4880 4882 4885 4888 4891 4893 4895 4898 4901 4904 4907 4910 4912 4914 4917 4919 4922 4925 4927 4930 4933 4935 4938 4941 4944 4947 4950 4953 4956 4959 4961 4964 4967 4970 4973 4976 4978 4981 4984 4987 4990 4992 4995 4998 5000 5003 5006 5009 5012 5015 5018 5021 5024 5027 5030 5033 5036 5039 5042 5045 5048 5051 5054 5057 5060 5063 5066 5069 5072 5075 5078 5081 5084 5087 5090 5093 5096 5099 5102 5105 5108 5111 5114 5117 5120 5123 5125 5128 5131 5133 5136 5139 5142 5145 5148 5150 5153 5156 5159 5162 5164 5167 5170 5173 5176 5179 5182 5185 5188 5191 5194 5197 5200 5203 5206 5209 5212 5215 5218 5221 5224 5227 5230 5233 5236 5238 5241 5244 5247 5249 5252 5255 5258 5261 5264 5267 5269 5272 5275 5278 5281 5284 5287 5290 5293 5296 5299 5302 5304 5307 5309 5311 5314 5317 5319 5322 5325 5328 5331 5334 5337 5340 5343 5346 5349 5352 5354 5357 5360 5362 5365 5368 5371 5374 5377 5380 5383 5386 5389 5392 5395 5398 5401 5404 5407 5409 5412 5415 5418 5421 5424 5427 5430 5432 5435 5437 5440 5443 5446 5449 5451 5454 5456 5459 5462 5465 5468 5471 5474 5477 5480 5483 5485 5488 5491 5494 5497 5500 5503 5506 5509 5512 5515 5518 5521 5524 5527 5530 5533 5536 5538 5541 5544 5547 5550 5553 5556 5559 5562 5565 5568 5571 5574 5577 5580 5583 5586 5589 5592 5595 5598 5601 5604 5607 5610 5613 5615 5617 5620 5623 5626 5629 5632 5635 5638 5641 5644 5647 5650 5652 5655 5658 5661 5664 5666 5669 5672 5675 5678 5680 5683 5686 5689 5692 5695 5698 5701 5704 5706 5709 5712 5715 5718 5721 5724 5727 5730 5733 5735 5738 5741 5744 5747 5750 5753 5756 5759 5762 5765 5768 5771 5774 5777 5780 5783 5786 5789 5792 5795 5797 5800 5803 5806 5809 5812 5815 5818 5821 5824 5827 5830 5833 5836 5839 5841 5844 5846 5849 5852 5855 5858 5861 5864 5867 5870 5872 5875 5878 5880 5883 5886 5889 5892 5895 5898 5901 5904 5907 5910 5913 5916 5919 5922 5925 5928 5931 5934 5937 5940 5943 5946 5949 5952 5955 5958 5961 5964 5967 5970 5973 5976 5979 5982 5985 5988 5990 5993 5996 5998 6001 6004 6007 6010 6012 6015 6017 6020 6023 6025 6028 6030 6033 6036 6039 6042 6045 6047 6050 6053 6056 6059 6062 6065 6068 6071 6074 6077 6080 6083 6085 6088 6091 6094 6096 6099 6102 6105 6108 6111 6114 6117 6120 6123 6125 6128 6131 6134 6137 6139 6141 6144 6147 6150 6153 6156 6159 6162 6165 6167 6170 6173 6176 6179 6182 6184 6187 6190 6193 6195 6198 6201 6204 6206 6209 6212 6215 6218 6220 6223 6226 6229 6232 6235 6238 6241 6244 6247 6250 6253 6256 6259 6262 6264 6267 6270 6273 6276 6279 6282 6284 6287 6289 6291 6294 6296 6299 6301 6304 6307 6310 6313 6315 6318 6321 6324 6327 6329 6332 6335 6338 6341 6344 6347 6350 6353 6356 6358 6361 6364 6367 6370 6373 6376 6379 6382 6385 6388 6391 6394 6397 6400 6402 6405 6408 6411 6413 6416 6419 6422 6424 6427 6429 6432 6435 6438 6441 6444 6447 6450 6453 6456 6459 6462 6465 6468 6471 6474 6477 6479 6482 6485 6488 6491 6494 6497 6499 6502 6505 6508 6511 6514 6517 6520 6523 6526 6529 6532 6535 6538 6541 6544 6547 6550 6553 6555 6558 6561 6564 6567 6570 6573 6576 6579 6582 6585 6588 6591 6594 6597 6600 6603 6606 6609 6612 6615 6618 6621 6624 6627 6630 6633 6636 6639 6642 6645 6648 6651 6654 6657 6659 6662 6665 6668 6671 6673 6676 6679 6682 6685 6688 6691 6694 6696 6699 6702 6705 6708 6711 6714 6717 6720 6723 6725 6728 6731 6733 6736 6739 6742 6745 6748 6750 6753 6756 6759 6761 6764 6767 6769 6772 6775 6778 6781 6784 6787 6790 6793 6796 6799 6802 6805 6808 6811 6814 6817 6820 6823 6826 6829 6831 6834 6837 6840 6843 6846 6849 6852 6855 6858 6861 6863 6865 6868 6870 6873 6876 6879 6882 6885 6887 6890 6893 6896 6899 6901 6904 6907 6910 6913 6916 6918 6921 6923 6926 6929 6931 6934 6937 6940 6943 6946 6949 6952 6955 6957 6960 6963 6966 6969 6972 6975 6977 6980 6983 6986 6989 6992 6995 6997 7000 7003 7006 7009 7011 7014 7017 7019 7022 7024 7027 7030 7032 7035 7038 7041 7044 7047 7050 7052 7055 7058 7061 7064 7066 7069 7072 7075 7078 7081 7084 7087 7090 7092 7094 7097 7100 7103 7106 7109 7112 7115 7118 7120 7123 7126 7129 7132 7135 7138 7140 7143 7146 7149 7152 7155 7158 7161 7163 7166 7169 7172 7174 7177 7180 7183 7186 7189 7192 7195 7198 7201 7204 7207 7210 7212 7215 7218 7221 7224 7226 7229 7232 7234 7237 7240 7243 7246 7248 7251 7254 7257 7259 7261 7264 7267 7270 7272 7275 7278 7281 7283 7286 7289 7292 7295 7298 7301 7304 7307 7310 7312 7315 7318 7321 7323 7326 7329 7332 7335 7338 7341 7344 7347 7350 7353 7356 7359 7361 7364 7366 7369 7372 7374 7377 7380 7382 7385 7388 7391 7394 7397 7400 7403 7405 7408 7411 7414 7417 7420 7422 7425 7427 7430 7433 7436 7438 7440 7443 7445 7447 7450 7452 7455 7458 7461 7464 7467 7470 7472 7475 7477 7480 7483 7486 7489 7492 7495 7498 7501 7504 7507 7510 7513 7516 7518 7521 7524 7526 7529 7531 7534 7537 7539 7542 7545 7548 7550 7552 7555 7558 7560 7563 7566 7569 7572 7575 7578 7581 7584 7587 7590 7593 7596 7599 7602 7605 7608 7611 7614 7617 7620 7623 7626 7629 7631 7633 7636 7638 7641 7643 7646 7649 7651 7653 7656 7659 7661 7664 7667 7669 7672 7675 7677 7680 7682 7685 7688 7691 7694 7696 7699 7702 7705 7708 7710 7713 7715 7717 7720 7722 7725 7728 7730 7732 7735 7738 7741 7743 7746 7749 7752 7755 7757 7759 7762 7765 7768 7771 7774 7776 7779 7782 7785 7788 7791 7794 7797 7800 7803 7806 7809 7811 7814 7816 7819 7821 7824 7827 7829 7832 7834 7837 7840 7843 7846 7849 7852 7855 7858 7860 7863 7866 7868 7871 7874 7877 7880 7882 7885 7888 7891 7894 7897 7900 7903 7906 7909 7912 7915 7918 7920 7923 7926 7929 7932 7935 7938 7941 7944 7947 7950 7953 7955 7958 7961 7964 7967 7970 7973 7975 7978 7980 7983 7986 7988 7991 7994 7997 8000 8003 8006 8009 8012 8015 8018 8021 8024 8027 8030 8033 8036 8039 8041 8043 8046 8049 8052 8054 8057 8060 8062 8065 8068 8071 8074 8077 8080 8083 8086 8089 8092 8095 8098 8101 8104 8107 8110 8113 8116 8119 8122 8125 8128 8131 8134 8137 8139 8141 8144 8147 8150 8153 8156 8159 8162 8165 8168 8171 8174 8176 8179 8182 8185 8188 8191 8194 8197 8200 8203 8206 8209 8212 8215 8218 8221 8224 8227 8230 8233 8236 8239 8242 8245 8248 8251 8254 8257 8260 8263 8266 8269 8272 8275 8277 8280 8283 8286 8289 8292 8294 8297 8300 8302 8305 8308 8310 8312 8315 8318 8321 8324 8327 8330 8333 8336 8339 8342 8345 8348 8351 8353 8356 8359 8361 8364 8367 8370 8373 8376 8379 8381 8384 8387 8389 8392 8395 8398 8401 8404 8407 8410 8413 8416 8419 8422 8425 8428 8430 8433 8436 8439 8442 8445 8448 8451 8453 8456 8459 8462 8465 8468 8471 8474 8477 8480 8483 8486 8489 8491 8494 8497 8499 8502 8505 8508 8511 8514 8517 8520 8523 8526 8529 8532 8535 8538 8541 8544 8547 8550 8553 8556 8559 8561 8564 8567 8569 8572 8574 8577 8580 8583 8585 8588 8591 8593 8596 8598 8601 8604 8607 8609 8612 8615 8618 8621 8623 8626 8629 8632 8635 8638 8641 8644 8646 8649 8652 8655 8657 8660 8663 8666 8669 8672 8675 8678 8681 8684 8687 8690 8693 8695 8698 8701 8704 8707 8710 8713 8716 8719 8721 8724 8727 8730 8733 8736 8739 8742 8745 8748 8751 8754 8756 8759 8762 8765 8768 8771 8774 8777 8780 8783 8786 8789 8792 8795 8798 8801 8804 8807 8810 8813 8815 8817 8820 8823 8826 8828 8831 8834 8837 8840 8843 8846 8849 8852 8855 8858 8861 8864 8866 8869 8872 8875 8878 8881 8884 8887 8890 8893 8895 8898 8901 8904 8907 8910 8913 8916 8919 8922 8925 8928 8931 8934 8937 8940 8943 8945 8948 8950 8953 8956 8959 8962 8965 8967 8970 8973 8976 8979 8981 8984 8987 8990 8992 8995 8998 9001 9003 9006 9009 9012 9015 9018 9021 9024 9027 9030 9032 9035 9038 9041 9043 9046 9049 9051 9054 9057 9060 9063 9066 9069 9071 9074 9077 9080 9083 9086 9089 9092 9095 9097 9100 9103 9106 9108 9111 9114 9117 9120 9123 9126 9129 9132 9135 9138 9141 9144 9147 9150 9153 9156 9159 9162 9165 9168 9171 9174 9177 9180 9183 9186 9189 9191 9194 9197 9200 9203 9206 9209 9212 9214 9217 9220 9223 9226 9229 9232 9235 9238 9241 9244 9247 9250 9253 9256 9259 9262 9265 9268 9271 9274 9277 9280 9283 9286 9289 9291 9294 9296 9299 9302 9305 9308 9311 9314 9316 9319 9322 9325 9327 9330 9333 9335 9338 9341 9344 9347 9350 9353 9356 9359 9362 9365 9368 9371 9373 9376 9379 9382 9385 9388 9390 9393 9396 9399 9402 9405 9408 9411 9414 9417 9420 9423 9426 9429 9431 9434 9437 9440 9442 9445 9448 9451 9454 9457 9460 9463 9466 9469 9472 9475 9478 9480 9482 9485 9488 9491 9494 9496 9499 9502 9505 9508 9511 9514 9517 9520 9523 9525 9527 9530 9533 9536 9539 9542 9544 9547 9550 9553 9556 9559 9561 9564 9567 9570 9573 9576 9578 9581 9583 9586 9589 9592 9595 9597 9600 9602 9605 9607 9609 9612 9615 9618 9621 9624 9627 9630 9632 9634 9637 9640 9643 9646 9649 9652 9654 9656 9658 9661 9663 9665 9668 9671 9674 9676 9679 9682 9685 9688 9691 9693 9695 9697 9700 9702 9705 9708 9711 9713 9716 9718 9720 9723 9726 9729 9732 9735 9738 9741 9743 9745 9748 9751 9753 9755 9757 9760 9763 9766 9769 9772 9775 9778 9781 9784 9787 9790 9793 9796 9799 9802 9805 9808 9811 9814 9817 9820 9823 9826 9829 9832 9835 9838 9841 9844 9847 9850 9853 9856 9859 9862 9865 9868 9871 9874 9877 9879 9882 9885 9888 9891 9894 9897 9900 9903 9906 9909 9911 9914 9917 9920 9923 9926 9929 9931 9934 9937 9939 9942 9945 9948 9951 9954 9957 9960 9963 9966 9969 9972 9975 9978 9980 9983 9985 9988 9991 9994 9997 9999 10002 10005 10008 10010 10013 10016 10018 10021 10024 10027 10029 10032 10035 10037 10040 10043 10046 10049 10052 10054 10057 10060 10063 10066 10069 10072 10075 10077 10080 10083 10086 10089 10092 10095 10098 10100 10103 10106 10108 10111 10114 10117 10120 10122 10125 10127 10130 10133 10136 10139 10142 10144 10147 10150 10153 10156 10158 10161 10164 10167 10170 10173 10176 10178 10180 10183 10186 10189 10192 10195 10197 10200 10203 10205 10208 10211 10214 10217 10220 10223 10226 10229 10232 10235 10237 10240 10243 10246 10249 10252 10255 10258 10261 10264 10267 10270 10273 10276 10279 10282 10285 10288 10291 10293 10296 10299 10302 10305 10308 10311 10313 10316 10319 10322 10325 10328 10331 10334 10336 10338 10341 10344 10347 10350 10352 10355 10358 10361 10364 10367 10370 10373 10375 10378 10381 10383 10386 10388 10390 10392 10395 10398 10401 10404 10407 10410 10412 10415 10418 10421 10424 10427 10429 10432 10435 10438 10441 10443 10446 10449 10452 10454 10457 10460 10463 10465 10468 10471 10474 10477 10480 10483 10486 10489 10492 10495 10498 10501 10504 10507 10510 10513 10516 10519 10522 10525 10528 10531 10534 10537 10540 10542 10545 10548 10551 10554 10557 10560 10563 10565 10568 10570 10573 10576 10579 10582 10585 10588 10590 10593 10596 10598 10601 10604 10607 10609 10612 10615 10617 10620 10623 10626 10629 10632 10634 10637 10640 10643 10645 10647 10650 10653 10656 10659 10662 10665 10668 10671 10674 10677 10680 10683 10685 10688 10691 10694 10697 10700 10703 10706 10709 10712 10714 10717 10720 10723 10726 10729 10731 10733 10736 10739 10742 10745 10748 10751 10754 10757 10760 10762 10765 10768 10771 10774 10777 10780 10783 10786 10788 10791 10794 10797 10800 10803 10806 10809 10812 10815 10818 10821 10824 10827 10830 10833 10836 10839 10842 10844 10847 10850 10853 10856 10858 10861 10863 10866 10868 10871 10874 10877 10880 10883 10886 10889 10892 10895 10898 10901 10904 10907 10910 10913 10916 10919 10921 10924 10927 10930 10933 10936 10938 10941 10944 10947 10949 10951 10954 10957 10960 10963 10966 10968 10971 10974 10977 10980 10982 10985 10988 10991 10994 10997 11000 11003 11006 11008 11011 11014 11017 11020 11023 11026 11029 11031 11034 11037 11040 11043 11046 11049 11052 11055 11058 11060 11063 11066 11069 11072 11075 11078 11081 11084 11087 11090 11093 11096 11099 11102 11105 11108 11111 11114 11116 11119 11122 11125 11128 11131 11134 11137 11140 11143 11146 11149 11152 11155 11157 11160 11163 11166 11169 11172 11175 11177 11180 11183 11185 11188 11191 11193 11196 11199 11202 11205 11208 11211 11214 11217 11220 11223 11226 11229 11232 11235 11238 11241 11244 11247 11250 11253 11256 11259 11262 11265 11268 11271 11273 11276 11278 11281 11283 11285 11288 11291 11294 11296 11299 11302 11305 11308 11311 11314 11317 11320 11323 11325 11327 11330 11332 11335 11338 11341 11344 11347 11350 11353 11356 11359 11362 11365 11368 11371 11374 11376 11379 11381 11383 11386 11388 11391 11394 11397 11400 11403 11406 11409 11412 11415 11417 11419 11422 11425 11428 11431 11434 11437 11440 11443 11446 11449 11452 11455 11458 11461 11464 11467 11470 11473 11476 11479 11482 11485 11487 11490 11493 11496 11499 11502 11504 11507 11510 11513 11516 11519 11521 11524 11527 11530 11532 11535 11538 11541 11544 11547 11550 11553 11556 11559 11561 11564 11567 11570 11573 11575 11578 11581 11584 11587 11590 11593 11595 11598 11601 11604 11607 11610 11613 11616 11618 11621 11624 11627 11630 11632 11635 11638 11641 11644 11647 11650 11653 11656 11659 11662 11664 11667 11670 11673 11676 11678 11681 11684 11687 11689 11692 11695 11698 11701 11704 11706 11709 11712 11715 11718 11721 11724 11727 11730 11733 11736 11739 11742 11745 11748 11750 11752 11755 11758 11760 11763 11766 11769 11772 11775 11778 11781 11783 11786 11789 11792 11795 11798 11801 11803 11806 11809 11812 11815 11818 11821 11824 11827 11830 11833 11836 11839 11842 11845 11848 11851 11854 11857 11860 11863 11866 11869 11872 11874 11877 11880 11883 11886 11889 11892 11895 11898 11900 11903 11906 11909 11912 11914 11917 11920 11923 11926 11929 11931 11934 11936 11939 11941 11944 11947 11950 11953 11956 11959 11962 11964 11967 11970 11973 11975 11978 11981 11984 11987 11990 11992 11995 11998 12001 12004 12007 12009 12012 12014 12017 12020 12022 12025 12027 12030 12033 12036 12039 12042 12044 12047 12050 12053 12055 12058 12061 12064 12067 12070 12073 12076 12079 12082 12085 12087 12090 12093 12096 12099 12102 12105 12108 12111 12114 12117 12120 12123 12126 12129 12132 12135 12138 12141 12144 12147 12150 12153 12155 12158 12161 12164 12167 12170 12173 12176 12179 12182 12185 12188 12191 12194 12197 12200 12203 12206 12209 12211 12214 12217 12220 12222 12225 12228 12231 12234 12237 12240 12242 12245 12248 12251 12253 12255 12258 12260 12263 12265 12267 12270 12272 12275 12278 12280 12283 12286 12288 12290 12293 12296 12299 12302 12305 12308 12311 12314 12316 12319 12321 12324 12327 12330 12333 12336 12339 12342 12345 12348 12351 12354 12357 12360 12363 12366 12369 12372 12375 12378 12381 12384 12387 12389 12392 12395 12398 12401 12404 12407 12410 12413 12415 12418 12421 12423 12426 12429 12431 12433 12436 12439 12441 12444 12447 12450 12453 12456 12459 12462 12465 12468 12471 12474 12477 12480 12483 12486 12489 12492 12495 12498 12501 12504 12507 12510 12513 12516 12519 12522 12525 12528 12531 12534 12537 12540 12543 12546 12549 12552 12555 12558 12560 12563 12565 12568 12571 12574 12577 12580 12583 12586 12589 12592 12595 12598 12601 12604 12607 12610 12613 12616 12619 12622 12625 12628 12631 12634 12637 12640 12643 12646 12649 12652 12655 12658 12661 12664 12667 12670 12673 12676 12679 12682 12685 12687 12690 12693 12695 12698 12701 12704 12707 12710 12712 12715 12717 12720 12723 12725 12728 12731 12734 12737 12740 12743 12745 12748 12751 12754 12757 12760 12763 12766 12769 12772 12775 12778 12780 12783 12786 12788 12790 12793 12795 12798 12801 12803 12806 12809 12812 12815 12817 12820 12823 12826 12829 12832 12835 12838 12841 12844 12846 12849 12851 12854 12857 12860 12863 12866 12869 12872 12874 12877 12879 12882 12885 12888 12891 12894 12897 12900 12903 12906 12908 12911 12913 12916 12919 12922 12925 12928 12931 12934 12937 12940 12943 12945 12948 12951 12954 12956 12959 12962 12964 12967 12970 12972 12975 12978 12981 12984 12986 12989 12992 12995 12997 13000 13003 13006 13009 13012 13015 13018 13021 13024 13027 13030 13033 13036 13039 13041 13044 13047 13050 13053 13056 13059 13061 13064 13066 13069 13071 13074 13077 13080 13082 13085 13088 13091 13094 13097 13100 13103 13106 13108 13111 13114 13117 13120 13123 13125 13128 13131 13133 13136 13139 13142 13145 13148 13151 13154 13157 13160 13162 13165 13168 13171 13173 13176 13179 13182 13185 13188 13191 13193 13196 13199 13202 13205 13208 13211 13214 13217 13220 13223 13226 13229 13232 13235 13238 13241 13244 13247 13250 13253 13256 13259 13262 13265 13268 13271 13274 13277 13280 13283 13286 13288 13291 13294 13297 13300 13303 13305 13308 13311 13313 13315 13318 13321 13324 13327 13329 13332 13335 13338 13341 13344 13346 13349 13352 13355 13358 13361 13364 13367 13370 13373 13376 13379 13382 13385 13388 13391 13394 13396 13399 13402 13405 13408 13411 13414 13417 13420 13422 13424 13427 13430 13433 13436 13439 13442 13444 13447 13450 13453 13456 13458 13461 13464 13467 13470 13473 13476 13479 13482 13485 13488 13491 13494 13497 13500 13503 13506 13509 13512 13515 13518 13521 13524 13527 13530 13532 13535 13538 13540 13543 13546 13549 13552 13555 13558 13561 13564 13567 13570 13573 13576 13579 13582 13585 13588 13591 13594 13597 13600 13603 13606 13609 13612 13615 13618 13621 13623 13626 13628 13631 13634 13637 13640 13643 13645 13648 13651 13654 13657 13660 13663 13666 13669 13672 13675 13678 13681 13684 13687 13690 13693 13696 13699 13702 13705 13707 13709 13712 13714 13717 13720 13723 13726 13729 13732 13735 13738 13741 13744 13747 13750 13753 13756 13759 13762 13764 13767 13770 13773 13775 13778 13781 13784 13787 13790 13793 13796 13799 13802 13805 13808 13811 13814 13816 13819 13822 13825 13828 13831 13834 13837 13840 13843 13846 13849 13852 13855 13858 13861 13864 13867 13870 13873 13876 13879 13882 13884 13887 13890 13893 13896 13899 13902 13905 13908 13911 13914 13917 13920 13923 13925 13928 13930 13933 13936 13938 13940 13943 13946 13949 13952 13955 13958 13961 13964 13967 13970 13973 13976 13979 13982 13985 13988 13991 13994 13997 14000 14002 14005 14008 14010 14013 14016 14019 14021 14024 14027 14030 14033 14036 14039 14041 14044 14047 14050 14052 14055 14058 14061 14064 14067 14070 14073 14076 14078 14081 14084 14086 14089 14092 14094 14097 14099 14102 14105 14108 14111 14113 14115 14118 14121 14123 14125 14128 14131 14133 14136 14139 14142 14145 14147 14150 14153 14155 14157 14160 14162 14165 14168 14171 14174 14177 14180 14183 14186 14189 14192 14195 14198 14201 14204 14207 14210 14213 14216 14219 14222 14224 14227 14230 14233 14236 14238 14241 14244 14247 14250 14252 14254 14257 14260 14263 14266 14269 14272 14275 14278 14281 14284 14287 14290 14292 14295 14298 14301 14303 14306 14309 14312 14315 14318 14321 14324 14326 14329 14332 14335 14337 14340 14343 14345 14347 14350 14353 14356 14358 14361 14364 14367 14369 14372 14375 14378 14381 14384 14387 14390 14393 14396 14399 14402 14405 14408 14411 14414 14417 14420 14423 14425 14428 14431 14434 14437 14440 14443 14446 14449 14452 14455 14458 14461 14464 14467 14470 14473 14476 14479 14481 14483 14486 14489 14492 14495 14498 14500 14502 14505 14507 14510 14513 14516 14519 14522 14525 14528 14531 14534 14536 14539 14542 14545 14547 14550 14553 14556 14559 14562 14565 14568 14571 14574 14577 14580 14583 14586 14589 14591 14594 14597 14600 14603 14606 14609 14612 14614 14617 14620 14622 14625 14628 14631 14634 14637 14640 14642 14645 14648 14651 14654 14656 14659 14662 14665 14668 14671 14674 14676 14679 14682 14685 14688 14691 14694 14697 14700 14702 14704 14707 14710 14713 14715 14717 14720 14723 14726 14729 14732 14734 14737 14740 14743 14746 14749 14752 14754 14757 14760 14763 14766 14768 14771 14774 14777 14780 14783 14785 14788 14791 14794 14797 14799 14802 14805 14808 14811 14814 14817 14820 14823 14826 14829 14832 14835 14838 14841 14844 14847 14850 14853 14856 14859 14862 14865 14868 14871 14874 14876 14879 14882 14885 14888 14890 14893 14895 14898 14900 14903 14906 14908 14911 14914 14916 14919 14922 14924 14927 14930 14933 14936 14939 14942 14944 14947 14950 14952 14955 14957 14959 14961 14964 14967 14969 14972 14974 14976 14979 14982 14985 14987 14990 14992 14995 14998 15001 15004 15007 15010 15012 15015 15018 15021 15023 15026 15029 15032 15035 15038 15041 15044 15046 15049 15052 15055 15057 15060 15062 15064 15067 15070 15073 15076 15079 15082 15085 15087 15090 15093 15096 15099 15102 15105 15108 15111 15113 15115 15118 15121 15124 15127 15129 15132 15135 15137 15140 15143 15146 15148 15151 15154 15157 15159 15161 15164 15167 15170 15173 15175 15178 15181 15184 15187 15190 15192 15194 15197 15200 15203 15206 15209 15212 15215 15218 15221 15224 15227 15230 15233 15236 15239 15242 15245 15248 15251 15254 15257 15260 15263 15266 15269 15272 15275 15278 15281 15284 15287 15289 15292 15295 15298 15300 15303 15306 15309 15312 15315 15318 15321 15324 15327 15330 15333 15336 15339 15342 15345 15347 15350 15352 15354 15357 15360 15362 15365 15368 15371 15374 15377 15380 15383 15386 15389 15392 15395 15398 15401 15404 15407 15410 15413 15416 15419 15422 15425 15428 15431 15433 15436 15439 15441 15443 15446 15449 15452 15455 15458 15461 15464 15466 15469 15472 15475 15477 15480 15483 15486 15489 15491 15493 15496 15499 15502 15505 15508 15511 15514 15516 15519 15522 15525 15528 15530 15533 15536 15539 15542 15544 15547 15550 15553 15556 15559 15562 15565 15568 15571 15574 15577 15580 15583 15586 15589 15592 15595 15598 15601 15603 15606 15609 15612 15615 15618 15621 15624 15627 15630 15633 15636 15639 15642 15645 15648 15651 15653 15656 15659 15662 15664 15667 15670 15673 15676 15679 15682 15685 15688 15691 15693 15696 15699 15702 15705 15708 15711 15714 15717 15720 15723 15726 15729 15732 15735 15738 15741 15744 15747 15750 15753 15756 15758 15761 15764 15767 15770 15773 15776 15779 15782 15785 15788 15791 15794 15797 15800 15803 15806 15809 15811 15814 15817 15820 15823 15826 15828 15831 15834 15837 15840 15843 15846 15849 15852 15855 15858 15861 15864 15867 15870 15873 15876 15879 15882 15885 15888 15891 15894 15897 15900 15903 15906 15909 15911 15914 15917 15919 15922 15925 15928 15930 15933 15936 15939 15942 15945 15948 15951 15954 15957 15960 15963 15966 15969 15972 15975 15977 15980 15982 15985 15988 15991 15994 15997 16000 16003 16006 16009 16011 16014 16017 16020 16023 16026 16029 16032 16035 16038 16040 16042 16045 16048 16051 16054 16057 16060 16063 16066 16069 16072 16075 16078 16081 16084 16087 16090 16093 16096 16099 16102 16105 16108 16111 16114 16117 16120 16123 16126 16129 16132 16135 16138 16141 16144 16147 16150 16153 16156 16159 16162 16165 16168 16171 16174 16177 16180 16183 16186 16189 16192 16195 16198 16201 16204 16207 16210 16213 16216 16219 16222 16225 16228 16231 16234 16237 16240 16243 16246 16249 16252 16255 16257 16260 16263 16266 16269 16272 16275 16277 16280 16283 16286 16289 16292 16295 16298 16301 16304 16306 16309 16311 16314 16317 16320 16323 16326 16329 16332 16335 16338 16341 16344 16347 16350 16353 16356 16359 16362 16365 16368 16371 16374 16377 16380 16383 16386 16389 16392 16395 16398 16401 16404 16407 16410 16413 16415 16418 16421 16424 16426 16428 16431 16434 16437 16440 16443 16446 16449 16452 16455 16458 16461 16464 16467 16470 16473 16476 16479 16482 16485 16488 16491 16494 16496 16498 16501 16504 16507 16510 16513 16516 16519 16522 16524 16527 16530 16533 16536 16539 16542 16544 16547 16550 16553 16556 16559 16561 16564 16567 16570 16573 16575 16578 16581 16584 16586 16589 16592 16595 16597 16600 16603 16605 16608 16611 16614 16617 16620 16623 16626 16629 16632 16635 16638 16641 16644 16646 16649 16652 16655 16658 16661 16664 16667 16670 16672 16675 16678 16681 16684 16687 16690 16693 16696 16699 16702 16705 16707 16710 16713 16716 16718 16721 16724 16727 16730 16732 16735 16738 16741 16744 16747 16750 16753 16756 16758 16761 16763 16766 16769 16771 16774 16777 16780 16783 16786 16788 16791 16794 16797 16800 16803 16806 16809 16812 16815 16818 16821 16824 16826 16829 16832 16835 16838 16841 16844 16847 16850 16853 16855 16858 16861 16864 16867 16870 16873 16875 16878 16881 16884 16887 16890 16893 16896 16898 16901 16904 16907 16910 16913 16915 16918 16921 16924 16927 16930 16933 16936 16939 16942 16945 16948 16951 16954 16957 16960 16963 16966 16969 16972 16975 16978 16981 16984 16987 16990 16993 16996 16999 17002 17005 17008 17011 17014 17017 17020 17023 17026 17029 17032 17035 17038 17041 17044 17047 17050 17053 17056 17058 17061 17063 17066 17069 17072 17075 17078 17081 17084 17087 17090 17093 17096 17099 17102 17105 17107 17110 17113 17116 17119 17122 17125 17128 17131 17134 17137 17140 17143 17146 17149 17152 17154 17157 17160 17162 17165 17167 17170 17173 17176 17179 17182 17184 17187 17190 17193 17196 17199 17202 17205 17208 17211 17214 17217 17220 17223 17226 17229 17232 17235 17238 17241 17244 17246 17249 17252 17255 17258 17261 17264 17267 17270 17273 17276 17279 17281 17284 17286 17289 17292 17294 17297 17299 17302 17305 17308 17311 17314 17317 17320 17322 17325 17327 17330 17333 17336 17339 17341 17344 17347 17350 17353 17355 17357 17360 17363 17365 17368 17371 17374 17377 17380 17383 17386 17389 17392 17395 17398 17401 17404 17407 17410 17413 17415 17418 17421 17424 17427 17430 17433 17436 17439 17442 17445 17448 17451 17454 17457 17459 17462 17464 17467 17470 17473 17476 17479 17482 17485 17487 17490 17492 17495 17498 17501 17504 17507 17510 17513 17516 17519 17521 17523 17526 17529 17532 17534 17537 17540 17543 17546 17548 17551 17553 17556 17559 17561 17564 17566 17568 17570 17573 17576 17578 17581 17584 17587 17589 17591 17593 17596 17599 17602 17605 17608 17611 17614 17617 17620 17623 17626 17628 17631 17634 17637 17640 17643 17646 17648 17651 17654 17657 17659 17662 17665 17668 17671 17674 17677 17680 17683 17685 17688 17691 17694 17696 17699 17702 17705 17708 17711 17714 17717 17720 17723 17726 17729 17732 17735 17738 17741 17744 17747 17750 17753 17756 17759 17762 17765 17768 17771 17774 17777 17780 17783 17786 17789 17792 17795 17798 17801 17804 17807 17810 17813 17816 17819 17822 17825 17828 17831 17834 17837 17840 17843 17846 17849 17852 17855 17858 17861 17864 17867 17870 17873 17876 17878 17881 17884 17887 17890 17893 17895 17898 17901 17904 17907 17909 17912 17915 17918 17920 17923 17926 17929 17932 17935 17938 17941 17944 17947 17950 17953 17956 17959 17962 17965 17968 17971 17974 17977 17980 17983 17986 17989 17992 17995 17998 18001 18004 18007 18010 18013 18016 18019 18022 18025 18028 18031 18034 18037 18040 18042 18045 18048 18050 18053 18056 18059 18062 18065 18068 18071 18073 18076 18079 18082 18085 18088 18091 18094 18097 18100 18103 18106 18108 18111 18114 18116 18119 18121 18124 18127 18130 18132 18135 18138 18141 18144 18147 18150 18153 18156 18158 18161 18164 18167 18170 18172 18175 18178 18181 18184 18186 18189 18191 18194 18197 18200 18203 18206 18209 18212 18215 18218 18221 18224 18227 18229 18232 18234 18237 18240 18243 18246 18249 18252 18255 18258 18261 18264 18267 18270 18273 18275 18278 18281 18284 18287 18290 18293 18296 18299 18302 18304 18307 18310 18313 18315 18318 18321 18324 18327 18330 18333 18336 18339 18342 18345 18348 18351 18354 18357 18360 18363 18366 18369 18372 18375 18378 18381 18384 18387 18390 18393 18396 18399 18402 18405 18408 18411 18414 18417 18420 18422 18425 18428 18430 18433 18436 18439 18442 18444 18447 18450 18453 18456 18459 18462 18465 18468 18471 18474 18477 18480 18483 18486 18489 18491 18494 18497 18500 18503 18506 18509 18512 18515 18518 18520 18523 18525 18528 18531 18534 18537 18540 18543 18546 18548 18551 18554 18557 18560 18563 18566 18569 18572 18575 18578 18581 18584 18587 18590 18592 18595 18598 18601 18604 18607 18610 18613 18616 18619 18622 18625 18627 18630 18633 18636 18639 18642 18645 18648 18651 18654 18657 18660 18663 18666 18669 18672 18675 18678 18681 18684 18687 18690 18693 18696 18698 18701 18703 18706 18709 18712 18715 18718 18721 18723 18726 18728 18731 18734 18737 18739 18742 18745 18748 18750 18753 18756 18759 18761 18764 18767 18769 18772 18775 18778 18781 18784 18787 18790 18792 18795 18798 18801 18804 18807 18810 18813 18815 18818 18821 18824 18827 18830 18833 18836 18839 18842 18845 18848 18851 18854 18856 18859 18862 18865 18868 18871 18874 18877 18880 18882 18885 18888 18891 18894 18897 18900 18903 18906 18909 18912 18915 18918 18921 18924 18927 18930 18933 18936 18939 18942 18944 18947 18950 18953 18956 18959 18962 18965 18968 18971 18974 18977 18980 18983 18986 18989 18992 18995 18998 19001 19004 19007 19010 19013 19016 19019 19022 19025 19028 19031 19034 19037 19040 19043 19046 19049 19052 19055 19058 19061 19064 19067 19070 19073 19076 19079 19082 19085 19088 19091 19094 19096 19099 19101 19104 19107 19110 19112 19115 19118 19120 19122 19125 19127 19130 19133 19136 19139 19142 19145 19148 19151 19154 19157 19160 19163 19166 19169 19172 19175 19178 19181 19184 19187 19190 19193 19196 19199 19202 19205 19208 19211 19214 19217 19220 19223 19226 19229 19232 19234 19237 19240 19243 19246 19248 19251 19254 19256 19259 19262 19265 19267 19270 19273 19276 19279 19281 19284 19286 19288 19291 19294 19297 19300 19302 19305 19308 19311 19313 19316 19319 19322 19324 19327 19330 19333 19336 19339 19342 19344 19347 19350 19353 19356 19359 19362 19365 19368 19371 19374 19377 19380 19383 19386 19389 19392 19395 19398 19401 19404 19406 19409 19412 19415 19418 19421 19424 19427 19430 19433 19436 19439 19442 19445 19448 19451 19454 19457 19460 19462 19465 19468 19470 19473 19476 19478 19481 19484 19487 19490 19493 19496 19499 19502 19505 19508 19511 19513 19516 19519 19522 19525 19527 19530 19533 19536 19539 19541 19544 19547 19550 19552 19555 19558 19561 19564 19567 19570 19573 19576 19579 19582 19585 19588 19591 19594 19597 19600 19603 19606 19609 19612 19615 19618 19621 19624 19627 19629 19632 19635 19638 19641 19644 19647 19650 19653 19655 19658 19661 19664 19666 19669 19672 19675 19678 19681 19684 19687 19690 19693 19696 19699 19702 19705 19708 19711 19714 19717 19720 19723 19726 19729 19732 19735 19738 19740 19743 19746 19749 19751 19754 19757 19760 19763 19766 19769 19772 19775 19777 19780 19783 19785 19788 19791 19794 19797 19799 19802 19805 19808 19811 19814 19817 19820 19822 19825 19827 19830 19833 19835 19838 19841 19843 19845 19848 19851 19854 19857 19860 19863 19866 19869 19872 19875 19878 19881 19884 19887 19890 19893 19896 19899 19902 19905 19908 19910 19913 19916 19919 19922 19924 19927 19930 19933 19936 19939 19942 19945 19948 19951 19954 19957 19960 19963 19965 19968 19971 19973 19976 19979 19982 19985 19988 19991 19994 19997 20000 20003 20006 20009 20012 20015 20018 20021 20024 20027 20030 20033 20036 20039 20042 20045 20048 20051 20054 20057 20060 20063 20066 20069 20072 20075 20078 20081 20084 20087 20090 20093 20096 20099 20102 20105 20108 20111 20114 20117 20120 20123 20126 20129 20132 20135 20138 20141 20144 20147 20150 20153 20156 20159 20162 20165 20168 20171 20174 20177 20180 20183 20186 20189 20192 20195 20198 20201 20204 20207 20210 20213 20216 20219 20222 20225 20228 20231 20234 20237 20240 20243 20246 20249 20252 20255 20258 20261 20264 20267 20270 20273 20276 20279 20282 20285 20288 20291 20294 20297 20300 20303 20306 20309 20312 20315 20318 20321 20324 20327 20330 20333 20336 20339 20342 20345 20348 20351 20354 20357 20359 20362 20365 20368 20371 20374 20377 20380 20382 20385 20388 20391 20394 20397 20400 20403 20406 20409 20411 20414 20416 20419 20422 20425 20427 20430 20433 20435 20438 20441 20444 20447 20450 20453 20456 20459 20462 20465 20468 20471 20474 20477 20480 20483 20486 20489 20492 20495 20498 20501 20504 20507 20510 20513 20516 20519 20522 20525 20528 20531 20534 20537 20540 20543 20546 20548 20551 20554 20556 20558 20561 20564 20566 20569 20572 20574 20577 20580 20583 20585 20588 20591 20594 20597 20600 20603 20606 20609 20612 20614 20617 20620 20623 20626 20629 20632 20634 20637 20640 20643 20646 20649 20652 20655 20658 20661 20664 20667 20670 20673 20676 20679 20682 20685 20688 20691 20694 20697 20700 20703 20706 20709 20712 20715 20718 20721 20724 20727 20729 20732 20735 20738 20741 20744 20747 20750 20753 20756 20759 20762 20765 20768 20771 20774 20777 20780 20783 20786 20789 20792 20795 20798 20801 20804 20807 20810 20813 20816 20819 20822 20825 20828 20831 20834 20837 20840 20843 20846 20849 20852 20855 20858 20861 20864 20867 20869 20872 20874 20877 20880 20883 20886 20888 20891 20894 20897 20900 20902 20905 20908 20911 20914 20916 20919 20922 20925 20928 20931 20934 20937 20940 20942 20945 20948 20950 20953 20955 20958 20961 20964 20967 20969 20972 20975 20977 20979 20982 20985 20988 20991 20994 20997 20999 21002 21005 21008 21011 21014 21017 21020 21023 21026 21029 21031 21033 21036 21039 21042 21045 21048 21050 21053 21056 21058 21061 21064 21067 21070 21072 21075 21078 21080 21083 21086 21089 21092 21095 21098 21101 21104 21107 21110 21113 21116 21119 21122 21125 21128 21131 21134 21137 21140 21143 21146 21149 21152 21155 21158 21161 21164 21167 21169 21172 21174 21177 21180 21183 21186 21189 21192 21195 21198 21201 21204 21207 21210 21213 21215 21218 21221 21224 21227 21229 21231 21234 21237 21240 21243 21246 21249 21252 21255 21258 21261 21264 21267 21270 21273 21276 21279 21282 21285 21288 21291 21294 21297 21300 21303 21306 21309 21312 21315 21318 21321 21324 21327 21330 21333 21336 21339 21342 21345 21348 21351 21354 21357 21359 21362 21365 21368 21370 21373 21376 21379 21382 21385 21388 21391 21394 21397 21400 21403 21406 21409 21412 21415 21418 21421 21424 21427 21430 21432 21435 21438 21440 21443 21446 21449 21452 21455 21458 21461 21464 21467 21469 21472 21475 21478 21481 21484 21486 21489 21492 21495 21498 21501 21503 21506 21508 21511 21514 21517 21520 21523 21526 21529 21532 21535 21538 21541 21544 21547 21549 21552 21555 21558 21560 21562 21565 21568 21571 21574 21577 21580 21583 21586 21588 21591 21594 21596 21599 21602 21604 21606 21609 21612 21615 21618 21621 21623 21626 21629 21632 21635 21638 21641 21644 21646 21649 21652 21654 21656 21659 21662 21665 21668 21671 21674 21676 21678 21681 21684 21687 21689 21692 21695 21698 21701 21704 21707 21710 21712 21715 21718 21721 21724 21727 21730 21733 21736 21739 21742 21745 21748 21751 21754 21757 21760 21763 21766 21769 21772 21775 21778 21781 21784 21787 21790 21792 21795 21798 21801 21804 21807 21810 21813 21815 21818 21821 21824 21827 21830 21833 21836 21839 21842 21845 21848 21850 21853 21856 21859 21862 21865 21868 21871 21874 21876 21879 21882 21885 21888 21891 21894 21897 21900 21903 21906 21909 21912 21915 21918 21921 21924 21926 21929 21932 21935 21937 21940 21943 21946 21949 21952 21954 21957 21960 21963 21966 21969 21972 21975 21978 21981 21984 21987 21990 21993 21996 21998 22001 22004 22007 22010 22012 22015 22018 22020 22023 22026 22029 22032 22035 22037 22040 22043 22046 22049 22052 22055 22058 22061 22064 22067 22070 22073 22076 22079 22081 22084 22086 22089 22092 22095 22097 22100 22102 22105 22107 22110 22113 22116 22119 22122 22125 22127 22129 22132 22135 22138 22141 22144 22147 22149 22152 22154 22157 22160 22163 22166 22169 22172 22175 22178 22181 22184 22187 22190 22193 22196 22199 22202 22205 22207 22210 22213 22216 22218 22220 22223 22226 22229 22232 22235 22237 22240 22243 22245 22247 22250 22253 22256 22259 22262 22265 22268 22271 22274 22277 22280 22283 22286 22289 22292 22295 22298 22301 22304 22307 22310 22313 22316 22319 22322 22325 22328 22331 22334 22337 22340 22343 22346 22349 22352 22355 22358 22361 22364 22367 22370 22373 22376 22379 22381 22384 22387 22389 22391 22393 22396 22399 22402 22405 22408 22411 22413 22416 22419 22422 22425 22428 22431 22434 22437 22440 22442 22445 22448 22451 22453 22456 22459 22462 22465 22468 22471 22474 22477 22480 22483 22486 22489 22492 22495 22498 22501 22504 22507 22510 22513 22515 22518 22521 22524 22527 22529 22532 22535 22538 22541 22544 22547 22550 22553 22556 22559 22562 22565 22568 22571 22574 22577 22580 22583 22586 22589 22592 22595 22598 22601 22604 22607 22610 22613 22616 22619 22622 22625 22628 22631 22633 22636 22638 22641 22644 22647 22650 22653 22656 22659 22662 22664 22667 22670 22673 22675 22678 22680 22683 22686 22689 22692 22695 22698 22701 22704 22706 22709 22712 22715 22718 22720 22723 22726 22729 22732 22734 22737 22740 22743 22746 22749 22752 22755 22757 22760 22763 22766 22769 22771 22774 22777 22780 22783 22786 22789 22792 22795 22798 22801 22804 22807 22810 22813 22816 22819 22822 22825 22828 22831 22834 22837 22840 22843 22846 22849 22852 22855 22858 22861 22864 22867 22870 22873 22876 22879 22882 22885 22888 22891 22894 22897 22900 22903 22906 22909 22911 22914 22917 22920 22923 22925 22927 22930 22933 22935 22937 22940 22943 22946 22949 22952 22955 22958 22961 22964 22967 22970 22973 22976 22979 22982 22985 22988 22991 22994 22996 22999 23002 23005 23007 23009 23012 23015 23018 23021 23024 23027 23030 23033 23036 23039 23042 23045 23048 23051 23054 23057 23060 23063 23066 23069 23072 23075 23078 23081 23084 23087 23090 23092 23095 23098 23101 23104 23107 23110 23113 23115 23118 23121 23124 23127 23130 23133 23136 23139 23142 23145 23148 23151 23154 23157 23160 23162 23165 23168 23171 23174 23177 23180 23183 23186 23188 23191 23193 23195 23198 23201 23204 23207 23210 23213 23216 23219 23222 23225 23228 23231 23233 23236 23239 23242 23245 23248 23251 23254 23257 23260 23263 23266 23269 23272 23275 23278 23281 23284 23287 23289 23292 23295 23298 23300 23303 23306 23309 23312 23315 23318 23321 23324 23326 23329 23332 23335 23338 23341 23344 23347 23350 23353 23356 23359 23362 23365 23368 23371 23373 23376 23379 23382 23384 23387 23390 23393 23396 23399 23402 23405 23408 23411 23414 23417 23420 23423 23426 23429 23432 23435 23438 23441 23444 23447 23450 23453 23456 23459 23462 23465 23468 23471 23474 23477 23480 23483 23485 23488 23490 23493 23496 23499 23502 23505 23508 23511 23514 23516 23519 23522 23525 23528 23531 23534 23537 23540 23543 23545 23548 23551 23553 23556 23559 23562 23565 23568 23570 23573 23576 23579 23582 23584 23587 23590 23593 23596 23598 23601 23604 23607 23609 23612 23614 23617 23620 23622 23625 23628 23631 23634 23637 23640 23643 23646 23649 23652 23655 23658 23661 23664 23666 23669 23672 23674 23677 23679 23682 23685 23688 23690 23693 23696 23698 23701 23704 23707 23710 23712 23715 23717 23720 23723 23726 23729 23732 23735 23737 23740 23742 23745 23748 23751 23754 23757 23759 23762 23765 23768 23771 23773 23776 23779 23782 23785 23788 23791 23793 23796 23799 23802 23805 23808 23811 23814 23817 23820 23823 23826 23829 23832 23835 23838 23841 23844 23847 23850 23853 23856 23859 23862 23865 23868 23871 23874 23877 23880 23883 23886 23889 23892 23894 23896 23899 23902 23905 23908 23911 23914 23917 23920 23923 23926 23928 23931 23934 23936 23938 23941 23943 23946 23949 23952 23955 23958 23961 23964 23966 23969 23972 23975 23978 23981 23984 23987 23990 23993 23996 23999 24002 24004 24007 24010 24013 24016 24018 24021 24024 24027 24030 24033 24036 24039 24042 24045 24048 24051 24054 24056 24059 24062 24065 24068 24071 24074 24077 24080 24083 24086 24089 24092 24095 24098 24101 24104 24107 24109 24112 24115 24118 24121 24124 24126 24129 24132 24135 24137 24140 24143 24146 24149 24152 24155 24157 24160 24162 24165 24168 24171 24173 24176 24179 24182 24185 24188 24191 24194 24197 24200 24202 24205 24208 24210 24213 24216 24219 24222 24225 24228 24231 24233 24236 24239 24242 24245 24248 24251 24254 24257 24260 24263 24266 24269 24272 24274 24277 24280 24282 24285 24288 24291 24294 24297 24300 24302 24305 24308 24311 24314 24317 24320 24322 24325 24328 24331 24334 24337 24340 24343 24345 24348 24351 24354 24357 24360 24363 24366 24369 24372 24375 24378 24381 24384 24387 24390 24393 24396 24399 24402 24405 24408 24411 24413 24416 24419 24422 24425 24428 24431 24434 24437 24440 24443 24445 24448 24451 24454 24457 24459 24461 24464 24467 24470 24473 24475 24478 24481 24484 24487 24490 24493 24496 24499 24502 24504 24507 24510 24513 24516 24519 24522 24525 24528 24531 24534 24537 24539 24542 24545 24548 24550 24553 24556 24559 24561 24564 24567 24570 24573 24576 24579 24582 24585 24588 24591 24594 24597 24599 24602 24605 24608 24611 24614 24616 24619 24622 24624 24627 24630 24633 24636 24639 24642 24645 24648 24651 24654 24657 24660 24663 24666 24668 24671 24674 24677 24680 24683 24686 24689 24691 24694 24697 24700 24702 24705 24708 24711 24714 24717 24719 24722 24725 24728 24731 24734 24737 24740 24743 24746 24748 24751 24754 24757 24760 24763 24766 24769 24772 24774 24777 24780 24783 24786 24789 24791 24794 24797 24800 24803 24806 24809 24812 24814 24817 24820 24823 24826 24829 24832 24835 24838 24841 24844 24847 24850 24853 24856 24859 24862 24865 24868 24871 24874 24877 24880 24883 24886 24889 24892 24895 24898 24901 24904 24907 24910 24913 24916 24919 24922 24925 24928 24931 24934 24937 24940 24943 24946 24949 24952 24955 24958 24960 24963 24966 24969 24972 24975 24978 24981 24983 24986 24989 24992 24995 24998 25001 25004 25007 25010 25013 25016 25019 25022 25025 25028 25031 25034 25037 25040 25043 25046 25049 25051 25053 25056 25059 25061 25063 25066 25069 25072 25075 25078 25081 25084 25086 25089 25092 25095 25098 25101 25104 25107 25110 25113 25116 25119 25122 25125 25128 25130 25133 25136 25139 25142 25145 25148 25151 25154 25156 25159 25162 25164 25167 25170 25173 25175 25178 25181 25184 25187 25190 25193 25196 25199 25202 25205 25208 25211 25214 25217 25220 25223 25226 25229 25232 25235 25238 25241 25244 25247 25250 25253 25256 25259 25261 25264 25267 25270 25273 25276 25279 25282 25285 25287 25290 25293 25296 25299 25302 25305 25307 25309 25312 25315 25318 25321 25323 25326 25329 25331 25334 25337 25339 25342 25345 25348 25351 25354 25357 25359 25362 25365 25368 25371 25374 25377 25380 25383 25385 25388 25391 25394 25397 25400 25403 25406 25409 25412 25415 25418 25420 25423 25426 25428 25431 25434 25437 25440 25443 25446 25449 25451 25454 25457 25460 25462 25465 25467 25470 25472 25475 25478 25481 25484 25487 25490 25493 25496 25499 25502 25505 25508 25511 25514 25517 25520 25523 25525 25528 25530 25533 25536 25539 25542 25545 25548 25551 25554 25557 25560 25562 25565 25568 25571 25574 25577 25580 25583 25585 25588 25591 25594 25596 25599 25601 25603 25606 25609 25611 25614 25617 25620 25623 25625 25628 25631 25634 25636 25639 25642 25645 25647 25650 25652 25654 25657 25660 25663 25666 25669 25672 25674 25677 25680 25683 25686 25689 25692 25695 25698 25700 25702 25704 25707 25709 25712 25715 25717 25719 25722 25725 25727 25730 25733 25736 25739 25742 25745 25748 25751 25754 25757 25760 25762 25765 25768 25771 25774 25777 25780 25783 25786 25789 25792 25795 25798 25801 25803 25805 25808 25811 25814 25817 25819 25822 25825 25828 25830 25833 25836 25839 25842 25845 25847 25849 25852 25855 25858 25860 25863 25866 25869 25872 25875 25878 25881 25884 25887 25890 25893 25896 25899 25902 25905 25907 25910 25913 25916 25918 25921 25924 25927 25929 25932 25935 25938 25941 25944 25947 25949 25952 25955 25958 25961 25964 25966 25969 25972 25975 25978 25981 25984 25987 25990 25992 25995 25998 26001 26004 26007 26010 26013 26016 26019 26021 26024 26027 26030 26033 26035 26038 26040 26043 26046 26048 26051 26053 26056 26059 26062 26065 26068 26071 26073 26076 26078 26080 26083 26086 26089 26092 26095 26098 26101 26104 26106 26109 26111 26114 26116 26119 26121 26124 26127 26130 26133 26136 26139 26142 26145 26148 26151 26154 26156 26159 26162 26165 26167 26170 26173 26176 26179 26182 26185 26188 26191 26193 26196 26199 26202 26205 26208 26211 26214 26217 26220 26222 26225 26228 26231 26234 26236 26239 26242 26244 26247 26250 26253 26256 26259 26262 26265 26268 26271 26273 26276 26279 26282 26284 26287 26290 26293 26296 26299 26302 26305 26308 26311 26314 26317 26320 26323 26326 26329 26332 26335 26338 26341 26343 26346 26349 26352 26355 26358 26361 26364 26367 26370 26373 26375 26378 26381 26384 26387 26390 26393 26396 26399 26402 26405 26408 26411 26414 26417 26420 26423 26426 26429 26432 26435 26438 26441 26444 26447 26450 26453 26456 26459 26462 26465 26468 26471 26474 26477 26480 26483 26486 26489 26492 26495 26498 26501 26504 26507 26510 26512 26514 26517 26520 26523 26526 26529 26532 26535 26538 26541 26544 26547 26550 26553 26555 26557 26560 26563 26566 26568 26571 26574 26576 26579 26582 26585 26587 26590 26593 26596 26598 26601 26604 26607 26610 26613 26616 26619 26622 26624 26627 26630 26632 26635 26637 26639 26642 26645 26648 26651 26654 26657 26659 26662 26664 26666 26668 26671 26674 26676 26679 26682 26684 26686 26689 26692 26695 26698 26701 26704 26707 26710 26713 26716 26719 26722 26725 26728 26731 26734 26737 26740 26743 26746 26749 26751 26754 26757 26760 26763 26766 26769 26772 26775 26778 26780 26783 26786 26789 26792 26795 26798 26801 26803 26805 26808 26811 26814 26817 26820 26823 26826 26829 26832 26835 26838 26841 26844 26847 26850 26853 26856 26859 26862 26865 26868 26871 26874 26876 26879 26881 26884 26887 26890 26893 26896 26899 26902 26904 26907 26910 26913 26915 26917 26920 26923 26925 26928 26931 26934 26937 26939 26942 26945 26948 26950 26953 26956 26959 26961 26964 26967 26970 26973 26976 26979 26982 26985 26988 26990 26992 26995 26998 27001 27004 27007 27009 27012 27015 27017 27019 27021 27024 27027 27030 27033 27036 27038 27041 27044 27047 27050 27053 27056 27059 27062 27065 27067 27070 27072 27075 27078 27081 27084 27087 27090 27093 27096 27099 27102 27105 27108 27111 27114 27117 27120 27123 27126 27129 27132 27135 27138 27141 27144 27146 27149 27152 27155 27158 27160 27162 27165 27168 27171 27173 27176 27179 27182 27185 27188 27191 27194 27197 27200 27203 27206 27209 27212 27215 27218 27221 27223 27226 27229 27232 27234 27237 27240 27242 27245 27248 27251 27254 27257 27260 27263 27266 27269 27272 27275 27278 27281 27283 27286 27289 27291 27294 27297 27300 27302 27305 27307 27310 27312 27315 27317 27319 27321 27324 27327 27330 27333 27336 27339 27342 27345 27347 27350 27353 27356 27359 27362 27365 27368 27371 27373 27376 27379 27381 27384 27387 27390 27393 27396 27399 27402 27405 27408 27411 27414 27417 27420 27423 27426 27429 27432 27435 27438 27441 27444 27446 27449 27452 27455 27458 27461 27464 27467 27470 27473 27476 27478 27481 27483 27486 27489 27491 27494 27496 27499 27501 27504 27507 27509 27512 27514 27517 27520 27522 27525 27528 27531 27533 27536 27539 27542 27545 27548 27551 27554 27557 27560 27563 27566 27569 27572 27575 27578 27581 27584 27587 27590 27593 27596 27599 27602 27605 27608 27611 27614 27617 27620 27623 27626 27629 27632 27635 27638 27641 27644 27647 27650 27653 27656 27659 27662 27665 27668 27671 27674 27677 27680 27683 27686 27689 27692 27695 27698 27701 27704 27707 27710 27713 27716 27718 27721 27724 27726 27729 27732 27735 27738 27741 27744 27746 27748 27751 27754 27757 27760 27763 27766 27769 27772 27775 27778 27781 27784 27787 27790 27793 27796 27799 27802 27804 27807 27810 27813 27815 27818 27821 27824 27827 27830 27833 27836 27839 27842 27845 27848 27851 27854 27857 27860 27863 27865 27868 27871 27874 27877 27880 27883 27886 27888 27891 27894 27897 27900 27903 27906 27909 27912 27914 27917 27919 27922 27925 27928 27931 27934 27937 27940 27943 27946 27949 27952 27955 27958 27961 27964 27967 27969 27972 27975 27978 27981 27984 27987 27990 27992 27995 27998 28001 28004 28006 28009 28012 28015 28018 28021 28024 28027 28029 28032 28035 28037 28039 28042 28045 28047 28050 28053 28056 28059 28062 28065 28067 28070 28073 28076 28079 28082 28085 28088 28091 28094 28096 28099 28102 28104 28107 28110 28112 28115 28118 28120 28123 28126 28129 28132 28135 28137 28140 28143 28146 28149 28152 28155 28158 28161 28163 28166 28169 28172 28175 28178 28181 28184 28186 28189 28192 28195 28198 28201 28204 28207 28210 28213 28216 28219 28222 28224 28227 28230 28233 28236 28239 28242 28245 28247 28249 28252 28254 28257 28259 28262 28265 28268 28271 28274 28277 28280 28283 28286 28289 28292 28295 28298 28301 28304 28306 28309 28311 28314 28317 28320 28323 28326 28329 28332 28335 28337 28340 28342 28345 28347 28350 28352 28355 28357 28360 28363 28365 28368 28371 28374 28377 28380 28382 28385 28388 28391 28394 28397 28400 28403 28406 28408 28411 28414 28417 28420 28423 28425 28428 28431 28433 28436 28438 28440 28443 28446 28449 28452 28455 28458 28461 28464 28466 28469 28472 28475 28478 28481 28484 28487 28490 28493 28496 28499 28502 28505 28507 28510 28513 28516 28519 28522 28525 28528 28530 28533 28536 28539 28541 28544 28547 28550 28553 28556 28559 28562 28565 28568 28571 28574 28577 28580 28583 28586 28589 28592 28594 28597 28600 28603 28606 28609 28612 28615 28617 28620 28623 28625 28628 28631 28634 28637 28640 28643 28646 28649 28652 28655 28658 28661 28664 28667 28670 28672 28675 28678 28681 28684 28686 28689 28692 28695 28698 28701 28704 28707 28710 28713 28716 28719 28722 28725 28728 28731 28734 28737 28740 28743 28746 28749 28752 28755 28758 28761 28763 28766 28769 28772 28775 28778 28781 28783 28786 28789 28792 28795 28798 28801 28804 28807 28810 28812 28814 28817 28820 28823 28825 28828 28830 28833 28836 28839 28842 28845 28848 28851 28854 28857 28860 28863 28866 28869 28872 28875 28877 28880 28883 28886 28889 28892 28895 28898 28901 28904 28907 28910 28913 28915 28917 28920 28923 28926 28929 28932 28935 28938 28941 28943 28946 28949 28951 28954 28957 28959 28961 28964 28967 28970 28973 28976 28979 28982 28984 28987 28990 28993 28996 28999 29002 29005 29008 29011 29013 29016 29019 29022 29024 29027 29030 29033 29036 29039 29041 29044 29047 29050 29053 29056 29059 29062 29065 29068 29071 29074 29077 29079 29082 29085 29088 29090 29093 29096 29099 29101 29104 29107 29110 29113 29116 29119 29122 29125 29128 29131 29134 29137 29140 29143 29146 29149 29152 29155 29158 29161 29164 29167 29170 29173 29176 29179 29182 29185 29188 29191 29194 29197 29199 29202 29205 29208 29211 29214 29217 29220 29223 29226 29229 29232 29235 29238 29241 29244 29247 29250 29253 29256 29259 29262 29265 29268 29271 29273 29276 29278 29281 29284 29286 29289 29292 29295 29298 29301 29304 29307 29310 29313 29315 29318 29321 29324 29327 29330 29333 29336 29339 29342 29345 29348 29351 29354 29357 29359 29362 29365 29368 29371 29373 29376 29379 29382 29384 29387 29390 29393 29396 29399 29402 29405 29408 29411 29414 29417 29420 29423 29426 29429 29432 29435 29438 29441 29444 29447 29450 29453 29456 29459 29462 29465 29468 29471 29474 29477 29480 29483 29486 29489 29492 29495 29498 29501 29504 29507 29510 29513 29516 29519 29522 29525 29528 29531 29534 29537 29540 29543 29546 29549 29552 29555 29558 29561 29564 29567 29570 29573 29576 29579 29582 29585 29588 29591 29594 29597 29600 29603 29606 29609 29612 29615 29618 29621 29624 29627 29630 29633 29636 29639 29642 29645 29648 29651 29654 29657 29660 29663 29666 29669 29672 29675 29678 29681 29684 29687 29690 29693 29696 29699 29702 29705 29708 29711 29714 29717 29720 29723 29726 29729 29732 29735 29738 29741 29744 29747 29750 29753 29756 29759 29762 29765 29768 29771 29774 29777 29780 29783 29786 29789 29792 29795 29798 29801 29804 29807 29810 29813 29816 29819 29822 29825 29828 29831 29834 29837 29840 29843 29846 29849 29852 29855 29858 29861 29864 29867 29870 29873 29876 29879 29882 29885 29888 29891 29894 29897 29900 29903 29906 29909 29912 29915 29918 29921 29924 29927 29930 29933 29936 29939 29942 29945 29948 29951 29953 29956 29959 29962 29965 29968 29971 29974 29977 29980 29983 29986 29989 29992 29995 29998 30001 30003 30006 30009 30012 30015 30018 30021 30024 30027 30029 30032 30035 30038 30041 30043 30046 30049 30052 30055 30058 30061 30064 30067 30070 30073 30076 30079 30082 30085 30088 30091 30094 30097 30100 30103 30106 30109 30111 30114 30117 30120 30123 30126 30129 30132 30135 30138 30141 30144 30147 30150 30152 30154 30157 30160 30163 30166 30169 30171 30174 30176 30179 30182 30185 30188 30191 30194 30197 30200 30203 30206 30209 30211 30214 30217 30220 30223 30226 30229 30232 30234 30237 30240 30243 30246 30249 30252 30255 30258 30261 30264 30267 30270 30273 30276 30279 30281 30283 30286 30289 30292 30295 30298 30301 30304 30307 30310 30313 30316 30319 30321 30324 30327 30330 30333 30336 30339 30342 30345 30348 30351 30354 30357 30360 30363 30366 30369 30371 30374 30377 30380 30383 30386 30389 30392 30394 30397 30400 30403 30406 30409 30412 30415 30418 30421 30424 30426 30428 30431 30434 30437 30440 30443 30446 30449 30452 30455 30458 30461 30464 30467 30470 30473 30476 30479 30482 30485 30488 30491 30494 30497 30500 30503 30506 30509 30512 30515 30518 30520 30523 30526 30529 30532 30535 30537 30540 30543 30546 30549 30552 30555 30558 30561 30564 30567 30569 30572 30575 30578 30581 30583 30586 30589 30592 30595 30598 30601 30604 30607 30610 30613 30615 30618 30620 30623 30626 30629 30632 30635 30638 30641 30644 30647 30650 30653 30656 30659 30662 30665 30668 30671 30674 30677 30680 30683 30686 30689 30692 30695 30698 30701 30704 30707 30710 30713 30715 30718 30721 30724 30727 30730 30732 30735 30738 30741 30744 30747 30750 30753 30756 30759 30762 30765 30768 30771 30774 30777 30780 30783 30786 30788 30791 30794 30796 30799 30802 30805 30807 30810 30813 30816 30819 30822 30824 30827 30830 30833 30836 30839 30842 30845 30848 30851 30854 30856 30859 30862 30865 30868 30871 30874 30876 30879 30882 30885 30888 30891 30893 30895 30898 30901 30903 30906 30909 30911 30914 30917 30920 30923 30926 30929 30932 30935 30938 30941 30943 30946 30949 30951 30954 30957 30959 30962 30965 30967 30970 30973 30975 30978 30981 30983 30986 30989 30992 30995 30998 31001 31003 31006 31009 31012 31015 31018 31021 31024 31027 31030 31033 31036 31038 31041 31044 31047 31050 31053 31056 31059 31061 31064 31067 31070 31073 31075 31078 31081 31084 31086 31089 31092 31095 31098 31101 31104 31107 31110 31113 31116 31119 31121 31124 31127 31130 31133 31136 31139 31142 31145 31148 31151 31154 31157 31160 31163 31166 31169 31172 31175 31178 31181 31184 31187 31190 31193 31195 31198 31201 31204 31207 31210 31212 31215 31218 31221 31224 31227 31230 31233 31236 31239 31242 31245 31248 31251 31254 31256 31259 31262 31264 31267 31269 31272 31275 31278 31281 31283 31286 31288 31290 31293 31295 31298 31301 31304 31307 31310 31313 31316 31318 31321 31323 31326 31329 31332 31335 31338 31341 31343 31346 31349 31352 31355 31358 31361 31363 31366 31369 31372 31375 31377 31380 31383 31386 31389 31392 31394 31397 31400 31402 31405 31408 31411 31414 31416 31419 31422 31425 31428 31430 31433 31436 31439 31442 31445 31448 31450 31453 31456 31459 31462 31465 31468 31471 31474 31477 31479 31482 31485 31488 31491 31494 31497 31499 31502 31505 31508 31511 31513 31516 31519 31522 31525 31528 31531 31534 31537 31540 31543 31546 31549 31552 31555 31558 31561 31563 31566 31569 31572 31574 31577 31580 31582 31585 31588 31591 31594 31597 31600 31603 31606 31609 31612 31615 31618 31621 31624 31627 31630 31632 31635 31637 31640 31643 31646 31649 31652 31655 31658 31661 31664 31667 31670 31673 31676 31679 31682 31685 31688 31691 31694 31697 31700 31703 31706 31709 31712 31715 31717 31720 31723 31725 31728 31731 31734 31737 31740 31743 31746 31749 31752 31755 31757 31760 31763 31766 31769 31771 31774 31777 31780 31783 31785 31788 31791 31794 31797 31800 31803 31806 31809 31812 31814 31817 31820 31823 31826 31829 31832 31835 31838 31841 31844 31847 31850 31853 31856 31859 31862 31865 31868 31871 31874 31877 31880 31883 31886 31889 31892 31895 31898 
</DataArray>
<DataArray type="UInt32" Name="types" format="ascii">
5 5 5 5 5 3 5 5 5 5 5 5 5 3 5 5 5 5 3 5 5 3 5 5 5 5 3 5 5 5 5 3 5 5 5 5 5 5 5 5 5 5 5 5 5 3 5 5 3 5 5 5 5 5 3 5 5 5 5 5 5 5 3 5 5 5 5 3 5 5 5 5 5 5 5 5 5 3 5 5 3 5 5 3 5 5 5 5 3 5 5 5 5 5 5 5 3 3 3 5 5 3 5 5 5 5 5 3 5 5 5 5 5 5 5 5 5 5 5 5 5 3 5 5 5 3 5 5 5 5 5 5 3 5 5 5 5 5 5 5 5 5 5 5 5 5 5 5 5 5 5 5 5 5 5 5 5 5 3 5 5 5 3 5 5 3 5 5 5 5 5 5 5 5 5 5 5 3 5 5 5 5 5 5 5 5 3 5 5 5 5 5 5 5 5 3 5 5 5 5 5 5 5 5 5 3 5 5 5 5 5 5 5 5 5 5 5 5 5 5 5 5 5 5 5 5 5 5 5 3 5 5 5 3 5 3 5 3 5 5 3 5 5 5 3 5 3 5 3 5 3 3 5 3 5 5 3 5 3 5 5 5 3 5 3 3 5 5 3 5 5 5 3 5 3 3 3 5 3 5 5 5 3 5 3 3 3 5 5 3 3 5 5 5 5 3 5 3 5 5 3 5 5 5 3 5 3 3 3 5 5 5 3 5 3 3 3 3 5 5 5 3 3 5 5 3 3 3 5 3 5 5 5 5 3 5 5 5 5 5 5 5 3 5 5 5 5 5 5 3 3 5 5 5 3 5 5 5 3 5 3 5 3 3 5 5 5 5 3 5 5 3 5 5 5 5 3 5 3 5 5 5 5 5 3 3 5 5 5 5 5 5 5 5 3 5 5 5 3 5 5 3 5 3 5 5 5 5 5 5 5 5 5 5 5 3 5 3 5 3 5 5 5 3 5 3 5 3 5 5 5 5 5 5 3 5 3 5 5 5 3 5 5 5 3 5 3 3 5 5 5 5 3 5 5 5 5 3 3 5 5 3 5 3 5 3 3 5 5 5 3 5 5 5 5 3 5 5 5 5 5 5 5 5 5 5 5 3 5 5 5 5 3 5 5 5 3 5 3 3 3 5 5 5 3 3 5 3 5 5 3 5 5 5 5 3 5 5 5 5 5 5 5 5 5 5 5 3 3 5 5 3 5 5 5 3 5 5 5 5 5 5 3 5 5 5 3 5 5 5 3 5 5 5 5 5 5 5 5 5 5 5 3 5 5 5 3 5 5 5 5 5 5 5 3 5 5 5 5 5 3 5 5 5 5 5 5 5 5 5 5 5 5 5 5 5 5 5 5 5 3 5 5 5 5 3 5 5 3 5 5 5 5 5 5 5 3 5 5 5 5 5 5 5 5 3 5 3 5 5 3 5 5 5 3 5 5 3 5 5 5 3 5 3 5 5 3 5 3 5 5 5 5 5 5 5 5 5 5 5 5 5 5 5 5 5 5 5 5 5 5 3 5 3 5 3 5 5 5 5 5 5 5 5 5 5 5 5 5 5 5 3 5 5 5 5 5 5 5 5 5 3 5 5 5 5 5 5 5 5 5 5 5 5 5 5 5 5 5 5 5 5 5 5 5 5 5 5 5 5 5 3 5 5 3 5 5 5 3 3 5 3 5 5 5 5 5 3 5 5 5 5 5 3 5 5 5 5 5 5 5 5 5 5 5 5 5 5 5 5 5 5 5 5 5 5 5 5 5 5 5 5 5 5 5 5 5 5 5 5 5 5 5 5 5 5 5 5 5 5 5 5 5 3 5 5 5 5 5 5 5 5 5 5 5 5 5 5 5 3 5 5 5 5 3 5 5 5 5 5 5 5 5 5 5 5 5 5 5 5 5 5 5 5 5 5 5 5 5 5 5 5 3 5 5 3 5 3 3 3 3 5 5 3 5 5 5 5 5 5 5 5 5 5 5 5 5 5 5 5 5 3 5 5 3 5 3 5 5 5 5 3 5 3 5 5 5 5 3 5 5 5 3 5 5 5 5 5 3 5 3 5 5 3 3 5 3 5 5 5 5 5 5 5 5 5 5 5 3 5 5 5 3 5 5 5 3 5 5 3 3 3 5 5 5 5 5 5 5 5 5 5 5 3 5 5 5 5 5 5 5 5 3 3 3 5 5 5 5 5 5 5 5 3 3 5 5 5 3 5 5 3 5 5 5 5 5 5 5 5 5 5 5 3 5 5 5 5 5 5 5 5 3 5 5 5 5 5 5 5 5 5 5 3 5 3 3 3 5 5 5 5 5 5 5 3 3 5 3 5 5 5 5 5 3 5 3 3 5 5 5 3 5 3 5 5 5 5 3 5 5 5 5 5 5 5 5 5 5 5 5 5 5 5 5 5 3 5 5 5 3 5 5 5 5 5 3 5 5 5 5 5 5 3 5 3 5 5 5 5 5 5 5 5 3 5 5 5 3 5 5 5 5 5 5 5 5 5 5 5 5 5 5 5 5 5 5 5 5 5 5 5 5 5 3 3 3 5 5 5 5 3 5 5 5 5 3 5 5 5 5 5 5 5 3 5 5 5 5 5 5 5 5 3 5 5 5 5 5 5 5 5 5 5 5 5 3 5 5 5 5 5 5 3 5 5 5 5 5 5 5 5 3 5 5 5 3 5 5 5 5 5 5 5 5 5 5 5 5 3 5 5 5 5 5 5 5 5 5 5 5 5 5 5 5 5 5 5 5 5 5 5 5 5 5 5 5 5 5 5 5 5 5 5 5 5 5 5 5 5 5 5 5 5 5 5 5 3 5 5 5 5 5 5 5 5 5 5 5 5 5 5 5 5 5 5 5 5 5 5 5 5 3 5 5 5 5 5 5 5 5 5 5 3 5 5 3 5 5 5 5 5 5 5 5 5 3 5 3 5 5 5 5 3 5 5 3 5 3 5 5 5 5 5 3 5 5 5 5 5 5 5 5 3 5 5 5 5 5 5 5 5 5 5 5 5 5 5 3 5 3 3 5 5 5 5 5 3 5 5 5 5 5 5 5 5 5 5 5 5 5 5 5 3 5 5 5 5 5 5 5 5 5 5 5 5 5 5 5 5 3 5 5 5 5 5 3 3 5 5 3 5 5 5 5 5 5 5 5 5 5 3 5 5 5 5 5 5 5 5 5 3 5 3 5 5 5 5 5 3 5 5 5 5 3 5 5 5 3 5 5 5 3 5 5 3 5 5 5 5 5 5 5 5 5 5 5 5 5 5 5 5 3 5 5 5 5 5 5 5 3 5 5 5 5 5 5 5 5 5 5 5 5 5 5 5 5 5 5 5 5 5 5 5 5 5 5 5 3 5 5 5 5 3 5 5 5 3 5 5 5 5 5 5 5 5 5 3 5 3 5 5 5 5 5 5 5 5 5 5 5 5 5 5 5 5 5 5 3 3 5 5 5 3 5 5 3 5 5 3 5 5 5 3 5 5 3 5 5 5 5 5 5 5 5 5 5 5 5 5 5 5 5 5 5 5 5 3 5 3 5 5 5 5 5 5 5 5 5 5 5 3 5 3 5 5 5 3 5 5 5 5 5 3 5 5 5 5 5 5 3 5 5 5 5 5 5 5 5 5 5 5 3 5 5 5 5 5 5 5 5 3 5 5 5 3 5 5 3 5 5 5 5 5 3 5 5 5 5 5 5 5 5 5 3 5 5 3 5 3 5 3 3 3 5 3 5 5 5 5 5 5 3 5 5 5 5 5 5 3 5 5 5 5 5 5 5 3 5 5 5 5 3 5 5 5 5 5 3 5 3 5 5 5 5 5 5 5 5 5 5 3 5 5 5 5 5 5 5 3 5 5 5 5 5 5 5 3 5 3 5 5 5 5 5 5 5 5 3 5 5 5 3 3 5 5 5 5 5 3 3 5 3 5 5 3 5 5 3 5 5 5 5 5 5 5 5 3 5 5 5 5 5 3 5 5 5 5 3 5 5 3 5 5 5 5 5 5 5 5 5 5 5 5 5 5 5 5 5 5 5 5 5 5 5 5 5 5 5 5 5 5 5 5 5 5 5 5 5 5 5 5 5 3 5 5 3 5 5 5 5 5 3 5 5 5 5 3 5 5 5 5 5 5 5 5 5 5 5 5 5 5 5 5 5 5 5 5 5 5 5 5 3 5 5 5 3 5 5 5 5 5 5 3 5 5 5 5 5 5 5 5 5 5 5 3 5 3 3 5 5 3 5 5 5 5 5 5 5 5 5 5 5 3 5 5 3 5 5 5 5 5 5 5 5 5 5 5 5 5 5 5 3 5 5 5 5 5 5 5 3 5 3 5 5 5 5 3 5 3 5 5 5 5 5 5 5 5 5 3 5 5 5 5 5 5 5 5 5 5 5 5 5 5 5 5 5 3 5 5 5 5 5 5 5 5 5 5 5 5 5 5 5 5 5 5 5 5 5 5 5 5 5 3 3 5 5 5 5 5 5 5 5 5 5 5 3 5 5 5 5 3 5 5 5 5 3 5 5 5 5 5 5 5 5 3 5 5 5 5 5 5 5 5 5 3 5 5 5 5 5 5 5 5 5 5 5 5 5 5 5 5 5 5 5 5 3 5 5 5 5 5 5 5 5 5 5 5 5 5 5 3 5 3 5 5 5 5 5 5 5 5 3 5 5 3 5 5 5 5 5 5 5 5 5 5 5 5 5 5 5 5 5 5 5 5 5 5 5 5 5 5 5 5 5 5 5 5 5 5 5 5 3 5 5 3 5 5 5 5 3 5 3 5 5 3 5 3 5 5 5 5 5 3 5 5 5 5 5 5 5 5 5 5 5 5 3 5 5 5 3 5 5 5 5 5 5 5 5 5 3 5 5 5 5 3 3 5 5 5 5 5 5 5 5 3 5 5 5 5 5 3 5 5 5 3 5 5 5 3 5 5 5 5 3 5 5 5 5 5 5 5 5 5 5 5 5 5 5 3 5 5 5 5 5 5 3 5 3 3 5 3 5 3 5 5 5 5 3 5 5 5 5 3 5 5 5 5 5 5 5 5 5 3 5 5 5 5 5 5 5 5 5 5 5 5 5 5 3 5 5 5 3 5 5 5 3 5 3 5 5 5 5 5 5 5 5 5 5 5 5 5 5 5 5 3 5 5 5 5 5 5 3 5 5 5 5 5 5 5 5 5 5 5 5 5 5 5 5 5 5 3 5 5 5 5 5 5 5 5 5 5 5 5 5 5 5 5 5 5 5 5 5 5 5 5 5 5 5 5 5 5 5 5 5 5 3 5 5 5 5 3 5 5 5 5 5 5 5 3 5 5 5 5 5 5 5 5 5 3 5 5 3 5 5 5 5 5 3 5 5 5 3 5 5 3 5 5 5 5 5 5 5 5 5 5 5 5 5 5 5 5 5 5 5 5 3 5 5 5 5 5 5 5 5 5 5 3 3 5 3 5 5 5 5 5 3 5 5 5 5 3 5 5 5 5 5 3 5 3 5 5 3 5 5 5 5 5 5 5 5 3 5 5 5 5 5 5 3 5 5 5 5 5 5 3 5 5 5 5 3 5 5 3 5 3 5 5 3 5 5 5 5 5 5 3 5 5 5 5 3 5 5 5 5 5 5 5 5 3 3 5 5 5 5 5 5 5 5 3 5 5 5 5 5 5 3 5 5 5 5 5 5 5 3 5 5 5 3 5 5 5 5 5 5 5 5 5 5 5 5 3 5 5 5 5 3 5 5 3 5 5 5 5 3 5 5 5 3 3 5 5 5 3 5 5 5 3 5 5 5 5 5 5 5 5 5 3 5 5 5 3 5 5 5 5 5 5 5 5 5 5 5 5 3 5 3 5 5 3 5 5 3 5 5 5 5 5 5 5 3 5 5 5 5 5 3 5 3 5 5 5 3 3 5 3 3 5 3 5 5 5 5 5 5 3 5 3 5 5 5 5 5 5 5 5 5 5 5 5 5 3 5 5 3 5 3 5 5 3 5 5 5 3 3 5 5 3 5 5 5 5 5 5 5 5 5 5 5 5 5 5 5 5 5 5 5 5 5 5 5 3 3 5 3 5 3 5 5 3 3 5 5 3 5 5 3 5 5 3 5 3 5 5 5 5 3 5 5 5 5 3 5 3 3 5 3 5 5 3 3 5 5 5 3 5 5 5 5 3 3 5 5 5 5 5 3 5 5 5 5 5 5 5 5 5 5 5 3 5 3 5 3 5 5 3 5 3 5 5 5 5 5 5 5 5 3 5 5 3 5 5 5 5 3 5 5 5 5 5 5 5 5 5 5 5 5 3 5 5 5 5 5 5 5 5 5 5 5 3 5 5 5 5 5 5 3 5 3 5 5 3 5 5 5 5 5 5 5 5 5 5 5 5 5 5 5 5 5 3 3 5 5 5 3 5 5 3 5 5 5 5 5 5 5 5 5 5 5 5 5 5 5 5 5 5 5 5 5 5 5 5 5 3 3 5 5 5 5 5 5 5 5 5 5 5 3 5 5 5 5 5 5 5 5 5 5 5 5 5 5 5 5 5 5 5 5 5 5 5 5 5 5 5 5 5 5 5 5 5 3 5 5 5 5 5 3 5 5 3 5 5 3 3 5 5 5 5 5 5 5 5 5 5 5 5 5 3 5 5 3 5 5 5 5 5 5 3 5 5 3 5 5 5 5 5 5 5 5 5 5 5 5 5 3 5 5 5 5 5 5 5 3 5 5 5 5 5 5 5 5 5 5 5 5 3 5 5 3 5 5 5 5 5 5 5 5 5 5 5 5 5 5 5 5 5 5 5 5 3 5 5 3 5 3 5 5 5 3 5 5 3 5 3 5 5 5 3 5 5 5 5 3 5 5 5 5 5 5 5 3 5 5 5 3 5 5 5 5 5 5 5 5 5 5 5 5 3 5 5 5 5 5 5 5 5 3 5 5 5 5 5 5 5 5 5 5 5 3 5 5 5 5 5 5 5 5 5 5 5 5 5 5 5 5 5 5 5 3 3 5 5 5 3 5 5 5 5 5 5 5 5 5 5 5 5 3 5 5 5 5 5 5 5 5 5 3 5 5 5 5 5 5 5 5 5 5 5 5 5 5 5 5 3 5 3 5 5 5 5 5 3 5 5 5 5 3 5 5 5 3 5 5 5 3 5 5 5 5 5 5 5 5 5 3 5 5 5 3 5 5 3 5 5 5 5 5 5 3 5 5 5 5 5 5 5 5 3 5 5 5 3 5 5 5 5 5 5 5 5 5 5 5 5 5 5 5 5 5 5 5 5 5 5 5 5 5 5 5 3 5 5 5 5 5 5 5 3 5 5 5 5 5 5 5 5 5 5 5 5 5 5 5 5 5 5 5 5 5 5 5 5 5 3 5 3 5 5 5 5 5 5 3 5 5 5 3 5 5 3 5 5 5 5 5 5 5 5 5 5 5 5 3 5 5 5 5 5 3 5 5 5 5 5 5 5 5 5 5 5 5 5 3 5 5 5 3 5 5 5 5 5 5 5 5 5 5 5 5 3 3 5 5 5 5 3 5 5 5 5 5 5 5 5 5 3 3 5 5 5 5 5 3 5 5 5 5 5 3 5 5 5 5 5 3 5 3 5 5 5 5 3 5 3 5 3 3 5 5 5 5 5 5 5 3 3 5 5 5 5 5 5 3 3 3 5 3 3 5 5 5 3 5 5 5 5 5 3 3 3 5 3 5 5 5 3 5 3 3 5 5 5 5 5 5 5 3 3 5 5 3 3 3 5 5 5 5 5 5 5 5 5 5 5 5 5 5 5 5 5 5 5 5 5 5 5 5 5 5 5 5 5 5 5 5 5 5 5 5 5 5 5 5 3 5 5 5 5 5 5 5 5 5 5 3 5 5 5 5 5 5 3 5 5 3 5 5 5 5 5 5 5 5 5 5 5 5 5 3 5 3 5 5 5 5 3 5 5 5 3 5 5 3 5 5 5 3 5 5 3 5 5 5 5 5 3 5 5 5 5 5 5 5 3 5 5 5 5 5 5 5 3 5 5 3 5 5 5 5 3 5 3 5 5 5 5 5 3 5 5 5 5 3 5 5 5 5 5 5 3 3 5 5 5 5 5 3 5 5 3 5 5 5 5 5 5 5 5 5 5 3 5 5 5 5 5 5 5 5 5 5 5 5 5 5 5 5 5 5 3 5 5 5 5 5 5 3 5 5 5 5 5 5 5 3 3 5 5 5 5 3 5 5 5 5 5 5 5 3 5 5 3 5 3 3 3 5 5 5 5 5 5 3 5 5 5 5 5 3 5 5 5 5 3 5 5 5 3 5 5 5 3 5 5 5 5 5 5 5 5 5 5 5 5 5 5 5 5 5 5 5 5 5 5 5 5 5 3 5 5 5 5 5 5 5 3 5 3 5 5 5 5 5 5 3 5 5 3 5 5 5 3 5 5 3 5 5 5 5 5 3 5 5 5 3 3 5 5 5 5 5 5 5 5 5 5 5 5 3 5 5 5 5 5 5 5 5 5 3 5 5 5 5 5 3 3 5 5 5 5 5 5 5 5 5 3 5 5 5 5 5 5 5 5 3 5 5 5 5 5 5 5 5 5 5 5 5 5 5 5 5 5 5 3 5 5 5 5 3 5 3 5 3 5 5 5 5 5 5 5 5 5 5 5 5 5 5 5 5 5 3 5 5 5 5 5 3 5 5 5 3 3 5 5 5 5 5 3 5 5 5 5 3 5 5 5 5 5 5 5 5 3 5 5 5 5 5 5 5 3 5 5 5 5 5 5 5 5 5 3 5 5 5 5 5 5 5 5 5 5 5 5 5 5 5 5 5 5 3 5 5 5 5 5 5 5 5 5 5 5 5 5 3 5 5 5 5 5 5 3 5 5 3 5 5 3 5 5 5 5 5 5 5 5 5 5 5 5 5 5 5 5 5 5 5 5 5 5 5 5 5 5 3 5 3 5 3 3 5 5 5 3 5 5 5 5 5 5 5 5 5 3 3 5 3 5 5 5 5 5 5 5 5 5 5 5 5 5 5 3 5 3 3 5 3 5 5 5 5 5 5 5 5 5 3 3 5 5 5 5 5 5 5 5 5 5 5 5 5 5 5 5 5 5 5 5 5 5 3 5 5 5 5 5 3 5 5 5 5 5 3 5 5 5 3 5 5 5 5 5 5 5 5 5 3 5 5 5 5 3 5 5 5 5 5 5 3 5 5 5 5 5 5 5 3 5 5 5 5 3 5 5 5 5 5 5 5 5 5 5 3 5 5 5 5 3 5 5 5 3 5 5 5 5 5 3 5 5 5 5 5 5 5 5 5 5 5 5 5 5 3 3 5 5 3 5 5 5 5 5 5 5 3 5 5 5 5 5 5 3 5 5 5 5 5 5 5 5 5 5 5 5 5 5 5 5 5 5 5 5 5 5 5 3 5 5 5 5 5 5 5 5 3 5 5 5 5 3 5 5 5 5 5 3 5 3 5 3 5 5 5 5 5 5 5 3 5 5 5 3 5 5 5 5 5 3 5 5 5 5 5 3 5 3 5 5 3 5 3 5 5 5 5 5 3 5 5 5 3 5 5 5 5 5 5 5 5 5 5 3 5 5 5 5 5 5 5 5 5 5 5 5 5 5 5 5 5 5 5 5 5 5 3 5 5 5 5 5 5 5 5 5 5 5 5 5 5 5 5 5 5 3 5 5 5 3 5 5 5 5 5 5 3 5 5 5 3 3 5 3 5 3 3 5 3 5 5 3 5 5 3 3 5 5 5 5 5 5 5 5 3 5 3 5 5 5 5 5 5 5 5 5 5 5 5 5 5 5 5 5 5 5 5 5 5 3 5 5 5 5 5 5 5 5 3 5 5 3 5 5 3 3 5 5 3 5 5 5 5 5 5 5 5 5 5 5 5 5 5 5 5 5 5 5 5 5 5 5 5 5 5 5 5 5 5 5 5 5 5 5 5 5 5 5 3 5 3 5 5 5 5 5 5 5 5 5 5 5 5 5 5 5 5 5 5 5 5 5 5 5 5 5 5 5 5 5 5 5 5 5 5 5 5 5 5 5 5 3 5 5 3 5 5 5 5 5 3 5 3 5 5 3 5 5 5 5 5 5 3 5 5 5 5 5 5 5 5 5 5 5 3 5 5 3 3 5 3 5 5 3 5 5 5 5 3 5 5 5 5 5 5 5 5 5 3 5 3 5 5 5 5 5 5 5 3 5 3 5 5 5 5 5 5 5 5 5 3 5 3 5 5 5 5 5 5 5 5 5 5 3 5 5 5 3 5 5 3 5 5 3 5 5 5 5 3 5 5 5 3 5 5 5 5 5 5 5 5 5 5 5 5 5 5 3 5 5 5 5 5 5 3 5 3 5 3 5 5 5 3 5 5 5 5 5 5 5 5 3 5 5 5 5 5 3 5 5 3 5 5 5 5 5 5 5 5 5 3 5 5 5 3 5 5 5 5 5 5 3 5 5 5 5 5 5 5 5 5 5 5 5 5 5 5 5 5 5 5 5 5 5 5 5 5 5 5 5 5 5 5 3 5 5 5 5 5 3 5 5 3 3 5 5 5 5 3 5 5 5 5 5 3 5 5 5 5 5 5 5 5 5 5 5 5 5 5 5 5 3 5 5 5 5 5 5 5 5 3 3 5 5 5 5 5 5 3 5 5 5 5 3 5 5 5 5 5 5 5 5 5 5 5 5 5 5 5 5 5 5 5 5 5 5 5 5 3 5 5 3 5 5 5 5 5 5 5 5 5 5 5 5 5 5 5 5 5 5 5 5 5 5 5 5 5 5 5 3 5 3 5 5 5 5 5 3 5 5 5 5 5 5 5 5 5 5 5 5 5 5 5 5 5 5 5 5 3 3 5 3 5 5 5 5 5 5 5 5 5 5 5 5 5 5 5 5 3 5 5 5 3 5 5 5 5 5 5 5 5 5 5 5 5 5 3 5 5 5 5 5 5 5 5 5 5 5 5 5 5 5 5 5 5 5 5 5 5 3 5 5 5 5 5 5 5 5 5 5 5 5 5 3 5 3 5 5 3 3 5 5 5 5 5 5 5 5 5 5 5 5 5 5 5 5 5 5 5 5 3 5 5 3 5 5 5 3 5 5 5 5 5 5 3 5 5 5 3 5 5 5 5 5 5 5 5 3 5 5 3 5 5 3 5 3 5 5 5 5 3 3 5 5 3 3 5 5 3 5 5 5 5 3 5 5 3 3 5 3 5 5 5 5 5 5 5 5 5 5 5 5 5 5 5 5 5 5 5 5 3 5 5 5 5 3 5 5 5 5 3 3 5 5 5 5 5 5 5 5 5 5 5 5 3 5 5 5 3 5 5 5 5 5 5 5 3 5 5 5 3 5 5 3 3 5 5 5 3 5 5 5 3 5 5 5 5 5 5 5 5 5 5 5 5 5 5 5 5 5 5 3 5 5 5 5 5 5 5 5 5 5 5 5 5 5 5 5 5 5 3 3 5 5 5 5 5 3 3 5 3 5 5 5 5 5 5 5 5 5 3 5 5 5 3 5 5 5 5 5 5 5 5 5 5 5 5 5 5 3 5 5 5 5 5 5 5 3 5 5 3 5 5 5 5 5 5 3 5 5 5 5 3 5 5 5 5 5 5 3 5 5 5 5 5 5 5 5 3 3 5 5 5 3 3 5 5 5 5 5 3 5 5 5 5 5 5 3 5 5 5 5 3 5 5 5 5 5 3 5 5 5 5 3 5 5 5 5 5 5 5 5 5 5 5 5 5 5 5 5 5 5 5 5 5 5 5 5 5 3 5 5 5 5 3 5 3 5 3 5 5 3 5 5 3 5 5 3 5 5 5 5 5 5 3 5 5 3 5 3 3 3 5 5 3 5 3 3 5 5 5 3 5 3 5 5 5 5 5 5 3 5 5 5 3 5 5 5 5 5 5 5 3 5 5 5 3 5 3 3 5 5 5 5 5 5 5 3 5 5 5 5 5 5 5 5 3 3 5 5 5 5 3 5 5 3 5 5 5 3 5 5 5 3 3 5 5 5 5 3 5 5 5 5 5 3 3 5 5 5 5 5 5 5 5 5 5 5 5 5 5 5 5 5 5 5 5 5 5 5 5 5 5 5 5 5 5 5 3 5 5 5 3 5 5 5 5 5 5 5 5 5 5 5 5 5 5 5 3 5 3 3 5 5 3 5 5 5 5 5 5 5 5 5 5 5 5 5 5 5 5 5 5 5 5 5 5 5 3 5 5 3 3 5 5 5 5 5 5 5 3 5 5 5 3 5 5 5 5 3 3 5 5 5 5 5 5 5 3 5 5 5 5 3 5 5 5 5 3 5 5 5 5 5 5 5 5 5 5 5 5 5 5 5 5 5 5 5 3 5 5 5 5 5 5 5 5 5 5 5 5 5 5 5 5 3 5 5 5 3 5 5 5 5 5 5 5 5 5 3 5 5 5 5 5 5 5 5 5 5 5 5 5 5 5 5 5 5 5 5 5 3 5 5 5 5 5 5 5 5 5 5 5 5 5 5 5 5 5 3 5 5 5 5 5 3 5 5 5 5 5 5 5 5 5 5 5 5 5 5 5 5 5 5 5 5 5 5 5 5 5 5 5 3 5 5 3 5 5 5 3 5 5 5 5 5 5 5 5 5 5 5 5 5 5 5 3 5 3 5 5 5 5 5 5 5 5 5 3 5 5 5 5 5 5 5 5 5 3 3 5 5 5 5 5 5 5 5 5 5 5 5 5 5 5 5 5 5 5 5 5 5 5 5 5 5 5 5 5 5 5 5 5 5 5 5 5 5 5 5 5 5 5 5 5 5 5 5 5 5 5 5 5 5 5 5 5 5 5 5 5 5 5 5 5 5 5 5 5 5 5 3 5 5 5 5 5 5 3 5 5 5 5 5 5 5 5 5 3 5 3 5 5 5 5 5 5 5 5 5 5 5 5 5 5 5 5 5 5 5 5 5 5 5 5 5 5 5 5 5 5 5 5 5 5 3 5 5 5 3 3 5 5 5 5 5 5 5 5 5 5 5 5 5 5 5 5 5 5 5 5 5 5 3 3 5 5 5 5 5 5 5 5 3 5 5 5 5 5 5 3 5 5 5 5 5 3 5 5 5 5 3 5 5 5 3 5 5 5 3 5 5 3 5 5 5 5 5 5 5 5 5 5 5 5 5 3 5 5 5 5 5 5 5 5 3 5 5 5 5 5 5 5 5 5 5 5 3 5 5 5 3 5 5 5 5 3 5 5 5 5 5 5 5 5 3 5 3 5 5 3 5 5 5 5 5 3 5 5 5 5 5 5 5 5 5 5 5 5 3 5 5 5 5 5 5 5 5 5 3 5 5 5 5 5 5 3 5 5 5 5 5 5 5 3 5 5 5 5 5 3 5 5 5 5 5 5 5 5 5 5 5 5 5 5 5 5 5 5 5 5 5 5 5 5 5 5 5 5 5 5 5 5 5 5 5 5 5 5 5 5 5 5 5 5 5 5 5 3 5 3 5 5 5 5 5 5 5 5 5 5 5 5 5 5 3 5 5 5 5 5 5 5 5 5 5 5 5 5 5 5 3 5 5 3 5 3 5 5 5 5 5 3 5 5 5 5 5 5 5 5 5 5 5 5 5 5 5 5 5 5 5 5 3 5 5 5 5 5 5 5 5 5 5 5 3 5 3 5 5 3 5 3 5 5 5 5 5 5 5 3 5 3 5 5 5 5 3 5 5 5 5 3 3 5 5 3 5 5 5 5 5 5 5 5 5 5 5 5 5 5 5 5 3 5 5 5 5 5 5 5 5 5 5 5 5 5 5 3 5 3 5 5 5 5 5 5 5 3 5 3 5 5 5 5 5 5 5 5 5 3 3 5 5 5 3 5 5 5 5 3 5 3 5 5 3 5 3 3 3 5 5 3 5 5 5 3 3 3 5 5 5 5 5 5 5 5 5 5 5 3 5 5 5 5 5 5 3 5 5 5 3 5 5 5 5 5 5 5 5 3 5 5 5 3 5 5 5 5 5 5 5 5 5 5 5 5 5 5 5 5 5 5 5 5 5 5 5 5 5 5 5 5 5 5 5 5 5 5 5 5 5 5 5 5 5 5 5 5 5 5 5 5 5 5 5 5 5 5 5 5 5 5 5 5 3 5 5 5 5 5 3 5 5 5 5 3 5 5 5 3 5 5 5 5 5 5 5 5 5 5 5 5 5 5 5 5 5 5 5 5 5 5 5 5 5 5 5 5 5 5 5 5 5 5 5 5 5 5 5 5 3 5 5 3 5 5 5 5 5 5 5 3 5 5 5 5 5 5 5 5 5 5 5 3 5 5 3 5 3 5 5 5 3 5 5 5 5 5 5 5 5 3 5 5 5 5 3 5 5 5 5 3 5 3 5 5 5 5 5 5 5 5 5 5 5 5 3 5 3 5 5 5 5 5 5 5 5 5 5 5 5 5 3 5 5 5 5 5 5 5 5 5 3 5 5 5 3 5 5 5 5 5 5 5 5 5 5 5 5 5 5 5 5 5 5 5 5 5 5 5 5 5 5 5 5 5 5 5 5 5 5 5 3 5 5 3 5 5 5 5 3 5 5 5 5 5 5 5 5 5 5 5 5 5 5 5 3 5 5 5 5 5 5 5 5 5 3 5 3 5 5 5 5 5 5 5 3 5 5 5 5 5 5 5 5 5 5 5 5 5 5 3 5 5 5 5 5 5 5 5 5 5 5 3 5 5 5 5 5 5 5 5 5 5 5 5 5 5 5 5 5 5 5 5 5 5 5 3 5 3 5 5 5 5 5 5 3 5 3 5 5 5 3 5 5 5 3 5 5 5 3 5 5 3 5 5 5 5 5 5 5 3 5 5 5 5 5 5 5 3 5 5 5 5 5 5 5 5 5 5 5 5 5 3 5 5 5 5 5 5 5 5 3 5 5 5 5 5 5 5 5 5 5 5 5 5 5 5 5 5 5 5 5 3 5 5 5 5 5 5 5 5 5 5 5 5 5 5 5 5 5 5 5 5 5 5 5 5 5 5 5 5 5 5 5 5 5 5 5 5 5 5 5 5 5 5 5 5 5 5 5 5 5 5 3 5 3 5 5 5 3 5 5 3 3 5 3 5 5 5 5 5 5 5 5 5 5 5 5 5 5 5 5 5 5 5 5 5 5 5 5 5 5 5 5 5 5 5 5 5 5 5 3 5 5 5 5 3 5 5 3 5 5 5 3 5 5 5 5 3 5 3 3 5 5 5 5 3 5 5 5 3 5 5 5 3 5 5 5 5 5 5 3 5 5 5 5 5 5 5 5 5 5 5 5 5 5 5 5 5 5 5 5 3 5 5 5 5 5 5 5 5 5 5 5 5 5 5 5 5 5 5 3 5 5 3 5 5 3 5 5 5 5 5 5 5 5 5 5 5 3 5 5 5 5 3 5 5 5 5 3 5 5 5 3 5 5 5 5 5 5 5 5 5 5 5 5 5 5 5 5 5 5 5 5 5 5 5 5 5 3 5 5 5 5 5 5 5 5 3 5 5 5 3 5 5 5 5 5 5 5 5 5 5 5 5 5 5 5 5 5 5 5 5 5 5 5 5 3 5 5 5 3 5 5 5 5 5 5 5 5 3 5 5 3 5 5 5 5 3 5 5 5 5 5 5 5 3 5 3 5 5 3 5 5 3 3 5 5 5 5 5 5 5 5 5 5 5 5 5 5 5 5 5 5 5 5 5 3 5 5 5 5 3 5 5 5 5 5 5 5 5 5 5 5 5 5 3 5 5 3 5 5 5 5 5 5 5 5 5 5 5 5 5 5 5 5 5 5 5 5 5 5 5 5 5 5 5 5 5 5 5 5 5 5 5 5 5 5 5 5 5 5 5 5 5 5 5 5 5 5 5 5 5 5 5 5 5 5 5 5 5 5 5 5 5 5 5 5 5 5 5 5 5 5 5 5 5 5 5 5 5 5 5 5 5 5 5 5 5 5 5 5 5 5 5 5 5 5 5 5 5 5 5 5 5 5 5 5 5 5 5 5 5 5 5 5 5 5 5 5 5 5 5 5 5 5 5 5 3 5 5 5 5 5 5 5 3 5 5 5 5 5 5 5 5 5 3 5 3 5 5 5 3 5 5 3 5 5 5 5 5 5 5 5 5 5 5 5 5 5 5 5 5 5 5 5 5 5 5 5 5 5 5 5 5 5 5 5 5 5 5 5 5 3 5 5 3 3 5 5 3 5 5 3 5 5 5 3 5 5 5 5 5 5 5 5 5 3 5 5 5 5 5 5 3 5 5 5 5 5 5 5 5 5 5 5 5 5 5 5 5 5 5 5 5 5 5 5 5 5 5 5 5 5 5 5 3 5 5 5 5 5 5 5 5 5 5 5 5 5 5 5 5 5 5 5 5 5 5 5 5 5 5 5 5 5 5 5 5 5 5 5 5 5 5 5 5 5 5 5 5 5 5 3 5 3 5 5 5 5 3 5 5 5 5 3 5 5 5 5 3 5 5 5 5 5 5 5 5 3 5 5 3 5 3 5 5 5 5 3 5 5 3 3 5 5 5 5 5 5 3 5 5 5 5 5 5 5 5 5 5 3 3 5 5 5 5 5 3 5 5 3 5 5 5 5 3 5 5 3 5 5 5 5 5 5 5 5 5 5 5 5 5 5 5 5 5 5 5 5 5 5 5 5 5 5 5 5 5 3 5 3 5 5 5 5 5 5 5 5 5 5 5 5 5 3 5 5 5 5 3 3 5 5 5 5 5 5 5 5 5 5 5 5 5 5 5 5 5 5 5 5 5 5 5 5 5 5 5 5 5 5 5 5 5 5 5 5 5 5 5 5 5 5 3 5 5 5 3 5 5 5 5 5 5 5 5 5 5 5 5 5 5 5 5 5 5 5 5 3 5 5 3 5 5 5 5 5 5 5 5 5 3 5 5 5 5 5 3 5 5 5 5 5 3 5 3 5 5 5 5 5 5 5 5 5 5 5 5 5 3 5 5 5 3 3 5 5 5 5 5 5 5 5 3 5 5 3 5 5 3 3 5 5 5 5 5 3 5 5 5 5 5 5 5 3 5 5 3 3 5 5 5 5 5 5 3 3 5 5 5 3 5 5 5 5 5 5 5 3 5 5 5 5 5 5 5 5 5 5 5 5 5 5 5 5 5 5 5 5 5 5 5 5 5 5 3 5 5 5 5 5 5 5 3 5 5 5 5 5 5 5 5 5 5 5 3 5 5 5 5 5 5 5 5 3 5 5 5 5 5 5 5 5 5 5 5 5 5 5 5 5 3 5 5 5 3 5 5 5 5 5 3 5 5 5 5 5 5 5 5 5 5 5 5 5 5 3 5 5 5 5 3 5 5 3 5 5 5 5 5 3 5 5 5 5 5 5 5 5 5 5 5 5 5 5 3 5 3 5 5 5 3 5 3 5 3 5 5 5 5 5 5 3 3 5 5 5 5 5 5 3 5 3 5 5 5 5 5 5 5 5 5 5 5 5 5 5 5 5 5 3 5 5 5 3 3 5 5 5 5 5 3 5 5 3 3 5 5 5 5 5 5 5 5 5 5 5 5 5 5 5 5 5 5 5 5 5 5 5 5 5 5 5 5 5 5 5 5 5 5 5 5 5 5 5 5 5 5 5 5 3 5 5 3 3 3 5 5 5 5 5 5 3 5 5 5 5 5 5 5 5 5 3 5 5 5 3 5 5 5 5 5 5 5 5 5 5 5 5 5 5 5 5 5 5 5 5 3 5 5 5 5 3 5 5 5 5 5 5 5 5 5 5 5 5 5 5 5 5 5 5 5 5 5 5 5 5 5 5 5 5 5 5 5 5 5 5 3 5 3 5 5 5 5 5 5 5 5 3 5 5 5 3 5 3 5 5 5 5 5 5 5 5 3 5 5 5 5 3 5 5 5 5 3 5 5 5 5 5 5 5 3 5 5 5 5 3 5 5 5 5 5 5 5 5 5 5 5 5 5 5 5 5 5 5 5 5 5 5 5 5 5 5 5 5 5 5 5 5 5 5 5 5 5 5 5 5 5 5 5 5 5 5 3 5 5 5 5 3 3 5 5 3 3 5 5 5 5 5 5 5 5 5 5 5 5 5 5 5 5 5 5 5 3 5 5 5 3 3 5 5 5 5 5 5 5 5 5 5 5 5 5 5 5 5 5 5 5 5 5 5 5 5 5 5 5 3 5 5 5 5 5 5 5 3 5 5 5 5 5 5 5 5 5 5 5 5 5 5 5 3 5 5 5 5 5 5 5 5 3 5 3 3 5 5 5 5 5 5 5 5 5 5 5 5 3 5 5 5 5 5 5 5 5 5 5 5 5 5 5 5 5 5 5 3 5 5 5 3 5 5 5 5 5 5 5 5 3 5 5 5 5 5 5 5 5 5 5 5 5 5 5 5 3 5 5 5 3 5 5 5 5 5 5 5 5 5 5 5 5 5 5 5 5 5 5 5 5 5 5 5 5 5 5 5 5 5 5 5 5 5 3 5 3 5 5 5 5 5 5 5 5 3 5 5 5 5 5 5 5 5 5 3 5 5 3 5 5 5 5 5 3 5 5 5 5 3 5 5 5 5 3 5 5 5 3 5 3 5 5 3 5 5 5 5 5 5 5 5 5 5 5 5 5 5 3 5 5 3 5 3 5 5 5 3 5 5 3 5 5 5 5 3 5 3 5 5 5 5 5 5 3 5 3 5 5 5 5 5 3 5 5 5 5 3 5 5 5 5 5 5 3 5 5 5 5 5 5 5 5 5 5 5 5 5 5 5 5 5 5 5 5 5 5 5 5 5 5 5 5 5 5 5 5 5 3 3 5 5 5 5 5 5 5 5 5 5 3 5 5 3 3 5 3 5 5 5 5 5 5 5 3 5 5 5 5 5 5 5 5 5 5 5 5 3 5 5 5 5 3 5 5 5 5 5 5 5 5 5 5 5 5 3 5 5 5 5 5 5 5 5 5 5 5 5 5 5 5 5 5 3 5 5 5 5 5 3 5 5 5 3 5 5 5 5 5 5 3 5 3 5 5 5 3 5 5 5 5 5 5 5 5 5 3 5 5 3 5 5 5 5 5 5 5 3 5 5 5 5 5 5 5 5 5 5 5 5 5 3 5 5 3 5 5 5 5 5 5 3 5 5 5 5 5 5 3 5 5 5 5 5 5 5 3 5 5 5 5 5 5 5 5 5 5 5 5 5 5 5 5 5 5 5 5 5 5 3 5 5 5 5 5 5 5 5 5 5 3 5 5 5 5 3 3 5 5 5 5 3 5 5 5 5 5 5 5 5 5 3 5 5 5 5 5 5 5 5 5 5 5 3 5 5 5 3 5 5 5 3 5 5 5 5 5 5 5 5 5 5 5 5 3 5 5 5 5 5 3 5 5 3 5 5 5 5 5 5 5 5 5 5 5 5 5 5 3 5 5 5 5 5 5 5 3 5 5 5 3 5 5 5 5 5 3 5 5 5 5 5 5 5 5 5 3 5 5 5 5 5 5 5 5 3 5 5 5 5 5 3 5 5 5 5 5 5 5 3 5 5 5 5 5 5 5 5 5 5 5 5 5 5 5 5 5 5 5 5 5 5 5 5 5 5 5 5 5 5 5 5 5 5 5 5 5 5 5 5 5 5 5 5 5 5 5 5 3 5 5 5 5 5 5 5 3 5 5 5 5 5 5 5 5 5 5 5 5 5 5 5 5 5 5 5 5 5 5 3 3 5 5 3 3 5 5 5 5 5 5 5 3 5 5 5 5 5 5 5 5 5 5 5 5 5 5 3 5 5 5 5 5 5 5 5 3 5 5 3 5 5 5 3 5 5 5 5 5 5 5 5 5 5 5 5 5 5 5 5 5 5 5 5 5 5 5 5 5 5 5 5 3 5 5 5 5 5 5 5 5 3 5 5 5 5 5 5 3 3 5 5 5 5 3 5 5 3 5 5 3 5 5 5 5 5 5 3 5 5 5 5 5 5 5 5 3 5 5 5 5 5 5 5 5 5 5 5 3 5 5 3 5 5 5 5 5 5 5 3 5 5 5 3 5 3 5 3 5 5 5 5 5 5 5 5 5 5 5 5 5 5 5 5 5 3 5 3 5 5 5 5 5 5 5 5 5 5 3 5 5 5 5 5 5 5 3 5 5 5 3 5 3 3 5 5 3 5 5 5 5 3 5 5 5 3 5 5 5 3 5 3 3 5 5 5 5 5 5 3 5 5 5 5 5 5 5 5 3 3 3 5 3 5 5 3 3 5 5 3 5 5 5 5 5 5 5 5 5 5 5 3 5 5 5 5 5 5 5 5 5 5 5 5 5 3 3 5 5 5 5 3 5 5 5 3 5 5 5 5 5 3 3 5 5 5 3 5 5 5 5 5 5 5 5 5 5 5 5 5 5 5 3 5 5 5 3 5 5 5 3 5 5 5 5 5 5 3 5 5 5 5 5 3 5 5 5 5 5 5 5 5 3 5 5 5 5 5 5 5 5 5 3 5 5 5 5 3 5 3 5 5 3 5 3 5 5 5 5 5 5 3 5 3 3 5 5 5 5 5 5 5 5 3 5 3 5 3 5 3 5 5 5 5 5 5 5 5 5 5 5 3 5 5 5 3 5 5 5 5 5 5 5 5 3 5 5 5 5 5 5 5 5 5 3 5 5 5 5 3 5 5 3 5 5 5 5 5 5 5 5 5 3 5 5 5 3 5 5 5 5 5 5 5 5 5 5 5 5 5 5 5 5 5 5 5 3 5 5 5 5 5 5 5 5 5 5 3 5 5 5 5 5 5 5 5 5 5 5 5 5 5 5 5 5 5 5 5 5 5 5 5 5 5 5 5 5 5 5 5 5 5 5 5 5 5 5 5 5 5 5 5 5 3 3 5 5 5 5 5 5 5 5 5 5 5 5 5 3 3 5 5 5 3 5 5 3 5 5 5 3 5 5 5 3 5 5 5 5 5 5 5 5 3 5 5 3 5 3 3 5 5 5 5 5 5 3 5 3 3 3 5 5 3 5 5 3 3 5 5 5 5 5 5 5 5 5 5 5 5 5 5 5 5 5 5 5 5 5 3 5 5 5 5 5 5 5 5 5 3 5 5 5 5 5 5 5 3 3 5 5 5 5 5 5 5 5 5 5 5 5 5 5 5 5 5 5 5 5 5 5 5 3 5 3 5 5 5 5 5 5 5 3 5 5 5 3 3 5 5 3 5 5 5 5 3 5 5 5 3 5 5 5 3 5 5 5 5 5 5 5 5 5 3 3 5 5 5 5 5 3 5 5 3 3 3 5 5 5 5 5 3 5 5 5 5 5 5 5 5 5 3 5 3 5 5 5 5 5 5 5 5 5 5 5 5 5 5 5 5 5 5 5 5 5 5 5 5 3 5 5 5 5 3 3 5 5 5 3 5 5 5 5 5 5 5 5 5 5 5 5 5 5 5 5 3 5 5 5 3 5 5 3 5 5 5 5 5 5 5 5 5 5 5 5 5 3 5 5 3 5 5 5 3 5 3 5 3 5 3 3 3 5 5 5 5 5 5 5 5 3 5 5 5 5 5 5 5 5 3 5 5 3 5 5 5 5 5 5 5 5 5 5 5 5 5 5 5 5 5 5 5 5 5 3 5 5 5 5 5 5 5 5 5 5 3 5 3 5 5 3 5 3 5 3 5 5 3 5 3 5 5 3 5 5 5 3 5 5 5 5 5 5 5 5 5 5 5 5 5 5 5 5 5 5 5 5 5 5 5 5 5 5 5 5 5 5 5 5 5 5 5 5 5 5 5 5 5 5 5 5 5 5 5 5 5 5 5 5 5 5 5 5 5 5 5 5 5 3 5 5 3 5 5 5 5 5 5 3 3 5 5 5 5 5 5 5 5 5 5 5 5 5 5 5 5 5 5 3 5 5 5 3 5 5 5 5 5 5 5 5 5 5 5 5 5 5 5 5 3 5 5 5 5 5 5 5 3 5 5 5 5 5 5 5 5 3 5 3 5 5 5 5 5 5 5 5 5 5 5 5 5 5 5 5 3 5 5 5 5 5 5 5 3 5 5 5 5 3 5 5 5 5 5 5 5 3 5 5 3 3 5 5 3 5 5 5 5 5 5 3 5 5 5 5 5 5 5 5 5 3 5 5 3 5 5 3 5 5 3 5 5 5 5 5 3 5 5 5 5 5 5 5 5 3 5 5 5 5 5 5 5 3 5 5 5 5 5 5 5 5 5 5 5 5 3 5 5 5 5 5 5 5 3 3 5 3 5 3 5 5 5 5 5 5 5 5 5 5 5 5 5 5 5 3 5 3 5 5 5 5 5 5 5 5 3 5 3 5 3 5 3 5 3 5 5 3 5 5 5 5 5 3 5 5 5 5 5 5 5 5 3 5 5 5 5 5 3 5 5 3 5 3 3 5 5 5 5 5 5 5 5 3 5 5 5 5 5 5 5 5 5 5 5 5 5 3 5 5 5 5 5 5 5 3 5 5 5 3 5 5 5 5 5 5 5 5 5 5 5 5 5 5 5 5 5 3 5 5 5 5 5 5 5 3 5 5 3 5 5 5 5 5 5 5 5 5 5 5 5 5 5 5 3 5 5 5 5 3 5 5 5 5 5 5 5 5 5 5 5 5 5 5 5 5 5 5 5 5 5 5 5 5 5 3 5 5 5 5 5 5 3 5 5 5 5 5 5 5 5 5 3 3 5 5 5 3 5 3 5 5 5 5 5 5 5 5 5 5 5 5 5 5 5 3 5 5 5 5 5 5 5 5 5 5 5 5 3 3 5 5 5 5 5 5 5 5 3 5 5 3 5 5 3 3 5 5 5 5 5 5 5 3 5 5 5 5 5 5 5 5 5 3 5 5 5 3 5 5 5 5 5 3 5 5 5 5 5 5 5 5 5 5 5 5 3 5 5 5 3 5 5 5 3 5 5 5 5 5 5 5 5 5 5 5 5 5 5 5 5 5 5 5 5 5 5 5 5 5 5 5 5 5 5 5 5 3 5 5 5 5 5 5 5 5 5 5 5 5 5 5 5 5 5 5 5 5 5 5 5 5 3 5 3 5 5 3 5 5 5 5 5 5 5 5 5 3 5 5 5 5 5 5 5 5 5 5 5 5 5 5 3 5 5 5 5 3 5 5 5 3 5 5 5 5 5 5 5 5 5 5 5 5 5 5 5 5 5 5 5 5 5 5 5 5 5 5 5 5 5 5 5 5 5 5 5 5 5 5 5 5 5 5 5 5 5 5 5 5 5 5 5 5 5 5 5 5 5 5 5 5 5 5 5 5 5 5 5 5 5 5 5 5 5 5 5 5 5 5 5 5 5 5 5 5 5 5 5 5 5 5 5 5 5 5 5 5 5 5 5 5 5 5 5 5 5 5 5 5 5 5 5 5 5 5 5 5 5 5 5 5 5 5 5 5 5 5 5 5 5 5 5 5 5 5 5 5 5 5 5 5 5 5 5 5 5 5 5 5 5 5 5 5 5 5 5 5 5 5 5 5 5 5 5 5 5 5 5 5 5 5 5 5 5 5 5 5 5 5 5 5 5 5 5 5 5 5 5 5 5 3 5 5 5 5 5 5 5 5 5 5 5 5 5 5 5 5 3 5 5 5 5 5 5 5 5 3 5 5 5 5 3 5 5 5 5 5 5 5 5 5 5 5 5 5 5 5 5 5 5 5 5 5 5 3 5 5 5 5 5 5 5 5 5 5 5 5 5 3 3 5 5 5 5 5 3 5 3 5 5 5 5 5 5 5 5 5 5 5 3 5 5 5 5 5 5 5 3 5 5 5 5 5 5 5 5 5 5 5 5 5 5 5 3 3 5 5 5 5 5 5 5 5 5 5 5 5 3 5 5 5 5 5 5 5 5 5 5 5 5 5 5 5 5 3 5 5 5 5 5 5 5 3 5 5 5 5 5 5 5 5 5 5 3 3 5 5 5 5 5 5 5 5 5 5 5 5 5 5 5 5 5 5 5 5 5 5 5 5 5 5 5 5 5 5 3 5 5 5 5 5 3 5 5 5 5 5 5 5 5 5 5 3 5 5 5 5 3 5 5 5 5 5 5 5 5 5 5 3 5 3 5 5 5 5 5 5 5 5 5 5 5 5 5 5 5 5 5 5 5 5 5 5 5 5 5 5 5 5 5 5 5 3 5 5 5 5 5 3 5 5 5 5 5 5 5 5 5 5 5 5 5 5 5 5 5 5 3 5 5 3 5 5 5 3 5 5 5 5 5 3 5 5 5 5 5 5 5 5 5 5 3 5 5 5 5 5 5 3 5 5 5 5 5 3 3 5 5 3 5 5 3 5 5 5 5 5 5 5 5 5 5 3 5 5 3 5 5 3 5 5 3 5 5 3 5 5 3 5 5 5 5 5 5 3 5 5 5 5 5 5 5 5 5 5 5 3 5 5 5 5 5 5 5 3 5 5 5 5 3 5 5 5 3 5 5 5 5 5 5 5 5 5 5 5 3 5 5 5 5 5 5 5 5 5 5 5 5 5 5 5 5 5 5 5 5 5 5 5 5 3 5 5 5 5 5 3 5 5 5 5 5 5 5 5 5 5 5 5 5 5 3 5 5 3 5 3 5 5 5 5 3 5 3 3 5 3 5 5 5 5 5 5 5 3 5 3 5 5 5 5 5 5 3 5 5 5 5 5 5 3 5 5 5 5 3 5 5 5 5 5 3 5 5 3 5 5 5 5 3 5 5 5 5 3 5 5 5 5 5 5 3 5 5 5 5 5 5 5 5 5 3 5 5 5 5 5 5 3 5 5 5 5 3 5 5 5 5 5 5 5 5 5 5 5 5 5 5 5 5 3 5 5 5 3 5 5 3 5 5 5 5 5 5 5 5 5 5 5 5 5 5 5 5 3 5 3 5 5 5 5 5 5 5 5 5 5 5 5 5 5 5 5 5 5 5 5 5 5 5 5 5 5 3 5 5 3 5 5 5 5 5 5 5 5 5 5 3 5 5 5 5 3 5 5 5 5 3 5 5 5 5 5 5 5 5 5 3 5 5 5 5 5 5 5 5 5 5 5 5 5 5 5 5 5 5 5 5 5 5 5 5 5 5 5 5 
</DataArray>
</Cells>
<PointData Scalars="" Vectors="displacement," Tensors="">
<DataArray type="Float64" Name="displacement" NumberOfComponents="3" format="ascii">
0.074994589268829598 0.074995776736442477 0 0.069920938857263679 0.073662860961013502 0 0.063221303976329316 0.074990006409687837 0 0.074994589268829598 0.074995776736442477 0 0.073803632120040485 0.072265105843283939 0 0.069920938857263679 0.073662860961013502 0 0.074994589268829598 0.074995776736442477 0 0.073803632120040485 0.072265105843283939 0 0.074995798304341152 0.067297069693357567 0 0.073803632120040485 0.072265105843283939 0 0.074995798304341152 0.067297069693357567 0 0.074258281157768766 0.071221214031785246 0 0.074995798304341152 0.067297069693357567 0 0.074258281157768766 0.071221214031785246 0 0.075238686841704969 0.065914267906601598 0 0.072755589286572983 0.073229123030963281 0 0.07246924226164847 0.073819602570290271 0 0.074258281157768766 0.071221214031785246 0 0.080686400233049183 0.071873008402685429 0 0.081188911627611979 0.068668257727887538 0 0.074258281157768766 0.071221214031785246 0 0.081188911627611979 0.068668257727887538 0 0.078494343049143586 0.066202292642188368 0 0.073803632120040485 0.072265105843283939 0 0.074258281157768766 0.071221214031785246 0 0.069920938857263679 0.073662860961013502 0 0.074258281157768766 0.071221214031785246 0 0.069920938857263679 0.073662860961013502 0 0.068238598327297159 0.074955718807479838 0 0.069920938857263679 0.073662860961013502 0 0.065072414914844084 0.074198820393129222 0 0.068238598327297159 0.074955718807479838 0 0.069920938857263679 0.073662860961013502 0 0.063221303976329316 0.074990006409687837 0 0.065072414914844084 0.074198820393129222 0 0.063198575293787904 0.074999991190438167 0 0.061603008795113406 0.077828975472336762 0 0.059082946657738653 0.074999987906411311 0 0.063200800972602209 0.075000960953361201 0 0.064221097041214398 0.075368573378657225 0 0.059082946657738653 0.074999987906411311 0 0.058473461047318709 0.078196177841559272 0 0.055700027604082929 0.077350345019335479 0 0.059082946657738653 0.074999987906411311 0 0.054967283256612487 0.074999985769378427 0 0.055700027604082929 0.077350345019335479 0 0.061603008795113406 0.077828975472336762 0 0.059082946657738653 0.074999987906411311 0 0.058473461047318709 0.078196177841559272 0 0.061603008795113406 0.077828975472336762 0 0.058473461047318709 0.078196177841559272 0 0.06002003353738803 0.080650664229471369 0 0.064221097041214398 0.075368573378657225 0 0.066424599593404562 0.074065069461881586 0 0.058473461047318709 0.078196177841559272 0 0.05649964262735932 0.079880597482242646 0 0.06002003353738803 0.080650664229471369 0 0.058473461047318709 0.078196177841559272 0 0.05649964262735932 0.079880597482242646 0 0.055700027604082929 0.077350345019335479 0 0.056948201210242848 0.075963461917380473 0 0.066424599593404562 0.074065069461881586 0 0.052224284916067683 0.079264166509780812 0 0.052078931582019219 0.079215228187464182 0 0.05197746511884372 0.079263291371994893 0 0.052224284916067683 0.079264166509780812 0 0.052078931582019219 0.079215228187464182 0 0.052103978727576765 0.079241926435437204 0 0.052078931582019219 0.079215228187464182 0 0.05197746511884372 0.079263291371994893 0 0.052004380424524911 0.079090347707753167 0 0.085192292092664559 0.072236758754109537 0 0.086472481117735145 0.0692366367367548 0 0.083625426311324899 0.07009444032661731 0 0.066424599593404562 0.074065069461881586 0 0.067052788752511597 0.072805831254105655 0 0.086472481117735145 0.0692366367367548 0 0.083625426311324899 0.07009444032661731 0 0.08454281488756768 0.068171911829461446 0 0.052004380424524911 0.079090347707753167 0 0.052103978727576765 0.079241926435437204 0 0.052108756585215403 0.07908410147931226 0 0.052078931582019219 0.079215228187464182 0 0.052004380424524911 0.079090347707753167 0 0.052103978727576765 0.079241926435437204 0 0.085192292092664559 0.072236758754109537 0 0.080686400233049183 0.071873008402685429 0 0.083625426311324899 0.07009444032661731 0 0.066424599593404562 0.074065069461881586 0 0.07246924226164847 0.073819602570290271 0 0.065072414914844084 0.074198820393129222 0 0.064745855069509431 0.075319943983701163 0 0.068238598327297159 0.074955718807479838 0 0.083625426311324899 0.07009444032661731 0 0.081188911627611979 0.068668257727887538 0 0.083155818647036958 0.068417480144743109 0 0.083625426311324899 0.07009444032661731 0 0.083155818647036958 0.068417480144743109 0 0.08454281488756768 0.068171911829461446 0 0.080686400233049183 0.071873008402685429 0 0.083625426311324899 0.07009444032661731 0 0.081188911627611979 0.068668257727887538 0 0.081188911627611979 0.068668257727887538 0 0.081118961736848932 0.066561605821439537 0 0.078494343049143586 0.066202292642188368 0 0.081118961736848932 0.066561605821439537 0 0.080659406016603846 0.064585388114568293 0 0.078494343049143586 0.066202292642188368 0 0.081118961736848932 0.066561605821439537 0 0.082147116362080344 0.066554940747890062 0 0.082042007644933121 0.0655849831510016 0 0.081118961736848932 0.066561605821439537 0 0.082383835590834828 0.06742331467404547 0 0.082147116362080344 0.066554940747890062 0 0.081188911627611979 0.068668257727887538 0 0.081118961736848932 0.066561605821439537 0 0.082383835590834828 0.06742331467404547 0 0.081188911627611979 0.068668257727887538 0 0.083155818647036958 0.068417480144743109 0 0.082383835590834828 0.06742331467404547 0 0.083155818647036958 0.068417480144743109 0 0.082383835590834828 0.06742331467404547 0 0.083448166501936233 0.067253194820216924 0 0.083155818647036958 0.068417480144743109 0 0.083448166501936233 0.067253194820216924 0 0.08454281488756768 0.068171911829461446 0 0.083448166501936233 0.067253194820216924 0 0.08454281488756768 0.068171911829461446 0 0.084521909921202315 0.066887660640370508 0 0.080698855101743613 0.062835283062787961 0 0.080655514147329771 0.062325309056325419 0 0.083448166501936233 0.067253194820216924 0 0.083045608785288896 0.06665242195189712 0 0.083816784356736701 0.065326386351428192 0 0.083448166501936233 0.067253194820216924 0 0.083702269896658146 0.066364473958286554 0 0.084521909921202315 0.066887660640370508 0 0.080646914052325339 0.062520931826379619 0 0.080655514147329771 0.062325309056325419 0 0.083045608785288896 0.06665242195189712 0 0.082042007644933121 0.0655849831510016 0 0.083686165576652524 0.065441157613478379 0 0.082383835590834828 0.06742331467404547 0 0.082147116362080344 0.066554940747890062 0 0.083045608785288896 0.06665242195189712 0 0.082383835590834828 0.06742331467404547 0 0.083448166501936233 0.067253194820216924 0 0.083045608785288896 0.06665242195189712 0 0.082147116362080344 0.066554940747890062 0 0.083045608785288896 0.06665242195189712 0 0.082042007644933121 0.0655849831510016 0 0.082042007644933121 0.0655849831510016 0 0.083686165576652524 0.065441157613478379 0 0.08227014973303759 0.063729117110808114 0 0.080655514147329771 0.062325309056325419 0 0.081159351192561041 0.059634389662394927 0 0.083686165576652524 0.065441157613478379 0 0.08227014973303759 0.063729117110808114 0 0.084151884101684116 0.061692926559354558 0 0.08227014973303759 0.063729117110808114 0 0.080659406016603846 0.064585388114568293 0 0.080850985662541897 0.061433384033616388 0 0.080659406016603846 0.064585388114568293 0 0.080850985662541897 0.061433384033616388 0 0.078529192785310856 0.063945047904954422 0 0.082042007644933121 0.0655849831510016 0 0.08227014973303759 0.063729117110808114 0 0.080659406016603846 0.064585388114568293 0 0.081118961736848932 0.066561605821439537 0 0.082042007644933121 0.0655849831510016 0 0.080659406016603846 0.064585388114568293 0 0.086472481117735145 0.0692366367367548 0 0.087320185634910188 0.06676678998579573 0 0.085728811883493752 0.067095330425144886 0 0.052004380424524911 0.079090347707753167 0 0.052026309729094458 0.078803438964389058 0 0.052108756585215403 0.07908410147931226 0 0.067052788752511597 0.072805831254105655 0 0.066999903089523916 0.070534970952059434 0 0.087320185634910188 0.06676678998579573 0 0.085728811883493752 0.067095330425144886 0 0.086270415588959093 0.066066117822268747 0 0.086472481117735145 0.0692366367367548 0 0.085728811883493752 0.067095330425144886 0 0.08454281488756768 0.068171911829461446 0 0.085728811883493752 0.067095330425144886 0 0.08454281488756768 0.068171911829461446 0 0.084521909921202315 0.066887660640370508 0 0.083702269896658146 0.066364473958286554 0 0.085201232014689099 0.065696922384926665 0 0.085147884041149341 0.06415786676420665 0 0.080655514147329771 0.062325309056325419 0 0.080171246979046165 0.059740490886198448 0 0.085728811883493752 0.067095330425144886 0 0.084521909921202315 0.066887660640370508 0 0.085201232014689099 0.065696922384926665 0 0.083702269896658146 0.066364473958286554 0 0.084521909921202315 0.066887660640370508 0 0.085201232014689099 0.065696922384926665 0 0.085728811883493752 0.067095330425144886 0 0.085201232014689099 0.065696922384926665 0 0.086270415588959093 0.066066117822268747 0 0.085201232014689099 0.065696922384926665 0 0.086270415588959093 0.066066117822268747 0 0.08682097099295541 0.064738860764992787 0 0.087320185634910188 0.06676678998579573 0 0.08682097099295541 0.064738860764992787 0 0.08826646614195717 0.064705149100869733 0 0.087320185634910188 0.06676678998579573 0 0.086270415588959093 0.066066117822268747 0 0.08682097099295541 0.064738860764992787 0 0.08682097099295541 0.064738860764992787 0 0.086384496142907705 0.063694706997148798 0 0.085147884041149341 0.06415786676420665 0 0.08682097099295541 0.064738860764992787 0 0.086384496142907705 0.063694706997148798 0 0.087245260331647173 0.063589092828162996 0 0.085201232014689099 0.065696922384926665 0 0.08682097099295541 0.064738860764992787 0 0.085147884041149341 0.06415786676420665 0 0.080171246979046165 0.059740490886198448 0 0.078350817232935896 0.055707249019165309 0 0.08076067158128708 0.058743161361361408 0 0.0801385332777175 0.056490030556737209 0 0.082016874005500576 0.056515642788400586 0 0.08076067158128708 0.058743161361361408 0 0.0801385332777175 0.056490030556737209 0 0.079817825900272588 0.058730863181555883 0 0.081422232286334092 0.055824258647783474 0 0.078350817232935896 0.055707249019165309 0 0.086297118938924264 0.062341481289873935 0 0.087245260331647173 0.063589092828162996 0 0.087646517437585128 0.062418777333397651 0 0.086384496142907705 0.063694706997148798 0 0.086297118938924264 0.062341481289873935 0 0.087245260331647173 0.063589092828162996 0 0.078350817232935896 0.055707249019165309 0 0.074167597608544411 0.057101493258708551 0 0.086384496142907705 0.063694706997148798 0 0.085147884041149341 0.06415786676420665 0 0.086297118938924264 0.062341481289873935 0 0.079500521634089535 0.06098100076443657 0 0.08076067158128708 0.058743161361361408 0 0.079817825900272588 0.058730863181555883 0 0.08227014973303759 0.063729117110808114 0 0.080850985662541897 0.061433384033616388 0 0.084151884101684116 0.061692926559354558 0 0.084658558835766354 0.058070453023143342 0 0.080850985662541897 0.061433384033616388 0 0.084151884101684116 0.061692926559354558 0 0.081422232286334092 0.055824258647783474 0 0.081159351192561041 0.059634389662394927 0 0.084658558835766354 0.058070453023143342 0 0.080850985662541897 0.061433384033616388 0 0.079798406565306207 0.058022658457437759 0 0.080850985662541897 0.061433384033616388 0 0.078024893216839655 0.060960687850102779 0 0.079798406565306207 0.058022658457437759 0 0.078024893216839655 0.060960687850102779 0 0.074990975164858559 0.05796107472988507 0 0.079798406565306207 0.058022658457437759 0 0.080850985662541897 0.061433384033616388 0 0.078024893216839655 0.060960687850102779 0 0.078529192785310856 0.063945047904954422 0 0.078024893216839655 0.060960687850102779 0 0.076271888848405522 0.06271074216137211 0 0.078529192785310856 0.063945047904954422 0 0.077218493589176929 0.062847018074032937 0 0.07628357435839131 0.060373454163543672 0 0.076237488443487156 0.063490755846991945 0 0.081218194846007022 0.060453912528493164 0 0.080639463106580558 0.058308491897788285 0 0.078142271630712079 0.058800831338531423 0 0.078606962210037282 0.059655047796277533 0 0.076901391911818079 0.058638314956448244 0 0.078606962210037282 0.059655047796277533 0 0.078608774819591484 0.059685461125686658 0 0.078606962210037282 0.059655047796277533 0 0.078615586679279675 0.058432898953072902 0 0.078024893216839655 0.060960687850102779 0 0.076271888848405522 0.06271074216137211 0 0.075632019908134313 0.060334987323575499 0 0.078024893216839655 0.060960687850102779 0 0.075632019908134313 0.060334987323575499 0 0.074990975164858559 0.05796107472988507 0 0.078615586679279675 0.058432898953072902 0 0.078589700741709595 0.056565163044866376 0 0.080639463106580558 0.058308491897788285 0 0.079185314812601285 0.057530870618646791 0 0.080060131437949544 0.056146999479465137 0 0.079185314812601285 0.057530870618646791 0 0.078142271630712079 0.058800831338531423 0 0.078353885607755067 0.05611263376491938 0 0.078142271630712079 0.058800831338531423 0 0.076520862944484 0.055858416902751687 0 0.078353885607755067 0.05611263376491938 0 0.079185314812601285 0.057530870618646791 0 0.078353885607755067 0.05611263376491938 0 0.080060131437949544 0.056146999479465137 0 0.080639463106580558 0.058308491897788285 0 0.079185314812601285 0.057530870618646791 0 0.078142271630712079 0.058800831338531423 0 0.075001417399700343 0.0571439224668156 0 0.076901391911818079 0.058638314956448244 0 0.075000006984322021 0.05714198322086838 0 0.078142271630712079 0.058800831338531423 0 0.076520862944484 0.055858416902751687 0 0.074999750710062429 0.057144636161516639 0 0.07628357435839131 0.060373454163543672 0 0.074998139609238804 0.06149803443232791 0 0.07628357435839131 0.060373454163543672 0 0.076237488443487156 0.063490755846991945 0 0.074998139609238804 0.06149803443232791 0 0.076237488443487156 0.063490755846991945 0 0.074998139609238804 0.06149803443232791 0 0.075238686841704969 0.065914267906601598 0 0.074995798304341152 0.067297069693357567 0 0.074998139609238804 0.06149803443232791 0 0.075238686841704969 0.065914267906601598 0 0.076237488443487156 0.063490755846991945 0 0.075238686841704969 0.065914267906601598 0 0.076097781605473647 0.066088090213823239 0 0.074258281157768766 0.071221214031785246 0 0.075238686841704969 0.065914267906601598 0 0.076097781605473647 0.066088090213823239 0 0.074258281157768766 0.071221214031785246 0 0.076097781605473647 0.066088090213823239 0 0.078494343049143586 0.066202292642188368 0 0.076097781605473647 0.066088090213823239 0 0.078494343049143586 0.066202292642188368 0 0.077229126490641176 0.0645201134368142 0 0.078494343049143586 0.066202292642188368 0 0.078529192785310856 0.063945047904954422 0 0.077229126490641176 0.0645201134368142 0 0.080659406016603846 0.064585388114568293 0 0.078494343049143586 0.066202292642188368 0 0.078529192785310856 0.063945047904954422 0 0.07713828036585603 0.062861933259664993 0 0.078529192785310856 0.063945047904954422 0 0.077200929510440441 0.063157663541737047 0 0.078529192785310856 0.063945047904954422 0 0.077200929510440441 0.063157663541737047 0 0.077229126490641176 0.0645201134368142 0 0.078606962210037282 0.059655047796277533 0 0.078760646271502158 0.060150931540152469 0 0.076237488443487156 0.063490755846991945 0 0.077200929510440441 0.063157663541737047 0 0.077229126490641176 0.0645201134368142 0 0.077218493589176929 0.062847018074032937 0 0.076237488443487156 0.063490755846991945 0 0.077200929510440441 0.063157663541737047 0 0.076237488443487156 0.063490755846991945 0 0.076097781605473647 0.066088090213823239 0 0.077229126490641176 0.0645201134368142 0 0.032077673648806454 0.078646004465629124 0 0.0286884804610326 0.074502554039939217 0 0.037739284500736298 0.080959314921307049 0 0.037533572468739125 0.085488854423350996 0 0.03513021214002842 0.082030649667826652 0 0.041213886206554806 0.082028761249654372 0 0.038378831701323869 0.081088864101590497 0 0.038136513467468353 0.084285312550830563 0 0.041213886206554806 0.082028761249654372 0 0.04105879553933147 0.084808846834572765 0 0.038136513467468353 0.084285312550830563 0 0.041213886206554806 0.082028761249654372 0 0.043796877257020098 0.083230638637392496 0 0.04105879553933147 0.084808846834572765 0 0.041213886206554806 0.082028761249654372 0 0.040136161351976632 0.079564207547313345 0 0.042380825693642536 0.079284830479379884 0 0.041213886206554806 0.082028761249654372 0 0.040136161351976632 0.079564207547313345 0 0.038378831701323869 0.081088864101590497 0 0.032077673648806454 0.078646004465629124 0 0.033184492361064202 0.078478858659261005 0 0.040136161351976632 0.079564207547313345 0 0.038378831701323869 0.081088864101590497 0 0.03844997281762718 0.077742059069591293 0 0.037739284500736298 0.080959314921307049 0 0.03844997281762718 0.077742059069591293 0 0.034623860140891576 0.078531948990533715 0 0.03844997281762718 0.077742059069591293 0 0.03850428381860798 0.074999331248817636 0 0.041035730430875043 0.077189060767902537 0 0.03844997281762718 0.077742059069591293 0 0.03850428381860798 0.074999331248817636 0 0.035991599442054503 0.076449324600159685 0 0.03850428381860798 0.074999331248817636 0 0.041035730430875043 0.077189060767902537 0 0.042620188949629864 0.074999906693462001 0 0.040136161351976632 0.079564207547313345 0 0.03844997281762718 0.077742059069591293 0 0.041035730430875043 0.077189060767902537 0 0.040136161351976632 0.079564207547313345 0 0.041035730430875043 0.077189060767902537 0 0.042380825693642536 0.079284830479379884 0 0.042380825693642536 0.079284830479379884 0 0.043729569948731645 0.076962508677618932 0 0.044682641757204732 0.078934092482385407 0 0.041035730430875043 0.077189060767902537 0 0.042380825693642536 0.079284830479379884 0 0.043729569948731645 0.076962508677618932 0 0.042620188949629864 0.074999906693462001 0 0.043729569948731645 0.076962508677618932 0 0.04673579578718326 0.074999875300236121 0 0.041035730430875043 0.077189060767902537 0 0.042620188949629864 0.074999906693462001 0 0.043729569948731645 0.076962508677618932 0 0.043729569948731645 0.076962508677618932 0 0.04673579578718326 0.074999875300236121 0 0.045841038943415589 0.077407310207519259 0 0.045841038943415589 0.077407310207519259 0 0.044682641757204732 0.078934092482385407 0 0.047060449337216051 0.078842657428333976 0 0.043729569948731645 0.076962508677618932 0 0.045841038943415589 0.077407310207519259 0 0.044682641757204732 0.078934092482385407 0 0.044682641757204732 0.078934092482385407 0 0.045852861992118757 0.080389677970587672 0 0.047060449337216051 0.078842657428333976 0 0.045852861992118757 0.080389677970587672 0 0.045385551737200623 0.082331561733084493 0 0.046901483330214398 0.081581700596496859 0 0.045852861992118757 0.080389677970587672 0 0.043839699383682477 0.08101927463110857 0 0.045385551737200623 0.082331561733084493 0 0.044682641757204732 0.078934092482385407 0 0.045852861992118757 0.080389677970587672 0 0.043839699383682477 0.08101927463110857 0 0.041213886206554806 0.082028761249654372 0 0.042380825693642536 0.079284830479379884 0 0.043839699383682477 0.08101927463110857 0 0.042380825693642536 0.079284830479379884 0 0.044682641757204732 0.078934092482385407 0 0.043839699383682477 0.08101927463110857 0 0.041213886206554806 0.082028761249654372 0 0.043839699383682477 0.08101927463110857 0 0.043796877257020098 0.083230638637392496 0 0.043839699383682477 0.08101927463110857 0 0.043796877257020098 0.083230638637392496 0 0.045385551737200623 0.082331561733084493 0 0.043796877257020098 0.083230638637392496 0 0.045385551737200623 0.082331561733084493 0 0.045474443815897533 0.084070525242688904 0 0.045385551737200623 0.082331561733084493 0 0.047534527792745244 0.083341607459592973 0 0.045474443815897533 0.084070525242688904 0 0.045385551737200623 0.082331561733084493 0 0.046901483330214398 0.081581700596496859 0 0.047534527792745244 0.083341607459592973 0 0.043042285451015738 0.077788400163276011 0 0.043515731912361383 0.078565787327110004 0 0.047617919628392125 0.083039168743990366 0 0.049815476855100592 0.083191459631191872 0 0.048612058947249626 0.080881706845265952 0 0.046901483330214398 0.081581700596496859 0 0.047534527792745244 0.083341607459592973 0 0.048612058947249626 0.080881706845265952 0 0.049731094259175622 0.081735951685170491 0 0.049960724594191527 0.080821989348201978 0 0.048933115619423054 0.079205836269519464 0 0.048403946818682778 0.076278840474482176 0 0.049336163190025629 0.077230536142314635 0 0.049731094259175622 0.081735951685170491 0 0.049960724594191527 0.080821989348201978 0 0.050942027966509998 0.080682473097061974 0 0.049960724594191527 0.080821989348201978 0 0.048933115619423054 0.079205836269519464 0 0.049672521419003662 0.079590838662037477 0 0.048403946818682778 0.076278840474482176 0 0.049043116105935841 0.079180430770613972 0 0.049815476855100592 0.083191459631191872 0 0.048933115619423054 0.079205836269519464 0 0.048612058947249626 0.080881706845265952 0 0.049960724594191527 0.080821989348201978 0 0.050107626864991373 0.080020885933040783 0 0.050600584260286491 0.080116342918947411 0 0.049960724594191527 0.080821989348201978 0 0.050107626864991373 0.080020885933040783 0 0.049672521419003662 0.079590838662037477 0 0.050107626864991373 0.080020885933040783 0 0.050342419333986525 0.07947695371784505 0 0.050600584260286491 0.080116342918947411 0 0.050107626864991373 0.080020885933040783 0 0.050342419333986525 0.07947695371784505 0 0.049672521419003662 0.079590838662037477 0 0.048933115619423054 0.079205836269519464 0 0.047477559389154385 0.080171782084615867 0 0.047060449337216051 0.078842657428333976 0 0.048933115619423054 0.079205836269519464 0 0.048612058947249626 0.080881706845265952 0 0.047477559389154385 0.080171782084615867 0 0.045852861992118757 0.080389677970587672 0 0.046901483330214398 0.081581700596496859 0 0.047477559389154385 0.080171782084615867 0 0.046901483330214398 0.081581700596496859 0 0.048612058947249626 0.080881706845265952 0 0.047477559389154385 0.080171782084615867 0 0.045852861992118757 0.080389677970587672 0 0.047477559389154385 0.080171782084615867 0 0.047060449337216051 0.078842657428333976 0 0.045841038943415589 0.077407310207519259 0 0.047060449337216051 0.078842657428333976 0 0.049039494591238561 0.078134149635920858 0 0.048325452880034515 0.077043767163799654 0 0.049885373264866605 0.07715594159735191 0 0.045841038943415589 0.077407310207519259 0 0.04793976279925765 0.076789726705051256 0 0.049438005027359018 0.078321954470171262 0 0.048933115619423054 0.079205836269519464 0 0.047060449337216051 0.078842657428333976 0 0.049039494591238561 0.078134149635920858 0 0.04673579578718326 0.074999875300236121 0 0.050851620382812331 0.074999977205975468 0 0.049426006361825349 0.076393793556797859 0 0.04673579578718326 0.074999875300236121 0 0.04793976279925765 0.076789726705051256 0 0.049426006361825349 0.076393793556797859 0 0.04673579578718326 0.074999875300236121 0 0.045841038943415589 0.077407310207519259 0 0.04793976279925765 0.076789726705051256 0 0.04793976279925765 0.076789726705051256 0 0.049426006361825349 0.076393793556797859 0 0.049438005027359018 0.078321954470171262 0 0.049426006361825349 0.076393793556797859 0 0.049438005027359018 0.078321954470171262 0 0.05219560091872813 0.07692110913037617 0 0.050851620382812331 0.074999977205975468 0 0.049426006361825349 0.076393793556797859 0 0.05219560091872813 0.07692110913037617 0 0.049885373264866605 0.07715594159735191 0 0.052824578860092182 0.07696496512855068 0 0.049438005027359018 0.078321954470171262 0 0.052973312141778292 0.079107109486544591 0 0.05219560091872813 0.07692110913037617 0 0.050342419333986525 0.07947695371784505 0 0.049039494591238561 0.078134149635920858 0 0.051425772476386737 0.078808688796642171 0 0.048933115619423054 0.079205836269519464 0 0.049672521419003662 0.079590838662037477 0 0.049039494591238561 0.078134149635920858 0 0.050342419333986525 0.07947695371784505 0 0.049672521419003662 0.079590838662037477 0 0.049039494591238561 0.078134149635920858 0 0.052973312141778292 0.079107109486544591 0 0.05219560091872813 0.07692110913037617 0 0.055700027604082929 0.077350345019335479 0 0.050851620382812331 0.074999977205975468 0 0.05219560091872813 0.07692110913037617 0 0.054967283256612487 0.074999985769378427 0 0.05219560091872813 0.07692110913037617 0 0.054967283256612487 0.074999985769378427 0 0.055700027604082929 0.077350345019335479 0 0.05649964262735932 0.079880597482242646 0 0.052973312141778292 0.079107109486544591 0 0.055700027604082929 0.077350345019335479 0 0.056948201210242848 0.075963461917380473 0 0.052824578860092182 0.07696496512855068 0 0.052224284916067683 0.079264166509780812 0 0.052103978727576765 0.079241926435437204 0 0.051954963640131843 0.079375448356542255 0 0.052224284916067683 0.079264166509780812 0 0.051425772476386737 0.078808688796642171 0 0.051954963640131843 0.079375448356542255 0 0.052103978727576765 0.079241926435437204 0 0.051954963640131843 0.079375448356542255 0 0.052093106455277732 0.079224797746630243 0 0.051425772476386737 0.078808688796642171 0 0.051954963640131843 0.079375448356542255 0 0.051121886396615093 0.079675979796176952 0 0.050342419333986525 0.07947695371784505 0 0.051425772476386737 0.078808688796642171 0 0.051121886396615093 0.079675979796176952 0 0.050342419333986525 0.07947695371784505 0 0.051121886396615093 0.079675979796176952 0 0.050600584260286491 0.080116342918947411 0 0.051121886396615093 0.079675979796176952 0 0.050600584260286491 0.080116342918947411 0 0.050942027966509998 0.080682473097061974 0 0.051954963640131843 0.079375448356542255 0 0.052365592339230792 0.079215535076379157 0 0.052093106455277732 0.079224797746630243 0 0.051954963640131843 0.079375448356542255 0 0.051121886396615093 0.079675979796176952 0 0.050942027966509998 0.080682473097061974 0 0.049691690369429817 0.077449951243026352 0 0.049336163190025629 0.077230536142314635 0 0.052365592339230792 0.079215535076379157 0 0.052223560879187843 0.079109777303568676 0 0.052093106455277732 0.079224797746630243 0 0.049960724594191527 0.080821989348201978 0 0.050600584260286491 0.080116342918947411 0 0.050942027966509998 0.080682473097061974 0 0.052365592339230792 0.079215535076379157 0 0.052405690344333698 0.079079316581485579 0 0.052223560879187843 0.079109777303568676 0 0.052662528429075983 0.078963530730849857 0 0.052365592339230792 0.079215535076379157 0 0.052405690344333698 0.079079316581485579 0 0.052405690344333698 0.079079316581485579 0 0.052311854028685163 0.079000341907266222 0 0.05237878175790104 0.078887580746681188 0 0.052405690344333698 0.079079316581485579 0 0.052311854028685163 0.079000341907266222 0 0.052223560879187843 0.079109777303568676 0 0.052311854028685163 0.079000341907266222 0 0.052223560879187843 0.079109777303568676 0 0.052211781878833567 0.078931474465047849 0 0.052223560879187843 0.079109777303568676 0 0.052108756585215403 0.07908410147931226 0 0.052211781878833567 0.078931474465047849 0 0.052103978727576765 0.079241926435437204 0 0.052108756585215403 0.07908410147931226 0 0.052093106455277732 0.079224797746630243 0 0.052223560879187843 0.079109777303568676 0 0.052108756585215403 0.07908410147931226 0 0.052093106455277732 0.079224797746630243 0 0.052026309729094458 0.078803438964389058 0 0.052108756585215403 0.07908410147931226 0 0.052211781878833567 0.078931474465047849 0 0.052026309729094458 0.078803438964389058 0 0.052211781878833567 0.078931474465047849 0 0.052211697715920706 0.078707470471640548 0 0.052211781878833567 0.078931474465047849 0 0.052336244737739027 0.078752139425798118 0 0.052211697715920706 0.078707470471640548 0 0.052405690344333698 0.079079316581485579 0 0.05237878175790104 0.078887580746681188 0 0.052565945801759925 0.078777776652637507 0 0.052311854028685163 0.079000341907266222 0 0.052211781878833567 0.078931474465047849 0 0.05237878175790104 0.078887580746681188 0 0.05237878175790104 0.078887580746681188 0 0.052454257127750488 0.078752326392546396 0 0.052336244737739027 0.078752139425798118 0 0.05237878175790104 0.078887580746681188 0 0.052454257127750488 0.078752326392546396 0 0.052565945801759925 0.078777776652637507 0 0.052211781878833567 0.078931474465047849 0 0.05237878175790104 0.078887580746681188 0 0.052336244737739027 0.078752139425798118 0 0.052336244737739027 0.078752139425798118 0 0.052327288987640559 0.078591806416068999 0 0.052211697715920706 0.078707470471640548 0 0.052327288987640559 0.078591806416068999 0 0.052167053989347983 0.078446390880678868 0 0.052516582880257387 0.07842182457714264 0 0.052336244737739027 0.078752139425798118 0 0.052443872792415767 0.078662869437169727 0 0.052327288987640559 0.078591806416068999 0 0.052454257127750488 0.078752326392546396 0 0.052336244737739027 0.078752139425798118 0 0.052443872792415767 0.078662869437169727 0 0.052454257127750488 0.078752326392546396 0 0.052443872792415767 0.078662869437169727 0 0.052546545636380074 0.078684960890427397 0 0.050906696918005749 0.071228928228752666 0 0.050663562124994947 0.071016530866670272 0 0.052443872792415767 0.078662869437169727 0 0.052327288987640559 0.078591806416068999 0 0.052516582880257387 0.07842182457714264 0 0.052443872792415767 0.078662869437169727 0 0.052516582880257387 0.07842182457714264 0 0.052563663056836359 0.078678686760697503 0 0.052026309729094458 0.078803438964389058 0 0.052211697715920706 0.078707470471640548 0 0.052167053989347983 0.078446390880678868 0 0.066999903089523916 0.070534970952059434 0 0.066443248535305754 0.066145550156073998 0 0.052327288987640559 0.078591806416068999 0 0.052211697715920706 0.078707470471640548 0 0.052167053989347983 0.078446390880678868 0 0.071782227200403045 0.065936866196337984 0 0.066443248535305754 0.066145550156073998 0 0.08682097099295541 0.064738860764992787 0 0.087805657800864634 0.064638339936916978 0 0.087245260331647173 0.063589092828162996 0 0.066443248535305754 0.066145550156073998 0 0.066221005088408974 0.061599666462074945 0 0.087805657800864634 0.064638339936916978 0 0.087245260331647173 0.063589092828162996 0 0.088368053130783664 0.063522626856550204 0 0.087245260331647173 0.063589092828162996 0 0.088368053130783664 0.063522626856550204 0 0.087646517437585128 0.062418777333397651 0 0.074167597608544411 0.057101493258708551 0 0.063389686421200395 0.058020121009940993 0 0.088368053130783664 0.063522626856550204 0 0.087646517437585128 0.062418777333397651 0 0.088910981809571382 0.062449396909022306 0 0.061390867658962449 0.064119009905981336 0 0.062546150119769495 0.062397074838321756 0 0.063316082225381237 0.06575947843612702 0 0.0539087069240968 0.05842519670227482 0 0.054174826356574605 0.059646802944613088 0 0.054462010830808164 0.058986847932024029 0 0.062168724151783171 0.057893641812109216 0 0.055237055114142092 0.065375307605856747 0 0.063066102799851115 0.056419429011061922 0 0.060835737536647505 0.056389160170035042 0 0.063194445381941106 0.056965693043666089 0 0.062168724151783171 0.057893641812109216 0 0.057397046158058004 0.056302087005804365 0 0.064081899737674794 0.063388122315616566 0 0.059755201082430931 0.063325528964806602 0 0.062800156262250592 0.057881906289228326 0 0.062168724151783171 0.057893641812109216 0 0.063389686421200395 0.058020121009940993 0 0.061390867658962449 0.064119009905981336 0 0.062546150119769495 0.062397074838321756 0 0.062347177194415127 0.062394016535607326 0 0.066221005088408974 0.061599666462074945 0 0.063389686421200395 0.058020121009940993 0 0.066443248535305754 0.066145550156073998 0 0.055237055114142092 0.065375307605856747 0 0.060440390742218228 0.065839404771706925 0 0.061390867658962449 0.064119009905981336 0 0.063316082225381237 0.06575947843612702 0 0.055237055114142092 0.065375307605856747 0 0.049163317275780542 0.064249366899050531 0 0.054804366390087504 0.059627019049236334 0 0.054462010830808164 0.058986847932024029 0 0.055147335141097722 0.05880532584298697 0 0.054174826356574605 0.059646802944613088 0 0.054804366390087504 0.059627019049236334 0 0.054462010830808164 0.058986847932024029 0 0.057397046158058004 0.056302087005804365 0 0.046183410337527146 0.052939119786647719 0 0.054462010830808164 0.058986847932024029 0 0.054273347362767108 0.058431537003781148 0 0.055147335141097722 0.05880532584298697 0 0.057397046158058004 0.056302087005804365 0 0.047173465191309542 0.057091481026012983 0 0.0539087069240968 0.05842519670227482 0 0.054462010830808164 0.058986847932024029 0 0.054273347362767108 0.058431537003781148 0 0.054192260072607662 0.055060299153392875 0 0.046024930508293281 0.054935568865353487 0 0.047214272476991413 0.052161532149630749 0 0.0412404547078392 0.05587783712483288 0 0.041829910570785965 0.054509389213617296 0 0.038289170186236031 0.05455094700578373 0 0.046183410337527146 0.052939119786647719 0 0.047173465191309542 0.057091481026012983 0 0.047473641812445705 0.06107973273864023 0 0.046270329974278039 0.063876145031490431 0 0.043033277029711645 0.06119351070243987 0 0.049163317275780542 0.064249366899050531 0 0.047173465191309542 0.057091481026012983 0 0.049163317275780542 0.064249366899050531 0 0.039953745340905338 0.064012494131440112 0 0.046104851488029883 0.067898520568180312 0 0.045095051385864511 0.067043401072840861 0 0.043578510936254901 0.067956704567576326 0 0.045095051385864511 0.067043401072840861 0 0.046727429030727685 0.066459874428857368 0 0.044926620335877993 0.066122342181567664 0 0.049540167560629692 0.070804214487636893 0 0.043944617907746675 0.072182135076365353 0 0.045095051385864511 0.067043401072840861 0 0.044926620335877993 0.066122342181567664 0 0.044136573171283958 0.066780562133084712 0 0.050018806228598167 0.064385186126140956 0 0.050903184382206611 0.066387783541045561 0 0.050459879967464483 0.066305190300348427 0 0.050018806228598167 0.064385186126140956 0 0.051775073135459836 0.064335416072298868 0 0.050903184382206611 0.066387783541045561 0 0.049163317275780542 0.064249366899050531 0 0.049540167560629692 0.070804214487636893 0 0.046104851488029883 0.067898520568180312 0 0.045095051385864511 0.067043401072840861 0 0.046727429030727685 0.066459874428857368 0 0.055237055114142092 0.065375307605856747 0 0.050663562124994947 0.071016530866670272 0 0.050663562124994947 0.071016530866670272 0 0.04979176837096623 0.072529814019872532 0 0.049540167560629692 0.070804214487636893 0 0.04979176837096623 0.072529814019872532 0 0.050273898468111131 0.069548802050114752 0 0.049935470110629418 0.069485692244936573 0 0.050063503608472157 0.070042136486560685 0 0.049540167560629692 0.070804214487636893 0 0.050663562124994947 0.071016530866670272 0 0.052662528429075983 0.078963530730849857 0 0.052405690344333698 0.079079316581485579 0 0.052573912052176312 0.078605295854952073 0 0.048684075133759282 0.071842180861863419 0 0.048853120295344374 0.072560729953351472 0 0.047739629695468522 0.07262674009079062 0 0.04874371749784439 0.072813540777875954 0 0.048853120295344374 0.072560729953351472 0 0.047739629695468522 0.07262674009079062 0 0.049602711595218361 0.075033169582313222 0 0.04979176837096623 0.072529814019872532 0 0.052454257127750488 0.078752326392546396 0 0.052546545636380074 0.078684960890427397 0 0.052565945801759925 0.078777776652637507 0 0.048403946818682778 0.076278840474482176 0 0.04979176837096623 0.072529814019872532 0 0.048403946818682778 0.076278840474482176 0 0.043944617907746675 0.072182135076365353 0 0.043042285451015738 0.077788400163276011 0 0.042576361610356918 0.072914127532930806 0 0.047617919628392125 0.083039168743990366 0 0.049815476855100592 0.083191459631191872 0 0.047275161894036896 0.085239528165324027 0 0.047617919628392125 0.083039168743990366 0 0.047275161894036896 0.085239528165324027 0 0.046630295702240865 0.085114900309487915 0 0.043944617907746675 0.072182135076365353 0 0.042576361610356918 0.072914127532930806 0 0.042576361610356918 0.072914127532930806 0 0.039351131233532198 0.073718595335407089 0 0.047534527792745244 0.083341607459592973 0 0.046423532071279555 0.08567979101019367 0 0.045474443815897533 0.084070525242688904 0 0.039383526724588454 0.071714700923228111 0 0.039402057949548694 0.07172013956763873 0 0.039386685296056122 0.071699097377015922 0 0.046423532071279555 0.08567979101019367 0 0.045474443815897533 0.084070525242688904 0 0.044002702347554143 0.085228949534334533 0 0.043796877257020098 0.083230638637392496 0 0.045474443815897533 0.084070525242688904 0 0.044002702347554143 0.085228949534334533 0 0.039351131233532198 0.073718595335407089 0 0.034993992631662002 0.074408589104669395 0 0.03352562796281771 0.066219457892383385 0 0.032219852833852182 0.06746097530418263 0 0.031094275316912723 0.065773147481854505 0 0.039895026120668586 0.076528563955125736 0 0.039351131233532198 0.073718595335407089 0 0.043796877257020098 0.083230638637392496 0 0.043986088824967143 0.08532229025340525 0 0.04105879553933147 0.084808846834572765 0 0.03352562796281771 0.066219457892383385 0 0.032219852833852182 0.06746097530418263 0 0.033772122229132909 0.068752283168951406 0 0.039351131233532198 0.073718595335407089 0 0.038977208444120087 0.067192418064162721 0 0.032219852833852182 0.06746097530418263 0 0.032360221694733578 0.068665340664221849 0 0.033772122229132909 0.068752283168951406 0 0.04079553745289477 0.066904176465242771 0 0.040429570427569603 0.067661832991911822 0 0.040168450693784941 0.06741759022320859 0 0.039402057949548694 0.07172013956763873 0 0.039386685296056122 0.071699097377015922 0 0.039398222030707919 0.071679846335770916 0 0.041619165470770263 0.069665228104751328 0 0.038977208444120087 0.067192418064162721 0 0.045095051385864511 0.067043401072840861 0 0.044136573171283958 0.066780562133084712 0 0.043578510936254901 0.067956704567576326 0 0.041619165470770263 0.069665228104751328 0 0.039953745340905338 0.064012494131440112 0 0.043944617907746675 0.072182135076365353 0 0.041619165470770263 0.069665228104751328 0 0.042576361610356918 0.072914127532930806 0 0.041619165470770263 0.069665228104751328 0 0.040819216995651261 0.071190879872218449 0 0.04109370715941249 0.071241094704788968 0 0.041310271929621389 0.070766752672589917 0 0.046270329974278039 0.063876145031490431 0 0.043033277029711645 0.06119351070243987 0 0.0424986849957186 0.062326766710149771 0 0.040429570427569603 0.067661832991911822 0 0.040190862797705618 0.067667573118493335 0 0.040168450693784941 0.06741759022320859 0 0.039953745340905338 0.064012494131440112 0 0.038222858171655723 0.064011869698778825 0 0.038036789531624426 0.06516686560018832 0 0.03845639333759486 0.064263459968434244 0 0.038543576082647406 0.065152469052038753 0 0.039953745340905338 0.064012494131440112 0 0.03877360049434931 0.060617296555199762 0 0.03877360049434931 0.060617296555199762 0 0.038222858171655723 0.064011869698778825 0 0.046183410337527146 0.052939119786647719 0 0.034402220046625749 0.051143948527731221 0 0.047173465191309542 0.057091481026012983 0 0.03877360049434931 0.060617296555199762 0 0.041829910570785965 0.054509389213617296 0 0.037635813421559111 0.052795075896895312 0 0.038289170186236031 0.05455094700578373 0 0.0412404547078392 0.05587783712483288 0 0.038289170186236031 0.05455094700578373 0 0.037926536546528222 0.055826791392495329 0 0.037635813421559111 0.052795075896895312 0 0.038289170186236031 0.05455094700578373 0 0.037879726031040568 0.055389048266373385 0 0.03877360049434931 0.060617296555199762 0 0.034271150160898906 0.051811755045554686 0 0.034301549867992685 0.051878934772794164 0 0.034271150160898906 0.051811755045554686 0 0.038289170186236031 0.05455094700578373 0 0.037884588708605726 0.055385425662960883 0 0.037926536546528222 0.055826791392495329 0 0.034304282969394112 0.051722108113966068 0 0.033839903512359853 0.046858285581076693 0 0.03662886584248673 0.046898597391878211 0 0.034271150160898906 0.051811755045554686 0 0.033357477269024667 0.051079061978020229 0 0.034271150160898906 0.051811755045554686 0 0.034402220046625749 0.051143948527731221 0 0.034402220046625749 0.051143948527731221 0 0.033357477269024667 0.051079061978020229 0 0.030783299054466182 0.057920426774794143 0 0.029183671715005036 0.056459915693132891 0 0.028184347533420973 0.05665245438315554 0 0.033357477269024667 0.051079061978020229 0 0.020940489519494596 0.04953719895083785 0 0.030783299054466182 0.057920426774794143 0 0.028184347533420973 0.05665245438315554 0 0.027262854946880272 0.057860125113695447 0 0.030979932919291395 0.057519775725414675 0 0.030783299054466182 0.057920426774794143 0 0.030037288246955087 0.056678776855429838 0 0.030783299054466182 0.057920426774794143 0 0.030037288246955087 0.056678776855429838 0 0.029183671715005036 0.056459915693132891 0 0.030778155288796336 0.0551372160443169 0 0.030979932919291395 0.057519775725414675 0 0.030037288246955087 0.056678776855429838 0 0.03877360049434931 0.060617296555199762 0 0.038410925238729826 0.060365830043795504 0 0.030750173833909371 0.055157351000534802 0 0.030037288246955087 0.056678776855429838 0 0.029546634396224368 0.055513118284889751 0 0.030037288246955087 0.056678776855429838 0 0.029183671715005036 0.056459915693132891 0 0.029546634396224368 0.055513118284889751 0 0.029183671715005036 0.056459915693132891 0 0.028640988782486655 0.055773075748012116 0 0.029546634396224368 0.055513118284889751 0 0.028640988782486655 0.055773075748012116 0 0.027750665129240282 0.055195232951049701 0 0.028184347533420973 0.05665245438315554 0 0.029183671715005036 0.056459915693132891 0 0.028640988782486655 0.055773075748012116 0 0.028184347533420973 0.05665245438315554 0 0.028856198297555664 0.054920872369693133 0 0.030643331500048641 0.054025761835393912 0 0.027696935823766807 0.054097689324869441 0 0.028640988782486655 0.055773075748012116 0 0.028856198297555664 0.054920872369693133 0 0.027750665129240282 0.055195232951049701 0 0.038222858171655723 0.064011869698778825 0 0.029269825516570595 0.062224209168384163 0 0.033831857322551159 0.069289390264756279 0 0.033345502393346611 0.06910948818594298 0 0.031529489096094376 0.069354869290152693 0 0.028640988782486655 0.055773075748012116 0 0.028856198297555664 0.054920872369693133 0 0.029546634396224368 0.055513118284889751 0 0.028856198297555664 0.054920872369693133 0 0.029546634396224368 0.055513118284889751 0 0.030643331500048641 0.054025761835393912 0 0.030750173833909371 0.055157351000534802 0 0.029546634396224368 0.055513118284889751 0 0.030643331500048641 0.054025761835393912 0 0.032360221694733578 0.068665340664221849 0 0.033345502393346611 0.06910948818594298 0 0.033772122229132909 0.068752283168951406 0 0.033831857322551159 0.069289390264756279 0 0.033345502393346611 0.06910948818594298 0 0.033785832727107182 0.068736296411012365 0 0.038222858171655723 0.064011869698778825 0 0.038977208444120087 0.067192418064162721 0 0.038831115465439998 0.067292187510609933 0 0.038977208444120087 0.067192418064162721 0 0.032360221694733578 0.068665340664221849 0 0.033345502393346611 0.06910948818594298 0 0.031529489096094376 0.069354869290152693 0 0.027750665129240282 0.055195232951049701 0 0.026566753651733624 0.057860215970023658 0 0.024757814695949055 0.054187732039397057 0 0.027696935823766807 0.054097689324869441 0 0.027750665129240282 0.055195232951049701 0 0.024757814695949055 0.054187732039397057 0 0.029269825516570595 0.062224209168384163 0 0.019831263866551881 0.060591822250489653 0 0.031529489096094376 0.069354869290152693 0 0.029238843043055657 0.069413389234313796 0 0.030620534309764268 0.067876988271983019 0 0.028856198297555664 0.054920872369693133 0 0.027696935823766807 0.054097689324869441 0 0.027750665129240282 0.055195232951049701 0 0.027750665129240282 0.055195232951049701 0 0.026566753651733624 0.057860215970023658 0 0.027231927159598473 0.057867572842117514 0 0.021447168152934588 0.051584011028780935 0 0.020940489519494596 0.04953719895083785 0 0.027750665129240282 0.055195232951049701 0 0.028184347533420973 0.05665245438315554 0 0.027262854946880272 0.057860125113695447 0 0.018987615853250549 0.049588419486770473 0 0.020940489519494596 0.04953719895083785 0 -0.0071034176320542968 0.045722691157968093 0 0.00017941976360914195 0.050444783707388502 0 -0.0005860641828389062 0.059141920474935043 0 0.018987615853250549 0.049588419486770473 0 0.014266026865353231 0.047456653224283107 0 0.018987615853250549 0.049588419486770473 0 0.019831263866551881 0.060591822250489653 0 -0.0071034176320542968 0.045722691157968093 0 0.00017941976360914195 0.050444783707388502 0 0.0076390873983022698 0.045845699413674446 0 0.00017941976360914195 0.050444783707388502 0 0.004599971153692017 0.055242621711498456 0 0.0076390873983022698 0.045845699413674446 0 0.00017941976360914195 0.050444783707388502 0 0.004599971153692017 0.055242621711498456 0 -0.0005860641828389062 0.059141920474935043 0 -0.00019696936888951831 0.060298489712869746 0 0.0040895972538163971 0.061525638365681382 0 0.010797182215591651 0.059984996836614311 0 0.019831263866551881 0.060591822250489653 0 0.015034387480179611 0.060313019587538909 0 0.004599971153692017 0.055242621711498456 0 -0.0005860641828389062 0.059141920474935043 0 0.010001660043901194 0.059032634090129585 0 -0.00019696936888951831 0.060298489712869746 0 0.0040895972538163971 0.061525638365681382 0 0.003607772631982485 0.067988218629297173 0 0.019831263866551881 0.060591822250489653 0 0.020883149370675702 0.06685202971400625 0 0.029238843043055657 0.069413389234313796 0 0.028460255518911463 0.067825373413388235 0 0.030620534309764268 0.067876988271983019 0 0.028460255518911463 0.067825373413388235 0 0.030620534309764268 0.067876988271983019 0 0.029710507730269099 0.066702761838538085 0 0.0034023685234216652 0.068101062767697979 0 0.00429115532384515 0.06993828190386249 0 0.0023224324864118961 0.080997366580733657 0 0.0040895972538163971 0.061525638365681382 0 0.0034451561870056744 0.068137449991574381 0 0.0066915870084375117 0.064994558962725171 0 0.020094266177087251 0.066494502206200345 0 0.020883149370675702 0.06685202971400625 0 0.0034451561870056744 0.068137449991574381 0 0.00429115532384515 0.06993828190386249 0 0.0075087848456164017 0.069625572744648326 0 0.020883149370675702 0.06685202971400625 0 0.020782799583460052 0.066804362810171131 0 0.032219852833852182 0.06746097530418263 0 0.030620534309764268 0.067876988271983019 0 0.031094275316912723 0.065773147481854505 0 0.032360221694733578 0.068665340664221849 0 0.031529489096094376 0.069354869290152693 0 0.030620534309764268 0.067876988271983019 0 0.032219852833852182 0.06746097530418263 0 0.032360221694733578 0.068665340664221849 0 0.030620534309764268 0.067876988271983019 0 0.030620534309764268 0.067876988271983019 0 0.031094275316912723 0.065773147481854505 0 0.029710507730269099 0.066702761838538085 0 0.031094275316912723 0.065773147481854505 0 0.029710507730269099 0.066702761838538085 0 0.028668915686000829 0.065335826541513764 0 0.020883149370675702 0.06685202971400625 0 0.0286884804610326 0.074502554039939217 0 0.034993992631662002 0.074408589104669395 0 0.0286884804610326 0.074502554039939217 0 0.028460255518911463 0.067825373413388235 0 0.029710507730269099 0.066702761838538085 0 0.028668915686000829 0.065335826541513764 0 0.00429115532384515 0.06993828190386249 0 0.0023224324864118961 0.080997366580733657 0 0.0059863284001279212 0.074037805923419894 0 0.013122420699402657 0.032623617358433298 0 0.011023809048302295 0.035062031948355415 0 0.01376171429948944 0.030629416528459207 0 0.013122420699402657 0.032623617358433298 0 0.014220126420002059 0.033658507810159638 0 0.015233192459005663 0.031601989577866897 0 0.013122420699402657 0.032623617358433298 0 0.014235619739169255 0.031220098030585175 0 0.015233192459005663 0.031601989577866897 0 0.014235619739169255 0.031220098030585175 0 0.01477526758834149 0.030258581575577051 0 0.015233192459005663 0.031601989577866897 0 0.013122420699402657 0.032623617358433298 0 0.014235619739169255 0.031220098030585175 0 0.01376171429948944 0.030629416528459207 0 0.013235633119767798 0.031489495635361603 0 0.012729942302673849 0.030755348153424639 0 0.013215554102266823 0.030281640420290929 0 0.016495176973716271 0.037298886171569526 0 0.015856405520121523 0.034088499224766408 0 0.011999110799086577 0.033363147206330449 0 0.01376171429948944 0.030629416528459207 0 0.013875663594626981 0.029943927676015582 0 0.013235633119767798 0.031489495635361603 0 0.013215554102266823 0.030281640420290929 0 0.013875663594626981 0.029943927676015582 0 0.01227522237744942 0.033427984357348194 0 0.011999110799086577 0.033363147206330449 0 0.01376171429948944 0.030629416528459207 0 0.023523479588281125 0.039689340899999453 0 0.021443498713902307 0.03586648086820516 0 0.01227522237744942 0.033427984357348194 0 0.013084588281141476 0.034684822854380806 0 0.01376171429948944 0.030629416528459207 0 0.011993404649667697 0.033371059936830656 0 0.013084588281141476 0.034684822854380806 0 0.010737392901751529 0.0359312626843745 0 0.023523479588281125 0.039689340899999453 0 0.0254862278273441 0.043823418205283529 0 0.01227522237744942 0.033427984357348194 0 0.011993404649667697 0.033371059936830656 0 0.013084588281141476 0.034684822854380806 0 0.023448791596648626 0.039668778713518399 0 0.023523479588281125 0.039689340899999453 0 0.011023809048302295 0.035062031948355415 0 0.012879348352009072 0.034226333669539151 0 0.013196816205277616 0.03579164272822407 0 0.013122420699402657 0.032623617358433298 0 0.011023809048302295 0.035062031948355415 0 0.012879348352009072 0.034226333669539151 0 0.013122420699402657 0.032623617358433298 0 0.012879348352009072 0.034226333669539151 0 0.014220126420002059 0.033658507810159638 0 0.012879348352009072 0.034226333669539151 0 0.014220126420002059 0.033658507810159638 0 0.013196816205277616 0.03579164272822407 0 0.014220126420002059 0.033658507810159638 0 0.013196816205277616 0.03579164272822407 0 0.015745884107705069 0.035495884582352775 0 0.011023809048302295 0.035062031948355415 0 0.013196816205277616 0.03579164272822407 0 0.011861932926319553 0.038650082270884199 0 0.013196816205277616 0.03579164272822407 0 0.01426832188185314 0.038941973533574384 0 0.015745884107705069 0.035495884582352775 0 0.013196816205277616 0.03579164272822407 0 0.011861932926319553 0.038650082270884199 0 0.01426832188185314 0.038941973533574384 0 0.0098904165446122225 0.043040056033280746 0 0.012095034168697845 0.041183051589196162 0 0.015268821986095098 0.043587594356557832 0 0.01426832188185314 0.038941973533574384 0 0.012095034168697845 0.041183051589196162 0 0.015268821986095098 0.043587594356557832 0 0.011861932926319553 0.038650082270884199 0 0.01426832188185314 0.038941973533574384 0 0.012095034168697845 0.041183051589196162 0 0.019787473674893866 0.047100937999985056 0 0.0254862278273441 0.043823418205283529 0 0.020627741398829492 0.05166232101456409 0 0.019740744396609663 0.051649045548028308 0 0.019982429886979368 0.050337220360307564 0 0.020940489519494596 0.04953719895083785 0 0.019787473674893866 0.047100937999985056 0 0.0098904165446122225 0.043040056033280746 0 0.012095034168697845 0.041183051589196162 0 0.0092023919614831768 0.041681085817358583 0 0.018987615853250549 0.049588419486770473 0 0.019787473674893866 0.047100937999985056 0 0.011861932926319553 0.038650082270884199 0 0.012095034168697845 0.041183051589196162 0 0.0092023919614831768 0.041681085817358583 0 0.011023809048302295 0.035062031948355415 0 0.011861932926319553 0.038650082270884199 0 0.0092023919614831768 0.041681085817358583 0 0.013084588281141476 0.034684822854380806 0 0.012325572799336538 0.039181770325288613 0 0.010737392901751529 0.0359312626843745 0 0.016495176973716271 0.037298886171569526 0 0.019787473674893866 0.047100937999985056 0 0.031475096577439597 0.043470978457556091 0 0.02934746540370672 0.044609826683422012 0 0.030864172075048536 0.04223458441894884 0 0.0254862278273441 0.043823418205283529 0 0.025794391769199735 0.04391665246871778 0 0.025270588830593462 0.05034775899926739 0 0.027257450355970939 0.049834811788969105 0 0.026377254569832954 0.04801579348229313 0 0.033357477269024667 0.051079061978020229 0 0.0254862278273441 0.043823418205283529 0 0.025270588830593462 0.05034775899926739 0 0.027158641836548005 0.050371330544714168 0 0.027257450355970939 0.049834811788969105 0 0.029783742271738165 0.047051676750868014 0 0.031475096577439597 0.043470978457556091 0 0.02934746540370672 0.044609826683422012 0 0.029589054220686178 0.047049255189336489 0 0.029783742271738165 0.047051676750868014 0 0.02934746540370672 0.044609826683422012 0 0.036612776397417918 0.052890860488378939 0 0.04057845749765681 0.052945943267288124 0 0.039191997659224855 0.051142267431385439 0 0.036612776397417918 0.052890860488378939 0 0.039191997659224855 0.051142267431385439 0 0.038223168361437618 0.049076015207710912 0 0.04057845749765681 0.052945943267288124 0 0.039191997659224855 0.051142267431385439 0 0.040216552763647877 0.049103746988705323 0 0.034402220046625749 0.051143948527731221 0 0.035503946120364241 0.04683548726106998 0 0.039191997659224855 0.051142267431385439 0 0.038223168361437618 0.049076015207710912 0 0.040216552763647877 0.049103746988705323 0 0.042344113216226748 0.04715937225138251 0 0.036820074230524504 0.042571927938139395 0 0.053199642977990617 0.04576546983622537 0 0.052302371122464303 0.047779026284068257 0 0.053458705171814579 0.047180996539364223 0 0.02934746540370672 0.044609826683422012 0 0.029120381634621575 0.042182303897095874 0 0.030864172075048536 0.04223458441894884 0 0.038223168361437618 0.049076015207710912 0 0.040216552763647877 0.049103746988705323 0 0.039841331554625742 0.04524685598997015 0 0.035503946120364241 0.04683548726106998 0 0.036820074230524504 0.042571927938139395 0 0.053288238807128109 0.048100588218897081 0 0.052302371122464303 0.047779026284068257 0 0.053458705171814579 0.047180996539364223 0 0.053288238807128109 0.048100588218897081 0 0.052302371122464303 0.047779026284068257 0 0.05242182337726272 0.049164989424770184 0 0.053288238807128109 0.048100588218897081 0 0.053070017894026073 0.049289166591704466 0 0.05242182337726272 0.049164989424770184 0 0.036820074230524504 0.042571927938139395 0 0.037645775454360056 0.039332778135500346 0 0.03904891678779885 0.035727915573275801 0 0.036451074078143214 0.041810829432640806 0 0.035813455424210883 0.035120658762866422 0 0.033007306457787801 0.03877473744075409 0 0.036820074230524504 0.042571927938139395 0 0.023523479588281125 0.039689340899999453 0 0.033007306457787801 0.03877473744075409 0 0.032499541838805199 0.041227552365251392 0 0.029760209840496866 0.040702456615653755 0 0.030864172075048536 0.04223458441894884 0 0.032499541838805199 0.041227552365251392 0 0.03143818074808831 0.043425447482625598 0 0.030864172075048536 0.04223458441894884 0 0.029760209840496866 0.040702456615653755 0 0.029120381634621575 0.042182303897095874 0 0.030864172075048536 0.04223458441894884 0 0.011974542587498901 0.031267280591315047 0 0.012729942302673849 0.030755348153424639 0 0.012310893646061232 0.030379500597304564 0 0.033007306457787801 0.03877473744075409 0 0.029382526211807335 0.036659120742011032 0 0.013235633119767798 0.031489495635361603 0 0.011974542587498901 0.031267280591315047 0 0.012729942302673849 0.030755348153424639 0 0.012729942302673849 0.030755348153424639 0 0.012310893646061232 0.030379500597304564 0 0.012768643594484529 0.030128329219905454 0 0.012729942302673849 0.030755348153424639 0 0.012768643594484529 0.030128329219905454 0 0.013215554102266823 0.030281640420290929 0 0.055429432580995322 0.037270542830436217 0 0.055332583110958379 0.037384736187528841 0 0.055185548795533682 0.03714021159369011 0 0.037215124674785403 0.037300363238493818 0 0.041970694963031664 0.039017583597481385 0 0.041970694963031664 0.039017583597481385 0 0.037645775454360056 0.039332778135500346 0 0.037051464560000594 0.03750069614804763 0 0.03319729889391116 0.042000321026317344 0 0.037560062565735297 0.04281961999852079 0 0.031226624757924926 0.037878498686497147 0 0.031551129173506692 0.037077994292821173 0 0.030864763166077204 0.037434454953372963 0 0.033007306457787801 0.03877473744075409 0 0.037645775454360056 0.039332778135500346 0 0.031226624757924926 0.037878498686497147 0 0.030864763166077204 0.037434454953372963 0 0.030902582259098765 0.037818462450223411 0 0.037215124674785403 0.037300363238493818 0 0.037645775454360056 0.039332778135500346 0 0.055332583110958379 0.037384736187528841 0 0.055185548795533682 0.03714021159369011 0 0.054957757797950806 0.03731055915755855 0 0.041970694963031664 0.039017583597481385 0 0.056271616140675829 0.041340090447749701 0 0.056271616140675829 0.041340090447749701 0 0.071979045646262285 0.042916182168518266 0 0.055578996884839943 0.049754932274944215 0 0.057170529420685776 0.04724120631327728 0 0.058047778507652706 0.050217343192719748 0 0.055578996884839943 0.049754932274944215 0 0.055050925321086984 0.047078108129214057 0 0.057170529420685776 0.04724120631327728 0 0.053288238807128109 0.048100588218897081 0 0.053070017894026073 0.049289166591704466 0 0.055050925321086984 0.047078108129214057 0 0.041970694963031664 0.039017583597481385 0 0.045306056674625866 0.040668305769777743 0 0.053123524658449349 0.049277759723632464 0 0.055578996884839943 0.049754932274944215 0 0.055050925321086984 0.047078108129214057 0 0.053288238807128109 0.048100588218897081 0 0.053458705171814579 0.047180996539364223 0 0.055050925321086984 0.047078108129214057 0 0.053199642977990617 0.04576546983622537 0 0.053458705171814579 0.047180996539364223 0 0.055050925321086984 0.047078108129214057 0 0.053199642977990617 0.04576546983622537 0 0.055050925321086984 0.047078108129214057 0 0.055741897359423032 0.045997341185909521 0 0.046183410337527146 0.052939119786647719 0 0.042344113216226748 0.04715937225138251 0 0.05408404382401627 0.043754631706697432 0 0.053199642977990617 0.04576546983622537 0 0.055386599520088731 0.044769469230367807 0 0.053199642977990617 0.04576546983622537 0 0.055386599520088731 0.044769469230367807 0 0.055741897359423032 0.045997341185909521 0 0.05671462110022011 0.043805284323264498 0 0.05408404382401627 0.043754631706697432 0 0.055386599520088731 0.044769469230367807 0 0.05671462110022011 0.043805284323264498 0 0.056842931499530784 0.044594553537289736 0 0.055386599520088731 0.044769469230367807 0 0.055386599520088731 0.044769469230367807 0 0.056912730021275018 0.045432675661486274 0 0.055741897359423032 0.045997341185909521 0 0.056842931499530784 0.044594553537289736 0 0.055386599520088731 0.044769469230367807 0 0.056912730021275018 0.045432675661486274 0 0.055050925321086984 0.047078108129214057 0 0.055741897359423032 0.045997341185909521 0 0.057170529420685776 0.04724120631327728 0 0.056912730021275018 0.045432675661486274 0 0.055741897359423032 0.045997341185909521 0 0.057170529420685776 0.04724120631327728 0 0.056912730021275018 0.045432675661486274 0 0.057170529420685776 0.04724120631327728 0 0.057787317861205272 0.04564783650825275 0 0.057170529420685776 0.04724120631327728 0 0.058674127229092099 0.04613969012786337 0 0.059422002992067909 0.047842904928003201 0 0.057170529420685776 0.04724120631327728 0 0.058674127229092099 0.04613969012786337 0 0.057787317861205272 0.04564783650825275 0 0.062498802489256336 0.05443530921960206 0 0.062234519939984217 0.056088131066140211 0 0.056912730021275018 0.045432675661486274 0 0.057787317861205272 0.04564783650825275 0 0.057835257112041474 0.044476948865021834 0 0.072324770191937046 0.055021874728706059 0 0.067933201806245097 0.054963603153050211 0 0.067743336011691524 0.055893868296253368 0 0.058674127229092099 0.04613969012786337 0 0.057787317861205272 0.04564783650825275 0 0.057835257112041474 0.044476948865021834 0 0.05671462110022011 0.043805284323264498 0 0.056842931499530784 0.044594553537289736 0 0.057725238933028708 0.044235655518328046 0 0.057397046158058004 0.056302087005804365 0 0.062234519939984217 0.056088131066140211 0 0.060835737536647505 0.056389160170035042 0 0.063194445381941106 0.056965693043666089 0 0.063297969089638473 0.057405917926989 0 0.067933201806245097 0.054963603153050211 0 0.067645338126708171 0.055476175816977363 0 0.067743336011691524 0.055893868296253368 0 0.056842931499530784 0.044594553537289736 0 0.056912730021275018 0.045432675661486274 0 0.057725238933028708 0.044235655518328046 0 0.063389686421200395 0.058020121009940993 0 0.062588575574900135 0.057371099802531425 0 0.056912730021275018 0.045432675661486274 0 0.057835257112041474 0.044476948865021834 0 0.057775694137168591 0.044212469037647487 0 0.062168724151783171 0.057893641812109216 0 0.062588575574900135 0.057371099802531425 0 0.062588575574900135 0.057371099802531425 0 0.062234519939984217 0.056088131066140211 0 0.062203520550632149 0.055972613459547078 0 0.062234519939984217 0.056088131066140211 0 0.072324770191937046 0.055021874728706059 0 0.067743336011691524 0.055893868296253368 0 0.074623980968416465 0.05873450051478947 0 0.058674127229092099 0.04613969012786337 0 0.057835257112041474 0.044476948865021834 0 0.060815316873016841 0.045462823077278051 0 0.057835257112041474 0.044476948865021834 0 0.057773195638536307 0.044211657406280545 0 0.060815316873016841 0.045462823077278051 0 0.062234519939984217 0.056088131066140211 0 0.075858473711141142 0.051859057925748353 0 0.073902654944375784 0.047621605457964136 0 0.075858473711141142 0.051859057925748353 0 0.058674127229092099 0.04613969012786337 0 0.059422002992067909 0.047842904928003201 0 0.060815316873016841 0.045462823077278051 0 0.073902654944375784 0.047621605457964136 0 0.071979045646262285 0.042916182168518266 0 0.088900658239793776 0.048019048116619369 0 0.09000948178926256 0.045989757054070365 0 0.088114933363533682 0.046955172246882629 0 0.057170529420685776 0.04724120631327728 0 0.059422002992067909 0.047842904928003201 0 0.058047778507652706 0.050217343192719748 0 0.071979045646262285 0.042916182168518266 0 0.083819650045141594 0.04491997204776816 0 0.09000948178926256 0.045989757054070365 0 0.088117118584950804 0.045624189283006995 0 0.088114933363533682 0.046955172246882629 0 0.090156398244990291 0.045673837260673249 0 0.092011303484580004 0.043520935296217825 0 0.089029379636952372 0.042584561347517806 0 0.093107716742875199 0.046229481878741222 0 0.090156398244990291 0.045673837260673249 0 0.092011303484580004 0.043520935296217825 0 0.093107716742875199 0.046229481878741222 0 0.092011303484580004 0.043520935296217825 0 0.0951619581487472 0.042660300027569278 0 0.071979045646262285 0.042916182168518266 0 0.070519896834872739 0.037934854401961912 0 0.092011303484580004 0.043520935296217825 0 0.091284839976366119 0.040381580774676067 0 0.0951619581487472 0.042660300027569278 0 0.092011303484580004 0.043520935296217825 0 0.091284839976366119 0.040381580774676067 0 0.089029379636952372 0.042584561347517806 0 0.091284839976366119 0.040381580774676067 0 0.09170638016870003 0.037604481322237322 0 0.093918054763267478 0.038725566081431559 0 0.091284839976366119 0.040381580774676067 0 0.09170638016870003 0.037604481322237322 0 0.089953737894403585 0.037698574350083225 0 0.09170638016870003 0.037604481322237322 0 0.090432651088476576 0.036253161939226175 0 0.09167248394356993 0.035788363998571979 0 0.09170638016870003 0.037604481322237322 0 0.089953737894403585 0.037698574350083225 0 0.090432651088476576 0.036253161939226175 0 0.09170638016870003 0.037604481322237322 0 0.093918054763267478 0.038725566081431559 0 0.092809090844772943 0.035989128529280802 0 0.093918054763267478 0.038725566081431559 0 0.092809090844772943 0.035989128529280802 0 0.095339908001048718 0.036332323406874534 0 0.091284839976366119 0.040381580774676067 0 0.093918054763267478 0.038725566081431559 0 0.0951619581487472 0.042660300027569278 0 0.055070243083435041 0.036215319510717631 0 0.055165109972949822 0.036366107876437251 0 0.05481572211847726 0.03674753600520185 0 0.093918054763267478 0.038725566081431559 0 0.097182485118708889 0.039068534518638703 0 0.0951619581487472 0.042660300027569278 0 0.064411877964437203 0.034018080203939434 0 0.070519896834872739 0.037934854401961912 0 0.064411877964437203 0.034018080203939434 0 0.074694681985100084 0.033258987229165871 0 0.093918054763267478 0.038725566081431559 0 0.097182485118708889 0.039068534518638703 0 0.095339908001048718 0.036332323406874534 0 0.063136979566046678 0.026459765352562562 0 0.064295246865362948 0.028094507345376565 0 0.063011874060098588 0.028499188212680285 0 0.064411877964437203 0.034018080203939434 0 0.05014296987786724 0.031942870344189585 0 0.055020446048219825 0.036172477845139994 0 0.055402577187991769 0.036219494458481674 0 0.055330978984655332 0.035554339824579541 0 0.063136979566046678 0.026459765352562562 0 0.063011874060098588 0.028499188212680285 0 0.061957292575480424 0.028463487056435456 0 0.055020446048219825 0.036172477845139994 0 0.055165109972949822 0.036366107876437251 0 0.055402577187991769 0.036219494458481674 0 0.064411877964437203 0.034018080203939434 0 0.063931924800248896 0.033839515658200855 0 0.055165109972949822 0.036366107876437251 0 0.055143929024189672 0.036762193834899343 0 0.055413820289176595 0.036778193596335385 0 0.055165109972949822 0.036366107876437251 0 0.055143929024189672 0.036762193834899343 0 0.05481572211847726 0.03674753600520185 0 0.055185548795533682 0.03714021159369011 0 0.054957757797950806 0.03731055915755855 0 0.05481572211847726 0.03674753600520185 0 0.054957757797950806 0.03731055915755855 0 0.054589758788423912 0.037240422261393014 0 0.05481572211847726 0.03674753600520185 0 0.055185548795533682 0.03714021159369011 0 0.055143929024189672 0.036762193834899343 0 0.05481572211847726 0.03674753600520185 0 0.055185548795533682 0.03714021159369011 0 0.055143929024189672 0.036762193834899343 0 0.055413820289176595 0.036778193596335385 0 0.037215124674785403 0.037300363238493818 0 0.039053995467015351 0.032331897749585836 0 0.055429432580995322 0.037270542830436217 0 0.055185548795533682 0.03714021159369011 0 0.055413820289176595 0.036778193596335385 0 0.017267234743715203 0.02559694011150623 0 0.017154299047129014 0.025711851377589832 0 0.017241849471596057 0.025831088193342254 0 0.017154299047129014 0.025711851377589832 0 0.017106503243193013 0.025792300382307794 0 0.017241849471596057 0.025831088193342254 0 0.037215124674785403 0.037300363238493818 0 0.027432719144759223 0.035041347669286883 0 0.017267234743715203 0.02559694011150623 0 0.017154299047129014 0.025711851377589832 0 0.016981328971579165 0.025778349307504403 0 0.031551129173506692 0.037077994292821173 0 0.030864763166077204 0.037434454953372963 0 0.031873402865182046 0.036279960705356412 0 0.012310893646061232 0.030379500597304564 0 0.012768643594484529 0.030128329219905454 0 0.012583732773201231 0.029413722770506891 0 0.029382526211807335 0.036659120742011032 0 0.027432719144759223 0.035041347669286883 0 0.012768643594484529 0.030128329219905454 0 0.012583732773201231 0.029413722770506891 0 0.012984874426943779 0.029753884942047767 0 0.017154299047129014 0.025711851377589832 0 0.017073361420121488 0.025776272624182903 0 0.017106503243193013 0.025792300382307794 0 0.017154299047129014 0.025711851377589832 0 0.016981328971579165 0.025778349307504403 0 0.017073361420121488 0.025776272624182903 0 0.017073361420121488 0.025776272624182903 0 0.017106503243193013 0.025792300382307794 0 0.017042657601011237 0.025819726318526401 0 0.016981328971579165 0.025778349307504403 0 0.017073361420121488 0.025776272624182903 0 0.017042657601011237 0.025819726318526401 0 0.017042657601011237 0.025819726318526401 0 0.017083995940454469 0.025859400089204065 0 0.016955249319680454 0.025912447616681492 0 0.017106503243193013 0.025792300382307794 0 0.017042657601011237 0.025819726318526401 0 0.017083995940454469 0.025859400089204065 0 0.016981328971579165 0.025778349307504403 0 0.017042657601011237 0.025819726318526401 0 0.016955249319680454 0.025912447616681492 0 0.017083995940454469 0.025859400089204065 0 0.016955249319680454 0.025912447616681492 0 0.017069728270229092 0.025987869513122246 0 0.017083995940454469 0.025859400089204065 0 0.017241849471596057 0.025831088193342254 0 0.017069728270229092 0.025987869513122246 0 0.017241849471596057 0.025831088193342254 0 0.017240877348392681 0.026111732524047089 0 0.017069728270229092 0.025987869513122246 0 0.039053995467015351 0.032331897749585836 0 0.042726569806336399 0.031232929347382483 0 0.017106503243193013 0.025792300382307794 0 0.017083995940454469 0.025859400089204065 0 0.017241849471596057 0.025831088193342254 0 0.055165109972949822 0.036366107876437251 0 0.055413820289176595 0.036778193596335385 0 0.055402577187991769 0.036219494458481674 0 0.017240877348392681 0.026111732524047089 0 0.017019610781498266 0.02621064286824774 0 0.017069728270229092 0.025987869513122246 0 0.042726569806336399 0.031232929347382483 0 0.05014296987786724 0.031942870344189585 0 0.017240877348392681 0.026111732524047089 0 0.017019610781498266 0.02621064286824774 0 0.017236906088739901 0.026380985778725091 0 0.017019610781498266 0.02621064286824774 0 0.016893663094284559 0.026082350927527521 0 0.016749787707431581 0.026325364803475641 0 0.017019610781498266 0.02621064286824774 0 0.016749787707431581 0.026325364803475641 0 0.01701412335372866 0.026385170803701806 0 0.017019610781498266 0.02621064286824774 0 0.016893663094284559 0.026082350927527521 0 0.017069728270229092 0.025987869513122246 0 0.016955249319680454 0.025912447616681492 0 0.016893663094284559 0.026082350927527521 0 0.017069728270229092 0.025987869513122246 0 0.016893663094284559 0.026082350927527521 0 0.01664612737239439 0.02599710755866394 0 0.016749787707431581 0.026325364803475641 0 0.016955249319680454 0.025912447616681492 0 0.016893663094284559 0.026082350927527521 0 0.01664612737239439 0.02599710755866394 0 0.021108413239878984 0.031350192653726745 0 0.019693641000120252 0.030057365877175939 0 0.01664612737239439 0.02599710755866394 0 0.016749787707431581 0.026325364803475641 0 0.016202754534632862 0.026432266659860929 0 0.01414296659057057 0.027649200832891886 0 0.016259726313618477 0.027404129501031171 0 0.016202754534632862 0.026432266659860929 0 0.01414296659057057 0.027649200832891886 0 0.015279318404752603 0.028766585484203203 0 0.016259726313618477 0.027404129501031171 0 0.01414296659057057 0.027649200832891886 0 0.015279318404752603 0.028766585484203203 0 0.014232706112015771 0.029095881475784152 0 0.016981328971579165 0.025778349307504403 0 0.016955249319680454 0.025912447616681492 0 0.01664612737239439 0.02599710755866394 0 0.027432719144759223 0.035041347669286883 0 0.021108413239878984 0.031350192653726745 0 0.01414296659057057 0.027649200832891886 0 0.014232706112015771 0.029095881475784152 0 0.013430968559477542 0.029473394729527914 0 0.012583732773201231 0.029413722770506891 0 0.01414296659057057 0.027649200832891886 0 0.013430968559477542 0.029473394729527914 0 0.014232706112015771 0.029095881475784152 0 0.013430968559477542 0.029473394729527914 0 0.013769968535620004 0.029618063536112522 0 0.013769968535620004 0.029618063536112522 0 0.013317861303455095 0.029791313235497469 0 0.013539356342231204 0.029916845259883747 0 0.013430968559477542 0.029473394729527914 0 0.013769968535620004 0.029618063536112522 0 0.013317861303455095 0.029791313235497469 0 0.013769968535620004 0.029618063536112522 0 0.013539356342231204 0.029916845259883747 0 0.013875663594626981 0.029943927676015582 0 0.012583732773201231 0.029413722770506891 0 0.013430968559477542 0.029473394729527914 0 0.012984874426943779 0.029753884942047767 0 0.013430968559477542 0.029473394729527914 0 0.013317861303455095 0.029791313235497469 0 0.012984874426943779 0.029753884942047767 0 0.012768643594484529 0.030128329219905454 0 0.012984874426943779 0.029753884942047767 0 0.013215554102266823 0.030281640420290929 0 0.013317861303455095 0.029791313235497469 0 0.012984874426943779 0.029753884942047767 0 0.013215554102266823 0.030281640420290929 0 0.013317861303455095 0.029791313235497469 0 0.013215554102266823 0.030281640420290929 0 0.013539356342231204 0.029916845259883747 0 0.013215554102266823 0.030281640420290929 0 0.013539356342231204 0.029916845259883747 0 0.013875663594626981 0.029943927676015582 0 0.014235619739169255 0.031220098030585175 0 0.01376171429948944 0.030629416528459207 0 0.01477526758834149 0.030258581575577051 0 0.015279318404752603 0.028766585484203203 0 0.014232706112015771 0.029095881475784152 0 0.01477526758834149 0.030258581575577051 0 0.01376171429948944 0.030629416528459207 0 0.013875663594626981 0.029943927676015582 0 0.01477526758834149 0.030258581575577051 0 0.014232706112015771 0.029095881475784152 0 0.013769968535620004 0.029618063536112522 0 0.013875663594626981 0.029943927676015582 0 0.014232706112015771 0.029095881475784152 0 0.013875663594626981 0.029943927676015582 0 0.01477526758834149 0.030258581575577051 0 0.079644982271873943 0.050174148812767418 0 0.081062252741728971 0.049536433538668566 0 0.081342156709590149 0.051785505807605589 0 0.079644982271873943 0.050174148812767418 0 0.081062252741728971 0.049536433538668566 0 0.078542709619086229 0.048262788316110444 0 0.080300590001807406 0.049172286845784577 0 0.082081863957335757 0.05081765011090511 0 0.081062252741728971 0.049536433538668566 0 0.081342156709590149 0.051785505807605589 0 0.083454702516750773 0.050595864790593872 0 0.080727995673831654 0.047447408345220522 0 0.080941155677835358 0.046441530379817422 0 0.082571095458196644 0.046323275575506827 0 0.080727995673831654 0.047447408345220522 0 0.080941155677835358 0.046441530379817422 0 0.080065588603318832 0.046019314271877422 0 0.080941155677835358 0.046441530379817422 0 0.080065588603318832 0.046019314271877422 0 0.080925090128691993 0.044924918230224362 0 0.080300590001807406 0.049172286845784577 0 0.077792628971798977 0.047792979451887256 0 0.080727995673831654 0.047447408345220522 0 0.080065588603318832 0.046019314271877422 0 0.078069332555076185 0.046852945520730764 0 0.078542709619086229 0.048262788316110444 0 0.076772908815069582 0.049139053474883419 0 0.078240630207381076 0.049362633108450002 0 0.077792628971798977 0.047792979451887256 0 0.07500249162310664 0.046552613320455086 0 0.076772908815069582 0.049139053474883419 0 0.074999957657865129 0.050081657445023596 0 0.075000061982907984 0.046551670595840006 0 0.078542709619086229 0.048262788316110444 0 0.076772908815069582 0.049139053474883419 0 0.075000061982907984 0.046551670595840006 0 0.076772908815069582 0.049139053474883419 0 0.076958501331223728 0.051498992383446511 0 0.074999957657865129 0.050081657445023596 0 0.079644982271873943 0.050174148812767418 0 0.078240630207381076 0.049362633108450002 0 0.078944828317634871 0.051676082097174086 0 0.076958501331223728 0.051498992383446511 0 0.078240630207381076 0.049362633108450002 0 0.079209933482232514 0.052767120772872107 0 0.076772908815069582 0.049139053474883419 0 0.076958501331223728 0.051498992383446511 0 0.078240630207381076 0.049362633108450002 0 0.079644982271873943 0.050174148812767418 0 0.078542709619086229 0.048262788316110444 0 0.078240630207381076 0.049362633108450002 0 0.078104616753400455 0.051691479927704724 0 0.078325402886304935 0.053183776505643258 0 0.076958501331223728 0.051498992383446511 0 0.079209933482232514 0.052767120772872107 0 0.077192316432213914 0.053967527508765073 0 0.076958501331223728 0.051498992383446511 0 0.074999966534578216 0.053611890729203464 0 0.077192316432213914 0.053967527508765073 0 0.076958501331223728 0.051498992383446511 0 0.074999957657865129 0.050081657445023596 0 0.074999966534578216 0.053611890729203464 0 0.075000006984322021 0.05714198322086838 0 0.074999966534578216 0.053611890729203464 0 0.076520862944484 0.055858416902751687 0 0.074999966534578216 0.053611890729203464 0 0.077192316432213914 0.053967527508765073 0 0.076520862944484 0.055858416902751687 0 0.079209933482232514 0.052767120772872107 0 0.077192316432213914 0.053967527508765073 0 0.078353885607755067 0.05611263376491938 0 0.079209933482232514 0.052767120772872107 0 0.078353885607755067 0.05611263376491938 0 0.080114790542689204 0.056138602649244841 0 0.077192316432213914 0.053967527508765073 0 0.076520862944484 0.055858416902751687 0 0.078353885607755067 0.05611263376491938 0 0.0786538313277729 0.056542212980746007 0 0.078589700741709595 0.056565163044866376 0 0.078944828317634871 0.051676082097174086 0 0.07956840103613888 0.053909700505522566 0 0.081342156709590149 0.051785505807605589 0 0.078325402886304935 0.053183776505643258 0 0.078589700741709595 0.056565163044866376 0 0.079644982271873943 0.050174148812767418 0 0.078944828317634871 0.051676082097174086 0 0.081342156709590149 0.051785505807605589 0 0.07956840103613888 0.053909700505522566 0 0.081342156709590149 0.051785505807605589 0 0.082559181715331498 0.05392918107268186 0 0.078589700741709595 0.056565163044866376 0 0.080869371619735592 0.056138272977966426 0 0.081342156709590149 0.051785505807605589 0 0.082559181715331498 0.05392918107268186 0 0.084055623270282306 0.052551158509921821 0 0.085499742426220049 0.053960281864694856 0 0.082559181715331498 0.05392918107268186 0 0.084055623270282306 0.052551158509921821 0 0.085499742426220049 0.053960281864694856 0 0.084055623270282306 0.052551158509921821 0 0.085838859073304324 0.051612742867107847 0 0.081422232286334092 0.055824258647783474 0 0.080869371619735592 0.056138272977966426 0 0.084055623270282306 0.052551158509921821 0 0.085838859073304324 0.051612742867107847 0 0.083454702516750773 0.050595864790593872 0 0.085607636553383243 0.048898223223676519 0 0.085565175994839093 0.049189789551552968 0 0.083154037304065509 0.048297700289445002 0 0.081570068112431796 0.052680237602841219 0 0.082081863957335757 0.05081765011090511 0 0.081342156709590149 0.051785505807605589 0 0.084055623270282306 0.052551158509921821 0 0.083454702516750773 0.050595864790593872 0 0.079826916802374581 0.053367026861242943 0 0.079798341630376204 0.053408521325184678 0 0.079882712243280751 0.053440807995824013 0 0.076709649479581643 0.055083635088968262 0 0.072324770191937046 0.055021874728706059 0 0.074623980968416465 0.05873450051478947 0 0.078350817232935896 0.055707249019165309 0 0.075858473711141142 0.051859057925748353 0 0.079892797486893249 0.053370667593189654 0 0.079826916802374581 0.053367026861242943 0 0.079882712243280751 0.053440807995824013 0 0.081422232286334092 0.055824258647783474 0 0.081570068112431796 0.052680237602841219 0 0.085562825545749815 0.049173446152824624 0 0.087104359344390897 0.048705751843526726 0 0.086319862250997276 0.048407281843333962 0 0.085607636553383243 0.048898223223676519 0 0.085562825545749815 0.049173446152824624 0 0.086319862250997276 0.048407281843333962 0 0.081591477813378513 0.052621011015457096 0 0.081570068112431796 0.052680237602841219 0 0.088900658239793776 0.048019048116619369 0 0.087752326424583416 0.050061219470433328 0 0.087104359344390897 0.048705751843526726 0 0.075858473711141142 0.051859057925748353 0 0.081570068112431796 0.052680237602841219 0 0.087752326424583416 0.050061219470433328 0 0.085562825545749815 0.049173446152824624 0 0.087104359344390897 0.048705751843526726 0 0.088900658239793776 0.048019048116619369 0 0.088114933363533682 0.046955172246882629 0 0.087104359344390897 0.048705751843526726 0 0.088114933363533682 0.046955172246882629 0 0.087104359344390897 0.048705751843526726 0 0.086815090169372236 0.047078001944562929 0 0.087104359344390897 0.048705751843526726 0 0.086815090169372236 0.047078001944562929 0 0.086319862250997276 0.048407281843333962 0 0.085607636553383243 0.048898223223676519 0 0.085861488700225655 0.047623980522566535 0 0.084618412340713656 0.047130414433563798 0 0.086815090169372236 0.047078001944562929 0 0.086319862250997276 0.048407281843333962 0 0.085861488700225655 0.047623980522566535 0 0.086815090169372236 0.047078001944562929 0 0.085861488700225655 0.047623980522566535 0 0.085831956259597872 0.04652816919371601 0 0.085607636553383243 0.048898223223676519 0 0.086319862250997276 0.048407281843333962 0 0.085861488700225655 0.047623980522566535 0 0.085861488700225655 0.047623980522566535 0 0.085831956259597872 0.04652816919371601 0 0.084618412340713656 0.047130414433563798 0 0.086815090169372236 0.047078001944562929 0 0.085831956259597872 0.04652816919371601 0 0.086212456527237899 0.045197665727973804 0 0.085831956259597872 0.04652816919371601 0 0.0842770155727154 0.044633944933005661 0 0.086212456527237899 0.045197665727973804 0 0.088117118584950804 0.045624189283006995 0 0.086815090169372236 0.047078001944562929 0 0.086212456527237899 0.045197665727973804 0 0.088117118584950804 0.045624189283006995 0 0.088114933363533682 0.046955172246882629 0 0.086815090169372236 0.047078001944562929 0 0.083154037304065509 0.048297700289445002 0 0.084618412340713656 0.047130414433563798 0 0.082571095458196644 0.046323275575506827 0 0.080727995673831654 0.047447408345220522 0 0.083154037304065509 0.048297700289445002 0 0.082571095458196644 0.046323275575506827 0 0.085607636553383243 0.048898223223676519 0 0.083154037304065509 0.048297700289445002 0 0.084618412340713656 0.047130414433563798 0 0.084618412340713656 0.047130414433563798 0 0.082571095458196644 0.046323275575506827 0 0.0842770155727154 0.044633944933005661 0 0.085831956259597872 0.04652816919371601 0 0.084618412340713656 0.047130414433563798 0 0.0842770155727154 0.044633944933005661 0 0.082571095458196644 0.046323275575506827 0 0.0842770155727154 0.044633944933005661 0 0.081680261994103373 0.043368056770858324 0 0.0842770155727154 0.044633944933005661 0 0.08453665344417452 0.041934747334571247 0 0.086420111576226491 0.043049021380731661 0 0.0842770155727154 0.044633944933005661 0 0.08453665344417452 0.041934747334571247 0 0.081680261994103373 0.043368056770858324 0 0.08453665344417452 0.041934747334571247 0 0.081680261994103373 0.043368056770858324 0 0.082920475454987472 0.039732507216611417 0 0.082247839835051739 0.042865079086053401 0 0.083319708623125682 0.040164871636951066 0 0.082655457545563693 0.043497662336374358 0 0.083948824268736857 0.039800065374537799 0 0.081458078123712294 0.041115417212042073 0 0.083819650045141594 0.04491997204776816 0 0.085572784673316055 0.045136525459938702 0 0.090156398244990291 0.045673837260673249 0 0.087215797839119674 0.04513422116554338 0 0.089029379636952372 0.042584561347517806 0 0.085287457679304859 0.045045014526599952 0 0.085572784673316055 0.045136525459938702 0 0.0842770155727154 0.044633944933005661 0 0.087215797839119674 0.04513422116554338 0 0.086420111576226491 0.043049021380731661 0 0.087215797839119674 0.04513422116554338 0 0.086420111576226491 0.043049021380731661 0 0.089029379636952372 0.042584561347517806 0 0.08453665344417452 0.041934747334571247 0 0.086420111576226491 0.043049021380731661 0 0.087067345750084901 0.040983462000631701 0 0.086420111576226491 0.043049021380731661 0 0.089029379636952372 0.042584561347517806 0 0.087067345750084901 0.040983462000631701 0 0.091284839976366119 0.040381580774676067 0 0.089029379636952372 0.042584561347517806 0 0.088905131014247574 0.039313678048899646 0 0.089029379636952372 0.042584561347517806 0 0.088905131014247574 0.039313678048899646 0 0.087067345750084901 0.040983462000631701 0 0.091284839976366119 0.040381580774676067 0 0.088905131014247574 0.039313678048899646 0 0.089953737894403585 0.037698574350083225 0 0.08453665344417452 0.041934747334571247 0 0.087067345750084901 0.040983462000631701 0 0.086148713672915267 0.038435270886110359 0 0.088905131014247574 0.039313678048899646 0 0.087067345750084901 0.040983462000631701 0 0.086148713672915267 0.038435270886110359 0 0.086148713672915267 0.038435270886110359 0 0.088535276463871465 0.036582161257626575 0 0.086484483478736107 0.035615436888810761 0 0.086148713672915267 0.038435270886110359 0 0.084593941058276625 0.036095871096422275 0 0.086484483478736107 0.035615436888810761 0 0.088905131014247574 0.039313678048899646 0 0.086148713672915267 0.038435270886110359 0 0.088535276463871465 0.036582161257626575 0 0.088905131014247574 0.039313678048899646 0 0.088535276463871465 0.036582161257626575 0 0.089953737894403585 0.037698574350083225 0 0.088535276463871465 0.036582161257626575 0 0.089953737894403585 0.037698574350083225 0 0.090432651088476576 0.036253161939226175 0 0.08453665344417452 0.041934747334571247 0 0.086148713672915267 0.038435270886110359 0 0.082920475454987472 0.039732507216611417 0 0.083319708623125682 0.040164871636951066 0 0.083976833170430532 0.038499025513621256 0 0.086148713672915267 0.038435270886110359 0 0.082920475454987472 0.039732507216611417 0 0.084593941058276625 0.036095871096422275 0 0.083948824268736857 0.039800065374537799 0 0.081500012619906803 0.037884249498855549 0 0.084593941058276625 0.036095871096422275 0 0.081500012619906803 0.037884249498855549 0 0.079110171245510466 0.040935886420050555 0 0.078411229446293529 0.03783823590074116 0 0.081500012619906803 0.037884249498855549 0 0.079110171245510466 0.040935886420050555 0 0.081458078123712294 0.041115417212042073 0 0.083948824268736857 0.039800065374537799 0 0.081500012619906803 0.037884249498855549 0 0.081458078123712294 0.041115417212042073 0 0.082655457545563693 0.043497662336374358 0 0.081458078123712294 0.041115417212042073 0 0.07958793296544299 0.044142908192897325 0 0.079110171245510466 0.040935886420050555 0 0.081458078123712294 0.041115417212042073 0 0.07958793296544299 0.044142908192897325 0 0.080065588603318832 0.046019314271877422 0 0.07958793296544299 0.044142908192897325 0 0.080925090128691993 0.044924918230224362 0 0.080065588603318832 0.046019314271877422 0 0.078069332555076185 0.046852945520730764 0 0.07958793296544299 0.044142908192897325 0 0.081628185912717879 0.044376766214991349 0 0.082247839835051739 0.042865079086053401 0 0.080941155677835358 0.046441530379817422 0 0.082571095458196644 0.046323275575506827 0 0.081680261994103373 0.043368056770858324 0 0.080941155677835358 0.046441530379817422 0 0.082655457545563693 0.043497662336374358 0 0.080925090128691993 0.044924918230224362 0 0.082655457545563693 0.043497662336374358 0 0.07958793296544299 0.044142908192897325 0 0.080925090128691993 0.044924918230224362 0 0.078069332555076185 0.046852945520730764 0 0.074999962931070474 0.04654923871489712 0 0.077279581858859359 0.04375789368585957 0 0.078069332555076185 0.046852945520730764 0 0.07958793296544299 0.044142908192897325 0 0.077279581858859359 0.04375789368585957 0 0.079110171245510466 0.040935886420050555 0 0.07958793296544299 0.044142908192897325 0 0.077279581858859359 0.04375789368585957 0 0.077279581858859359 0.04375789368585957 0 0.074999628044182712 0.042372337801591081 0 0.076933654720142394 0.0403597073545547 0 0.074999962931070474 0.04654923871489712 0 0.077279581858859359 0.04375789368585957 0 0.074999628044182712 0.042372337801591081 0 0.074999628044182712 0.042372337801591081 0 0.076933654720142394 0.0403597073545547 0 0.074999724062926765 0.038192840473073295 0 0.079110171245510466 0.040935886420050555 0 0.077279581858859359 0.04375789368585957 0 0.076933654720142394 0.0403597073545547 0 0.079110171245510466 0.040935886420050555 0 0.076933654720142394 0.0403597073545547 0 0.078411229446293529 0.03783823590074116 0 0.076933654720142394 0.0403597073545547 0 0.078411229446293529 0.03783823590074116 0 0.074999724062926765 0.038192840473073295 0 0.074999724062926765 0.038192840473073295 0 0.07764042358284852 0.034649825945557433 0 0.074999750049442149 0.034014113522845689 0 0.078411229446293529 0.03783823590074116 0 0.074999724062926765 0.038192840473073295 0 0.07764042358284852 0.034649825945557433 0 0.078411229446293529 0.03783823590074116 0 0.07764042358284852 0.034649825945557433 0 0.080041651373746803 0.035020914062325763 0 0.07764042358284852 0.034649825945557433 0 0.080041651373746803 0.035020914062325763 0 0.078377043556919337 0.031354238087356733 0 0.07764042358284852 0.034649825945557433 0 0.074999750049442149 0.034014113522845689 0 0.078377043556919337 0.031354238087356733 0 0.081500012619906803 0.037884249498855549 0 0.080041651373746803 0.035020914062325763 0 0.08273637549914642 0.034318016347878288 0 0.081500012619906803 0.037884249498855549 0 0.078411229446293529 0.03783823590074116 0 0.080041651373746803 0.035020914062325763 0 0.080041651373746803 0.035020914062325763 0 0.08129587498602163 0.032477526021925024 0 0.078377043556919337 0.031354238087356733 0 0.080041651373746803 0.035020914062325763 0 0.08129587498602163 0.032477526021925024 0 0.08273637549914642 0.034318016347878288 0 0.08129587498602163 0.032477526021925024 0 0.08157688293686112 0.02977529242112522 0 0.08364814084664321 0.031771704271951785 0 0.08129587498602163 0.032477526021925024 0 0.08157688293686112 0.02977529242112522 0 0.078377043556919337 0.031354238087356733 0 0.08157688293686112 0.02977529242112522 0 0.078377043556919337 0.031354238087356733 0 0.079036309954864617 0.027403881564813905 0 0.074999750049442149 0.034014113522845689 0 0.078377043556919337 0.031354238087356733 0 0.07499979080847928 0.029835142060698309 0 0.078377043556919337 0.031354238087356733 0 0.076801972120899092 0.027526452032993386 0 0.079036309954864617 0.027403881564813905 0 0.078377043556919337 0.031354238087356733 0 0.07499979080847928 0.029835142060698309 0 0.076801972120899092 0.027526452032993386 0 0.07499979080847928 0.029835142060698309 0 0.076801972120899092 0.027526452032993386 0 0.074999796084955869 0.025656786745394195 0 0.076801972120899092 0.027526452032993386 0 0.074999796084955869 0.025656786745394195 0 0.076192729651356886 0.02496023071744231 0 0.074999719686335689 0.025649985431908783 0 0.075478232591449715 0.024002433158902232 0 0.074999997831358522 0.025655839548562476 0 0.076315566672516558 0.024741768525548574 0 0.074999998927309519 0.023857729610993736 0 0.076282588111240682 0.024696940995993257 0 0.07499990970010964 0.023857477041737785 0 0.076367973339696527 0.023159160394464064 0 0.075478232591449715 0.024002433158902232 0 0.075001434911432519 0.023857870660135734 0 0.06906211047232988 0.020367088216870471 0 0.072338452710386372 0.020420677638091123 0 0.072692213626690108 0.022848154943527758 0 0.06906211047232988 0.020367088216870471 0 0.072338452710386372 0.020420677638091123 0 0.072479605502195302 0.017992544820164533 0 0.076282588111240682 0.024696940995993257 0 0.076367973339696527 0.023159160394464064 0 0.079272987028002936 0.022558110543721845 0 0.075478232591449715 0.024002433158902232 0 0.076862259765419647 0.021209638138659417 0 0.075478232591449715 0.024002433158902232 0 0.076342033439043708 0.025225330192294865 0 0.076801972120899092 0.027526452032993386 0 0.076192729651356886 0.02496023071744231 0 0.079036309954864617 0.027403881564813905 0 0.078960401851652567 0.027473331849901837 0 0.076342033439043708 0.025225330192294865 0 0.076193851164442106 0.025434928821791145 0 0.072692213626690108 0.022848154943527758 0 0.075131091509841458 0.020478571122505181 0 0.076193851164442106 0.025434928821791145 0 0.075131091509841458 0.020478571122505181 0 0.0784905091155359 0.022088778382376252 0 0.075131091509841458 0.020478571122505181 0 0.078409046364515872 0.019056432528969519 0 0.0784905091155359 0.022088778382376252 0 0.072338452710386372 0.020420677638091123 0 0.075131091509841458 0.020478571122505181 0 0.072479605502195302 0.017992544820164533 0 0.072338452710386372 0.020420677638091123 0 0.072692213626690108 0.022848154943527758 0 0.075131091509841458 0.020478571122505181 0 0.079365265902876111 0.018504665267986931 0 0.076862259765419647 0.021209638138659417 0 0.082225720115734952 0.02042711527822581 0 0.079131161069924502 0.020122179238618552 0 0.079272987028002936 0.022558110543721845 0 0.075131091509841458 0.020478571122505181 0 0.076033651643815287 0.015623794551049926 0 0.072479605502195302 0.017992544820164533 0 0.076033651643815287 0.015623794551049926 0 0.079069541490478693 0.015910235873510408 0 0.078409046364515872 0.019056432528969519 0 0.075131091509841458 0.020478571122505181 0 0.076033651643815287 0.015623794551049926 0 0.078409046364515872 0.019056432528969519 0 0.076033651643815287 0.015623794551049926 0 0.079069541490478693 0.015910235873510408 0 0.079576676152389794 0.013531026309259776 0 0.079365265902876111 0.018504665267986931 0 0.082039163494476541 0.016012234191436225 0 0.082225720115734952 0.02042711527822581 0 0.079131161069924502 0.020122179238618552 0 0.080668446973918437 0.018047139926294201 0 0.079131161069924502 0.020122179238618552 0 0.076842481188855463 0.018845043141408089 0 0.07658646023660326 0.021617670244619278 0 0.079131161069924502 0.020122179238618552 0 0.076842481188855463 0.018845043141408089 0 0.080668446973918437 0.018047139926294201 0 0.074999997069470983 0.019430981414486539 0 0.076842481188855463 0.018845043141408089 0 0.07658646023660326 0.021617670244619278 0 0.07499990970010964 0.023857477041737785 0 0.074999997069470983 0.019430981414486539 0 0.07658646023660326 0.021617670244619278 0 0.07499990970010964 0.023857477041737785 0 0.07658646023660326 0.021617670244619278 0 0.076367973339696527 0.023159160394464064 0 0.07658646023660326 0.021617670244619278 0 0.076367973339696527 0.023159160394464064 0 0.079272987028002936 0.022558110543721845 0 0.079131161069924502 0.020122179238618552 0 0.07658646023660326 0.021617670244619278 0 0.079272987028002936 0.022558110543721845 0 0.083479860058876157 0.0181220295907654 0 0.085802549774784298 0.017591293089998176 0 0.084338806560228644 0.016130269133684802 0 0.085802549774784298 0.017591293089998176 0 0.08586032160602991 0.015753810362917234 0 0.084338806560228644 0.016130269133684802 0 0.083479860058876157 0.0181220295907654 0 0.084338806560228644 0.016130269133684802 0 0.082614444490569941 0.016154308954321218 0 0.085802549774784298 0.017591293089998176 0 0.08586032160602991 0.015753810362917234 0 0.087608152739520287 0.01603248331847654 0 0.085802549774784298 0.017591293089998176 0 0.087465315406141914 0.018430977302176178 0 0.087608152739520287 0.01603248331847654 0 0.08586032160602991 0.015753810362917234 0 0.086546714445748116 0.014504892108234397 0 0.087608152739520287 0.01603248331847654 0 0.08586032160602991 0.015753810362917234 0 0.086546714445748116 0.014504892108234397 0 0.084749080368441837 0.014500704666964809 0 0.08586032160602991 0.015753810362917234 0 0.084749080368441837 0.014500704666964809 0 0.084338806560228644 0.016130269133684802 0 0.084338806560228644 0.016130269133684802 0 0.083512473885829094 0.014738858063372159 0 0.082614444490569941 0.016154308954321218 0 0.084749080368441837 0.014500704666964809 0 0.084338806560228644 0.016130269133684802 0 0.083512473885829094 0.014738858063372159 0 0.084749080368441837 0.014500704666964809 0 0.083512473885829094 0.014738858063372159 0 0.083577590482845326 0.013712071449300006 0 0.083512473885829094 0.014738858063372159 0 0.082058632263040138 0.014692914715162445 0 0.082704897704408101 0.013738338384267029 0 0.082058632263040138 0.014692914715162445 0 0.081547034034764265 0.013752588279574002 0 0.082704897704408101 0.013738338384267029 0 0.082058632263040138 0.014692914715162445 0 0.081070114723591311 0.015766650613692781 0 0.080764033205713959 0.014564673907252077 0 0.082058632263040138 0.014692914715162445 0 0.080764033205713959 0.014564673907252077 0 0.081547034034764265 0.013752588279574002 0 0.082058632263040138 0.014692914715162445 0 0.081070114723591311 0.015766650613692781 0 0.082614444490569941 0.016154308954321218 0 0.083512473885829094 0.014738858063372159 0 0.082058632263040138 0.014692914715162445 0 0.082614444490569941 0.016154308954321218 0 0.080764033205713959 0.014564673907252077 0 0.079069541490478693 0.015910235873510408 0 0.079576676152389794 0.013531026309259776 0 0.081070114723591311 0.015766650613692781 0 0.080764033205713959 0.014564673907252077 0 0.079069541490478693 0.015910235873510408 0 0.079069541490478693 0.015910235873510408 0 0.08109924099443952 0.017602497648748057 0 0.078409046364515872 0.019056432528969519 0 0.081070114723591311 0.015766650613692781 0 0.079069541490478693 0.015910235873510408 0 0.08109924099443952 0.017602497648748057 0 0.083479860058876157 0.0181220295907654 0 0.082614444490569941 0.016154308954321218 0 0.08109924099443952 0.017602497648748057 0 0.081070114723591311 0.015766650613692781 0 0.082614444490569941 0.016154308954321218 0 0.08109924099443952 0.017602497648748057 0 0.083479860058876157 0.0181220295907654 0 0.08109924099443952 0.017602497648748057 0 0.081717415849215977 0.020972716106231241 0 0.08109924099443952 0.017602497648748057 0 0.081717415849215977 0.020972716106231241 0 0.078409046364515872 0.019056432528969519 0 0.081717415849215977 0.020972716106231241 0 0.078409046364515872 0.019056432528969519 0 0.0784905091155359 0.022088778382376252 0 0.076193851164442106 0.025434928821791145 0 0.0784905091155359 0.022088778382376252 0 0.0806284793519573 0.024599119434080798 0 0.081717415849215977 0.020972716106231241 0 0.0784905091155359 0.022088778382376252 0 0.0806284793519573 0.024599119434080798 0 0.081717415849215977 0.020972716106231241 0 0.084368559150667641 0.023704583371979657 0 0.0806284793519573 0.024599119434080798 0 0.084368559150667641 0.023704583371979657 0 0.085443209553205696 0.020374246953255352 0 0.086378978976721893 0.022907673527670248 0 0.081717415849215977 0.020972716106231241 0 0.084368559150667641 0.023704583371979657 0 0.085443209553205696 0.020374246953255352 0 0.084368559150667641 0.023704583371979657 0 0.086378978976721893 0.022907673527670248 0 0.08642384820521648 0.025358602736382563 0 0.083479860058876157 0.0181220295907654 0 0.081717415849215977 0.020972716106231241 0 0.085443209553205696 0.020374246953255352 0 0.083479860058876157 0.0181220295907654 0 0.085802549774784298 0.017591293089998176 0 0.085443209553205696 0.020374246953255352 0 0.087465315406141914 0.018430977302176178 0 0.087435217379037242 0.021484999934810425 0 0.088658392951842385 0.018996790009382949 0 0.085443209553205696 0.020374246953255352 0 0.087465315406141914 0.018430977302176178 0 0.087435217379037242 0.021484999934810425 0 0.085802549774784298 0.017591293089998176 0 0.085443209553205696 0.020374246953255352 0 0.087465315406141914 0.018430977302176178 0 0.087435217379037242 0.021484999934810425 0 0.088658392951842385 0.018996790009382949 0 0.089109257131476979 0.023512030890239417 0 0.085443209553205696 0.020374246953255352 0 0.087435217379037242 0.021484999934810425 0 0.086378978976721893 0.022907673527670248 0 0.087435217379037242 0.021484999934810425 0 0.086378978976721893 0.022907673527670248 0 0.088356754870333204 0.02404002081803271 0 0.087435217379037242 0.021484999934810425 0 0.088356754870333204 0.02404002081803271 0 0.089109257131476979 0.023512030890239417 0 0.085244968592792458 0.027606450370182351 0 0.084871248682754405 0.027885848441085829 0 0.088356754870333204 0.02404002081803271 0 0.089447692971558745 0.025618888278524255 0 0.089109257131476979 0.023512030890239417 0 0.088356754870333204 0.02404002081803271 0 0.088361376575285588 0.026618687188554382 0 0.09094870447886777 0.027303282438156246 0 0.088361376575285588 0.026618687188554382 0 0.088781357980817835 0.028526813032687056 0 0.09094870447886777 0.027303282438156246 0 0.088361376575285588 0.026618687188554382 0 0.08642384820521648 0.025358602736382563 0 0.086744659496889726 0.028300284883171673 0 0.088356754870333204 0.02404002081803271 0 0.088361376575285588 0.026618687188554382 0 0.08642384820521648 0.025358602736382563 0 0.086378978976721893 0.022907673527670248 0 0.088356754870333204 0.02404002081803271 0 0.08642384820521648 0.025358602736382563 0 0.084368559150667641 0.023704583371979657 0 0.08642384820521648 0.025358602736382563 0 0.083669825102069648 0.027218583597954687 0 0.08642384820521648 0.025358602736382563 0 0.086744659496889726 0.028300284883171673 0 0.083669825102069648 0.027218583597954687 0 0.086744659496889726 0.028300284883171673 0 0.087973354170131593 0.030292178751113855 0 0.085213380766912414 0.032596630669982654 0 0.086744659496889726 0.028300284883171673 0 0.083669825102069648 0.027218583597954687 0 0.085213380766912414 0.032596630669982654 0 0.087973354170131593 0.030292178751113855 0 0.088781357980817835 0.028526813032687056 0 0.090154956934718269 0.029975116056641056 0 0.087973354170131593 0.030292178751113855 0 0.088804662583888444 0.032175120904705236 0 0.090154956934718269 0.029975116056641056 0 0.088781357980817835 0.028526813032687056 0 0.09094870447886777 0.027303282438156246 0 0.090154956934718269 0.029975116056641056 0 0.086744659496889726 0.028300284883171673 0 0.087973354170131593 0.030292178751113855 0 0.088781357980817835 0.028526813032687056 0 0.088361376575285588 0.026618687188554382 0 0.086744659496889726 0.028300284883171673 0 0.088781357980817835 0.028526813032687056 0 0.078960401851652567 0.027473331849901837 0 0.081742292051148926 0.029699135608802218 0 0.076193851164442106 0.025434928821791145 0 0.0806284793519573 0.024599119434080798 0 0.079871411006754905 0.028588491606454713 0 0.0806284793519573 0.024599119434080798 0 0.083669825102069648 0.027218583597954687 0 0.079871411006754905 0.028588491606454713 0 0.084368559150667641 0.023704583371979657 0 0.0806284793519573 0.024599119434080798 0 0.083669825102069648 0.027218583597954687 0 0.083669825102069648 0.027218583597954687 0 0.079871411006754905 0.028588491606454713 0 0.085213380766912414 0.032596630669982654 0 0.081742292051148926 0.029699135608802218 0 0.083394425639705283 0.030933989887928344 0 0.08129587498602163 0.032477526021925024 0 0.08364814084664321 0.031771704271951785 0 0.08273637549914642 0.034318016347878288 0 0.08364814084664321 0.031771704271951785 0 0.08273637549914642 0.034318016347878288 0 0.085213380766912414 0.032596630669982654 0 0.08273637549914642 0.034318016347878288 0 0.084593941058276625 0.036095871096422275 0 0.085213380766912414 0.032596630669982654 0 0.081500012619906803 0.037884249498855549 0 0.08273637549914642 0.034318016347878288 0 0.084593941058276625 0.036095871096422275 0 0.088804662583888444 0.032175120904705236 0 0.088116509141009977 0.034197423617763366 0 0.090436906506693518 0.033121873456052144 0 0.088804662583888444 0.032175120904705236 0 0.09091328659632561 0.031675182661271228 0 0.090154956934718269 0.029975116056641056 0 0.088804662583888444 0.032175120904705236 0 0.090436906506693518 0.033121873456052144 0 0.09091328659632561 0.031675182661271228 0 0.085213380766912414 0.032596630669982654 0 0.086484483478736107 0.035615436888810761 0 0.088116509141009977 0.034197423617763366 0 0.087973354170131593 0.030292178751113855 0 0.088804662583888444 0.032175120904705236 0 0.085213380766912414 0.032596630669982654 0 0.088804662583888444 0.032175120904705236 0 0.085213380766912414 0.032596630669982654 0 0.088116509141009977 0.034197423617763366 0 0.084593941058276625 0.036095871096422275 0 0.085213380766912414 0.032596630669982654 0 0.086484483478736107 0.035615436888810761 0 0.088535276463871465 0.036582161257626575 0 0.086484483478736107 0.035615436888810761 0 0.088116509141009977 0.034197423617763366 0 0.088535276463871465 0.036582161257626575 0 0.088116509141009977 0.034197423617763366 0 0.08966414230881059 0.034999366730171372 0 0.088116509141009977 0.034197423617763366 0 0.08966414230881059 0.034999366730171372 0 0.090436906506693518 0.033121873456052144 0 0.088535276463871465 0.036582161257626575 0 0.08966414230881059 0.034999366730171372 0 0.090432651088476576 0.036253161939226175 0 0.090432651088476576 0.036253161939226175 0 0.09167248394356993 0.035788363998571979 0 0.090996447494555779 0.03470474701588977 0 0.08966414230881059 0.034999366730171372 0 0.090432651088476576 0.036253161939226175 0 0.090996447494555779 0.03470474701588977 0 0.09170638016870003 0.037604481322237322 0 0.09167248394356993 0.035788363998571979 0 0.092809090844772943 0.035989128529280802 0 0.09167248394356993 0.035788363998571979 0 0.092232998853554696 0.035328708663847914 0 0.092809090844772943 0.035989128529280802 0 0.09167248394356993 0.035788363998571979 0 0.092232998853554696 0.035328708663847914 0 0.091801845281738986 0.034822763685016037 0 0.092232998853554696 0.035328708663847914 0 0.091801845281738986 0.034822763685016037 0 0.092842200186549831 0.034462471086709655 0 0.09167248394356993 0.035788363998571979 0 0.091801845281738986 0.034822763685016037 0 0.090996447494555779 0.03470474701588977 0 0.091801845281738986 0.034822763685016037 0 0.090996447494555779 0.03470474701588977 0 0.091944911976433313 0.033815470134484993 0 0.091801845281738986 0.034822763685016037 0 0.091944911976433313 0.033815470134484993 0 0.092842200186549831 0.034462471086709655 0 0.08966414230881059 0.034999366730171372 0 0.090996447494555779 0.03470474701588977 0 0.090436906506693518 0.033121873456052144 0 0.091944911976433313 0.033815470134484993 0 0.09091328659632561 0.031675182661271228 0 0.092588469594292511 0.030193981817616494 0 0.090436906506693518 0.033121873456052144 0 0.091944911976433313 0.033815470134484993 0 0.09091328659632561 0.031675182661271228 0 0.082173845328241318 0.030017896559569209 0 0.083377923041893412 0.028497550142556994 0 0.090996447494555779 0.03470474701588977 0 0.090436906506693518 0.033121873456052144 0 0.091944911976433313 0.033815470134484993 0 0.091944911976433313 0.033815470134484993 0 0.092842200186549831 0.034462471086709655 0 0.092588469594292511 0.030193981817616494 0 0.080417142893566412 0.02949856792569466 0 0.079871525509972646 0.026569102796833541 0 0.08348730420339813 0.029393186358297813 0 0.083088262545937819 0.029871715780573641 0 0.082861093360310153 0.028483369328056962 0 0.080417142893566412 0.02949856792569466 0 0.075185003926210442 0.028587280080380004 0 0.080417142893566412 0.02949856792569466 0 0.083377923041893412 0.028497550142556994 0 0.080417142893566412 0.02949856792569466 0 0.082173845328241318 0.030017896559569209 0 0.080417142893566412 0.02949856792569466 0 0.074694681985100084 0.033258987229165871 0 0.093462404894167184 0.033595123972788472 0 0.092573839401222685 0.03467359925950636 0 0.092809090844772943 0.035989128529280802 0 0.093462404894167184 0.033595123972788472 0 0.092809090844772943 0.035989128529280802 0 0.095339908001048718 0.036332323406874534 0 0.082173845328241318 0.030017896559569209 0 0.082672180810058532 0.030894193471136155 0 0.092232998853554696 0.035328708663847914 0 0.092842200186549831 0.034462471086709655 0 0.092809090844772943 0.035989128529280802 0 0.065519134038235519 0.029800930796692011 0 0.064295246865362948 0.028094507345376565 0 0.063962237133739261 0.029502645596349162 0 0.064295246865362948 0.028094507345376565 0 0.063011874060098588 0.028499188212680285 0 0.063962237133739261 0.029502645596349162 0 0.062576640818185036 0.029188477574038283 0 0.062090298533618624 0.029900747561394336 0 0.061957292575480424 0.028463487056435456 0 0.063011874060098588 0.028499188212680285 0 0.063149889435586609 0.029290298892134213 0 0.062576640818185036 0.029188477574038283 0 0.063011874060098588 0.028499188212680285 0 0.063149889435586609 0.029290298892134213 0 0.063962237133739261 0.029502645596349162 0 0.063011874060098588 0.028499188212680285 0 0.062576640818185036 0.029188477574038283 0 0.061957292575480424 0.028463487056435456 0 0.062090298533618624 0.029900747561394336 0 0.062648474076807167 0.030653457972478437 0 0.061817811946242501 0.031356476613471525 0 0.062576640818185036 0.029188477574038283 0 0.062090298533618624 0.029900747561394336 0 0.062933275354057197 0.029871092714175835 0 0.063149889435586609 0.029290298892134213 0 0.062933275354057197 0.029871092714175835 0 0.063962237133739261 0.029502645596349162 0 0.063149889435586609 0.029290298892134213 0 0.062576640818185036 0.029188477574038283 0 0.062933275354057197 0.029871092714175835 0 0.062933275354057197 0.029871092714175835 0 0.062648474076807167 0.030653457972478437 0 0.063463007441271549 0.030415270243183728 0 0.062090298533618624 0.029900747561394336 0 0.062933275354057197 0.029871092714175835 0 0.062648474076807167 0.030653457972478437 0 0.065519134038235519 0.029800930796692011 0 0.063962237133739261 0.029502645596349162 0 0.064416532227455039 0.030601648306902183 0 0.077417135966450557 0.028149719996453056 0 0.078329520465629493 0.027446491734958934 0 0.078602054047557254 0.026667857063715682 0 0.062933275354057197 0.029871092714175835 0 0.063962237133739261 0.029502645596349162 0 0.063463007441271549 0.030415270243183728 0 0.063962237133739261 0.029502645596349162 0 0.063463007441271549 0.030415270243183728 0 0.064416532227455039 0.030601648306902183 0 0.075185003926210442 0.028587280080380004 0 0.072512150313699175 0.026303974952341824 0 0.063463007441271549 0.030415270243183728 0 0.064416532227455039 0.030601648306902183 0 0.063351024689302635 0.03145138405078348 0 0.078329520465629493 0.027446491734958934 0 0.078602054047557254 0.026667857063715682 0 0.079212357035382625 0.026700395950086688 0 0.079871525509972646 0.026569102796833541 0 0.072512150313699175 0.026303974952341824 0 0.057131095541559235 0.022262051434731332 0 0.056084043397451697 0.02217785655238514 0 0.055786335998790362 0.023237515627735447 0 0.072512150313699175 0.026303974952341824 0 0.057643386884280834 0.027080811156245419 0 0.082709214874555903 0.026531299107307289 0 0.084452912131963764 0.026636785413376787 0 0.086064014813482304 0.022900537758123115 0 0.062648474076807167 0.030653457972478437 0 0.063351024689302635 0.03145138405078348 0 0.061817811946242501 0.031356476613471525 0 0.062648474076807167 0.030653457972478437 0 0.063463007441271549 0.030415270243183728 0 0.063351024689302635 0.03145138405078348 0 0.083754358805994494 0.025320131359074675 0 0.084337664152072139 0.024694031416894295 0 0.084469008896017592 0.024621996077392679 0 0.072512150313699175 0.026303974952341824 0 0.070339283032574307 0.021441062138783214 0 0.084452912131963764 0.026636785413376787 0 0.086064014813482304 0.022900537758123115 0 0.0889881935630496 0.022909839255698613 0 0.079871525509972646 0.026569102796833541 0 0.084651938891263573 0.023496267268698266 0 0.084411774227599587 0.024629739475838613 0 0.084155571256754103 0.024390638502142795 0 0.084441985260673272 0.024298369374740694 0 0.084337664152072139 0.024694031416894295 0 0.084469008896017592 0.024621996077392679 0 0.084884083749519681 0.02408571385334396 0 0.083986158113901144 0.025125308532816179 0 0.083911869572992681 0.02463505863828188 0 0.083496753009296223 0.024668288926290395 0 0.083986158113901144 0.025125308532816179 0 0.084411774227599587 0.024629739475838613 0 0.083911869572992681 0.02463505863828188 0 0.079871525509972646 0.026569102796833541 0 0.082362558840155822 0.024725609708707515 0 0.084411774227599587 0.024629739475838613 0 0.083911869572992681 0.02463505863828188 0 0.084155571256754103 0.024390638502142795 0 0.083911869572992681 0.02463505863828188 0 0.083657930949865747 0.024214488912273312 0 0.084155571256754103 0.024390638502142795 0 0.083911869572992681 0.02463505863828188 0 0.083496753009296223 0.024668288926290395 0 0.083657930949865747 0.024214488912273312 0 0.083774380915338675 0.02749727707066172 0 0.085633296720204505 0.023741923394726056 0 0.083496753009296223 0.024668288926290395 0 0.083111515387496449 0.025066926578856074 0 0.082993676794033439 0.024321642408393775 0 0.089447692971558745 0.025618888278524255 0 0.089989650178046152 0.023381405472457113 0 0.089109257131476979 0.023512030890239417 0 0.089447692971558745 0.025618888278524255 0 0.090491010681651107 0.026504789384647988 0 0.089989650178046152 0.023381405472457113 0 0.089447692971558745 0.025618888278524255 0 0.090491010681651107 0.026504789384647988 0 0.09005480294353771 0.026508620505708083 0 0.082876990624814864 0.027952269869642575 0 0.08284027611746618 0.027952485303911277 0 0.082888010647330576 0.02802434245403021 0 0.083774380915338675 0.02749727707066172 0 0.084107598383501639 0.027890515569096497 0 0.09094870447886777 0.027303282438156246 0 0.091836158032819651 0.028834440042843093 0 0.090154956934718269 0.029975116056641056 0 0.084871248682754405 0.027885848441085829 0 0.084107598383501639 0.027890515569096497 0 0.091836158032819651 0.028834440042843093 0 0.090154956934718269 0.029975116056641056 0 0.092588469594292511 0.030193981817616494 0 0.09091328659632561 0.031675182661271228 0 0.090154956934718269 0.029975116056641056 0 0.092588469594292511 0.030193981817616494 0 0.083774380915338675 0.02749727707066172 0 0.083377923041893412 0.028497550142556994 0 0.084107598383501639 0.027890515569096497 0 0.083377923041893412 0.028497550142556994 0 0.083986158113901144 0.025125308532816179 0 0.083496753009296223 0.024668288926290395 0 0.083111515387496449 0.025066926578856074 0 0.079871525509972646 0.026569102796833541 0 0.083774380915338675 0.02749727707066172 0 0.080951070535938738 0.027275265836228895 0 0.081569608493307202 0.027316994473842563 0 0.081545552513361305 0.027178641589379746 0 0.081312651716998363 0.026849287025564293 0 0.080951070535938738 0.027275265836228895 0 0.081545552513361305 0.027178641589379746 0 0.016566372814183532 0.026448080494828257 0 0.016680416910727611 0.026416756713281336 0 0.016557295061875296 0.026325206062137455 0 0.016566372814183532 0.026448080494828257 0 0.016770561279676598 0.026569347566445713 0 0.016680416910727611 0.026416756713281336 0 0.016749787707431581 0.026325364803475641 0 0.016566372814183532 0.026448080494828257 0 0.016202754534632862 0.026432266659860929 0 0.016749787707431581 0.026325364803475641 0 0.016566372814183532 0.026448080494828257 0 0.016858150846806395 0.026477873134042752 0 0.016566372814183532 0.026448080494828257 0 0.016858150846806395 0.026477873134042752 0 0.016770561279676598 0.026569347566445713 0 0.016858150846806395 0.026477873134042752 0 0.016991665571345124 0.02663169713749856 0 0.016770561279676598 0.026569347566445713 0 0.016858150846806395 0.026477873134042752 0 0.01701412335372866 0.026385170803701806 0 0.017102135741905482 0.026516424986389089 0 0.016858150846806395 0.026477873134042752 0 0.017102135741905482 0.026516424986389089 0 0.016991665571345124 0.02663169713749856 0 0.016749787707431581 0.026325364803475641 0 0.016858150846806395 0.026477873134042752 0 0.01701412335372866 0.026385170803701806 0 0.05014296987786724 0.031942870344189585 0 0.044677397938718992 0.030115990606565949 0 0.01701412335372866 0.026385170803701806 0 0.017236906088739901 0.026380985778725091 0 0.017102135741905482 0.026516424986389089 0 0.017019610781498266 0.02621064286824774 0 0.01701412335372866 0.026385170803701806 0 0.017236906088739901 0.026380985778725091 0 0.062090298533618624 0.029900747561394336 0 0.061957292575480424 0.028463487056435456 0 0.061115786079514345 0.029847199309080242 0 0.044677397938718992 0.030115990606565949 0 0.041358353131553068 0.027863390677024043 0 0.062090298533618624 0.029900747561394336 0 0.061115786079514345 0.029847199309080242 0 0.061817811946242501 0.031356476613471525 0 0.061115786079514345 0.029847199309080242 0 0.061817811946242501 0.031356476613471525 0 0.060267017617485541 0.031257509870037288 0 0.056084043397451697 0.02217785655238514 0 0.055786335998790362 0.023237515627735447 0 0.055074144550781211 0.022120498728710056 0 0.057643386884280834 0.027080811156245419 0 0.041358353131553068 0.027863390677024043 0 0.055786335998790362 0.023237515627735447 0 0.054481287008146133 0.023130864136741799 0 0.055074144550781211 0.022120498728710056 0 0.017080199561511387 0.026562681227978214 0 0.01725278637011065 0.026365347711973568 0 0.016975540787051335 0.02636106904736769 0 0.039779566183287589 0.026059274704800611 0 0.041358353131553068 0.027863390677024043 0 0.041358353131553068 0.027863390677024043 0 0.026049329297321479 0.026934713155307828 0 0.026049329297321479 0.026934713155307828 0 0.022442271360197889 0.026716947673694088 0 0.017080199561511387 0.026562681227978214 0 0.016975540787051335 0.02636106904736769 0 0.016805490919695999 0.026529641670151486 0 0.017080199561511387 0.026562681227978214 0 0.016805490919695999 0.026529641670151486 0 0.016961103723182391 0.026706086367677025 0 0.016805490919695999 0.026529641670151486 0 0.016618781877102046 0.02643167732118663 0 0.016679712753863603 0.026567574612219095 0 0.016805490919695999 0.026529641670151486 0 0.016782937349214922 0.026624500676421223 0 0.016679712753863603 0.026567574612219095 0 0.016805490919695999 0.026529641670151486 0 0.016680416910727611 0.026416756713281336 0 0.016618781877102046 0.02643167732118663 0 0.016975540787051335 0.02636106904736769 0 0.016805490919695999 0.026529641670151486 0 0.016680416910727611 0.026416756713281336 0 0.016901361493822056 0.026785021446778093 0 0.016873277412699044 0.026777290465294271 0 0.016961103723182391 0.026706086367677025 0 0.016781615672417333 0.026844849994742615 0 0.016873277412699044 0.026777290465294271 0 0.016853583699805767 0.02691717694594566 0 0.016781615672417333 0.026844849994742615 0 0.016873277412699044 0.026777290465294271 0 0.016763270570946599 0.02676141491037275 0 0.016781615672417333 0.026844849994742615 0 0.016763270570946599 0.02676141491037275 0 0.016679993623752897 0.026846984487307726 0 0.016901361493822056 0.026785021446778093 0 0.016873277412699044 0.026777290465294271 0 0.016931290074847349 0.026763306900611659 0 0.039775267611693199 0.016882797371770179 0 0.041151153782037375 0.01455997885873841 0 0.016873277412699044 0.026777290465294271 0 0.016844382322390127 0.0267058741021074 0 0.016961103723182391 0.026706086367677025 0 0.016873277412699044 0.026777290465294271 0 0.016763270570946599 0.02676141491037275 0 0.016844382322390127 0.0267058741021074 0 0.016763270570946599 0.02676141491037275 0 0.016730117104033944 0.026676218561441305 0 0.016844382322390127 0.0267058741021074 0 0.016805490919695999 0.026529641670151486 0 0.016782937349214922 0.026624500676421223 0 0.016961103723182391 0.026706086367677025 0 0.016730117104033944 0.026676218561441305 0 0.016782937349214922 0.026624500676421223 0 0.016844382322390127 0.0267058741021074 0 0.016782937349214922 0.026624500676421223 0 0.016844382322390127 0.0267058741021074 0 0.016961103723182391 0.026706086367677025 0 0.016730117104033944 0.026676218561441305 0 0.016782937349214922 0.026624500676421223 0 0.016679712753863603 0.026567574612219095 0 0.054481287008146133 0.023130864136741799 0 0.053903110031941016 0.024064714915991641 0 0.054517764582443347 0.02412136604445788 0 0.039779566183287589 0.026059274704800611 0 0.040377823766417006 0.02354483760629731 0 0.04582470706844273 0.015107422656188278 0 0.065315142665920381 0.016599074129020362 0 0.04582470706844273 0.015107422656188278 0 0.040377823766417006 0.02354483760629731 0 0.05330312011211407 0.024927769876533563 0 0.053903110031941016 0.024064714915991641 0 0.054517764582443347 0.02412136604445788 0 0.095157044906674343 0.016877339775450296 0 0.093595879482079897 0.017267813332124425 0 0.092964459833504459 0.0193387205763841 0 0.093595879482079897 0.017267813332124425 0 0.091633687635381614 0.017540247278250751 0 0.093538569934412993 0.016124634120987764 0 0.092909794510939891 0.017206113618428231 0 0.091988849610666515 0.017075253257522682 0 0.092892163841948316 0.016320780707628383 0 0.091633687635381614 0.017540247278250751 0 0.092964459833504459 0.0193387205763841 0 0.091097013339989874 0.019240034549684256 0 0.093595879482079897 0.017267813332124425 0 0.091633687635381614 0.017540247278250751 0 0.092964459833504459 0.0193387205763841 0 0.055786335998790362 0.023237515627735447 0 0.054481287008146133 0.023130864136741799 0 0.054517764582443347 0.02412136604445788 0 0.0889881935630496 0.022909839255698613 0 0.092964459833504459 0.0193387205763841 0 0.091097013339989874 0.019240034549684256 0 0.070339283032574307 0.021441062138783214 0 0.065315142665920381 0.016599074129020362 0 0.089087533603244534 0.020511590350391649 0 0.088850951152236804 0.020582631081757508 0 0.086064014813482304 0.022900537758123115 0 0.0889881935630496 0.022909839255698613 0 0.089277098603901095 0.019494834743169979 0 0.0889881935630496 0.022909839255698613 0 0.091097013339989874 0.019240034549684256 0 0.089277098603901095 0.019494834743169979 0 0.084469008896017592 0.024621996077392679 0 0.085113697835964577 0.023939751868406134 0 0.084884083749519681 0.02408571385334396 0 0.084651938891263573 0.023496267268698266 0 0.088850951152236804 0.020582631081757508 0 0.092037763487037641 0.018272904178998857 0 0.091988849610666515 0.017075253257522682 0 0.091171056665990652 0.017623284785746186 0 0.092909794510939891 0.017206113618428231 0 0.092037763487037641 0.018272904178998857 0 0.091988849610666515 0.017075253257522682 0 0.090859058130089237 0.018535472991079362 0 0.088850951152236804 0.020582631081757508 0 0.091633687635381614 0.017540247278250751 0 0.091097013339989874 0.019240034549684256 0 0.089636361615930943 0.019445481586207704 0 0.092158476444011886 0.015830989591859138 0 0.091108576049402548 0.016604607380112466 0 0.091164037512537988 0.014839347441699683 0 0.091988849610666515 0.017075253257522682 0 0.092158476444011886 0.015830989591859138 0 0.091108576049402548 0.016604607380112466 0 0.091988849610666515 0.017075253257522682 0 0.092158476444011886 0.015830989591859138 0 0.092892163841948316 0.016320780707628383 0 0.092158476444011886 0.015830989591859138 0 0.092313155824187837 0.014483791676835249 0 0.091164037512537988 0.014839347441699683 0 0.092313155824187837 0.014483791676835249 0 0.091164037512537988 0.014839347441699683 0 0.091600676370518538 0.012906829191986824 0 0.092313155824187837 0.014483791676835249 0 0.093456829065995617 0.01517040674787668 0 0.093105697965151502 0.012947891247497708 0 0.092158476444011886 0.015830989591859138 0 0.092313155824187837 0.014483791676835249 0 0.093456829065995617 0.01517040674787668 0 0.093456829065995617 0.01517040674787668 0 0.092892163841948316 0.016320780707628383 0 0.093538569934412993 0.016124634120987764 0 0.092158476444011886 0.015830989591859138 0 0.093456829065995617 0.01517040674787668 0 0.092892163841948316 0.016320780707628383 0 0.092909794510939891 0.017206113618428231 0 0.092892163841948316 0.016320780707628383 0 0.093538569934412993 0.016124634120987764 0 0.090859058130089237 0.018535472991079362 0 0.091566822870037076 0.017813579884854033 0 0.095157044906674343 0.016877339775450296 0 0.093595879482079897 0.017267813332124425 0 0.09425982257534346 0.016234809718872364 0 0.093595879482079897 0.017267813332124425 0 0.093538569934412993 0.016124634120987764 0 0.09425982257534346 0.016234809718872364 0 0.095157044906674343 0.016877339775450296 0 0.09425982257534346 0.016234809718872364 0 0.094882404022786013 0.015961356380042129 0 0.09425982257534346 0.016234809718872364 0 0.094478436505739394 0.015401017231085622 0 0.094882404022786013 0.015961356380042129 0 0.09425982257534346 0.016234809718872364 0 0.093951108827518434 0.015513516118267207 0 0.094478436505739394 0.015401017231085622 0 0.093538569934412993 0.016124634120987764 0 0.09425982257534346 0.016234809718872364 0 0.093951108827518434 0.015513516118267207 0 0.093456829065995617 0.01517040674787668 0 0.093538569934412993 0.016124634120987764 0 0.093951108827518434 0.015513516118267207 0 0.093456829065995617 0.01517040674787668 0 0.093951108827518434 0.015513516118267207 0 0.094283935712316511 0.01490388571389082 0 0.089509582558531003 0.010861440120771145 0 0.088775211791913611 0.0094293967287045928 0 0.093456829065995617 0.01517040674787668 0 0.094283935712316511 0.01490388571389082 0 0.09420490128017274 0.014021573361393433 0 0.094283935712316511 0.01490388571389082 0 0.094744669862854236 0.014978199685977411 0 0.094752605443259641 0.014524302440480037 0 0.094283935712316511 0.01490388571389082 0 0.094752605443259641 0.014524302440480037 0 0.09420490128017274 0.014021573361393433 0 0.094283935712316511 0.01490388571389082 0 0.094478436505739394 0.015401017231085622 0 0.094744669862854236 0.014978199685977411 0 0.093951108827518434 0.015513516118267207 0 0.094283935712316511 0.01490388571389082 0 0.094478436505739394 0.015401017231085622 0 0.094478436505739394 0.015401017231085622 0 0.095035903484793446 0.015304154897958566 0 0.094744669862854236 0.014978199685977411 0 0.095035903484793446 0.015304154897958566 0 0.094744669862854236 0.014978199685977411 0 0.095152143075850432 0.014794560770990662 0 0.094752605443259641 0.014524302440480037 0 0.095152143075850432 0.014794560770990662 0 0.094994542511930263 0.014098558722370133 0 0.094744669862854236 0.014978199685977411 0 0.094752605443259641 0.014524302440480037 0 0.095152143075850432 0.014794560770990662 0 0.095152143075850432 0.014794560770990662 0 0.09533901423382922 0.014875737654096848 0 0.094994542511930263 0.014098558722370133 0 0.050680238050368864 0.008029456076512953 0 0.04957809114726993 0.0076689220598885567 0 0.047279606213256706 -0.0018804113998612253 0 0.044193947322547993 0.012624382244325496 0 0.051514759527473496 -0.00022940096881062465 0 0.04957809114726993 0.0076689220598885567 0 0.044800033850160501 0.010462869384887141 0 0.04957809114726993 0.0076689220598885567 0 0.04228702194678402 0.0053858632417904014 0 0.044800033850160501 0.010462869384887141 0 0.04228702194678402 0.0053858632417904014 0 0.095035903484793446 0.015304154897958566 0 0.095418116133646563 0.014892846348112757 0 0.095389065852470895 0.015863255095452163 0 0.095035903484793446 0.015304154897958566 0 0.095152143075850432 0.014794560770990662 0 0.095418116133646563 0.014892846348112757 0 0.038368460289416394 0.008131317654435085 0 0.038130196478354125 0.0092951065086354211 0 0.041028054801467526 0.0068840621790745554 0 0.094478436505739394 0.015401017231085622 0 0.095035903484793446 0.015304154897958566 0 0.094882404022786013 0.015961356380042129 0 0.095035903484793446 0.015304154897958566 0 0.095389065852470895 0.015863255095452163 0 0.094882404022786013 0.015961356380042129 0 0.044421297199779046 0.016065500909883644 0 0.045649753202233689 0.013859324404005774 0 0.04535646772469102 0.015295248977664391 0 0.095157044906674343 0.016877339775450296 0 0.095389065852470895 0.015863255095452163 0 0.094882404022786013 0.015961356380042129 0 0.04582470706844273 0.015107422656188278 0 0.044800033850160501 0.010462869384887141 0 0.04582470706844273 0.015107422656188278 0 0.041151153782037375 0.01455997885873841 0 0.016781615672417333 0.026844849994742615 0 0.016853583699805767 0.02691717694594566 0 0.016702513320621209 0.026932218965994452 0 0.044800033850160501 0.010462869384887141 0 0.041151153782037375 0.01455997885873841 0 0.08886735658978305 0.018646320800481387 0 0.089351373582905541 0.017465014786394464 0 0.088653037103281165 0.017592927654420394 0 0.08886735658978305 0.018646320800481387 0 0.089351373582905541 0.017465014786394464 0 0.089340811921565108 0.018933878884360242 0 0.08886735658978305 0.018646320800481387 0 0.088658392951842385 0.018996790009382949 0 0.088653037103281165 0.017592927654420394 0 0.087465315406141914 0.018430977302176178 0 0.088658392951842385 0.018996790009382949 0 0.088653037103281165 0.017592927654420394 0 0.08886735658978305 0.018646320800481387 0 0.088658392951842385 0.018996790009382949 0 0.088678434791641669 0.018972532931575661 0 0.085923860417316159 0.022414951862252855 0 0.085633296720204505 0.023741923394726056 0 0.088658392951842385 0.018996790009382949 0 0.090427565302193744 0.023268371061793625 0 0.089109257131476979 0.023512030890239417 0 0.085633296720204505 0.023741923394726056 0 0.085889821191088372 0.023708337293565803 0 0.085633296720204505 0.023741923394726056 0 0.086633244450334226 0.022443176862451265 0 0.083496753009296223 0.024668288926290395 0 0.082993676794033439 0.024321642408393775 0 0.083657930949865747 0.024214488912273312 0 0.08886735658978305 0.018646320800481387 0 0.088678434791641669 0.018972532931575661 0 0.089340811921565108 0.018933878884360242 0 0.089340811921565108 0.018933878884360242 0 0.090584529610446177 0.018562234802876446 0 0.090225651403029267 0.017555133935499054 0 0.086633244450334226 0.022443176862451265 0 0.087613983507583232 0.021496378583304627 0 0.083657930949865747 0.024214488912273312 0 0.084155571256754103 0.024390638502142795 0 0.084334365388984894 0.024083524659592417 0 0.088850951152236804 0.020582631081757508 0 0.087613983507583232 0.021496378583304627 0 0.085113697835964577 0.023939751868406134 0 0.084884083749519681 0.02408571385334396 0 0.084334365388984894 0.024083524659592417 0 0.092037763487037641 0.018272904178998857 0 0.090584529610446177 0.018562234802876446 0 0.091171056665990652 0.017623284785746186 0 0.084411774227599587 0.024629739475838613 0 0.084884083749519681 0.02408571385334396 0 0.084441985260673272 0.024298369374740694 0 0.084884083749519681 0.02408571385334396 0 0.084441985260673272 0.024298369374740694 0 0.084334365388984894 0.024083524659592417 0 0.082362558840155822 0.024725609708707515 0 0.083064153533297908 0.024229138408626383 0 0.084155571256754103 0.024390638502142795 0 0.084441985260673272 0.024298369374740694 0 0.084334365388984894 0.024083524659592417 0 0.090584529610446177 0.018562234802876446 0 0.091171056665990652 0.017623284785746186 0 0.090225651403029267 0.017555133935499054 0 0.091171056665990652 0.017623284785746186 0 0.090225651403029267 0.017555133935499054 0 0.091108576049402548 0.016604607380112466 0 0.091988849610666515 0.017075253257522682 0 0.091171056665990652 0.017623284785746186 0 0.091108576049402548 0.016604607380112466 0 0.089351373582905541 0.017465014786394464 0 0.089340811921565108 0.018933878884360242 0 0.090225651403029267 0.017555133935499054 0 0.089351373582905541 0.017465014786394464 0 0.090225651403029267 0.017555133935499054 0 0.089986439988272521 0.016190383494710862 0 0.089986439988272521 0.016190383494710862 0 0.091108576049402548 0.016604607380112466 0 0.091164037512537988 0.014839347441699683 0 0.090225651403029267 0.017555133935499054 0 0.089986439988272521 0.016190383494710862 0 0.091108576049402548 0.016604607380112466 0 0.089986439988272521 0.016190383494710862 0 0.091164037512537988 0.014839347441699683 0 0.089434392020206421 0.01455600903950597 0 0.089986439988272521 0.016190383494710862 0 0.089434392020206421 0.01455600903950597 0 0.089007173287092081 0.015945560192026618 0 0.089434392020206421 0.01455600903950597 0 0.089007173287092081 0.015945560192026618 0 0.088600199221778655 0.014265731353312279 0 0.089351373582905541 0.017465014786394464 0 0.089007173287092081 0.015945560192026618 0 0.088653037103281165 0.017592927654420394 0 0.089351373582905541 0.017465014786394464 0 0.089986439988272521 0.016190383494710862 0 0.089007173287092081 0.015945560192026618 0 0.089007173287092081 0.015945560192026618 0 0.088653037103281165 0.017592927654420394 0 0.087608152739520287 0.01603248331847654 0 0.087465315406141914 0.018430977302176178 0 0.088653037103281165 0.017592927654420394 0 0.087608152739520287 0.01603248331847654 0 0.086546714445748116 0.014504892108234397 0 0.087608152739520287 0.01603248331847654 0 0.088600199221778655 0.014265731353312279 0 0.089007173287092081 0.015945560192026618 0 0.087608152739520287 0.01603248331847654 0 0.088600199221778655 0.014265731353312279 0 0.087077521242659897 0.013877652086099588 0 0.085295432222004697 0.013411137318112153 0 0.086530639630224768 0.013697638289384216 0 0.086010817877257256 0.012353546331449304 0 0.084049425851799128 0.012937159178677826 0 0.086546714445748116 0.014504892108234397 0 0.088600199221778655 0.014265731353312279 0 0.086502198586291781 0.013032786988003248 0 0.086010817877257256 0.012353546331449304 0 0.087032863335337232 0.010975283340300783 0 0.084271009572719269 0.011617731910946592 0 0.087256396563275607 0.010823622306664761 0 0.085277662934729923 0.011877464982693552 0 0.087179905042625322 0.0095640580685554758 0 0.085200122603888775 0.010016631288218111 0 0.085519401814295598 0.0086828687742380468 0 0.087032863335337232 0.010975283340300783 0 0.08819379466152974 0.012429741152826718 0 0.089483642644338973 0.010316960314966317 0 0.086010817877257256 0.012353546331449304 0 0.087032863335337232 0.010975283340300783 0 0.08819379466152974 0.012429741152826718 0 0.086530639630224768 0.013697638289384216 0 0.086010817877257256 0.012353546331449304 0 0.08819379466152974 0.012429741152826718 0 0.089434392020206421 0.01455600903950597 0 0.086530639630224768 0.013697638289384216 0 0.08819379466152974 0.012429741152826718 0 0.088040169723782022 0.014151085259466024 0 0.087077521242659897 0.013877652086099588 0 0.089434392020206421 0.01455600903950597 0 0.08819379466152974 0.012429741152826718 0 0.090118923093272421 0.012573419535818144 0 0.091164037512537988 0.014839347441699683 0 0.089434392020206421 0.01455600903950597 0 0.090118923093272421 0.012573419535818144 0 0.091164037512537988 0.014839347441699683 0 0.090118923093272421 0.012573419535818144 0 0.091600676370518538 0.012906829191986824 0 0.090118923093272421 0.012573419535818144 0 0.091003878569673471 0.011276328341234305 0 0.091600676370518538 0.012906829191986824 0 0.090118923093272421 0.012573419535818144 0 0.091003878569673471 0.011276328341234305 0 0.089483642644338973 0.010316960314966317 0 0.08819379466152974 0.012429741152826718 0 0.090118923093272421 0.012573419535818144 0 0.089483642644338973 0.010316960314966317 0 0.087256396563275607 0.010823622306664761 0 0.089324057960677439 0.010077482829728973 0 0.087179905042625322 0.0095640580685554758 0 0.08935635991325408 0.0091887827631947014 0 0.088856936706620565 0.0075130326795719467 0 0.089324057960677439 0.010077482829728973 0 0.090471095388072284 0.0097264750923064698 0 0.08935635991325408 0.0091887827631947014 0 0.088856936706620565 0.0075130326795719467 0 0.091608206160046918 0.0090902607100877917 0 0.091003878569673471 0.011276328341234305 0 0.089483642644338973 0.010316960314966317 0 0.091608206160046918 0.0090902607100877917 0 0.088856936706620565 0.0075130326795719467 0 0.091608206160046918 0.0090902607100877917 0 0.090080857941612094 0.0062349934402972816 0 0.088856936706620565 0.0075130326795719467 0 0.086901789305399282 0.0078302984900102159 0 0.087364709213604438 0.0064835386866209568 0 0.086901789305399282 0.0078302984900102159 0 0.087364709213604438 0.0064835386866209568 0 0.08569450155281709 0.0068687521398165955 0 0.086901789305399282 0.0078302984900102159 0 0.08569450155281709 0.0068687521398165955 0 0.085519401814295598 0.0086828687742380468 0 0.087179905042625322 0.0095640580685554758 0 0.086901789305399282 0.0078302984900102159 0 0.085519401814295598 0.0086828687742380468 0 0.087179905042625322 0.0095640580685554758 0 0.088856936706620565 0.0075130326795719467 0 0.086901789305399282 0.0078302984900102159 0 0.085100342172922297 0.0060465502148487199 0 0.088775211791913611 0.0094293967287045928 0 0.094908310088639411 0.012867072992827867 0 0.094994542511930263 0.014098558722370133 0 0.09551017411950781 0.013574542987897075 0 0.09533901423382922 0.014875737654096848 0 0.094994542511930263 0.014098558722370133 0 0.09551017411950781 0.013574542987897075 0 0.094908310088639411 0.012867072992827867 0 0.094994542511930263 0.014098558722370133 0 0.09420490128017274 0.014021573361393433 0 0.04957809114726993 0.0076689220598885567 0 0.062802351941344578 0.0051498687647935906 0 0.094752605443259641 0.014524302440480037 0 0.094994542511930263 0.014098558722370133 0 0.09420490128017274 0.014021573361393433 0 0.096243463688427039 0.010453512673233146 0 0.095038887186334783 0.012816071330552658 0 0.094938512574678197 0.0097201304366112979 0 0.095038887186334783 0.012816071330552658 0 0.093707061891442414 0.010467096716678493 0 0.094938512574678197 0.0097201304366112979 0 0.093707061891442414 0.010467096716678493 0 0.092340330676808163 0.011375204667366438 0 0.091608206160046918 0.0090902607100877917 0 0.093707061891442414 0.010467096716678493 0 0.093105697965151502 0.012947891247497708 0 0.092340330676808163 0.011375204667366438 0 0.093456829065995617 0.01517040674787668 0 0.095038887186334783 0.012816071330552658 0 0.093105697965151502 0.012947891247497708 0 0.095038887186334783 0.012816071330552658 0 0.093707061891442414 0.010467096716678493 0 0.093105697965151502 0.012947891247497708 0 0.093105697965151502 0.012947891247497708 0 0.091600676370518538 0.012906829191986824 0 0.092340330676808163 0.011375204667366438 0 0.092313155824187837 0.014483791676835249 0 0.093105697965151502 0.012947891247497708 0 0.091600676370518538 0.012906829191986824 0 0.091003878569673471 0.011276328341234305 0 0.092340330676808163 0.011375204667366438 0 0.091608206160046918 0.0090902607100877917 0 0.091003878569673471 0.011276328341234305 0 0.091600676370518538 0.012906829191986824 0 0.092340330676808163 0.011375204667366438 0 0.091608206160046918 0.0090902607100877917 0 0.091983546908872796 0.0069099380019913021 0 0.093225133409243099 0.0082941216784346728 0 0.091608206160046918 0.0090902607100877917 0 0.091983546908872796 0.0069099380019913021 0 0.090080857941612094 0.0062349934402972816 0 0.091983546908872796 0.0069099380019913021 0 0.093225133409243099 0.0082941216784346728 0 0.093137327444843335 0.0058775023844745474 0 0.093225133409243099 0.0082941216784346728 0 0.094533875646030496 0.007654334196851467 0 0.093137327444843335 0.0058775023844745474 0 0.093707061891442414 0.010467096716678493 0 0.091608206160046918 0.0090902607100877917 0 0.093225133409243099 0.0082941216784346728 0 0.093707061891442414 0.010467096716678493 0 0.093225133409243099 0.0082941216784346728 0 0.094938512574678197 0.0097201304366112979 0 0.093225133409243099 0.0082941216784346728 0 0.094938512574678197 0.0097201304366112979 0 0.094533875646030496 0.007654334196851467 0 0.094938512574678197 0.0097201304366112979 0 0.094533875646030496 0.007654334196851467 0 0.095802389734493218 0.0086362968986952431 0 0.094533875646030496 0.007654334196851467 0 0.095784400192755192 0.0070797005437151722 0 0.094603402211581353 0.0057392849539303972 0 0.094533875646030496 0.007654334196851467 0 0.095784400192755192 0.0070797005437151722 0 0.095802389734493218 0.0086362968986952431 0 0.095784400192755192 0.0070797005437151722 0 0.095802389734493218 0.0086362968986952431 0 0.09744001299313268 0.008259371538795468 0 0.095784400192755192 0.0070797005437151722 0 0.096802849180811959 0.0059741731843557843 0 0.09744001299313268 0.008259371538795468 0 0.096243463688427039 0.010453512673233146 0 0.095802389734493218 0.0086362968986952431 0 0.09744001299313268 0.008259371538795468 0 0.096243463688427039 0.010453512673233146 0 0.094938512574678197 0.0097201304366112979 0 0.095802389734493218 0.0086362968986952431 0 0.085100342172922297 0.0060465502148487199 0 0.074522268739438277 0.0022142000675822431 0 0.071357022561774466 -0.0063075637124693747 0 0.070499750943493478 -0.0037712305006068715 0 0.082440247182907447 -0.0035524879162794759 0 0.076324575186422189 -0.0017889170679853766 0 0.083195044915469724 -0.015380984602465373 0 0.082381831508941905 -0.01636333533395427 0 0.081849376872533894 -0.018453174107711658 0 0.07216267126639335 -0.0045994758274999215 0 0.071723834873149761 -0.0068137713760101706 0 0.072632659112636389 -0.0033463032372272072 0 0.095125306807536975 0.002991869037833841 0 0.09538238909038424 0.0048981661787514822 0 0.096802849180811959 0.0059741731843557843 0 0.083195044915469724 -0.015380984602465373 0 0.082381831508941905 -0.01636333533395427 0 0.082886228303044804 -0.014093201731988934 0 0.073914576505517637 -0.0058876854540655249 0 0.071357022561774466 -0.0063075637124693747 0 0.095125306807536975 0.002991869037833841 0 0.094310074199422195 0.0036025816884681745 0 0.092539670417893363 0.00096127223807068556 0 0.094310074199422195 0.0036025816884681745 0 0.09538238909038424 0.0048981661787514822 0 0.094504427949002337 0.0046977981387932334 0 0.095125306807536975 0.002991869037833841 0 0.094310074199422195 0.0036025816884681745 0 0.09538238909038424 0.0048981661787514822 0 0.095614783557051192 0.0059237596841055645 0 0.09538238909038424 0.0048981661787514822 0 0.096802849180811959 0.0059741731843557843 0 0.073914576505517637 -0.0058876854540655249 0 0.076324575186422189 -0.0017889170679853766 0 0.095784400192755192 0.0070797005437151722 0 0.095614783557051192 0.0059237596841055645 0 0.096802849180811959 0.0059741731843557843 0 0.095784400192755192 0.0070797005437151722 0 0.095614783557051192 0.0059237596841055645 0 0.094603402211581353 0.0057392849539303972 0 0.095614783557051192 0.0059237596841055645 0 0.09538238909038424 0.0048981661787514822 0 0.094603402211581353 0.0057392849539303972 0 0.09538238909038424 0.0048981661787514822 0 0.094603402211581353 0.0057392849539303972 0 0.094504427949002337 0.0046977981387932334 0 0.094603402211581353 0.0057392849539303972 0 0.093833824437854443 0.0046005032647442436 0 0.094504427949002337 0.0046977981387932334 0 0.094603402211581353 0.0057392849539303972 0 0.093833824437854443 0.0046005032647442436 0 0.093137327444843335 0.0058775023844745474 0 0.094533875646030496 0.007654334196851467 0 0.094603402211581353 0.0057392849539303972 0 0.093137327444843335 0.0058775023844745474 0 0.092820854652906196 0.0029392296383455811 0 0.091260861501407053 0.0026624683337787424 0 0.094310074199422195 0.0036025816884681745 0 0.088520954512527728 0.001557145125691678 0 0.092539670417893363 0.00096127223807068556 0 0.094310074199422195 0.0036025816884681745 0 0.093833824437854443 0.0046005032647442436 0 0.092989347074753564 0.0039053474155513477 0 0.094310074199422195 0.0036025816884681745 0 0.093833824437854443 0.0046005032647442436 0 0.094504427949002337 0.0046977981387932334 0 0.093833824437854443 0.0046005032647442436 0 0.092989347074753564 0.0039053474155513477 0 0.093137327444843335 0.0058775023844745474 0 0.092989347074753564 0.0039053474155513477 0 0.093137327444843335 0.0058775023844745474 0 0.091778659459199954 0.0052146779044986982 0 0.091983546908872796 0.0069099380019913021 0 0.091778659459199954 0.0052146779044986982 0 0.090080857941612094 0.0062349934402972816 0 0.091983546908872796 0.0069099380019913021 0 0.093137327444843335 0.0058775023844745474 0 0.091778659459199954 0.0052146779044986982 0 0.092989347074753564 0.0039053474155513477 0 0.091778659459199954 0.0052146779044986982 0 0.090758831503821399 0.0032355615562261152 0 0.091260861501407053 0.0026624683337787424 0 0.089265228699247121 0.0022770318261250921 0 0.088520954512527728 0.001557145125691678 0 0.088091432218521129 -0.00012126539625307412 0 0.087735691262526005 0.0005814590962402471 0 0.088091432218521129 -0.00012126539625307412 0 0.087793943691185608 -0.00077631315328767004 0 0.087735691262526005 0.0005814590962402471 0 0.088091432218521129 -0.00012126539625307412 0 0.087793943691185608 -0.00077631315328767004 0 0.088227817883714837 -0.0015966147680559139 0 0.087793943691185608 -0.00077631315328767004 0 0.088227817883714837 -0.0015966147680559139 0 0.087839114985332853 -0.0020789822062716773 0 0.088091432218521129 -0.00012126539625307412 0 0.088227817883714837 -0.0015966147680559139 0 0.089708764463115709 -0.00061978503369731206 0 0.088227817883714837 -0.0015966147680559139 0 0.088942723345372968 -0.002684991153532709 0 0.087761161054920558 -0.003289006941454013 0 0.088227817883714837 -0.0015966147680559139 0 0.089708764463115709 -0.00061978503369731206 0 0.088942723345372968 -0.002684991153532709 0 0.088520954512527728 0.001557145125691678 0 0.088091432218521129 -0.00012126539625307412 0 0.089708764463115709 -0.00061978503369731206 0 0.088520954512527728 0.001557145125691678 0 0.092539670417893363 0.00096127223807068556 0 0.089708764463115709 -0.00061978503369731206 0 0.092539670417893363 0.00096127223807068556 0 0.091107340879170953 -0.00073093787674883279 0 0.092080304754047992 -0.0016015811166487602 0 0.092539670417893363 0.00096127223807068556 0 0.091107340879170953 -0.00073093787674883279 0 0.089708764463115709 -0.00061978503369731206 0 0.089708764463115709 -0.00061978503369731206 0 0.090419510559868174 -0.0013972619588590266 0 0.088942723345372968 -0.002684991153532709 0 0.084999927569936212 -0.0042856021850864439 0 0.085708458227822568 -0.0041636595085831314 0 0.088942723345372968 -0.002684991153532709 0 0.092080304754047992 -0.0016015811166487602 0 0.087394619692204759 -0.0048912230023479882 0 0.091107340879170953 -0.00073093787674883279 0 0.089708764463115709 -0.00061978503369731206 0 0.090419510559868174 -0.0013972619588590266 0 0.090419510559868174 -0.0013972619588590266 0 0.088942723345372968 -0.002684991153532709 0 0.092080304754047992 -0.0016015811166487602 0 0.091107340879170953 -0.00073093787674883279 0 0.090419510559868174 -0.0013972619588590266 0 0.092080304754047992 -0.0016015811166487602 0 0.083428962000145948 -0.012902147732660527 0 0.082946552829351566 -0.010698188860743094 0 0.084407805867301261 -0.0072544083552334186 0 0.08506174588475017 -0.01174269332959646 0 0.083485256391594265 -0.011931987258823719 0 0.084407805867301261 -0.0072544083552334186 0 0.070678884321648511 -0.0057412055203545443 0 0.072469020646677818 -0.0061106667051620883 0 0.082412862702670009 -0.0096108186883321536 0 0.082946552829351566 -0.010698188860743094 0 0.084407805867301261 -0.0072544083552334186 0 0.081946718155972112 -0.011372989545891877 0 0.0809915327536294 -0.012374288915686229 0 0.080919687723621028 -0.010371854784090908 0 0.082412862702670009 -0.0096108186883321536 0 0.081946718155972112 -0.011372989545891877 0 0.080919687723621028 -0.010371854784090908 0 0.082412862702670009 -0.0096108186883321536 0 0.082946552829351566 -0.010698188860743094 0 0.081946718155972112 -0.011372989545891877 0 0.082946552829351566 -0.010698188860743094 0 0.081946718155972112 -0.011372989545891877 0 0.082405958363568815 -0.011971870391294165 0 0.081946718155972112 -0.011372989545891877 0 0.082405958363568815 -0.011971870391294165 0 0.0809915327536294 -0.012374288915686229 0 0.083428962000145948 -0.012902147732660527 0 0.082405958363568815 -0.011971870391294165 0 0.0809915327536294 -0.012374288915686229 0 0.083428962000145948 -0.012902147732660527 0 0.082946552829351566 -0.010698188860743094 0 0.082405958363568815 -0.011971870391294165 0 0.070678884321648511 -0.0057412055203545443 0 0.071357022561774466 -0.0063075637124693747 0 0.083195044915469724 -0.015380984602465373 0 0.08506174588475017 -0.01174269332959646 0 0.082886228303044804 -0.014093201731988934 0 0.056924936356465568 -0.0050538042185497966 0 0.057063662837706107 -0.004436098345557209 0 0.057842624158246814 -0.0045436510603024671 0 0.095125306807536975 0.002991869037833841 0 0.092539670417893363 0.00096127223807068556 0 0.092080304754047992 -0.0016015811166487602 0 0.082440247182907447 -0.0035524879162794759 0 0.084999927569936212 -0.0042856021850864439 0 0.08506174588475017 -0.01174269332959646 0 0.083485256391594265 -0.011931987258823719 0 0.082886228303044804 -0.014093201731988934 0 0.086716810995681237 0.0047017112848716826 0 0.088565996986956164 0.0050630264429530327 0 0.087802319406635937 0.0020670115139044495 0 0.086716810995681237 0.0047017112848716826 0 0.087802319406635937 0.0020670115139044495 0 0.086076671270672186 0.0025935207365401043 0 0.086716810995681237 0.0047017112848716826 0 0.086076671270672186 0.0025935207365401043 0 0.085303909359240274 0.0049778550238751109 0 0.08569450155281709 0.0068687521398165955 0 0.086716810995681237 0.0047017112848716826 0 0.085303909359240274 0.0049778550238751109 0 0.087364709213604438 0.0064835386866209568 0 0.08569450155281709 0.0068687521398165955 0 0.086716810995681237 0.0047017112848716826 0 0.087364709213604438 0.0064835386866209568 0 0.086716810995681237 0.0047017112848716826 0 0.088565996986956164 0.0050630264429530327 0 0.088856936706620565 0.0075130326795719467 0 0.087364709213604438 0.0064835386866209568 0 0.088565996986956164 0.0050630264429530327 0 0.088856936706620565 0.0075130326795719467 0 0.088565996986956164 0.0050630264429530327 0 0.090080857941612094 0.0062349934402972816 0 0.088565996986956164 0.0050630264429530327 0 0.090080857941612094 0.0062349934402972816 0 0.090758831503821399 0.0032355615562261152 0 0.091778659459199954 0.0052146779044986982 0 0.090080857941612094 0.0062349934402972816 0 0.090758831503821399 0.0032355615562261152 0 0.088565996986956164 0.0050630264429530327 0 0.090758831503821399 0.0032355615562261152 0 0.087802319406635937 0.0020670115139044495 0 0.089265228699247121 0.0022770318261250921 0 0.088244182905472188 0.0021308764379287643 0 0.087735691262526005 0.0005814590962402471 0 0.08800513348414947 -0.00042266641395097179 0 0.087802319406635937 0.0020670115139044495 0 0.087793943691185608 -0.00077631315328767004 0 0.087735691262526005 0.0005814590962402471 0 0.08800513348414947 -0.00042266641395097179 0 0.087793943691185608 -0.00077631315328767004 0 0.08800513348414947 -0.00042266641395097179 0 0.087848216222405476 -0.0018881373665537088 0 0.08800513348414947 -0.00042266641395097179 0 0.087116755700829232 0.00023254827996689137 0 0.087802319406635937 0.0020670115139044495 0 0.087116755700829232 0.00023254827996689137 0 0.087802319406635937 0.0020670115139044495 0 0.086076671270672186 0.0025935207365401043 0 0.087116755700829232 0.00023254827996689137 0 0.086076671270672186 0.0025935207365401043 0 0.085202020574659781 0.00092539971964365579 0 0.085202020574659781 0.00092539971964365579 0 0.083149116327433242 0.0014958850560691686 0 0.084266823615252298 0.0031049733687253632 0 0.085202020574659781 0.00092539971964365579 0 0.083149116327433242 0.0014958850560691686 0 0.084056942812870572 -0.00052016215854662679 0 0.083149116327433242 0.0014958850560691686 0 0.084266823615252298 0.0031049733687253632 0 0.082752925519075357 0.0037847659106545134 0 0.086076671270672186 0.0025935207365401043 0 0.085202020574659781 0.00092539971964365579 0 0.084266823615252298 0.0031049733687253632 0 0.084266823615252298 0.0031049733687253632 0 0.083864362350311208 0.0054222033636066608 0 0.085303909359240274 0.0049778550238751109 0 0.086076671270672186 0.0025935207365401043 0 0.084266823615252298 0.0031049733687253632 0 0.085303909359240274 0.0049778550238751109 0 0.084266823615252298 0.0031049733687253632 0 0.083864362350311208 0.0054222033636066608 0 0.082752925519075357 0.0037847659106545134 0 0.083864362350311208 0.0054222033636066608 0 0.084402814454849526 0.0070167830203777632 0 0.083286166951282409 0.0072427305893092517 0 0.083864362350311208 0.0054222033636066608 0 0.085303909359240274 0.0049778550238751109 0 0.084402814454849526 0.0070167830203777632 0 0.08569450155281709 0.0068687521398165955 0 0.085303909359240274 0.0049778550238751109 0 0.084402814454849526 0.0070167830203777632 0 0.08157618385945857 0.0064549731105494777 0 0.081155121873446187 0.0048699743685219126 0 0.080496254354139735 0.0071297826430397337 0 0.08157618385945857 0.0064549731105494777 0 0.082447410699625884 0.0057713983218505771 0 0.082193334320383102 0.0075697995063767056 0 0.08157618385945857 0.0064549731105494777 0 0.080496254354139735 0.0071297826430397337 0 0.081137140953801812 0.0090634780747676225 0 0.082447410699625884 0.0057713983218505771 0 0.083286166951282409 0.0072427305893092517 0 0.082193334320383102 0.0075697995063767056 0 0.083864362350311208 0.0054222033636066608 0 0.082447410699625884 0.0057713983218505771 0 0.083286166951282409 0.0072427305893092517 0 0.083864362350311208 0.0054222033636066608 0 0.082447410699625884 0.0057713983218505771 0 0.082752925519075357 0.0037847659106545134 0 0.082447410699625884 0.0057713983218505771 0 0.081155121873446187 0.0048699743685219126 0 0.082752925519075357 0.0037847659106545134 0 0.08157618385945857 0.0064549731105494777 0 0.082447410699625884 0.0057713983218505771 0 0.081155121873446187 0.0048699743685219126 0 0.081155121873446187 0.0048699743685219126 0 0.08165963291431072 0.002656170657301689 0 0.08058937555827253 0.0034214969433495656 0 0.081155121873446187 0.0048699743685219126 0 0.08165963291431072 0.002656170657301689 0 0.082752925519075357 0.0037847659106545134 0 0.083149116327433242 0.0014958850560691686 0 0.08165963291431072 0.002656170657301689 0 0.082752925519075357 0.0037847659106545134 0 0.083149116327433242 0.0014958850560691686 0 0.08165963291431072 0.002656170657301689 0 0.082018548933121882 -6.1507567809471742e-05 0 0.08165963291431072 0.002656170657301689 0 0.080063697221614591 0.0019773107756536862 0 0.082018548933121882 -6.1507567809471742e-05 0 0.080063697221614591 0.0019773107756536862 0 0.078235463537604022 0.0013848008781070251 0 0.078595270625839861 0.0029424209086932676 0 0.078235463537604022 0.0013848008781070251 0 0.078595270625839861 0.0029424209086932676 0 0.077228988186476874 0.0026413398022431152 0 0.080063697221614591 0.0019773107756536862 0 0.078595270625839861 0.0029424209086932676 0 0.079499407068660391 0.0042673274500552617 0 0.078595270625839861 0.0029424209086932676 0 0.078465534368914444 0.0046079589771210079 0 0.077394545643796692 0.0041124237662008767 0 0.078595270625839861 0.0029424209086932676 0 0.078465534368914444 0.0046079589771210079 0 0.079499407068660391 0.0042673274500552617 0 0.081155121873446187 0.0048699743685219126 0 0.079499407068660391 0.0042673274500552617 0 0.08058937555827253 0.0034214969433495656 0 0.08165963291431072 0.002656170657301689 0 0.080063697221614591 0.0019773107756536862 0 0.08058937555827253 0.0034214969433495656 0 0.080063697221614591 0.0019773107756536862 0 0.079499407068660391 0.0042673274500552617 0 0.08058937555827253 0.0034214969433495656 0 0.074999978855169708 0.0017236128880675319 0 0.076577578868950405 0.0015211695246834939 0 0.077229629390534918 -0.0019104434462176197 0 0.075695739181730656 0.0023578488884059418 0 0.07681412878184915 0.0011744104121664679 0 0.077228988186476874 0.0026413398022431152 0 0.075695739181730656 0.0023578488884059418 0 0.077228988186476874 0.0026413398022431152 0 0.076513502877600448 0.0037943272558923122 0 0.078235463537604022 0.0013848008781070251 0 0.07681412878184915 0.0011744104121664679 0 0.077228988186476874 0.0026413398022431152 0 0.078595270625839861 0.0029424209086932676 0 0.077228988186476874 0.0026413398022431152 0 0.077394545643796692 0.0041124237662008767 0 0.077394545643796692 0.0041124237662008767 0 0.076513502877600448 0.0037943272558923122 0 0.07666127100722514 0.0049644051711908999 0 0.077228988186476874 0.0026413398022431152 0 0.077394545643796692 0.0041124237662008767 0 0.076513502877600448 0.0037943272558923122 0 0.074999978855169708 0.0017236128880675319 0 0.076577578868950405 0.0015211695246834939 0 0.075746426166572234 0.0049930758866309636 0 0.075695739181730656 0.0023578488884059418 0 0.076513502877600448 0.0037943272558923122 0 0.075746426166572234 0.0049930758866309636 0 0.074999978855169708 0.0017236128880675319 0 0.074999446931598698 0.0061503068482244789 0 0.075746426166572234 0.0049930758866309636 0 0.076186829374375403 0.0012477235200225761 0 0.0759641338263181 0.0026303327932346398 0 0.076513502877600448 0.0037943272558923122 0 0.075746426166572234 0.0049930758866309636 0 0.07666127100722514 0.0049644051711908999 0 0.074999446931598698 0.0061503068482244789 0 0.076247933300344489 0.005999277170824934 0 0.076266057628760389 0.0080968843382975813 0 0.074999446931598698 0.0061503068482244789 0 0.075746426166572234 0.0049930758866309636 0 0.076247933300344489 0.005999277170824934 0 0.075746426166572234 0.0049930758866309636 0 0.076247933300344489 0.005999277170824934 0 0.07666127100722514 0.0049644051711908999 0 0.076247933300344489 0.005999277170824934 0 0.077465681070543246 0.0058912363872085502 0 0.076266057628760389 0.0080968843382975813 0 0.076247933300344489 0.005999277170824934 0 0.077465681070543246 0.0058912363872085502 0 0.07666127100722514 0.0049644051711908999 0 0.077394545643796692 0.0041124237662008767 0 0.077465681070543246 0.0058912363872085502 0 0.07666127100722514 0.0049644051711908999 0 0.078465534368914444 0.0046079589771210079 0 0.077394545643796692 0.0041124237662008767 0 0.077465681070543246 0.0058912363872085502 0 0.077465681070543246 0.0058912363872085502 0 0.07819945262961478 0.0077549238732270067 0 0.078863884146299135 0.0058969075634233131 0 0.077465681070543246 0.0058912363872085502 0 0.07819945262961478 0.0077549238732270067 0 0.076266057628760389 0.0080968843382975813 0 0.07819945262961478 0.0077549238732270067 0 0.076266057628760389 0.0080968843382975813 0 0.0776182332543945 0.0095150787993573578 0 0.074999446931598698 0.0061503068482244789 0 0.076266057628760389 0.0080968843382975813 0 0.074999771491160536 0.010575818988307664 0 0.081155121873446187 0.0048699743685219126 0 0.079499407068660391 0.0042673274500552617 0 0.079948940346026384 0.0057568997958559465 0 0.081155121873446187 0.0048699743685219126 0 0.079948940346026384 0.0057568997958559465 0 0.080496254354139735 0.0071297826430397337 0 0.079499407068660391 0.0042673274500552617 0 0.079948940346026384 0.0057568997958559465 0 0.078863884146299135 0.0058969075634233131 0 0.078465534368914444 0.0046079589771210079 0 0.079499407068660391 0.0042673274500552617 0 0.078863884146299135 0.0058969075634233131 0 0.078465534368914444 0.0046079589771210079 0 0.077465681070543246 0.0058912363872085502 0 0.078863884146299135 0.0058969075634233131 0 0.079948940346026384 0.0057568997958559465 0 0.078863884146299135 0.0058969075634233131 0 0.079404128831231158 0.0072768539960310239 0 0.07819945262961478 0.0077549238732270067 0 0.079404128831231158 0.0072768539960310239 0 0.079590815074465249 0.0092555869168809771 0 0.07819945262961478 0.0077549238732270067 0 0.078863884146299135 0.0058969075634233131 0 0.079404128831231158 0.0072768539960310239 0 0.079404128831231158 0.0072768539960310239 0 0.080496254354139735 0.0071297826430397337 0 0.079590815074465249 0.0092555869168809771 0 0.079948940346026384 0.0057568997958559465 0 0.079404128831231158 0.0072768539960310239 0 0.080496254354139735 0.0071297826430397337 0 0.080496254354139735 0.0071297826430397337 0 0.079590815074465249 0.0092555869168809771 0 0.081137140953801812 0.0090634780747676225 0 0.079590815074465249 0.0092555869168809771 0 0.078408084959425334 0.011944579727128092 0 0.079991611192196763 0.010831713927636375 0 0.080015837157441289 0.01195139469640134 0 0.081254872564021391 0.01225523337987019 0 0.079590815074465249 0.0092555869168809771 0 0.079991611192196763 0.010831713927636375 0 0.081137140953801812 0.0090634780747676225 0 0.079991611192196763 0.010831713927636375 0 0.08152083608746398 0.010592412194476045 0 0.081137140953801812 0.0090634780747676225 0 0.076266057628760389 0.0080968843382975813 0 0.074999771491160536 0.010575818988307664 0 0.0776182332543945 0.0095150787993573578 0 0.07819945262961478 0.0077549238732270067 0 0.079590815074465249 0.0092555869168809771 0 0.0776182332543945 0.0095150787993573578 0 0.079590815074465249 0.0092555869168809771 0 0.0776182332543945 0.0095150787993573578 0 0.078408084959425334 0.011944579727128092 0 0.074999771491160536 0.010575818988307664 0 0.0776182332543945 0.0095150787993573578 0 0.078408084959425334 0.011944579727128092 0 0.074999771491160536 0.010575818988307664 0 0.078408084959425334 0.011944579727128092 0 0.074999489374701578 0.015003072970091534 0 0.078408084959425334 0.011944579727128092 0 0.074999489374701578 0.015003072970091534 0 0.078173756642029663 0.01585243129104498 0 0.078408084959425334 0.011944579727128092 0 0.078173756642029663 0.01585243129104498 0 0.080506836972006571 0.014924209195230524 0 0.076842481188855463 0.018845043141408089 0 0.078173756642029663 0.01585243129104498 0 0.080902907089538845 0.01785881672418755 0 0.079049896798197294 0.017657714257885097 0 0.080919838043007355 0.017020705314290424 0 0.076842481188855463 0.018845043141408089 0 0.074999489374701578 0.015003072970091534 0 0.078173756642029663 0.01585243129104498 0 0.074999997069470983 0.019430981414486539 0 0.076842481188855463 0.018845043141408089 0 0.074999489374701578 0.015003072970091534 0 0.081254872564021391 0.01225523337987019 0 0.083298435397510223 0.012852989858756656 0 0.083170414447602453 0.015462499254881501 0 0.085362260455802669 0.01680957196991846 0 0.086367494164025935 0.014449532091758546 0 0.083170414447602453 0.015462499254881501 0 0.082611322225245323 0.013292158674978983 0 0.086367494164025935 0.014449532091758546 0 0.078408084959425334 0.011944579727128092 0 0.082611322225245323 0.013292158674978983 0 0.080506836972006571 0.014924209195230524 0 0.083170414447602453 0.015462499254881501 0 0.082611322225245323 0.013292158674978983 0 0.080506836972006571 0.014924209195230524 0 0.078173756642029663 0.01585243129104498 0 0.080506836972006571 0.014924209195230524 0 0.080902907089538845 0.01785881672418755 0 0.083170414447602453 0.015462499254881501 0 0.080506836972006571 0.014924209195230524 0 0.080902907089538845 0.01785881672418755 0 0.082225720115734952 0.02042711527822581 0 0.080668446973918437 0.018047139926294201 0 0.084334468321907829 0.017225466480274704 0 0.083170414447602453 0.015462499254881501 0 0.080902907089538845 0.01785881672418755 0 0.085362260455802669 0.01680957196991846 0 0.082225720115734952 0.02042711527822581 0 0.085091295045998411 0.018386102255901631 0 0.084334468321907829 0.017225466480274704 0 0.080919838043007355 0.017020705314290424 0 0.083845803489291396 0.01558842991770387 0 0.085091295045998411 0.018386102255901631 0 0.084334468321907829 0.017225466480274704 0 0.087911640250410678 0.016399116512813415 0 0.083845803489291396 0.01558842991770387 0 0.084351869203111648 0.013683706395295789 0 0.080764033205713959 0.014564673907252077 0 0.079576676152389794 0.013531026309259776 0 0.081547034034764265 0.013752588279574002 0 0.085362260455802669 0.01680957196991846 0 0.086367494164025935 0.014449532091758546 0 0.089644687997193592 0.0158009133237158 0 0.08152083608746398 0.010592412194476045 0 0.082519073333412268 0.0099398870668827976 0 0.083150466112200436 0.010818775582133669 0 0.086367494164025935 0.014449532091758546 0 0.090062978384333234 0.015510376879312514 0 0.089644687997193592 0.0158009133237158 0 0.083298435397510223 0.012852989858756656 0 0.084324323814053567 0.01338616617294976 0 0.082519073333412268 0.0099398870668827976 0 0.083150466112200436 0.010818775582133669 0 0.083331434450654482 0.0097581275891301059 0 0.082782188328084996 0.011775289465790014 0 0.083194715782166806 0.012100730193241484 0 0.083493459449933749 0.011653822093511412 0 0.084351869203111648 0.013683706395295789 0 0.084304341226425494 0.013365623975110114 0 0.084438291808138485 0.013722167313339284 0 0.084564673113750766 0.013634875496027696 0 0.084323571280208398 0.013689203560854563 0 0.084324323814053567 0.01338616617294976 0 0.084351869203111648 0.013683706395295789 0 0.079576676152389794 0.013531026309259776 0 0.082168141919623197 0.012834191808755524 0 0.081547034034764265 0.013752588279574002 0 0.082782188328084996 0.011775289465790014 0 0.082868503569400759 0.012352436224219721 0 0.082168141919623197 0.012834191808755524 0 0.082868503569400759 0.012352436224219721 0 0.083194715782166806 0.012100730193241484 0 0.083327848717772782 0.012704504509144116 0 0.079576676152389794 0.013531026309259776 0 0.082782188328084996 0.011775289465790014 0 0.082168141919623197 0.012834191808755524 0 0.082782188328084996 0.011775289465790014 0 0.082868503569400759 0.012352436224219721 0 0.083194715782166806 0.012100730193241484 0 0.082039163494476541 0.016012234191436225 0 0.084351869203111648 0.013683706395295789 0 0.082868503569400759 0.012352436224219721 0 0.082168141919623197 0.012834191808755524 0 0.083327848717772782 0.012704504509144116 0 0.082704897704408101 0.013738338384267029 0 0.083577590482845326 0.013712071449300006 0 0.083327848717772782 0.012704504509144116 0 0.082168141919623197 0.012834191808755524 0 0.082704897704408101 0.013738338384267029 0 0.083327848717772782 0.012704504509144116 0 0.082168141919623197 0.012834191808755524 0 0.081547034034764265 0.013752588279574002 0 0.082704897704408101 0.013738338384267029 0 0.084749080368441837 0.014500704666964809 0 0.083577590482845326 0.013712071449300006 0 0.084230079319275619 0.013379853407849519 0 0.084289081662768245 0.012563276099296887 0 0.086502198586291781 0.013032786988003248 0 0.083493459449933749 0.011653822093511412 0 0.083512473885829094 0.014738858063372159 0 0.082704897704408101 0.013738338384267029 0 0.083577590482845326 0.013712071449300006 0 0.08517876257736362 0.013383044562609896 0 0.084289081662768245 0.012563276099296887 0 0.086502198586291781 0.013032786988003248 0 0.085295432222004697 0.013411137318112153 0 0.084304341226425494 0.013365623975110114 0 0.083577590482845326 0.013712071449300006 0 0.084230079319275619 0.013379853407849519 0 0.083327848717772782 0.012704504509144116 0 0.084749080368441837 0.014500704666964809 0 0.084230079319275619 0.013379853407849519 0 0.08517876257736362 0.013383044562609896 0 0.084230079319275619 0.013379853407849519 0 0.08517876257736362 0.013383044562609896 0 0.084289081662768245 0.012563276099296887 0 0.083194715782166806 0.012100730193241484 0 0.083576974744314581 0.012258377599793082 0 0.083493459449933749 0.011653822093511412 0 0.083194715782166806 0.012100730193241484 0 0.083576974744314581 0.012258377599793082 0 0.083327848717772782 0.012704504509144116 0 0.084289081662768245 0.012563276099296887 0 0.083576974744314581 0.012258377599793082 0 0.083327848717772782 0.012704504509144116 0 0.084289081662768245 0.012563276099296887 0 0.083576974744314581 0.012258377599793082 0 0.083493459449933749 0.011653822093511412 0 0.084230079319275619 0.013379853407849519 0 0.084289081662768245 0.012563276099296887 0 0.083327848717772782 0.012704504509144116 0 0.086546714445748116 0.014504892108234397 0 0.08517876257736362 0.013383044562609896 0 0.086502198586291781 0.013032786988003248 0 0.086546714445748116 0.014504892108234397 0 0.084749080368441837 0.014500704666964809 0 0.08517876257736362 0.013383044562609896 0 0.084049425851799128 0.012937159178677826 0 0.084271009572719269 0.011617731910946592 0 0.081609864135630344 0.012237488949828736 0 0.085200122603888775 0.010016631288218111 0 0.084275269043520465 0.0095569942311379639 0 0.085519401814295598 0.0086828687742380468 0 0.086010817877257256 0.012353546331449304 0 0.084049425851799128 0.012937159178677826 0 0.084271009572719269 0.011617731910946592 0 0.085200122603888775 0.010016631288218111 0 0.083218581922351542 0.010480880572889506 0 0.084275269043520465 0.0095569942311379639 0 0.085277662934729923 0.011877464982693552 0 0.084304341226425494 0.013365623975110114 0 0.083034021376145073 0.010429164735779243 0 0.083218581922351542 0.010480880572889506 0 0.084275269043520465 0.0095569942311379639 0 0.084324323814053567 0.01338616617294976 0 0.084304341226425494 0.013365623975110114 0 0.084324323814053567 0.01338616617294976 0 0.084999224870547493 0.01179862271349239 0 0.083150466112200436 0.010818775582133669 0 0.084357249652859734 0.0098386189109246208 0 0.083331434450654482 0.0097581275891301059 0 0.083331434450654482 0.0097581275891301059 0 0.084012255039736222 0.0085978598388388432 0 0.082820508385236621 0.0089123584355767331 0 0.084357249652859734 0.0098386189109246208 0 0.083331434450654482 0.0097581275891301059 0 0.084012255039736222 0.0085978598388388432 0 0.084357249652859734 0.0098386189109246208 0 0.084012255039736222 0.0085978598388388432 0 0.085519401814295598 0.0086828687742380468 0 0.084012255039736222 0.0085978598388388432 0 0.085519401814295598 0.0086828687742380468 0 0.084909569088237352 0.0077906414555864141 0 0.084999224870547493 0.01179862271349239 0 0.085372682193167862 0.011190903594752921 0 0.084012255039736222 0.0085978598388388432 0 0.084402814454849526 0.0070167830203777632 0 0.084909569088237352 0.0077906414555864141 0 0.08569450155281709 0.0068687521398165955 0 0.085519401814295598 0.0086828687742380468 0 0.084909569088237352 0.0077906414555864141 0 0.08569450155281709 0.0068687521398165955 0 0.084402814454849526 0.0070167830203777632 0 0.084909569088237352 0.0077906414555864141 0 0.084012255039736222 0.0085978598388388432 0 0.083286166951282409 0.0072427305893092517 0 0.082820508385236621 0.0089123584355767331 0 0.084012255039736222 0.0085978598388388432 0 0.084402814454849526 0.0070167830203777632 0 0.083286166951282409 0.0072427305893092517 0 0.082193334320383102 0.0075697995063767056 0 0.081962243285495992 0.0093589856102917878 0 0.082820508385236621 0.0089123584355767331 0 0.083286166951282409 0.0072427305893092517 0 0.082193334320383102 0.0075697995063767056 0 0.082820508385236621 0.0089123584355767331 0 0.082193334320383102 0.0075697995063767056 0 0.081137140953801812 0.0090634780747676225 0 0.081962243285495992 0.0093589856102917878 0 0.08157618385945857 0.0064549731105494777 0 0.082193334320383102 0.0075697995063767056 0 0.081137140953801812 0.0090634780747676225 0 0.08152083608746398 0.010592412194476045 0 0.081137140953801812 0.0090634780747676225 0 0.081962243285495992 0.0093589856102917878 0 0.08152083608746398 0.010592412194476045 0 0.082519073333412268 0.0099398870668827976 0 0.081962243285495992 0.0093589856102917878 0 0.082519073333412268 0.0099398870668827976 0 0.081962243285495992 0.0093589856102917878 0 0.082820508385236621 0.0089123584355767331 0 0.082519073333412268 0.0099398870668827976 0 0.083331434450654482 0.0097581275891301059 0 0.082820508385236621 0.0089123584355767331 0 0.010101863661352933 -0.014759698920301467 0 0.0095275936902846359 -0.013103213740189079 0 0.01172130145171553 -0.012546961565115155 0 0.010101863661352933 -0.014759698920301467 0 0.0078350156898401042 -0.013619098498870811 0 0.0095275936902846359 -0.013103213740189079 0 0.013806673645686083 -0.010716398719149893 0 0.016200434273796249 -0.012523218192106819 0 0.010101863661352933 -0.014759698920301467 0 0.012929815635515899 -0.014868284551177578 0 0.01172130145171553 -0.012546961565115155 0 0.012929815635515899 -0.014868284551177578 0 0.01172130145171553 -0.012546961565115155 0 0.015037800631111889 -0.014216588353168602 0 0.010101863661352933 -0.014759698920301467 0 0.011649078400829174 -0.015965100087858942 0 0.012929815635515899 -0.014868284551177578 0 0.011649078400829174 -0.015965100087858942 0 0.012929815635515899 -0.014868284551177578 0 0.012832255442385185 -0.016907032739240144 0 0.012929815635515899 -0.014868284551177578 0 0.012832255442385185 -0.016907032739240144 0 0.015126885435944716 -0.015951332838376641 0 0.012929815635515899 -0.014868284551177578 0 0.015037800631111889 -0.014216588353168602 0 0.015126885435944716 -0.015951332838376641 0 0.012832255442385185 -0.016907032739240144 0 0.015126885435944716 -0.015951332838376641 0 0.014289317599011236 -0.018203831575851561 0 0.011649078400829174 -0.015965100087858942 0 0.012832255442385185 -0.016907032739240144 0 0.010822549630475301 -0.017696320757423924 0 0.012832255442385185 -0.016907032739240144 0 0.010822549630475301 -0.017696320757423924 0 0.01238217289902141 -0.018902575058925727 0 0.010101863661352933 -0.014759698920301467 0 0.010822549630475301 -0.017696320757423924 0 0.0074544346255246835 -0.017150384478236688 0 0.010101863661352933 -0.014759698920301467 0 0.011649078400829174 -0.015965100087858942 0 0.010822549630475301 -0.017696320757423924 0 0.0089770704795933218 -0.018277212425351182 0 0.006736106059020695 -0.017720914190480858 0 0.0078350156898401042 -0.013619098498870811 0 0.0089770704795933218 -0.018277212425351182 0 0.006736106059020695 -0.017720914190480858 0 0.0068474748924187111 -0.020442131733622977 0 0.0054723289404456713 -0.016484041517589421 0 0.006736106059020695 -0.017720914190480858 0 0.0047552130599970684 -0.019063632137675368 0 0.0054723289404456713 -0.016484041517589421 0 0.0057158161632056724 -0.014243889679072759 0 0.0078350156898401042 -0.013619098498870811 0 0.0054723289404456713 -0.016484041517589421 0 0.006736106059020695 -0.017720914190480858 0 0.0078350156898401042 -0.013619098498870811 0 0.0079381115524527011 -0.018751676480525888 0 0.0076771436904197977 -0.016341244389782895 0 0.010101863661352933 -0.014759698920301467 0 0.0074544346255246835 -0.017150384478236688 0 0.0078350156898401042 -0.013619098498870811 0 0.0078350156898401042 -0.013619098498870811 0 0.005626986306027845 -0.012617975320937469 0 0.0085822523271818305 -0.011649466911735433 0 0.0078350156898401042 -0.013619098498870811 0 0.0085822523271818305 -0.011649466911735433 0 0.0095275936902846359 -0.013103213740189079 0 0.0057158161632056724 -0.014243889679072759 0 0.0078350156898401042 -0.013619098498870811 0 0.005626986306027845 -0.012617975320937469 0 0.005626986306027845 -0.012617975320937469 0 0.0085822523271818305 -0.011649466911735433 0 0.0059864622086402367 -0.010101154060705919 0 0.010227893183330184 -0.007829733529161444 0 0.0072246032974114622 -0.0047907036819796953 0 0.013864946221135646 -0.0010056157418484445 0 0.01185078663677268 0.002172246458053357 0 0.010543165716080116 -0.0046109431746257932 0 0.014619804625759092 -0.0046617549082378293 0 0.010859530960364829 -0.00067079360141418672 0 0.010543165716080116 -0.0046109431746257932 0 0.014696323146128835 -0.0084303374173378999 0 0.014619804625759092 -0.0046617549082378293 0 0.010227893183330184 -0.007829733529161444 0 0.013806673645686083 -0.010716398719149893 0 0.0085822523271818305 -0.011649466911735433 0 0.0095275936902846359 -0.013103213740189079 0 0.01172130145171553 -0.012546961565115155 0 0.014696323146128835 -0.0084303374173378999 0 0.016488963642132821 -0.0070515600603586401 0 0.014619804625759092 -0.0046617549082378293 0 0.014696323146128835 -0.0084303374173378999 0 0.016488963642132821 -0.0070515600603586401 0 0.017029957991428351 -0.0099530330292297055 0 0.016488963642132821 -0.0070515600603586401 0 0.014619804625759092 -0.0046617549082378293 0 0.017828497747040883 -0.0041519657196817088 0 0.014619804625759092 -0.0046617549082378293 0 0.017828497747040883 -0.0041519657196817088 0 0.015291298851156033 0.001658055949665464 0 0.016982208186609053 -0.00098303749426215288 0 0.018609753956900992 -0.0014280279082429567 0 0.018819050251382256 -0.0028158010786904909 0 0.016982208186609053 -0.00098303749426215288 0 0.018609753956900992 -0.0014280279082429567 0 0.018695113489941951 0.00056064857555945444 0 0.019409067087162734 -0.0011506724866374234 0 0.018741523341674244 -9.2911533470367225e-05 0 0.016849562024160637 0.00041679661839809259 0 0.020129488083961509 -0.002323967914781626 0 0.018609753956900992 -0.0014280279082429567 0 0.018695113489941951 0.00056064857555945444 0 0.020129488083961509 -0.002323967914781626 0 0.019409067087162734 -0.0011506724866374234 0 0.016849562024160637 0.00041679661839809259 0 0.019079773006937924 0.00055159132467427112 0 0.018319365871394822 0.0018529297061620641 0 0.019409067087162734 -0.0011506724866374234 0 0.019480653771640787 -0.00044765692451633843 0 0.018741523341674244 -9.2911533470367225e-05 0 0.020129488083961509 -0.002323967914781626 0 0.018609753956900992 -0.0014280279082429567 0 0.018819050251382256 -0.0028158010786904909 0 0.020129488083961509 -0.002323967914781626 0 0.019409067087162734 -0.0011506724866374234 0 0.022489711653179305 -0.005008004449797045 0 0.020129488083961509 -0.002323967914781626 0 0.018819050251382256 -0.0028158010786904909 0 0.022489711653179305 -0.005008004449797045 0 0.018819050251382256 -0.0028158010786904909 0 0.018405930509913616 -0.0049730418684471346 0 0.022489711653179305 -0.005008004449797045 0 0.016982208186609053 -0.00098303749426215288 0 0.018819050251382256 -0.0028158010786904909 0 0.018405930509913616 -0.0049730418684471346 0 0.016488963642132821 -0.0070515600603586401 0 0.017828497747040883 -0.0041519657196817088 0 0.018173325232540765 -0.0079676149294562321 0 0.017828497747040883 -0.0041519657196817088 0 0.020411195282152371 -0.0087477147699429186 0 0.018173325232540765 -0.0079676149294562321 0 0.020411195282152371 -0.0087477147699429186 0 0.018173325232540765 -0.0079676149294562321 0 0.019075875535083518 -0.0099772965465220933 0 0.017420353679265217 -0.0031342342425431072 0 0.020064354880206275 -0.0066836410033291032 0 0.016488963642132821 -0.0070515600603586401 0 0.018173325232540765 -0.0079676149294562321 0 0.017029957991428351 -0.0099530330292297055 0 -0.0082793338749330044 -0.013046692650648025 0 -0.00877251742951431 -0.011003775407744601 0 0.020223473322873702 -0.00020108844332362595 0 0.019823210575624715 -0.0012124530043271717 0 0.02057819486810334 -0.001730649976445265 0 0.020223473322873702 -0.00020108844332362595 0 0.02057819486810334 -0.001730649976445265 0 0.021543498377199842 0.00013989911028119818 0 0.020223473322873702 -0.00020108844332362595 0 0.019823210575624715 -0.0012124530043271717 0 0.019480653771640787 -0.00044765692451633843 0 0.019409067087162734 -0.0011506724866374234 0 0.019480653771640787 -0.00044765692451633843 0 0.019528946114941596 -0.001251032240481876 0 0.019823210575624715 -0.0012124530043271717 0 0.019480653771640787 -0.00044765692451633843 0 0.019528946114941596 -0.001251032240481876 0 0.0039842854141456151 -0.009518587022463677 0 0.0015170456534646219 -0.011481963708781295 0 0.019823210575624715 -0.0012124530043271717 0 0.019375260201681045 -0.001985749081387054 0 0.02057819486810334 -0.001730649976445265 0 0.019409067087162734 -0.0011506724866374234 0 0.019528946114941596 -0.001251032240481876 0 0.019375260201681045 -0.001985749081387054 0 0.019823210575624715 -0.0012124530043271717 0 0.019528946114941596 -0.001251032240481876 0 0.019375260201681045 -0.001985749081387054 0 -0.039763366614838071 -0.022678801281084255 0 -0.039711299701181646 -0.022507215977712228 0 -0.039407257454197951 -0.022406692744061221 0 -0.0082793338749330044 -0.013046692650648025 0 -0.0073542502529286369 -0.016556616366946345 0 -0.039763366614838071 -0.022678801281084255 0 -0.039711299701181646 -0.022507215977712228 0 -0.039924380754420973 -0.022594234108841291 0 -0.039711299701181646 -0.022507215977712228 0 -0.039622103825990962 -0.022337335968521405 0 -0.039788622304736565 -0.022428654392789484 0 -0.039711299701181646 -0.022507215977712228 0 -0.039407257454197951 -0.022406692744061221 0 -0.039622103825990962 -0.022337335968521405 0 0.0015170456534646219 -0.011481963708781295 0 -0.0073542502529286369 -0.016556616366946345 0 0.022489711653179305 -0.005008004449797045 0 0.024912880680014134 -0.012496776367238709 0 0.024068393771502855 -0.012731291377334586 0 0.019375260201681045 -0.001985749081387054 0 0.02057819486810334 -0.001730649976445265 0 0.01973092676421823 -0.0032245575075256125 0 -0.038444105214424977 -0.024128683261743267 0 -0.037794680723191129 -0.0227702657995816 0 -0.038954935527548286 -0.022944034974069077 0 -0.0073542502529286369 -0.016556616366946345 0 -0.0022222367568928724 -0.024563902655420144 0 0.024068393771502855 -0.012731291377334586 0 0.022195327211566987 -0.013472103870788003 0 0.022016108414782729 -0.018325812058897158 0 0.024912880680014134 -0.012496776367238709 0 0.024068393771502855 -0.012731291377334586 0 0.022016108414782729 -0.018325812058897158 0 -0.0073542502529286369 -0.016556616366946345 0 -0.019397003943600867 -0.016943749944110912 0 -0.039407257454197951 -0.022406692744061221 0 -0.039622103825990962 -0.022337335968521405 0 -0.039451571094962598 -0.022077107475155074 0 -0.039622103825990962 -0.022337335968521405 0 -0.039451571094962598 -0.022077107475155074 0 -0.039775118453583579 -0.022261182648094218 0 -0.039622103825990962 -0.022337335968521405 0 -0.039788622304736565 -0.022428654392789484 0 -0.039775118453583579 -0.022261182648094218 0 0.014696323146128835 -0.0084303374173378999 0 0.017029957991428351 -0.0099530330292297055 0 0.017829113020648362 -0.013575933453697462 0 0.01172130145171553 -0.012546961565115155 0 0.015037800631111889 -0.014216588353168602 0 0.017829113020648362 -0.013575933453697462 0 0.017883545226753412 -0.011425929182767422 0 0.017029957991428351 -0.0099530330292297055 0 0.017829113020648362 -0.013575933453697462 0 0.017883545226753412 -0.011425929182767422 0 0.018479289959231922 -0.012462746636050149 0 0.019460552866618654 -0.011899423560880574 0 0.018479289959231922 -0.012462746636050149 0 0.018673953939010342 -0.013033143907314013 0 0.019460552866618654 -0.011899423560880574 0 0.018479289959231922 -0.012462746636050149 0 0.018673953939010342 -0.013033143907314013 0 0.017829113020648362 -0.013575933453697462 0 0.017883545226753412 -0.011425929182767422 0 0.018479289959231922 -0.012462746636050149 0 0.017829113020648362 -0.013575933453697462 0 0.017883545226753412 -0.011425929182767422 0 0.019075875535083518 -0.0099772965465220933 0 0.019460552866618654 -0.011899423560880574 0 0.017883545226753412 -0.011425929182767422 0 0.017029957991428351 -0.0099530330292297055 0 0.019075875535083518 -0.0099772965465220933 0 0.018173325232540765 -0.0079676149294562321 0 0.017029957991428351 -0.0099530330292297055 0 0.019075875535083518 -0.0099772965465220933 0 0.020411195282152371 -0.0087477147699429186 0 0.020088562234557551 -0.010530149594134565 0 0.021381110211522111 -0.011608108469160045 0 0.018405930509913616 -0.0049730418684471346 0 0.022489711653179305 -0.005008004449797045 0 0.024068393771502855 -0.012731291377334586 0 0.020411195282152371 -0.0087477147699429186 0 0.024068393771502855 -0.012731291377334586 0 0.021381110211522111 -0.011608108469160045 0 0.020064354880206275 -0.0066836410033291032 0 0.022045785041929312 -0.009127780905730104 0 0.019075875535083518 -0.0099772965465220933 0 0.020088562234557551 -0.010530149594134565 0 0.019460552866618654 -0.011899423560880574 0 0.020411195282152371 -0.0087477147699429186 0 0.019075875535083518 -0.0099772965465220933 0 0.020088562234557551 -0.010530149594134565 0 0.024068393771502855 -0.012731291377334586 0 0.021381110211522111 -0.011608108469160045 0 0.022195327211566987 -0.013472103870788003 0 0.021381110211522111 -0.011608108469160045 0 0.019460552866618654 -0.011899423560880574 0 0.020505468881426209 -0.013772579888922136 0 0.020088562234557551 -0.010530149594134565 0 0.021381110211522111 -0.011608108469160045 0 0.019460552866618654 -0.011899423560880574 0 0.019460552866618654 -0.011899423560880574 0 0.019284185003202409 -0.013151075904649869 0 0.020505468881426209 -0.013772579888922136 0 0.018673953939010342 -0.013033143907314013 0 0.019460552866618654 -0.011899423560880574 0 0.019284185003202409 -0.013151075904649869 0 0.0040798835880341 -0.024366656426505529 0 -0.0022222367568928724 -0.024563902655420144 0 0.019284185003202409 -0.013151075904649869 0 0.020505468881426209 -0.013772579888922136 0 0.018470725649815122 -0.013934931383296574 0 0.020505468881426209 -0.013772579888922136 0 0.022195327211566987 -0.013472103870788003 0 0.022016108414782729 -0.018325812058897158 0 0.018470725649815122 -0.013934931383296574 0 0.018742898529662631 -0.017900104187169894 0 0.021987783236674319 -0.019555132166512529 0 0.020505468881426209 -0.013772579888922136 0 0.018470725649815122 -0.013934931383296574 0 0.022016108414782729 -0.018325812058897158 0 0.021381110211522111 -0.011608108469160045 0 0.020505468881426209 -0.013772579888922136 0 0.022195327211566987 -0.013472103870788003 0 0.017313408657706766 -0.016854794191448568 0 0.018470725649815122 -0.013934931383296574 0 0.018742898529662631 -0.017900104187169894 0 0.017313408657706766 -0.016854794191448568 0 0.017384495355841023 -0.014943812866126279 0 0.016555334400163133 -0.015853458431635787 0 0.017313408657706766 -0.016854794191448568 0 0.017384495355841023 -0.014943812866126279 0 0.018470725649815122 -0.013934931383296574 0 0.017384495355841023 -0.014943812866126279 0 0.016385394406969532 -0.014905900866339266 0 0.016555334400163133 -0.015853458431635787 0 0.017384495355841023 -0.014943812866126279 0 0.017829113020648362 -0.013575933453697462 0 0.016385394406969532 -0.014905900866339266 0 0.018673953939010342 -0.013033143907314013 0 0.017829113020648362 -0.013575933453697462 0 0.018470725649815122 -0.013934931383296574 0 0.017384495355841023 -0.014943812866126279 0 0.017829113020648362 -0.013575933453697462 0 0.018470725649815122 -0.013934931383296574 0 0.018673953939010342 -0.013033143907314013 0 0.019284185003202409 -0.013151075904649869 0 0.018470725649815122 -0.013934931383296574 0 0.015037800631111889 -0.014216588353168602 0 0.016385394406969532 -0.014905900866339266 0 0.015126885435944716 -0.015951332838376641 0 0.015037800631111889 -0.014216588353168602 0 0.017829113020648362 -0.013575933453697462 0 0.016385394406969532 -0.014905900866339266 0 0.016385394406969532 -0.014905900866339266 0 0.015126885435944716 -0.015951332838376641 0 0.016555334400163133 -0.015853458431635787 0 0.015126885435944716 -0.015951332838376641 0 0.015943376943798437 -0.017267478352736135 0 0.014289317599011236 -0.018203831575851561 0 0.015126885435944716 -0.015951332838376641 0 0.016555334400163133 -0.015853458431635787 0 0.015943376943798437 -0.017267478352736135 0 0.017313408657706766 -0.016854794191448568 0 0.016555334400163133 -0.015853458431635787 0 0.015943376943798437 -0.017267478352736135 0 0.015943376943798437 -0.017267478352736135 0 0.016239700328639112 -0.019292951664098133 0 0.014289317599011236 -0.018203831575851561 0 0.017313408657706766 -0.016854794191448568 0 0.015943376943798437 -0.017267478352736135 0 0.016239700328639112 -0.019292951664098133 0 0.016239700328639112 -0.019292951664098133 0 0.015788378176765719 -0.022761812645037086 0 0.013551016967973579 -0.020825348123648172 0 0.016239700328639112 -0.019292951664098133 0 0.018127919507251549 -0.020780642675811433 0 0.015788378176765719 -0.022761812645037086 0 0.016239700328639112 -0.019292951664098133 0 0.018127919507251549 -0.020780642675811433 0 0.018742898529662631 -0.017900104187169894 0 0.017313408657706766 -0.016854794191448568 0 0.016239700328639112 -0.019292951664098133 0 0.018742898529662631 -0.017900104187169894 0 0.018127919507251549 -0.020780642675811433 0 0.018742898529662631 -0.017900104187169894 0 0.021987783236674319 -0.019555132166512529 0 0.018127919507251549 -0.020780642675811433 0 0.021987783236674319 -0.019555132166512529 0 0.018947051722692749 -0.024912417416701037 0 -0.0022222367568928724 -0.024563902655420144 0 0.0014238146888016653 -0.0314633110187066 0 -0.0081988575952539524 -0.050102691634753047 0 -0.005980513620976978 -0.045906842523038068 0 -0.0085913276710024578 -0.045709647992046992 0 0.018127919507251549 -0.020780642675811433 0 0.018947051722692749 -0.024912417416701037 0 0.015788378176765719 -0.022761812645037086 0 0.018947051722692749 -0.024912417416701037 0 0.015788378176765719 -0.022761812645037086 0 0.015170556593894121 -0.026184971934621763 0 -0.039451571094962598 -0.022077107475155074 0 -0.039803865492252649 -0.022062411197079888 0 -0.039743381394597058 -0.021807559944010731 0 -0.019397003943600867 -0.016943749944110912 0 -0.022901065660543014 -0.017180546048805818 0 -0.039451571094962598 -0.022077107475155074 0 -0.039775118453583579 -0.022261182648094218 0 -0.039803865492252649 -0.022062411197079888 0 -0.037794680723191129 -0.0227702657995816 0 -0.038954935527548286 -0.022944034974069077 0 -0.038805199943267026 -0.021694046053341833 0 -0.0081988575952539524 -0.050102691634753047 0 -0.010911562988658519 -0.04665198753773106 0 -0.0085913276710024578 -0.045709647992046992 0 -0.0022222367568928724 -0.024563902655420144 0 -0.015107922270900813 -0.027807827711610781 0 -0.038954935527548286 -0.022944034974069077 0 -0.038805199943267026 -0.021694046053341833 0 -0.039455715728859371 -0.021775073293797621 0 -0.039451571094962598 -0.022077107475155074 0 -0.039455715728859371 -0.021775073293797621 0 -0.039743381394597058 -0.021807559944010731 0 -0.038805199943267026 -0.021694046053341833 0 -0.039455715728859371 -0.021775073293797621 0 -0.039414151106714063 -0.021552185373900634 0 -0.039455715728859371 -0.021775073293797621 0 -0.039616872809109263 -0.021565893703617792 0 -0.039414151106714063 -0.021552185373900634 0 -0.039455715728859371 -0.021775073293797621 0 -0.039616872809109263 -0.021565893703617792 0 -0.039664419954813596 -0.021693788342266457 0 -0.039455715728859371 -0.021775073293797621 0 -0.039664419954813596 -0.021693788342266457 0 -0.039743381394597058 -0.021807559944010731 0 -0.010911562988658519 -0.04665198753773106 0 -0.013793626233015161 -0.043218821108583723 0 -0.013487859420386035 -0.043370112585012867 0 -0.038805199943267026 -0.021694046053341833 0 -0.039558467121148237 -0.021291899483547167 0 -0.039414151106714063 -0.021552185373900634 0 -0.010911562988658519 -0.04665198753773106 0 -0.013487859420386035 -0.043370112585012867 0 -0.010460243155576338 -0.043565491695686645 0 -0.015107922270900813 -0.027807827711610781 0 -0.02235086472090626 -0.029139380676520651 0 -0.013820120204472359 -0.043233235423636454 0 -0.013487859420386035 -0.043370112585012867 0 -0.013598374484924694 -0.042493818781724167 0 -0.02235086472090626 -0.029139380676520651 0 -0.022292875278196681 -0.02918258577881129 0 -0.039558467121148237 -0.021291899483547167 0 -0.039566618384236016 -0.021457167568345419 0 -0.039707743440046177 -0.021414536288873982 0 -0.039566618384236016 -0.021457167568345419 0 -0.039616872809109263 -0.021565893703617792 0 -0.039707743440046177 -0.021414536288873982 0 -0.039558467121148237 -0.021291899483547167 0 -0.039566618384236016 -0.021457167568345419 0 -0.039414151106714063 -0.021552185373900634 0 -0.039566618384236016 -0.021457167568345419 0 -0.039616872809109263 -0.021565893703617792 0 -0.039414151106714063 -0.021552185373900634 0 -0.013487859420386035 -0.043370112585012867 0 -0.010460243155576338 -0.043565491695686645 0 -0.012623610991661481 -0.041971822598880673 0 -0.010911562988658519 -0.04665198753773106 0 -0.010460243155576338 -0.043565491695686645 0 -0.0085913276710024578 -0.045709647992046992 0 -0.010460243155576338 -0.043565491695686645 0 -0.0085913276710024578 -0.045709647992046992 0 -0.0075726193086903589 -0.042841685149744152 0 -0.01017663037406831 -0.041263870287345669 0 -0.012048563438589963 -0.039974910666940172 0 -0.008114832936811818 -0.039468191387925101 0 -0.01017663037406831 -0.041263870287345669 0 -0.0075726193086903589 -0.042841685149744152 0 -0.008114832936811818 -0.039468191387925101 0 -0.010460243155576338 -0.043565491695686645 0 -0.01017663037406831 -0.041263870287345669 0 -0.0075726193086903589 -0.042841685149744152 0 -0.010460243155576338 -0.043565491695686645 0 -0.01017663037406831 -0.041263870287345669 0 -0.012623610991661481 -0.041971822598880673 0 -0.012623610991661481 -0.041971822598880673 0 -0.012048563438589963 -0.039974910666940172 0 -0.01409047475756833 -0.041264547164611663 0 -0.01017663037406831 -0.041263870287345669 0 -0.012623610991661481 -0.041971822598880673 0 -0.012048563438589963 -0.039974910666940172 0 -0.012048563438589963 -0.039974910666940172 0 -0.01409047475756833 -0.041264547164611663 0 -0.014753380757664742 -0.039531854897516462 0 -0.01409047475756833 -0.041264547164611663 0 -0.013598374484924694 -0.042493818781724167 0 -0.01448048327902907 -0.042577053344865043 0 -0.012623610991661481 -0.041971822598880673 0 -0.01409047475756833 -0.041264547164611663 0 -0.013598374484924694 -0.042493818781724167 0 -0.013487859420386035 -0.043370112585012867 0 -0.012623610991661481 -0.041971822598880673 0 -0.013598374484924694 -0.042493818781724167 0 -0.013820120204472359 -0.043233235423636454 0 -0.013598374484924694 -0.042493818781724167 0 -0.01448048327902907 -0.042577053344865043 0 -0.02235086472090626 -0.029139380676520651 0 -0.022036715524297961 -0.029580525584701881 0 0.0014238146888016653 -0.0314633110187066 0 0.0035203471883494906 -0.033435682243396506 0 0.018947051722692749 -0.024912417416701037 0 0.015170556593894121 -0.026184971934621763 0 0.016037570935456252 -0.030431264715808936 0 -0.005980513620976978 -0.045906842523038068 0 -0.0085913276710024578 -0.045709647992046992 0 -0.0075726193086903589 -0.042841685149744152 0 -0.005980513620976978 -0.045906842523038068 0 -0.0075726193086903589 -0.042841685149744152 0 -0.00370556815727349 -0.04159623658516224 0 0.0035203471883494906 -0.033435682243396506 0 -0.0039192745339020037 -0.034956091846287306 0 -0.0075726193086903589 -0.042841685149744152 0 -0.00370556815727349 -0.04159623658516224 0 -0.008114832936811818 -0.039468191387925101 0 0.00077215071621915753 -0.043135915364064928 0 -0.0061580895535780387 -0.039875776768960119 0 -0.00085142403654867439 -0.038010625041670396 0 0.0035203471883494906 -0.033435682243396506 0 0.0042263516345833058 -0.033264083500011962 0 0.00950050384365431 -0.028674809610069331 0 0.0081973738209164346 -0.029104651501636693 0 0.0085192718309686551 -0.030095490663002999 0 0.0081973738209164346 -0.029104651501636693 0 0.0076975318239892168 -0.028699429697483996 0 0.0086411202085211469 -0.02803773891822018 0 0.0035203471883494906 -0.033435682243396506 0 0.0060298932359750404 -0.03261744133063571 0 0.00950050384365431 -0.028674809610069331 0 0.0081973738209164346 -0.029104651501636693 0 0.0086411202085211469 -0.02803773891822018 0 0.0076975318239892168 -0.028699429697483996 0 0.0067479818596319248 -0.029135202800790506 0 0.0070618601318429104 -0.029966407106531506 0 0.0081973738209164346 -0.029104651501636693 0 0.0076975318239892168 -0.028699429697483996 0 0.0070618601318429104 -0.029966407106531506 0 0.0084767753183613397 -0.025663595272013954 0 0.0083217911986274064 -0.02321168104793285 0 0.0076975318239892168 -0.028699429697483996 0 0.0085139011689875747 -0.0266528595168182 0 0.0086411202085211469 -0.02803773891822018 0 0.0076975318239892168 -0.028699429697483996 0 0.0085139011689875747 -0.0266528595168182 0 0.0074562981972369083 -0.023787698774586415 0 0.0063208416904362479 -0.032102041501206297 0 0.0060298932359750404 -0.03261744133063571 0 0.0085139011689875747 -0.0266528595168182 0 0.012465050681233393 -0.028723777669266124 0 0.012552155109348224 -0.02417442160806527 0 0.015170556593894121 -0.026184971934621763 0 0.012465050681233393 -0.028723777669266124 0 0.012552155109348224 -0.02417442160806527 0 0.015170556593894121 -0.026184971934621763 0 0.016037570935456252 -0.030431264715808936 0 0.012465050681233393 -0.028723777669266124 0 0.015788378176765719 -0.022761812645037086 0 0.015170556593894121 -0.026184971934621763 0 0.012552155109348224 -0.02417442160806527 0 0.015788378176765719 -0.022761812645037086 0 0.012552155109348224 -0.02417442160806527 0 0.013551016967973579 -0.020825348123648172 0 0.012552155109348224 -0.02417442160806527 0 0.01046538891651003 -0.021011841106282854 0 0.013551016967973579 -0.020825348123648172 0 0.0085139011689875747 -0.0266528595168182 0 0.012552155109348224 -0.02417442160806527 0 0.0097007134266831781 -0.023930843038155084 0 0.0085139011689875747 -0.0266528595168182 0 0.0097007134266831781 -0.023930843038155084 0 0.0074562981972369083 -0.023787698774586415 0 0.0097007134266831781 -0.023930843038155084 0 0.01046538891651003 -0.021011841106282854 0 0.0074562981972369083 -0.023787698774586415 0 0.012552155109348224 -0.02417442160806527 0 0.0097007134266831781 -0.023930843038155084 0 0.01046538891651003 -0.021011841106282854 0 0.010822549630475301 -0.017696320757423924 0 0.0074544346255246835 -0.017150384478236688 0 0.01046538891651003 -0.021011841106282854 0 0.0074544346255246835 -0.017150384478236688 0 0.01046538891651003 -0.021011841106282854 0 0.0074562981972369083 -0.023787698774586415 0 0.010822549630475301 -0.017696320757423924 0 0.01046538891651003 -0.021011841106282854 0 0.01238217289902141 -0.018902575058925727 0 0.016239700328639112 -0.019292951664098133 0 0.014289317599011236 -0.018203831575851561 0 0.013551016967973579 -0.020825348123648172 0 0.01238217289902141 -0.018902575058925727 0 0.014289317599011236 -0.018203831575851561 0 0.013551016967973579 -0.020825348123648172 0 0.012832255442385185 -0.016907032739240144 0 0.01238217289902141 -0.018902575058925727 0 0.014289317599011236 -0.018203831575851561 0 0.01046538891651003 -0.021011841106282854 0 0.01238217289902141 -0.018902575058925727 0 0.013551016967973579 -0.020825348123648172 0 0.006736106059020695 -0.017720914190480858 0 0.0068474748924187111 -0.020442131733622977 0 0.0047552130599970684 -0.019063632137675368 0 0.0068474748924187111 -0.020442131733622977 0 0.0047552130599970684 -0.019063632137675368 0 0.0048972314083723031 -0.021655714530925255 0 0.0089770704795933218 -0.018277212425351182 0 0.0068474748924187111 -0.020442131733622977 0 0.0092533736947571325 -0.024397730844185252 0 0.0079381115524527011 -0.018751676480525888 0 0.0083217911986274064 -0.02321168104793285 0 0.0068474748924187111 -0.020442131733622977 0 0.0092533736947571325 -0.024397730844185252 0 0.0067069770068139238 -0.024674980721253337 0 0.0079033224826530173 -0.023222970837984781 0 0.007658079457672713 -0.02486571892814099 0 0.0068474748924187111 -0.020442131733622977 0 0.0067069770068139238 -0.024674980721253337 0 0.0044192095451121649 -0.025697259124096469 0 0.0064082397757676953 -0.027481281135998247 0 0.0052149459971807715 -0.027823453712197289 0 0.0044192095451121649 -0.025697259124096469 0 0.0067069770068139238 -0.024674980721253337 0 0.0064082397757676953 -0.027481281135998247 0 0.0044192095451121649 -0.025697259124096469 0 0.0076975318239892168 -0.028699429697483996 0 0.0092533736947571325 -0.024397730844185252 0 0.0064082397757676953 -0.027481281135998247 0 0.0092533736947571325 -0.024397730844185252 0 0.0067069770068139238 -0.024674980721253337 0 0.0064082397757676953 -0.027481281135998247 0 0.0064082397757676953 -0.027481281135998247 0 0.0067479818596319248 -0.029135202800790506 0 0.0060771134685777698 -0.029192044927732145 0 0.0076975318239892168 -0.028699429697483996 0 0.0064082397757676953 -0.027481281135998247 0 0.0067479818596319248 -0.029135202800790506 0 0.0064082397757676953 -0.027481281135998247 0 0.0052149459971807715 -0.027823453712197289 0 0.0060771134685777698 -0.029192044927732145 0 0.0052149459971807715 -0.027823453712197289 0 0.0053402808718184648 -0.028785363543281983 0 0.0060771134685777698 -0.029192044927732145 0 0.0030506880919216346 -0.023701524764129508 0 0.001407580085638971 -0.021405677351378057 0 0.0048972314083723031 -0.021655714530925255 0 0.0052149459971807715 -0.027823453712197289 0 0.0046040894917683288 -0.028148487481139243 0 0.0053402808718184648 -0.028785363543281983 0 0.010119904816492747 -0.02670507676294262 0 0.007658079457672713 -0.02486571892814099 0 0.0052149459971807715 -0.027823453712197289 0 0.0046040894917683288 -0.028148487481139243 0 0.0044192095451121649 -0.025697259124096469 0 0.010119904816492747 -0.02670507676294262 0 0.025059710010849792 -0.0201618484435966 0 0.0030506880919216346 -0.023701524764129508 0 7.9879523158139177e-05 -0.023990579578189088 0 0.0011944088024767713 -0.025870437740348258 0 0.06577823612212623 -0.012761852044912906 0 0.068678810567638221 -0.01175652982771426 0 0.067884560295090171 -0.016337566151371951 0 0.06577823612212623 -0.012761852044912906 0 0.068678810567638221 -0.01175652982771426 0 0.065651518343963253 -0.010504269070758224 0 0.0295416473971927 -0.019480570780367627 0 0.032210842094101175 -0.018341781592202698 0 7.9879523158139177e-05 -0.023990579578189088 0 0.001407580085638971 -0.021405677351378057 0 -0.0010706304353098254 -0.022048378040794341 0 0.0030506880919216346 -0.023701524764129508 0 7.9879523158139177e-05 -0.023990579578189088 0 0.001407580085638971 -0.021405677351378057 0 0.001407580085638971 -0.021405677351378057 0 -0.00034888836760466719 -0.020487538216851901 0 -0.0010706304353098254 -0.022048378040794341 0 0.001407580085638971 -0.021405677351378057 0 -0.00034888836760466719 -0.020487538216851901 0 0.00049755324996617869 -0.0184089930116744 0 -0.00034888836760466719 -0.020487538216851901 0 0.00049755324996617869 -0.0184089930116744 0 -0.0021932554560385445 -0.020062794478115546 0 0.011243080096691706 -0.022944089295943017 0 0.033400715206183193 -0.015086857699659551 0 0.001407580085638971 -0.021405677351378057 0 0.00049755324996617869 -0.0184089930116744 0 0.0029017883513168456 -0.019575314817912758 0 0.00049755324996617869 -0.0184089930116744 0 0.0029017883513168456 -0.019575314817912758 0 0.0028001500703822191 -0.017112062224539076 0 0.0029017883513168456 -0.019575314817912758 0 0.0047552130599970684 -0.019063632137675368 0 0.0028001500703822191 -0.017112062224539076 0 0.001407580085638971 -0.021405677351378057 0 0.0029017883513168456 -0.019575314817912758 0 0.0048972314083723031 -0.021655714530925255 0 0.0029017883513168456 -0.019575314817912758 0 0.0047552130599970684 -0.019063632137675368 0 0.0048972314083723031 -0.021655714530925255 0 0.057063662837706107 -0.004436098345557209 0 0.057842624158246814 -0.0045436510603024671 0 0.057598886615767168 -0.0039215933303268277 0 0.070678884321648511 -0.0057412055203545443 0 0.065492313057905038 -0.007261561514510506 0 0.083428962000145948 -0.012902147732660527 0 0.078562363720580272 -0.01547548475493378 0 0.0809915327536294 -0.012374288915686229 0 0.078562363720580272 -0.01547548475493378 0 0.078964611690444539 -0.011525992404621431 0 0.076773872384739247 -0.012236697032812476 0 0.078562363720580272 -0.01547548475493378 0 0.0809915327536294 -0.012374288915686229 0 0.078964611690444539 -0.011525992404621431 0 0.0809915327536294 -0.012374288915686229 0 0.080919687723621028 -0.010371854784090908 0 0.078964611690444539 -0.011525992404621431 0 0.080919687723621028 -0.010371854784090908 0 0.078964611690444539 -0.011525992404621431 0 0.079700585945439453 -0.0092464998607860571 0 0.078964611690444539 -0.011525992404621431 0 0.079700585945439453 -0.0092464998607860571 0 0.077661252681242451 -0.0097741973154331224 0 0.078964611690444539 -0.011525992404621431 0 0.076773872384739247 -0.012236697032812476 0 0.077661252681242451 -0.0097741973154331224 0 0.076773872384739247 -0.012236697032812476 0 0.074665292901167593 -0.010703506304062768 0 0.074486250158497816 -0.014400989141347888 0 0.076773872384739247 -0.012236697032812476 0 0.074665292901167593 -0.010703506304062768 0 0.077661252681242451 -0.0097741973154331224 0 0.078562363720580272 -0.01547548475493378 0 0.076773872384739247 -0.012236697032812476 0 0.074486250158497816 -0.014400989141347888 0 0.078562363720580272 -0.01547548475493378 0 0.074486250158497816 -0.014400989141347888 0 0.074223006430998939 -0.017864826030083662 0 0.065492313057905038 -0.007261561514510506 0 0.057244564358602507 -0.0085628509357802193 0 0.074486250158497816 -0.014400989141347888 0 0.071376371916138465 -0.016302246363266656 0 0.074223006430998939 -0.017864826030083662 0 0.074486250158497816 -0.014400989141347888 0 0.071376371916138465 -0.016302246363266656 0 0.071617763758683867 -0.012992268028744347 0 0.074665292901167593 -0.010703506304062768 0 0.074486250158497816 -0.014400989141347888 0 0.071617763758683867 -0.012992268028744347 0 0.074665292901167593 -0.010703506304062768 0 0.071617763758683867 -0.012992268028744347 0 0.07249167640259889 -0.0087979125439631954 0 0.071617763758683867 -0.012992268028744347 0 0.068678810567638221 -0.01175652982771426 0 0.07249167640259889 -0.0087979125439631954 0 0.071617763758683867 -0.012992268028744347 0 0.068678810567638221 -0.01175652982771426 0 0.067884560295090171 -0.016337566151371951 0 0.071376371916138465 -0.016302246363266656 0 0.071617763758683867 -0.012992268028744347 0 0.067884560295090171 -0.016337566151371951 0 -0.00034888836760466719 -0.020487538216851901 0 -0.0010706304353098254 -0.022048378040794341 0 -0.0021932554560385445 -0.020062794478115546 0 0.032210842094101175 -0.018341781592202698 0 0.033400715206183193 -0.015086857699659551 0 0.071376371916138465 -0.016302246363266656 0 0.067884560295090171 -0.016337566151371951 0 0.070000533601654785 -0.020126179415746764 0 -0.0021590547509980837 -0.019761995116455738 0 -0.0035463024283785747 -0.017424642007090072 0 -0.0017853164812390372 -0.017992055241736242 0 0.00049755324996617869 -0.0184089930116744 0 -0.0021590547509980837 -0.019761995116455738 0 -0.0017853164812390372 -0.017992055241736242 0 0.033400715206183193 -0.015086857699659551 0 0.030756381618823669 -0.0092732812749679473 0 0.059879325236915706 -0.0034943087088407107 0 0.058753065119927367 -0.0029918345154906745 0 0.059276294514651003 -0.0022310542707234923 0 0.059879325236915706 -0.0034943087088407107 0 0.058832594379738035 -0.004035518140545309 0 0.058753065119927367 -0.0029918345154906745 0 0.033400715206183193 -0.015086857699659551 0 0.057244564358602507 -0.0085628509357802193 0 0.071376371916138465 -0.016302246363266656 0 0.070000533601654785 -0.020126179415746764 0 0.074223006430998939 -0.017864826030083662 0 0.058832594379738035 -0.004035518140545309 0 0.058118133887342716 -0.0035294481405916487 0 0.058753065119927367 -0.0029918345154906745 0 0.057842624158246814 -0.0045436510603024671 0 0.058832594379738035 -0.004035518140545309 0 0.058118133887342716 -0.0035294481405916487 0 0.058118133887342716 -0.0035294481405916487 0 0.058753065119927367 -0.0029918345154906745 0 0.058041335303558601 -0.0026213733852197682 0 0.058041335303558601 -0.0026213733852197682 0 0.057319417422360727 -0.003205501485012328 0 0.057592407813797902 -0.0021362157412471105 0 0.070499750943493478 -0.0037712305006068715 0 0.072687402873216719 -0.00011884521859528219 0 0.072599769564457448 -0.002384640093169257 0 0.072632659112636389 -0.0033463032372272072 0 0.07341878700679888 -0.00029552386907141364 0 0.058118133887342716 -0.0035294481405916487 0 0.058041335303558601 -0.0026213733852197682 0 0.057319417422360727 -0.003205501485012328 0 0.07216267126639335 -0.0045994758274999215 0 0.072599769564457448 -0.002384640093169257 0 0.072632659112636389 -0.0033463032372272072 0 0.058118133887342716 -0.0035294481405916487 0 0.057319417422360727 -0.003205501485012328 0 0.057598886615767168 -0.0039215933303268277 0 0.057842624158246814 -0.0045436510603024671 0 0.058118133887342716 -0.0035294481405916487 0 0.057598886615767168 -0.0039215933303268277 0 0.057063662837706107 -0.004436098345557209 0 0.057319417422360727 -0.003205501485012328 0 0.057598886615767168 -0.0039215933303268277 0 0.094908310088639411 0.012867072992827867 0 0.095744831444829162 0.012262260286706107 0 0.095611049658808775 0.011709235064068138 0 0.057193265333420534 -0.00081738379306834123 0 0.057489473983715775 -0.00078656883810804333 0 0.05731501935819814 0.00025114232468564522 0 0.057489473983715775 -0.00078656883810804333 0 0.057310539899112146 -0.0017481721102753046 0 0.058316638362470488 -0.0018134265582144945 0 0.071173130733998377 -0.00019121166397917397 0 0.072550836684965161 0.0009933610794517992 0 0.057489473983715775 -0.00078656883810804333 0 0.05709244529331349 -0.0014863537400879308 0 0.057268139738092923 -0.0017251963632677046 0 0.057193265333420534 -0.00081738379306834123 0 0.057489473983715775 -0.00078656883810804333 0 0.05709244529331349 -0.0014863537400879308 0 0.06978302362966371 0.002515471599301042 0 0.074522268739438277 0.0022142000675822431 0 0.075551647804721428 -0.0013767023854589361 0 0.076003554600324763 0.00092166803790103436 0 0.076182472413626759 0.00022584568828649195 0 0.076324575186422189 -0.0017889170679853766 0 0.074522268739438277 0.0022142000675822431 0 0.076003554600324763 0.00092166803790103436 0 0.076182472413626759 0.00022584568828649195 0 0.076266144106068759 0.00054787192482388697 0 0.074522268739438277 0.0022142000675822431 0 0.072550836684965161 0.0009933610794517992 0 0.072687402873216719 -0.00011884521859528219 0 0.072550836684965161 0.0009933610794517992 0 0.076324575186422189 -0.0017889170679853766 0 0.072687402873216719 -0.00011884521859528219 0 0.058041335303558601 -0.0026213733852197682 0 0.057592407813797902 -0.0021362157412471105 0 0.057633918589999993 -0.0019981205006096687 0 0.070350793328724237 0.0017458000562232735 0 0.072550836684965161 0.0009933610794517992 0 0.058316638362470488 -0.0018134265582144945 0 0.058602770496101374 -0.00069458842340234042 0 0.059276294514651003 -0.0022310542707234923 0 0.058753065119927367 -0.0029918345154906745 0 0.058041335303558601 -0.0026213733852197682 0 0.058316638362470488 -0.0018134265582144945 0 0.058753065119927367 -0.0029918345154906745 0 0.058316638362470488 -0.0018134265582144945 0 0.059276294514651003 -0.0022310542707234923 0 0.058041335303558601 -0.0026213733852197682 0 0.057310539899112146 -0.0017481721102753046 0 0.058316638362470488 -0.0018134265582144945 0 0.057489473983715775 -0.00078656883810804333 0 0.058316638362470488 -0.0018134265582144945 0 0.058602770496101374 -0.00069458842340234042 0 0.057489473983715775 -0.00078656883810804333 0 0.058602770496101374 -0.00069458842340234042 0 0.05731501935819814 0.00025114232468564522 0 0.031064684892937622 -0.0054882530290780067 0 0.030756381618823669 -0.0092732812749679473 0 -0.0050032298927157708 -0.014884534153285655 0 -0.0031487223200983004 -0.015566231514881321 0 -0.0023856156448120139 -0.013825634767140301 0 -0.0050032298927157708 -0.014884534153285655 0 -0.0031487223200983004 -0.015566231514881321 0 -0.0035463024283785747 -0.017424642007090072 0 -0.0031487223200983004 -0.015566231514881321 0 -0.0035463024283785747 -0.017424642007090072 0 -0.0017108521457125147 -0.01608838181327946 0 -0.0035463024283785747 -0.017424642007090072 0 -0.0017853164812390372 -0.017992055241736242 0 -0.0017108521457125147 -0.01608838181327946 0 -0.0017108521457125147 -0.01608838181327946 0 -0.0023856156448120139 -0.013825634767140301 0 0.00032263595688666749 -0.01499896250929612 0 -0.0031487223200983004 -0.015566231514881321 0 -0.0017108521457125147 -0.01608838181327946 0 -0.0023856156448120139 -0.013825634767140301 0 -0.0014501812816706369 -0.01168281307908247 0 -0.00044058372662701076 -0.010444380505811587 0 -0.0027728866388289988 -0.01092207309368997 0 0.00029753411202360384 -0.01163974416245178 0 -0.00057813669244695669 -0.0090603711151968202 0 -0.0023856156448120139 -0.013825634767140301 0 -0.0027728866388289988 -0.01092207309368997 0 0.00029753411202360384 -0.01163974416245178 0 -0.0027728866388289988 -0.01092207309368997 0 -0.0043350527774676014 -0.012676298741560441 0 -0.0047468979452694989 -0.011064878516725999 0 -0.0027728866388289988 -0.01092207309368997 0 -0.0047468979452694989 -0.011064878516725999 0 -0.0042402568039630476 -0.0096463453402607334 0 -0.0050032298927157708 -0.014884534153285655 0 -0.0023856156448120139 -0.013825634767140301 0 -0.0043350527774676014 -0.012676298741560441 0 -0.0023856156448120139 -0.013825634767140301 0 -0.0027728866388289988 -0.01092207309368997 0 -0.0043350527774676014 -0.012676298741560441 0 0.058602770496101374 -0.00069458842340234042 0 0.057650312629073157 0.0012583068847318573 0 0.05731501935819814 0.00025114232468564522 0 0.031064684892937622 -0.0054882530290780067 0 0.034061699960032457 -0.0009229817242762964 0 -0.0050032298927157708 -0.014884534153285655 0 -0.0043350527774676014 -0.012676298741560441 0 -0.0065379442786907332 -0.012088681510659104 0 -0.0047468979452694989 -0.011064878516725999 0 -0.0065379442786907332 -0.012088681510659104 0 -0.0057584819700643242 -0.010036513359745329 0 -0.0043350527774676014 -0.012676298741560441 0 -0.0047468979452694989 -0.011064878516725999 0 -0.0065379442786907332 -0.012088681510659104 0 0.055972079579909191 0.0033700647545791477 0 0.05663480714247985 0.0023144828690839204 0 0.05651893658950978 0.0011053697756098608 0 0.034061699960032457 -0.0009229817242762964 0 0.04228702194678402 0.0053858632417904014 0 0.057650312629073157 0.0012583068847318573 0 0.05663480714247985 0.0023144828690839204 0 0.056391514717423097 0.0035351995870446457 0 -0.0065379442786907332 -0.012088681510659104 0 -0.0080073110243152577 -0.0092602701591091921 0 -0.0057584819700643242 -0.010036513359745329 0 0.057650312629073157 0.0012583068847318573 0 0.05663480714247985 0.0023144828690839204 0 0.05651893658950978 0.0011053697756098608 0 0.094908310088639411 0.012867072992827867 0 0.095744831444829162 0.012262260286706107 0 0.09551017411950781 0.013574542987897075 0 0.057121724177557211 -0.00094964279332689159 0 0.05651893658950978 0.0011053697756098608 0 0.05731501935819814 0.00025114232468564522 0 0.06978302362966371 0.002515471599301042 0 0.062802351941344578 0.0051498687647935906 0 0.057650312629073157 0.0012583068847318573 0 0.05651893658950978 0.0011053697756098608 0 0.05731501935819814 0.00025114232468564522 0 0.06978302362966371 0.002515471599301042 0 0.068758995530793787 0.0014874086675508813 0 0.0028001500703822191 -0.017112062224539076 0 0.00032263595688666749 -0.01499896250929612 0 0.0035438696415010787 -0.014126308367779655 0 0.0054723289404456713 -0.016484041517589421 0 0.0057158161632056724 -0.014243889679072759 0 0.0035438696415010787 -0.014126308367779655 0 0.0054723289404456713 -0.016484041517589421 0 0.0028001500703822191 -0.017112062224539076 0 0.0035438696415010787 -0.014126308367779655 0 0.0054723289404456713 -0.016484041517589421 0 0.0047552130599970684 -0.019063632137675368 0 0.0028001500703822191 -0.017112062224539076 0 0.00049755324996617869 -0.0184089930116744 0 0.0028001500703822191 -0.017112062224539076 0 0.00032263595688666749 -0.01499896250929612 0 0.00049755324996617869 -0.0184089930116744 0 -0.0017108521457125147 -0.01608838181327946 0 0.00032263595688666749 -0.01499896250929612 0 0.00049755324996617869 -0.0184089930116744 0 -0.0017853164812390372 -0.017992055241736242 0 -0.0017108521457125147 -0.01608838181327946 0 0.00032263595688666749 -0.01499896250929612 0 0.0016272045707874719 -0.012526209217285823 0 0.0035438696415010787 -0.014126308367779655 0 -0.0023856156448120139 -0.013825634767140301 0 0.00032263595688666749 -0.01499896250929612 0 -0.00062913536786067309 -0.012071302304956408 0 0.00032263595688666749 -0.01499896250929612 0 -0.00062913536786067309 -0.012071302304956408 0 0.0016272045707874719 -0.012526209217285823 0 -0.00044058372662701076 -0.010444380505811587 0 0.0015796130589998414 -0.0074329609227848804 0 -0.00062913536786067309 -0.012071302304956408 0 0.0016272045707874719 -0.012526209217285823 0 0.0013604201890401984 -0.010104553873327107 0 0.0016272045707874719 -0.012526209217285823 0 0.0035780918562832859 -0.011282746569339768 0 0.0013604201890401984 -0.010104553873327107 0 0.0016272045707874719 -0.012526209217285823 0 0.0035780918562832859 -0.011282746569339768 0 0.0035438696415010787 -0.014126308367779655 0 0.005626986306027845 -0.012617975320937469 0 0.0035780918562832859 -0.011282746569339768 0 0.0035438696415010787 -0.014126308367779655 0 0.0057158161632056724 -0.014243889679072759 0 0.005626986306027845 -0.012617975320937469 0 0.0035438696415010787 -0.014126308367779655 0 0.005626986306027845 -0.012617975320937469 0 0.0035780918562832859 -0.011282746569339768 0 0.0059864622086402367 -0.010101154060705919 0 0.0035780918562832859 -0.011282746569339768 0 0.0034245078005661709 -0.0082332840080771921 0 0.0059864622086402367 -0.010101154060705919 0 0.0053738560642935945 -0.001348829771949542 0 0.0072246032974114622 -0.0047907036819796953 0 0.0030439798187081955 0.0020823447365429346 0 0.0026785559184517769 0.0017627835982102179 0 0.0065260647383447125 -0.0013146586106180143 0 0.0052029648069890954 0.0026861749570663575 0 0.0030439798187081955 0.0020823447365429346 0 0.0065260647383447125 -0.0013146586106180143 0 0.0052029648069890954 0.0026861749570663575 0 0.0030439798187081955 0.0020823447365429346 0 0.0035031798116721617 0.0030872514270028385 0 0.0025756536342339425 0.002740999362068433 0 0.0026965005603392313 0.0017825101732178875 0 0.0015375400535982235 0.0035035885240290981 0 0.0029481007257623807 0.0028814479676555096 0 0.0030439798187081955 0.0020823447365429346 0 0.0035031798116721617 0.0030872514270028385 0 0.0025756536342339425 0.002740999362068433 0 0.0029481007257623807 0.0028814479676555096 0 0.0030439798187081955 0.0020823447365429346 0 0.0025756536342339425 0.002740999362068433 0 0.0030439798187081955 0.0020823447365429346 0 0.0026965005603392313 0.0017825101732178875 0 0.0053682530358931764 -0.0013353105933628072 0 0.0053738560642935945 -0.001348829771949542 0 0.0035780918562832859 -0.011282746569339768 0 0.0034245078005661709 -0.0082332840080771921 0 0.0013604201890401984 -0.010104553873327107 0 0.0053738560642935945 -0.001348829771949542 0 0.0015796130589998414 -0.0074329609227848804 0 0.0028312501443400876 -0.0094446092030971707 0 0.001114132963865731 -0.0073801027792255456 0 -0.00057813669244695669 -0.0090603711151968202 0 0.00029753411202360384 -0.01163974416245178 0 0.0028312501443400876 -0.0094446092030971707 0 -0.00057813669244695669 -0.0090603711151968202 0 0.001114132963865731 -0.0073801027792255456 0 0.0023588404715175026 -0.0049607887248768303 0 -0.0012513536679930313 -0.0064207059183025101 0 0.001114132963865731 -0.0073801027792255456 0 -0.00057813669244695669 -0.0090603711151968202 0 -0.0012513536679930313 -0.0064207059183025101 0 0.001114132963865731 -0.0073801027792255456 0 0.0028354833029845317 -0.0072308143316533848 0 0.0023588404715175026 -0.0049607887248768303 0 0.0053460601598126324 -0.0072423539188866482 0 0.0028312501443400876 -0.0094446092030971707 0 0.0028354833029845317 -0.0072308143316533848 0 0.0053460601598126324 -0.0072423539188866482 0 0.0028354833029845317 -0.0072308143316533848 0 0.0023588404715175026 -0.0049607887248768303 0 0.0028312501443400876 -0.0094446092030971707 0 0.001114132963865731 -0.0073801027792255456 0 0.0028354833029845317 -0.0072308143316533848 0 0.00741402003348632 0.010463686018422704 0 0.0086435371740172691 0.013891413689631841 0 -0.00091756595134348886 0.0046006361881426533 0 0.0015375400535982235 0.0035035885240290981 0 0.0016011269104995408 0.0055848696342306993 0 0.015520474918047292 0.026760872895019633 0 0.015711381347275597 0.026655459833250298 0 0.015868987861308862 0.026758310071325828 0 0.015520474918047292 0.026760872895019633 0 0.015894436576432382 0.026936827787582589 0 0.015868987861308862 0.026758310071325828 0 0.00741402003348632 0.010463686018422704 0 0.0088468251047949652 0.008603694024676348 0 0.00741402003348632 0.010463686018422704 0 0.007644310404377865 0.012575272779766724 0 0.015711381347275597 0.026655459833250298 0 0.015695906291548899 0.026609908783932216 0 0.015730821872420853 0.026606089637787284 0 0.015688860730810324 0.026619604548325865 0 0.015711381347275597 0.026655459833250298 0 0.015695906291548899 0.026609908783932216 0 0.015688860730810324 0.026619604548325865 0 0.015695906291548899 0.026609908783932216 0 0.015676215416718764 0.02660171326958247 0 0.015695906291548899 0.026609908783932216 0 0.015676215416718764 0.02660171326958247 0 0.015684548259854474 0.026557176646690734 0 0.01563444724068104 0.026575439928466376 0 0.015676215416718764 0.02660171326958247 0 0.015684548259854474 0.026557176646690734 0 0.0092537039693779306 0.016562311286025571 0 0.0086435371740172691 0.013891413689631841 0 0.0092537039693779306 0.016562311286025571 0 0.0094039799747069625 0.017994434941278756 0 0.015538660027397093 0.026540873705565786 0 0.0155621134626313 0.026435666671438641 0 0.015128245381318966 0.026144147129214323 0 0.0092537039693779306 0.016562311286025571 0 0.010784974869512114 0.019493286372375782 0 0.0052029648069890954 0.0026861749570663575 0 0.0036791832988928648 0.004324343109734897 0 0.007436154417369582 0.0030319524381952501 0 0.0041496004861451274 0.0066051692271083245 0 0.0036791832988928648 0.004324343109734897 0 0.007436154417369582 0.0030319524381952501 0 0.0092537039693779306 0.016562311286025571 0 0.0089202722391468064 0.0087005351895883855 0 0.0052029648069890954 0.0026861749570663575 0 0.0036791832988928648 0.004324343109734897 0 0.0035031798116721617 0.0030872514270028385 0 0.0036791832988928648 0.004324343109734897 0 0.0035031798116721617 0.0030872514270028385 0 0.0026686636237336953 0.003613158916228367 0 0.0053738560642935945 -0.001348829771949542 0 0.00741402003348632 0.010463686018422704 0 0.0026965005603392313 0.0017825101732178875 0 -0.00091756595134348886 0.0046006361881426533 0 0.0015375400535982235 0.0035035885240290981 0 0.0029481007257623807 0.0028814479676555096 0 0.0035031798116721617 0.0030872514270028385 0 0.0026686636237336953 0.003613158916228367 0 0.0025756536342339425 0.002740999362068433 0 0.0029481007257623807 0.0028814479676555096 0 0.0026686636237336953 0.003613158916228367 0 0.0025756536342339425 0.002740999362068433 0 0.0026686636237336953 0.003613158916228367 0 0.0015375400535982235 0.0035035885240290981 0 0.0026686636237336953 0.003613158916228367 0 0.0015375400535982235 0.0035035885240290981 0 0.0016011269104995408 0.0055848696342306993 0 0.0041496004861451274 0.0066051692271083245 0 0.0036791832988928648 0.004324343109734897 0 0.0016011269104995408 0.0055848696342306993 0 0.0036791832988928648 0.004324343109734897 0 0.0026686636237336953 0.003613158916228367 0 0.0016011269104995408 0.0055848696342306993 0 0.016853583699805767 0.02691717694594566 0 0.016702513320621209 0.026932218965994452 0 0.016587095087126622 0.027118146303189306 0 0.041151153782037375 0.01455997885873841 0 0.028148448501183403 0.0074420859162742676 0 0.016591950868377482 0.026933375565554793 0 0.016587095087126622 0.027118146303189306 0 0.016425267710666807 0.026935820929962401 0 0.016702513320621209 0.026932218965994452 0 0.016591950868377482 0.026933375565554793 0 0.016679993623752897 0.026846984487307726 0 0.016702513320621209 0.026932218965994452 0 0.016591950868377482 0.026933375565554793 0 0.016587095087126622 0.027118146303189306 0 0.038368460289416394 0.008131317654435085 0 0.039414698994351738 0.006254190026783373 0 0.041028054801467526 0.0068840621790745554 0 -0.0080073110243152577 -0.0092602701591091921 0 -0.0067338144160177917 -0.0087580067576085337 0 -0.0057584819700643242 -0.010036513359745329 0 0.04228702194678402 0.0053858632417904014 0 0.028148448501183403 0.0074420859162742676 0 0.055972079579909191 0.0033700647545791477 0 0.05663480714247985 0.0023144828690839204 0 0.056391514717423097 0.0035351995870446457 0 -0.0057584819700643242 -0.010036513359745329 0 -0.0047356559389470729 -0.0079079192080415573 0 -0.0042402568039630476 -0.0096463453402607334 0 -0.0067338144160177917 -0.0087580067576085337 0 -0.0057584819700643242 -0.010036513359745329 0 -0.0047356559389470729 -0.0079079192080415573 0 -0.0047468979452694989 -0.011064878516725999 0 -0.0057584819700643242 -0.010036513359745329 0 -0.0042402568039630476 -0.0096463453402607334 0 0.028148448501183403 0.0074420859162742676 0 0.014555494770817039 0.0066888400924168777 0 0.016329350673564738 0.027060087147066009 0 0.016425267710666807 0.026935820929962401 0 0.016217127158411938 0.026831977257811151 0 0.016587095087126622 0.027118146303189306 0 0.016329350673564738 0.027060087147066009 0 0.016425267710666807 0.026935820929962401 0 0.014555494770817039 0.0066888400924168777 0 0.0088468251047949652 0.008603694024676348 0 -0.0047356559389470729 -0.0079079192080415573 0 -0.0027352621390356576 -0.0087811339233098591 0 -0.0012513536679930313 -0.0064207059183025101 0 0.016329350673564738 0.027060087147066009 0 0.015894436576432382 0.026936827787582589 0 0.016217127158411938 0.026831977257811151 0 -0.0047356559389470729 -0.0079079192080415573 0 -0.0027352621390356576 -0.0087811339233098591 0 -0.0042402568039630476 -0.0096463453402607334 0 -0.0027728866388289988 -0.01092207309368997 0 -0.0027352621390356576 -0.0087811339233098591 0 -0.0042402568039630476 -0.0096463453402607334 0 -0.0027728866388289988 -0.01092207309368997 0 -0.0027352621390356576 -0.0087811339233098591 0 -0.00057813669244695669 -0.0090603711151968202 0 -0.0027352621390356576 -0.0087811339233098591 0 -0.00057813669244695669 -0.0090603711151968202 0 -0.0012513536679930313 -0.0064207059183025101 0 0.015868987861308862 0.026758310071325828 0 0.015963267667826755 0.026669256483743665 0 0.016217127158411938 0.026831977257811151 0 0.015894436576432382 0.026936827787582589 0 0.015868987861308862 0.026758310071325828 0 0.016217127158411938 0.026831977257811151 0 0.015711381347275597 0.026655459833250298 0 0.015868987861308862 0.026758310071325828 0 0.015963267667826755 0.026669256483743665 0 0.015711381347275597 0.026655459833250298 0 0.015963267667826755 0.026669256483743665 0 0.015730821872420853 0.026606089637787284 0 0.015963267667826755 0.026669256483743665 0 0.016251279257627208 0.026683516047802336 0 0.016217127158411938 0.026831977257811151 0 0.015963267667826755 0.026669256483743665 0 0.016070921686883222 0.026584371748367645 0 0.015885121912523784 0.026580683801410328 0 0.015963267667826755 0.026669256483743665 0 0.016251279257627208 0.026683516047802336 0 0.016070921686883222 0.026584371748367645 0 0.016251279257627208 0.026683516047802336 0 0.01636371416348411 0.026507663625743749 0 0.016070921686883222 0.026584371748367645 0 0.016425267710666807 0.026935820929962401 0 0.016217127158411938 0.026831977257811151 0 0.016387795406208654 0.026774489849497051 0 0.016425267710666807 0.026935820929962401 0 0.016387795406208654 0.026774489849497051 0 0.01654097961705106 0.026824793559980013 0 0.016591950868377482 0.026933375565554793 0 0.016425267710666807 0.026935820929962401 0 0.01654097961705106 0.026824793559980013 0 0.016387795406208654 0.026774489849497051 0 0.016482359081412885 0.026668409542357444 0 0.01654097961705106 0.026824793559980013 0 0.016251279257627208 0.026683516047802336 0 0.016217127158411938 0.026831977257811151 0 0.016387795406208654 0.026774489849497051 0 0.016251279257627208 0.026683516047802336 0 0.016387795406208654 0.026774489849497051 0 0.016482359081412885 0.026668409542357444 0 0.016251279257627208 0.026683516047802336 0 0.016482359081412885 0.026668409542357444 0 0.01636371416348411 0.026507663625743749 0 0.016482359081412885 0.026668409542357444 0 0.016617219808730991 0.02663817143174824 0 0.016536520212386024 0.02649484452277347 0 0.016482359081412885 0.026668409542357444 0 0.016617219808730991 0.02663817143174824 0 0.01664347524366655 0.02674739858643457 0 0.016730117104033944 0.026676218561441305 0 0.016617219808730991 0.02663817143174824 0 0.016679712753863603 0.026567574612219095 0 0.016730117104033944 0.026676218561441305 0 0.016617219808730991 0.02663817143174824 0 0.01664347524366655 0.02674739858643457 0 0.016763270570946599 0.02676141491037275 0 0.016730117104033944 0.026676218561441305 0 0.01664347524366655 0.02674739858643457 0 0.016763270570946599 0.02676141491037275 0 0.01664347524366655 0.02674739858643457 0 0.016679993623752897 0.026846984487307726 0 0.016482359081412885 0.026668409542357444 0 0.01664347524366655 0.02674739858643457 0 0.01654097961705106 0.026824793559980013 0 0.01664347524366655 0.02674739858643457 0 0.01654097961705106 0.026824793559980013 0 0.016679993623752897 0.026846984487307726 0 0.016591950868377482 0.026933375565554793 0 0.01654097961705106 0.026824793559980013 0 0.016679993623752897 0.026846984487307726 0 0.016781615672417333 0.026844849994742615 0 0.016702513320621209 0.026932218965994452 0 0.016679993623752897 0.026846984487307726 0 0.016618781877102046 0.02643167732118663 0 0.016536520212386024 0.02649484452277347 0 0.01655003676899508 0.026373047937976114 0 0.016680416910727611 0.026416756713281336 0 0.016618781877102046 0.02643167732118663 0 0.016557295061875296 0.026325206062137455 0 0.016618781877102046 0.02643167732118663 0 0.01655003676899508 0.026373047937976114 0 0.016557295061875296 0.026325206062137455 0 0.016618781877102046 0.02643167732118663 0 0.016679712753863603 0.026567574612219095 0 0.016536520212386024 0.02649484452277347 0 0.016617219808730991 0.02663817143174824 0 0.016679712753863603 0.026567574612219095 0 0.016536520212386024 0.02649484452277347 0 0.016482359081412885 0.026668409542357444 0 0.016536520212386024 0.02649484452277347 0 0.01636371416348411 0.026507663625743749 0 0.016536520212386024 0.02649484452277347 0 0.01636371416348411 0.026507663625743749 0 0.016483159605908904 0.026407157689611768 0 0.01655003676899508 0.026373047937976114 0 0.016483159605908904 0.026407157689611768 0 0.016682568774032985 0.026349641728100205 0 0.016536520212386024 0.02649484452277347 0 0.01655003676899508 0.026373047937976114 0 0.016483159605908904 0.026407157689611768 0 0.017782820112806567 0.029050091384968842 0 0.017607660599479859 0.028918988044720591 0 0.017830282689308447 0.028773586280380938 0 0.016759201921194601 0.027206290735512582 0 0.017050665433642101 0.027594892153427378 0 0.016483159605908904 0.026407157689611768 0 0.016447252773247125 0.026419050903541144 0 0.016682568774032985 0.026349641728100205 0 0.01636371416348411 0.026507663625743749 0 0.016483159605908904 0.026407157689611768 0 0.016447252773247125 0.026419050903541144 0 0.016616335025910162 0.027057392766654653 0 0.016759201921194601 0.027206290735512582 0 0.01636371416348411 0.026507663625743749 0 0.016070921686883222 0.026584371748367645 0 0.015971719840335876 0.026461540074284681 0 0.016070921686883222 0.026584371748367645 0 0.015971719840335876 0.026461540074284681 0 0.015885121912523784 0.026580683801410328 0 0.015963267667826755 0.026669256483743665 0 0.015885121912523784 0.026580683801410328 0 0.015730821872420853 0.026606089637787284 0 0.015971719840335876 0.026461540074284681 0 0.015885121912523784 0.026580683801410328 0 0.015782799726429448 0.026568477253124764 0 0.015885121912523784 0.026580683801410328 0 0.015782799726429448 0.026568477253124764 0 0.015730821872420853 0.026606089637787284 0 0.016759201921194601 0.027206290735512582 0 0.016785648616721695 0.027607352113418016 0 0.015782799726429448 0.026568477253124764 0 0.015625504917289302 0.02666851653069615 0 0.015683959737019287 0.026627674597862583 0 0.015971719840335876 0.026461540074284681 0 0.015782799726429448 0.026568477253124764 0 0.015625504917289302 0.02666851653069615 0 0.017607660599479859 0.028918988044720591 0 0.017706643492963976 0.028686737895632565 0 0.017830282689308447 0.028773586280380938 0 0.017706643492963976 0.028686737895632565 0 0.017793477026136973 0.028587160006535051 0 0.017732326885586337 0.028521683354670237 0 0.017050665433642101 0.027594892153427378 0 0.01725081009771965 0.027864730308888832 0 0.017706643492963976 0.028686737895632565 0 0.017830282689308447 0.028773586280380938 0 0.017793477026136973 0.028587160006535051 0 0.01655003676899508 0.026373047937976114 0 0.016682568774032985 0.026349641728100205 0 0.016557295061875296 0.026325206062137455 0 0.016682568774032985 0.026349641728100205 0 0.016557295061875296 0.026325206062137455 0 0.017034792260712642 0.026466153721922271 0 0.016557295061875296 0.026325206062137455 0 0.016202754534632862 0.026432266659860929 0 0.017034792260712642 0.026466153721922271 0 0.016566372814183532 0.026448080494828257 0 0.016557295061875296 0.026325206062137455 0 0.016202754534632862 0.026432266659860929 0 0.015797551421797097 0.02668536275483108 0 0.016046924643586934 0.027181198430706478 0 0.015827824479210752 0.026845358502303934 0 0.015797551421797097 0.02668536275483108 0 0.0155621134626313 0.026435666671438641 0 0.015827824479210752 0.026845358502303934 0 0.0155621134626313 0.026435666671438641 0 0.015827824479210752 0.026845358502303934 0 0.015234771238384711 0.026229825834009575 0 0.015538660027397093 0.026540873705565786 0 0.0155621134626313 0.026435666671438641 0 0.015684548259854474 0.026557176646690734 0 0.015797551421797097 0.02668536275483108 0 0.015684548259854474 0.026557176646690734 0 0.015710864055184529 0.02660062046906711 0 0.015797551421797097 0.02668536275483108 0 0.0155621134626313 0.026435666671438641 0 0.015684548259854474 0.026557176646690734 0 0.015797551421797097 0.02668536275483108 0 0.015710864055184529 0.02660062046906711 0 0.015692614698305747 0.026623725595879933 0 0.015695906291548899 0.026609908783932216 0 0.015684548259854474 0.026557176646690734 0 0.015710864055184529 0.02660062046906711 0 0.015695906291548899 0.026609908783932216 0 0.015710864055184529 0.02660062046906711 0 0.015692614698305747 0.026623725595879933 0 0.015695906291548899 0.026609908783932216 0 0.015692614698305747 0.026623725595879933 0 0.015730821872420853 0.026606089637787284 0 0.015692614698305747 0.026623725595879933 0 0.015730821872420853 0.026606089637787284 0 0.015683959737019287 0.026627674597862583 0 0.015782799726429448 0.026568477253124764 0 0.015730821872420853 0.026606089637787284 0 0.015683959737019287 0.026627674597862583 0 0.015625504917289302 0.02666851653069615 0 0.015683959737019287 0.026627674597862583 0 0.015678951530769113 0.026776251401422334 0 0.015692614698305747 0.026623725595879933 0 0.015683959737019287 0.026627674597862583 0 0.015678951530769113 0.026776251401422334 0 0.015797551421797097 0.02668536275483108 0 0.015678951530769113 0.026776251401422334 0 0.016046924643586934 0.027181198430706478 0 0.015797551421797097 0.02668536275483108 0 0.015692614698305747 0.026623725595879933 0 0.015678951530769113 0.026776251401422334 0 0.015583073232838892 0.027156583957097895 0 0.016406028817422782 0.028096283902904598 0 0.016046924643586934 0.027181198430706478 0 0.015678951530769113 0.026776251401422334 0 0.015583073232838892 0.027156583957097895 0 0.016046924643586934 0.027181198430706478 0 0.015625504917289302 0.02666851653069615 0 0.015678951530769113 0.026776251401422334 0 0.015583073232838892 0.027156583957097895 0 0.016785648616721695 0.027607352113418016 0 0.016693811468369651 0.027772282363169292 0 0.017607660599479859 0.028918988044720591 0 0.017706643492963976 0.028686737895632565 0 0.017321854822798535 0.02876746217249641 0 0.017706643492963976 0.028686737895632565 0 0.017321854822798535 0.02876746217249641 0 0.017732326885586337 0.028521683354670237 0 0.017321854822798535 0.02876746217249641 0 0.017732326885586337 0.028521683354670237 0 0.017263582426459582 0.02831431699080569 0 0.016693811468369651 0.027772282363169292 0 0.01665424413178104 0.027826873027242134 0 0.017321854822798535 0.02876746217249641 0 0.016406028817422782 0.028096283902904598 0 0.017263582426459582 0.02831431699080569 0 0.016406028817422782 0.028096283902904598 0 0.016046924643586934 0.027181198430706478 0 0.016180263602477884 0.027662382115256994 0 0.016046924643586934 0.027181198430706478 0 0.015827824479210752 0.026845358502303934 0 0.016180263602477884 0.027662382115256994 0 0.015827824479210752 0.026845358502303934 0 0.016180263602477884 0.027662382115256994 0 0.015898503974549987 0.027110907212267932 0 0.016180263602477884 0.027662382115256994 0 0.01624729894479612 0.027591329242660462 0 0.015898503974549987 0.027110907212267932 0 0.01624729894479612 0.027591329242660462 0 0.016001438104474935 0.027092704183421665 0 0.015898503974549987 0.027110907212267932 0 0.0163443727167411 0.027365332260770713 0 0.016532508259211539 0.027579247364441065 0 0.01624729894479612 0.027591329242660462 0 0.016001438104474935 0.027092704183421665 0 0.016826750691634883 0.02764421746759552 0 0.016001438104474935 0.027092704183421665 0 0.015234771238384711 0.026229825834009575 0 0.015595968710659429 0.026589717368408296 0 0.016001438104474935 0.027092704183421665 0 0.016125232145838338 0.026897286156903854 0 0.015595968710659429 0.026589717368408296 0 0.016001438104474935 0.027092704183421665 0 0.015898503974549987 0.027110907212267932 0 0.015234771238384711 0.026229825834009575 0 0.015827824479210752 0.026845358502303934 0 0.015898503974549987 0.027110907212267932 0 0.015234771238384711 0.026229825834009575 0 0.016322068657953513 0.027097474403412626 0 0.016708454140853847 0.02725565895044205 0 0.016547962996299556 0.0275014613887514 0 0.016322068657953513 0.027097474403412626 0 0.016547962996299556 0.0275014613887514 0 0.016234927901197623 0.027405992613782789 0 0.016001438104474935 0.027092704183421665 0 0.016322068657953513 0.027097474403412626 0 0.016234927901197623 0.027405992613782789 0 0.016001438104474935 0.027092704183421665 0 0.016125232145838338 0.026897286156903854 0 0.016322068657953513 0.027097474403412626 0 0.016125232145838338 0.026897286156903854 0 0.016322068657953513 0.027097474403412626 0 0.016349909345008743 0.026884091588675465 0 0.016322068657953513 0.027097474403412626 0 0.016520644325901002 0.026806601565754717 0 0.016708454140853847 0.02725565895044205 0 0.013989317944099067 0.016512303837185785 0 0.0141028944565951 0.020211250407137518 0 0.016322068657953513 0.027097474403412626 0 0.016349909345008743 0.026884091588675465 0 0.016520644325901002 0.026806601565754717 0 0.013781045763778125 0.015204887982412421 0 0.01453555778411055 0.016167113447111685 0 0.013989317944099067 0.016512303837185785 0 0.01453555778411055 0.016167113447111685 0 0.013441771875171754 0.016420638162223757 0 0.013317587191894371 0.015848226519971923 0 0.014370934381471219 0.016092859867155928 0 0.016349909345008743 0.026884091588675465 0 0.016520644325901002 0.026806601565754717 0 0.016249601384609961 0.026828584300475276 0 0.013781045763778125 0.015204887982412421 0 0.013989317944099067 0.016512303837185785 0 0.0046877988274388344 0.012183440974026162 0 0.0050884741083395578 0.014288181607526254 0 0.0066069945493746462 0.012623527858590548 0 0.020931613624203298 0.026244037987937056 0 0.016249601384609961 0.026828584300475276 0 0.016649083133886213 0.024986636504489894 0 0.016125232145838338 0.026897286156903854 0 0.016349909345008743 0.026884091588675465 0 0.016249601384609961 0.026828584300475276 0 0.016125232145838338 0.026897286156903854 0 0.016249601384609961 0.026828584300475276 0 0.015595968710659429 0.026589717368408296 0 0.016249601384609961 0.026828584300475276 0 0.016649083133886213 0.024986636504489894 0 0.015141662282060537 0.025997166786135228 0 0.016249601384609961 0.026828584300475276 0 0.015595968710659429 0.026589717368408296 0 0.015141662282060537 0.025997166786135228 0 0.016649083133886213 0.024986636504489894 0 0.015579680335805398 0.01955016140873576 0 0.020532938056770443 0.020529123194170204 0 0.016649083133886213 0.024986636504489894 0 0.013794272903188054 0.024593566516582302 0 0.015579680335805398 0.01955016140873576 0 0.016649083133886213 0.024986636504489894 0 0.015141662282060537 0.025997166786135228 0 0.013794272903188054 0.024593566516582302 0 0.020931613624203298 0.026244037987937056 0 0.016649083133886213 0.024986636504489894 0 0.020532938056770443 0.020529123194170204 0 0.015056665992986202 0.0072166788608651359 0 0.01467512091004706 0.0054879387670245632 0 0.015945284193523972 0.0057843033718057296 0 0.013781045763778125 0.015204887982412421 0 0.015387121042425454 0.012284988060267756 0 0.015234771238384711 0.026229825834009575 0 0.015595968710659429 0.026589717368408296 0 0.015141662282060537 0.025997166786135228 0 0.015234771238384711 0.026229825834009575 0 0.015141662282060537 0.025997166786135228 0 0.013794272903188054 0.024593566516582302 0 0.012074371367154436 0.020647855051414671 0 0.010784974869512114 0.019493286372375782 0 0.015234771238384711 0.026229825834009575 0 0.013794272903188054 0.024593566516582302 0 0.015128245381318966 0.026144147129214323 0 0.0155621134626313 0.026435666671438641 0 0.015234771238384711 0.026229825834009575 0 0.015128245381318966 0.026144147129214323 0 0.0038983042967925328 0.021097306903370548 0 0.010018965683066192 0.016272356098079355 0 0.0040832573096026559 0.0086674629749100562 0 -0.004311355162672976 0.017869387941621517 0 0.0038983042967925328 0.021097306903370548 0 0.0040832573096026559 0.0086674629749100562 0 0.0098220207140156772 0.010582333990008783 0 0.010018965683066192 0.016272356098079355 0 0.0040832573096026559 0.0086674629749100562 0 0.0098220207140156772 0.010582333990008783 0 0.013522633796757218 0.013529115311522883 0 0.013346001370568546 0.0090440435758407187 0 0.0098220207140156772 0.010582333990008783 0 0.010018965683066192 0.016272356098079355 0 0.013522633796757218 0.013529115311522883 0 0.010018965683066192 0.016272356098079355 0 0.015579680335805398 0.01955016140873576 0 0.013522633796757218 0.013529115311522883 0 0.013794272903188054 0.024593566516582302 0 0.0038983042967925328 0.021097306903370548 0 0.010018965683066192 0.016272356098079355 0 0.013794272903188054 0.024593566516582302 0 0.010018965683066192 0.016272356098079355 0 0.015579680335805398 0.01955016140873576 0 0.015579680335805398 0.01955016140873576 0 0.020532938056770443 0.020529123194170204 0 0.01750823099856548 0.01452475051558778 0 0.015579680335805398 0.01955016140873576 0 0.013522633796757218 0.013529115311522883 0 0.01750823099856548 0.01452475051558778 0 0.01467512091004706 0.0054879387670245632 0 0.01508185156374932 0.0042889421479336051 0 0.014269508244512785 0.0037370594782979538 0 0.020532938056770443 0.020529123194170204 0 0.019245469562655947 0.012419450212394453 0 0.01750823099856548 0.01452475051558778 0 0.01467512091004706 0.0054879387670245632 0 0.01593616213643138 0.0044360115532547286 0 0.015945284193523972 0.0057843033718057296 0 0.015387121042425454 0.012284988060267756 0 0.015994140882945474 0.008177639215854687 0 0.01467512091004706 0.0054879387670245632 0 0.01508185156374932 0.0042889421479336051 0 0.01593616213643138 0.0044360115532547286 0 0.014269508244512785 0.0037370594782979538 0 0.015451080070322518 0.0034834307566304181 0 0.015521096921001672 0.0021174232134328883 0 0.01508185156374932 0.0042889421479336051 0 0.015451080070322518 0.0034834307566304181 0 0.01593616213643138 0.0044360115532547286 0 0.01508185156374932 0.0042889421479336051 0 0.014269508244512785 0.0037370594782979538 0 0.015451080070322518 0.0034834307566304181 0 0.01910406809275594 0.011954118553570573 0 0.015824193796712429 0.010730149379372543 0 0.015544805878469512 0.0049656336769201437 0 0.013522633796757218 0.013529115311522883 0 0.01750823099856548 0.01452475051558778 0 0.015824193796712429 0.010730149379372543 0 0.01910406809275594 0.011954118553570573 0 0.01750823099856548 0.01452475051558778 0 0.015824193796712429 0.010730149379372543 0 0.015994140882945474 0.008177639215854687 0 0.015914262575166968 0.0084280363798070572 0 0.013522633796757218 0.013529115311522883 0 0.015824193796712429 0.010730149379372543 0 0.013346001370568546 0.0090440435758407187 0 0.015994140882945474 0.008177639215854687 0 0.015987678308257657 0.007881174167220388 0 0.015544805878469512 0.0049656336769201437 0 0.015291298851156033 0.001658055949665464 0 0.011845864382451403 0.0058366277558002146 0 0.013346001370568546 0.0090440435758407187 0 0.015544805878469512 0.0049656336769201437 0 0.011845864382451403 0.0058366277558002146 0 0.015824193796712429 0.010730149379372543 0 0.013346001370568546 0.0090440435758407187 0 0.015544805878469512 0.0049656336769201437 0 0.015949325260023902 0.0068106101389226199 0 0.015544805878469512 0.0049656336769201437 0 0.017630765058332588 0.0039039207926577662 0 0.015994140882945474 0.008177639215854687 0 0.017228501855790494 0.0044035176271837841 0 0.015544805878469512 0.0049656336769201437 0 0.015291298851156033 0.001658055949665464 0 0.017630765058332588 0.0039039207926577662 0 0.017420353679265217 -0.0031342342425431072 0 0.015972322187502504 -0.0011654638825285338 0 0.016982208186609053 -0.00098303749426215288 0 0.015291298851156033 0.001658055949665464 0 0.017153308788833112 0.0012184073218791162 0 0.015291298851156033 0.001658055949665464 0 0.017153308788833112 0.0012184073218791162 0 0.017630765058332588 0.0039039207926577662 0 0.014619804625759092 -0.0046617549082378293 0 0.015291298851156033 0.001658055949665464 0 0.010943795564648853 0.001459699719502016 0 0.015291298851156033 0.001658055949665464 0 0.010943795564648853 0.001459699719502016 0 0.011845864382451403 0.0058366277558002146 0 0.010543165716080116 -0.0046109431746257932 0 0.010859530960364829 -0.00067079360141418672 0 0.0065260647383447125 -0.0013146586106180143 0 0.010859530960364829 -0.00067079360141418672 0 0.0065260647383447125 -0.0013146586106180143 0 0.007436154417369582 0.0030319524381952501 0 0.0052029648069890954 0.0026861749570663575 0 0.0065260647383447125 -0.0013146586106180143 0 0.007436154417369582 0.0030319524381952501 0 0.010943795564648853 0.001459699719502016 0 0.0040832573096026559 0.0086674629749100562 0 0.011845864382451403 0.0058366277558002146 0 0.0098220207140156772 0.010582333990008783 0 0.0040832573096026559 0.0086674629749100562 0 0.011845864382451403 0.0058366277558002146 0 0.01185078663677268 0.002172246458053357 0 0.0089202722391468064 0.0087005351895883855 0 0.0098220207140156772 0.010582333990008783 0 0.013346001370568546 0.0090440435758407187 0 0.011845864382451403 0.0058366277558002146 0 0.019373719633383742 0.001874776419102135 0 0.018370596579629892 0.0025693167942784315 0 0.01883028979133804 0.0034860567279668391 0 0.019373719633383742 0.001874776419102135 0 0.018753898130724186 0.00090502209277749652 0 0.018370596579629892 0.0025693167942784315 0 0.019373719633383742 0.001874776419102135 0 0.019848150823663677 0.0026365323276692164 0 0.01883028979133804 0.0034860567279668391 0 0.020506024713708545 0.0014459536210060218 0 0.020728515821095972 0.0030304244988693099 0 0.021413482492300587 0.0020828733207526057 0 0.019848150823663677 0.0026365323276692164 0 0.020506024713708545 0.0014459536210060218 0 0.020728515821095972 0.0030304244988693099 0 0.019373719633383742 0.001874776419102135 0 0.019848150823663677 0.0026365323276692164 0 0.020506024713708545 0.0014459536210060218 0 0.020223473322873702 -0.00020108844332362595 0 0.020506024713708545 0.0014459536210060218 0 0.021543498377199842 0.00013989911028119818 0 0.020506024713708545 0.0014459536210060218 0 0.021543498377199842 0.00013989911028119818 0 0.021413482492300587 0.0020828733207526057 0 0.020223473322873702 -0.00020108844332362595 0 0.020506024713708545 0.0014459536210060218 0 0.019628179493898761 0.00079726574915760815 0 0.020223473322873702 -0.00020108844332362595 0 0.019480653771640787 -0.00044765692451633843 0 0.019628179493898761 0.00079726574915760815 0 0.019373719633383742 0.001874776419102135 0 0.020506024713708545 0.0014459536210060218 0 0.019628179493898761 0.00079726574915760815 0 0.019373719633383742 0.001874776419102135 0 0.019628179493898761 0.00079726574915760815 0 0.018753898130724186 0.00090502209277749652 0 0.019480653771640787 -0.00044765692451633843 0 0.018741523341674244 -9.2911533470367225e-05 0 0.018753898130724186 0.00090502209277749652 0 0.019480653771640787 -0.00044765692451633843 0 0.019628179493898761 0.00079726574915760815 0 0.018753898130724186 0.00090502209277749652 0 0.018741523341674244 -9.2911533470367225e-05 0 0.018753898130724186 0.00090502209277749652 0 0.016849562024160637 0.00041679661839809259 0 0.018753898130724186 0.00090502209277749652 0 0.016849562024160637 0.00041679661839809259 0 0.017357573058736229 0.0021299438847692618 0 0.018319365871394822 0.0018529297061620641 0 0.017228501855790494 0.0044035176271837841 0 0.016849562024160637 0.00041679661839809259 0 0.015521096921001672 0.0021174232134328883 0 0.017357573058736229 0.0021299438847692618 0 0.017153308788833112 0.0012184073218791162 0 0.018695113489941951 0.00056064857555945444 0 0.017630765058332588 0.0039039207926577662 0 0.016982208186609053 -0.00098303749426215288 0 0.017153308788833112 0.0012184073218791162 0 0.018695113489941951 0.00056064857555945444 0 0.015521096921001672 0.0021174232134328883 0 0.017357573058736229 0.0021299438847692618 0 0.016418695140208977 0.0031223688156413556 0 0.015451080070322518 0.0034834307566304181 0 0.015521096921001672 0.0021174232134328883 0 0.016418695140208977 0.0031223688156413556 0 0.018370596579629892 0.0025693167942784315 0 0.017357573058736229 0.0021299438847692618 0 0.017408507360572763 0.0037581774078739257 0 0.018753898130724186 0.00090502209277749652 0 0.018370596579629892 0.0025693167942784315 0 0.017357573058736229 0.0021299438847692618 0 0.017357573058736229 0.0021299438847692618 0 0.017408507360572763 0.0037581774078739257 0 0.016418695140208977 0.0031223688156413556 0 0.018370596579629892 0.0025693167942784315 0 0.017408507360572763 0.0037581774078739257 0 0.01883028979133804 0.0034860567279668391 0 0.017408507360572763 0.0037581774078739257 0 0.018224182426938365 0.0046728844711286322 0 0.01883028979133804 0.0034860567279668391 0 0.017408507360572763 0.0037581774078739257 0 0.016418695140208977 0.0031223688156413556 0 0.01593616213643138 0.0044360115532547286 0 0.015451080070322518 0.0034834307566304181 0 0.016418695140208977 0.0031223688156413556 0 0.01593616213643138 0.0044360115532547286 0 0.017408507360572763 0.0037581774078739257 0 0.01593616213643138 0.0044360115532547286 0 0.01714907814864557 0.0052519489894602631 0 0.01593616213643138 0.0044360115532547286 0 0.01714907814864557 0.0052519489894602631 0 0.015945284193523972 0.0057843033718057296 0 0.01714907814864557 0.0052519489894602631 0 0.018224182426938365 0.0046728844711286322 0 0.018569382177734829 0.0058518190263522583 0 0.017408507360572763 0.0037581774078739257 0 0.01714907814864557 0.0052519489894602631 0 0.018224182426938365 0.0046728844711286322 0 0.018224182426938365 0.0046728844711286322 0 0.019227271359704954 0.0049199448008069961 0 0.018569382177734829 0.0058518190263522583 0 0.01883028979133804 0.0034860567279668391 0 0.019762290843446204 0.0036423580589527924 0 0.019227271359704954 0.0049199448008069961 0 0.018224182426938365 0.0046728844711286322 0 0.01883028979133804 0.0034860567279668391 0 0.019227271359704954 0.0049199448008069961 0 0.019848150823663677 0.0026365323276692164 0 0.01883028979133804 0.0034860567279668391 0 0.019762290843446204 0.0036423580589527924 0 0.020728515821095972 0.0030304244988693099 0 0.020667723801414972 0.0039573172438622378 0 0.021682173940645758 0.0034210750853862259 0 0.020728515821095972 0.0030304244988693099 0 0.019762290843446204 0.0036423580589527924 0 0.020667723801414972 0.0039573172438622378 0 0.019848150823663677 0.0026365323276692164 0 0.020728515821095972 0.0030304244988693099 0 0.019762290843446204 0.0036423580589527924 0 0.019762290843446204 0.0036423580589527924 0 0.020667723801414972 0.0039573172438622378 0 0.019227271359704954 0.0049199448008069961 0 0.019227271359704954 0.0049199448008069961 0 0.019977055207556493 0.0056807408979360286 0 0.018569382177734829 0.0058518190263522583 0 0.017904244785485982 0.0084174931876834346 0 0.016433880502361536 0.0093975023621412947 0 0.016999657489506905 0.0015536940325270793 0 0.013736451364863667 0.00082061919263409539 0 0.019227271359704954 0.0049199448008069961 0 0.019977055207556493 0.0056807408979360286 0 0.021710771347559221 0.0047886587442733837 0 0.020667723801414972 0.0039573172438622378 0 0.019227271359704954 0.0049199448008069961 0 0.021741984289432924 0.0048081857287786958 0 0.019977055207556493 0.0056807408979360286 0 0.019360260711424802 0.0083431929624428296 0 0.012901254147417503 0.0082321438653552067 0 0.019977055207556493 0.0056807408979360286 0 0.019360260711424802 0.0083431929624428296 0 0.021855623107416799 0.0073976129393780463 0 0.019360260711424802 0.0083431929624428296 0 0.018027215568131621 0.010668250974523688 0 0.012901254147417503 0.0082321438653552067 0 0.019360260711424802 0.0083431929624428296 0 0.018027215568131621 0.010668250974523688 0 0.022738481208181009 0.0099258012858233786 0 0.018027215568131621 0.010668250974523688 0 0.014580097057034301 0.011265362002344553 0 0.016711304500375702 0.012843557685329981 0 0.012901254147417503 0.0082321438653552067 0 0.014580097057034301 0.011265362002344553 0 0.011676103153216863 0.013787784080281586 0 0.018027215568131621 0.010668250974523688 0 0.012901254147417503 0.0082321438653552067 0 0.014580097057034301 0.011265362002344553 0 0.014580097057034301 0.011265362002344553 0 0.011676103153216863 0.013787784080281586 0 0.016711304500375702 0.012843557685329981 0 0.011676103153216863 0.013787784080281586 0 0.011010869579042095 0.015207847495674975 0 0.01133030710864426 0.014628173199502253 0 0.01279592276790617 0.014084169155349293 0 0.013377895000261717 0.01418224700095775 0 0.011676103153216863 0.013787784080281586 0 0.010492192297919173 0.015157829438084639 0 0.01133030710864426 0.014628173199502253 0 0.011676103153216863 0.013787784080281586 0 0.018930710172702342 0.015648538201644527 0 0.016711304500375702 0.012843557685329981 0 0.018027215568131621 0.010668250974523688 0 0.016711304500375702 0.012843557685329981 0 0.020128679668480164 0.012869997893261723 0 0.018930710172702342 0.015648538201644527 0 0.016711304500375702 0.012843557685329981 0 0.020128679668480164 0.012869997893261723 0 0.013781045763778125 0.015204887982412421 0 0.014371831028479373 0.011710943817193231 0 0.015056665992986202 0.0072166788608651359 0 0.015945284193523972 0.0057843033718057296 0 0.01688440685720671 0.0065285634091058293 0 0.0046877988274388344 0.012183440974026162 0 0.0083060310943103045 0.010681130015703429 0 0.0066069945493746462 0.012623527858590548 0 0.01714907814864557 0.0052519489894602631 0 0.015945284193523972 0.0057843033718057296 0 0.01688440685720671 0.0065285634091058293 0 0.01714907814864557 0.0052519489894602631 0 0.018569382177734829 0.0058518190263522583 0 0.01688440685720671 0.0065285634091058293 0 0.016433880502361536 0.0093975023621412947 0 0.014371831028479373 0.011710943817193231 0 0.012901254147417503 0.0082321438653552067 0 0.011676103153216863 0.013787784080281586 0 0.0083060310943103045 0.010681130015703429 0 0.011676103153216863 0.013787784080281586 0 0.0083354662947425894 0.013411961520464475 0 0.010492192297919173 0.015157829438084639 0 0.011676103153216863 0.013787784080281586 0 0.0083060310943103045 0.010681130015703429 0 0.0083354662947425894 0.013411961520464475 0 0.0050884741083395578 0.014288181607526254 0 0.0083354662947425894 0.013411961520464475 0 0.010492192297919173 0.015157829438084639 0 0.0050884741083395578 0.014288181607526254 0 0.0083354662947425894 0.013411961520464475 0 0.0066069945493746462 0.012623527858590548 0 0.0083060310943103045 0.010681130015703429 0 0.0083354662947425894 0.013411961520464475 0 0.0066069945493746462 0.012623527858590548 0 0.014055319007405009 0.015403161992910846 0 0.013422663913425545 0.014747915194143368 0 0.013732216931723999 0.013891216697169447 0 0.014055319007405009 0.015403161992910846 0 0.013422663913425545 0.014747915194143368 0 0.012569807262177027 0.015033786358656317 0 0.013989317944099067 0.016512303837185785 0 0.011443481818697534 0.015457971067476648 0 0.013422663913425545 0.014747915194143368 0 0.012569807262177027 0.015033786358656317 0 0.012872571949041033 0.014198805281760813 0 0.012569807262177027 0.015033786358656317 0 0.012872571949041033 0.014198805281760813 0 0.012045458346290739 0.014089093871951062 0 0.012872571949041033 0.014198805281760813 0 0.012045458346290739 0.014089093871951062 0 0.012620169210344851 0.013178229831807454 0 0.012872571949041033 0.014198805281760813 0 0.013732216931723999 0.013891216697169447 0 0.012620169210344851 0.013178229831807454 0 0.013422663913425545 0.014747915194143368 0 0.012872571949041033 0.014198805281760813 0 0.013732216931723999 0.013891216697169447 0 0.011247871117063622 0.014791012160389217 0 0.010403399032441311 0.014950452424686735 0 0.010545984734291521 0.014282643265958289 0 0.011010869579042095 0.015207847495674975 0 0.011247871117063622 0.014791012160389217 0 0.010403399032441311 0.014950452424686735 0 0.011010869579042095 0.015207847495674975 0 0.011247871117063622 0.014791012160389217 0 0.01133030710864426 0.014628173199502253 0 0.010492192297919173 0.015157829438084639 0 0.011247871117063622 0.014791012160389217 0 0.01133030710864426 0.014628173199502253 0 0.011443481818697534 0.015457971067476648 0 0.01122844435365543 0.015255990960350367 0 0.012569807262177027 0.015033786358656317 0 0.011247871117063622 0.014791012160389217 0 0.012045458346290739 0.014089093871951062 0 0.011247871117063622 0.014791012160389217 0 0.012045458346290739 0.014089093871951062 0 0.011284844180694984 0.013991026742686225 0 0.012045458346290739 0.014089093871951062 0 0.011284844180694984 0.013991026742686225 0 0.011581648958510606 0.013024976764649135 0 0.011247871117063622 0.014791012160389217 0 0.011284844180694984 0.013991026742686225 0 0.010545984734291521 0.014282643265958289 0 0.011284844180694984 0.013991026742686225 0 0.010711702158492193 0.013414070842948404 0 0.010545984734291521 0.014282643265958289 0 0.010711702158492193 0.013414070842948404 0 0.011581648958510606 0.013024976764649135 0 0.010545587622166695 0.012360758446603486 0 0.011284844180694984 0.013991026742686225 0 0.010711702158492193 0.013414070842948404 0 0.011581648958510606 0.013024976764649135 0 0.011581648958510606 0.013024976764649135 0 0.011958176711275179 0.012331142130670956 0 0.012620169210344851 0.013178229831807454 0 0.012045458346290739 0.014089093871951062 0 0.011581648958510606 0.013024976764649135 0 0.012620169210344851 0.013178229831807454 0 0.011581648958510606 0.013024976764649135 0 0.011958176711275179 0.012331142130670956 0 0.011362618138832093 0.011988868566477878 0 0.011958176711275179 0.012331142130670956 0 0.011362618138832093 0.011988868566477878 0 0.012149862940995442 0.011769335091892128 0 0.011362618138832093 0.011988868566477878 0 0.010545587622166695 0.012360758446603486 0 0.010588829202093489 0.011248410575395816 0 0.011581648958510606 0.013024976764649135 0 0.011362618138832093 0.011988868566477878 0 0.010545587622166695 0.012360758446603486 0 0.011362618138832093 0.011988868566477878 0 0.010588829202093489 0.011248410575395816 0 0.01159108674312653 0.011302127061546834 0 0.011362618138832093 0.011988868566477878 0 0.01159108674312653 0.011302127061546834 0 0.012149862940995442 0.011769335091892128 0 0.01159108674312653 0.011302127061546834 0 0.012160250831466077 0.011050318670682383 0 0.012149862940995442 0.011769335091892128 0 0.01159108674312653 0.011302127061546834 0 0.011670451136623974 0.010551701084511596 0 0.012160250831466077 0.011050318670682383 0 0.011670451136623974 0.010551701084511596 0 0.012286795957557748 0.010592861683944797 0 0.012160250831466077 0.011050318670682383 0 -0.025361092653262845 0.058666382204759109 0 -0.022350774138454918 0.055956985157663862 0 -0.026184501219454103 0.055938607479499122 0 0.010588829202093489 0.011248410575395816 0 0.01159108674312653 0.011302127061546834 0 0.011670451136623974 0.010551701084511596 0 -0.0059779516615265753 0.036247465501118126 0 -0.0017610156242918269 0.036781023817141593 0 0.017147987357009405 0.028377275970728956 0 0.017219144928604175 0.028395570581082233 0 0.017118725619830515 0.028310136816669343 0 0.017122150525386726 0.028329942114445172 0 0.017140445142328216 0.028396101269883067 0 0.017120803167571145 0.028399939843814666 0 0.017147987357009405 0.028377275970728956 0 0.017122150525386726 0.028329942114445172 0 0.017140445142328216 0.028396101269883067 0 0.017147987357009405 0.028377275970728956 0 0.017118725619830515 0.028310136816669343 0 0.017122150525386726 0.028329942114445172 0 0.017140445142328216 0.028396101269883067 0 0.017120803167571145 0.028399939843814666 0 0.017144120789838388 0.028443366381544433 0 0.017147987357009405 0.028377275970728956 0 0.017219144928604175 0.028395570581082233 0 0.017180230284400785 0.028431834253742742 0 0.017140445142328216 0.028396101269883067 0 0.017180230284400785 0.028431834253742742 0 0.017144120789838388 0.028443366381544433 0 0.017147987357009405 0.028377275970728956 0 0.017140445142328216 0.028396101269883067 0 0.017180230284400785 0.028431834253742742 0 0.01282230117901878 0.010929270358039717 0 0.012286795957557748 0.010592861683944797 0 0.012160250831466077 0.011050318670682383 0 0.01282230117901878 0.010929270358039717 0 0.012160250831466077 0.011050318670682383 0 0.012496330897741922 0.011417591692319084 0 0.012160250831466077 0.011050318670682383 0 0.012496330897741922 0.011417591692319084 0 0.012149862940995442 0.011769335091892128 0 0.01282230117901878 0.010929270358039717 0 0.012496330897741922 0.011417591692319084 0 0.012729219581507028 0.011798115830890334 0 0.012496330897741922 0.011417591692319084 0 0.012149862940995442 0.011769335091892128 0 0.012729219581507028 0.011798115830890334 0 0.01282230117901878 0.010929270358039717 0 0.012729219581507028 0.011798115830890334 0 0.013330241538655248 0.012320562716917005 0 0.0097708197632125644 0.023407637108940234 0 0.012754369514841199 0.020925262153085253 0 0.017118725619830515 0.028310136816669343 0 0.016966560460027352 0.027798831127685365 0 0.016590974620756465 0.02784296113234928 0 0.016928841103218427 0.028066943752121189 0 0.016793811299687343 0.027895445954695428 0 0.017219144928604175 0.028395570581082233 0 0.017118725619830515 0.028310136816669343 0 0.016966560460027352 0.027798831127685365 0 0.017118725619830515 0.028310136816669343 0 0.017122150525386726 0.028329942114445172 0 0.017153035999862867 0.028085650437346316 0 0.011958176711275179 0.012331142130670956 0 0.01258009650548284 0.012301634353165867 0 0.012620169210344851 0.013178229831807454 0 0.013330241538655248 0.012320562716917005 0 0.01258009650548284 0.012301634353165867 0 0.012620169210344851 0.013178229831807454 0 0.012149862940995442 0.011769335091892128 0 0.012729219581507028 0.011798115830890334 0 0.01258009650548284 0.012301634353165867 0 0.011958176711275179 0.012331142130670956 0 0.012149862940995442 0.011769335091892128 0 0.01258009650548284 0.012301634353165867 0 0.012729219581507028 0.011798115830890334 0 0.013330241538655248 0.012320562716917005 0 0.01258009650548284 0.012301634353165867 0 0.016708454140853847 0.02725565895044205 0 0.016966560460027352 0.027798831127685365 0 0.016547962996299556 0.0275014613887514 0 0.0141028944565951 0.020211250407137518 0 0.012754369514841199 0.020925262153085253 0 0.013732216931723999 0.013891216697169447 0 0.013330241538655248 0.012320562716917005 0 0.012620169210344851 0.013178229831807454 0 0.016547962996299556 0.0275014613887514 0 0.016234927901197623 0.027405992613782789 0 0.016590974620756465 0.02784296113234928 0 0.016532508259211539 0.027579247364441065 0 0.016793811299687343 0.027895445954695428 0 0.016826750691634883 0.02764421746759552 0 0.016898711656553239 0.028015976597160725 0 0.016596310432632589 0.02793614568089909 0 0.016898711656553239 0.028015976597160725 0 0.016596310432632589 0.02793614568089909 0 0.01687099981257191 0.028147431687174627 0 0.016826750691634883 0.02764421746759552 0 0.016898711656553239 0.028015976597160725 0 0.017153035999862867 0.028085650437346316 0 0.016966560460027352 0.027798831127685365 0 0.016547962996299556 0.0275014613887514 0 0.016590974620756465 0.02784296113234928 0 0.016898711656553239 0.028015976597160725 0 0.017153035999862867 0.028085650437346316 0 0.017033832026703034 0.028191265446286189 0 0.016180263602477884 0.027662382115256994 0 0.01624729894479612 0.027591329242660462 0 0.016344322597419469 0.027916001027528101 0 0.01624729894479612 0.027591329242660462 0 0.016344322597419469 0.027916001027528101 0 0.016596310432632589 0.02793614568089909 0 0.01624729894479612 0.027591329242660462 0 0.016826750691634883 0.02764421746759552 0 0.016596310432632589 0.02793614568089909 0 0.016596310432632589 0.02793614568089909 0 0.016579769600793284 0.028105043883801684 0 0.01687099981257191 0.028147431687174627 0 0.016344322597419469 0.027916001027528101 0 0.016579769600793284 0.028105043883801684 0 0.016436899057576209 0.028021459172716635 0 0.016344322597419469 0.027916001027528101 0 0.016596310432632589 0.02793614568089909 0 0.016579769600793284 0.028105043883801684 0 0.016579769600793284 0.028105043883801684 0 0.016436899057576209 0.028021459172716635 0 0.016373792480184293 0.028265225381409496 0 0.016579769600793284 0.028105043883801684 0 0.016909052150501751 0.028282961547414075 0 0.01687099981257191 0.028147431687174627 0 0.016771070649232299 0.028414424594087825 0 0.016909052150501751 0.028282961547414075 0 0.017190649699313366 0.028469140753782492 0 0.016771070649232299 0.028414424594087825 0 0.017190649699313366 0.028469140753782492 0 0.01737394017474966 0.028810027051475829 0 0.016579769600793284 0.028105043883801684 0 0.016771070649232299 0.028414424594087825 0 0.016909052150501751 0.028282961547414075 0 0.016579769600793284 0.028105043883801684 0 0.016771070649232299 0.028414424594087825 0 0.016373792480184293 0.028265225381409496 0 0.017122150525386726 0.028329942114445172 0 0.017153035999862867 0.028085650437346316 0 0.017103983969670611 0.028305571653339689 0 0.017153035999862867 0.028085650437346316 0 0.017103983969670611 0.028305571653339689 0 0.017033832026703034 0.028191265446286189 0 0.017103983969670611 0.028305571653339689 0 0.017033832026703034 0.028191265446286189 0 0.017085994699451691 0.028341076158958475 0 0.016898711656553239 0.028015976597160725 0 0.017033832026703034 0.028191265446286189 0 0.01687099981257191 0.028147431687174627 0 0.016909052150501751 0.028282961547414075 0 0.01687099981257191 0.028147431687174627 0 0.017085994699451691 0.028341076158958475 0 0.017033832026703034 0.028191265446286189 0 0.01687099981257191 0.028147431687174627 0 0.017085994699451691 0.028341076158958475 0 0.017085994699451691 0.028341076158958475 0 0.017190649699313366 0.028469140753782492 0 0.017110648348800443 0.028410934560388641 0 0.016909052150501751 0.028282961547414075 0 0.017085994699451691 0.028341076158958475 0 0.017190649699313366 0.028469140753782492 0 0.017190649699313366 0.028469140753782492 0 0.017110648348800443 0.028410934560388641 0 0.017113100184543189 0.02844638675220237 0 0.017110648348800443 0.028410934560388641 0 0.017115538779282256 0.028437758360451492 0 0.017113100184543189 0.02844638675220237 0 0.017103983969670611 0.028305571653339689 0 0.017085994699451691 0.028341076158958475 0 0.017110648348800443 0.028410934560388641 0 0.017103983969670611 0.028305571653339689 0 0.017110648348800443 0.028410934560388641 0 0.017120803167571145 0.028399939843814666 0 0.017122150525386726 0.028329942114445172 0 0.017103983969670611 0.028305571653339689 0 0.017120803167571145 0.028399939843814666 0 0.017110648348800443 0.028410934560388641 0 0.017120803167571145 0.028399939843814666 0 0.017115538779282256 0.028437758360451492 0 0.017120803167571145 0.028399939843814666 0 0.017126794163346469 0.028449821313674985 0 0.017115538779282256 0.028437758360451492 0 0.017126794163346469 0.028449821313674985 0 0.017115538779282256 0.028437758360451492 0 0.01711504127122777 0.028475170854046113 0 0.017126794163346469 0.028449821313674985 0 0.01711504127122777 0.028475170854046113 0 0.017135337722357997 0.028489562229024171 0 0.01711504127122777 0.028475170854046113 0 0.017106302623843647 0.028475386022447285 0 0.017113100184543189 0.02844638675220237 0 0.017115538779282256 0.028437758360451492 0 0.01711504127122777 0.028475170854046113 0 0.017113100184543189 0.02844638675220237 0 0.012487427208322303 0.033079043752157838 0 0.01210346299565211 0.035430132122485379 0 0.017190649699313366 0.028469140753782492 0 0.01737394017474966 0.028810027051475829 0 0.017583604837597144 0.028974905128278508 0 0.017190649699313366 0.028469140753782492 0 0.017113100184543189 0.02844638675220237 0 0.017101664362241087 0.02846132826531729 0 0.012290305775376228 0.035181462184872149 0 0.01210346299565211 0.035430132122485379 0 0.017106302623843647 0.028475386022447285 0 0.017113100184543189 0.02844638675220237 0 0.017101664362241087 0.02846132826531729 0 0.01737394017474966 0.028810027051475829 0 0.018092009619533958 0.029299877701070415 0 0.018111357892970997 0.030185231813658005 0 0.018092009619533958 0.029299877701070415 0 0.018111357892970997 0.030185231813658005 0 0.018369414509619986 0.030444658728920517 0 0.011543601131084366 0.038791505689580862 0 0.013000423535630181 0.040086935317934697 0 0.011900293663963979 0.041202887954143258 0 0.01210346299565211 0.035430132122485379 0 0.012648156098373539 0.038709319519129481 0 0.017097538368033832 0.028527433230582912 0 0.017121706901083503 0.028587572041033339 0 0.017127557037144633 0.028535741915111771 0 0.011294939357825677 0.038903409786053209 0 0.0096904601656831978 0.043645466480100426 0 0.01711504127122777 0.028475170854046113 0 0.017097538368033832 0.028527433230582912 0 0.017127557037144633 0.028535741915111771 0 0.017106302623843647 0.028475386022447285 0 0.017101664362241087 0.02846132826531729 0 0.017097538368033832 0.028527433230582912 0 0.01210346299565211 0.035430132122485379 0 0.011294939357825677 0.038903409786053209 0 0.01711504127122777 0.028475170854046113 0 0.017106302623843647 0.028475386022447285 0 0.017097538368033832 0.028527433230582912 0 0.017880921716348586 0.029594848158272503 0 0.017802591618287716 0.029291424391148686 0 0.016771070649232299 0.028414424594087825 0 0.016609994827202993 0.028972307891410753 0 0.016373792480184293 0.028265225381409496 0 0.018748168000536695 0.030562237765347347 0 0.018860014540546449 0.030462701886839704 0 0.01916179236681069 0.030355664533281503 0 0.016771070649232299 0.028414424594087825 0 0.01737394017474966 0.028810027051475829 0 0.016609994827202993 0.028972307891410753 0 0.018111357892970997 0.030185231813658005 0 0.018748168000536695 0.030562237765347347 0 0.01858077079035653 0.030328244449788447 0 0.01737394017474966 0.028810027051475829 0 0.018111357892970997 0.030185231813658005 0 0.016609994827202993 0.028972307891410753 0 0.018010429188731289 0.029782162036293858 0 0.017880921716348586 0.029594848158272503 0 0.018748168000536695 0.030562237765347347 0 0.01858077079035653 0.030328244449788447 0 0.018860014540546449 0.030462701886839704 0 0.018860014540546449 0.030462701886839704 0 0.018788550287077418 0.030325789014266202 0 0.019031302318253857 0.030493472364180995 0 0.01858077079035653 0.030328244449788447 0 0.018788550287077418 0.030325789014266202 0 0.018571728079196322 0.030289130346024911 0 0.01858077079035653 0.030328244449788447 0 0.018860014540546449 0.030462701886839704 0 0.018788550287077418 0.030325789014266202 0 0.01858077079035653 0.030328244449788447 0 0.018571728079196322 0.030289130346024911 0 0.018371895474205358 0.030309527646726956 0 0.018111357892970997 0.030185231813658005 0 0.01858077079035653 0.030328244449788447 0 0.018371895474205358 0.030309527646726956 0 0.018571728079196322 0.030289130346024911 0 0.018371895474205358 0.030309527646726956 0 0.018441473012858461 0.030311361782355956 0 0.018571728079196322 0.030289130346024911 0 0.018563082600756332 0.030256166736476776 0 0.018706695221161512 0.030263102687460224 0 0.018571728079196322 0.030289130346024911 0 0.018563082600756332 0.030256166736476776 0 0.018441473012858461 0.030311361782355956 0 0.018788550287077418 0.030325789014266202 0 0.018706695221161512 0.030263102687460224 0 0.01880715882606826 0.030282812229730383 0 0.018788550287077418 0.030325789014266202 0 0.018571728079196322 0.030289130346024911 0 0.018706695221161512 0.030263102687460224 0 0.01290156201570249 0.041568210195942867 0 0.011900293663963979 0.041202887954143258 0 0.012257783264432784 0.043605702832059591 0 0.012810673372632796 0.047243515387324686 0 0.0096904601656831978 0.043645466480100426 0 0.01290156201570249 0.041568210195942867 0 0.012257783264432784 0.043605702832059591 0 0.014447845502068646 0.041375920943215641 0 0.013000423535630181 0.040086935317934697 0 0.01290156201570249 0.041568210195942867 0 0.014447845502068646 0.041375920943215641 0 0.013000423535630181 0.040086935317934697 0 0.01290156201570249 0.041568210195942867 0 0.011900293663963979 0.041202887954143258 0 0.012648156098373539 0.038709319519129481 0 0.012810673372632796 0.047243515387324686 0 0.018369414509619986 0.030444658728920517 0 0.018441473012858461 0.030311361782355956 0 0.018357273814921114 0.030287680477154116 0 0.018111357892970997 0.030185231813658005 0 0.018369414509619986 0.030444658728920517 0 0.018371895474205358 0.030309527646726956 0 0.018369414509619986 0.030444658728920517 0 0.018371895474205358 0.030309527646726956 0 0.018441473012858461 0.030311361782355956 0 0.018563082600756332 0.030256166736476776 0 0.018441473012858461 0.030311361782355956 0 0.018357273814921114 0.030287680477154116 0 0.0046224896648482333 0.06009980308096545 0 0.0050415453832432363 0.060102701319128433 0 0.0050282806710455355 0.059644746823619414 0 0.0046224896648482333 0.06009980308096545 0 0.0050415453832432363 0.060102701319128433 0 0.004841875628288056 0.060337088441537456 0 0.0050415453832432363 0.060102701319128433 0 0.0050282806710455355 0.059644746823619414 0 0.0053138018237493248 0.05991769226433407 0 0.0050415453832432363 0.060102701319128433 0 0.0053030209171151714 0.060226275073038071 0 0.0051339027774510229 0.060418899259465961 0 0.0050415453832432363 0.060102701319128433 0 0.0053138018237493248 0.05991769226433407 0 0.0053030209171151714 0.060226275073038071 0 0.0096904601656831978 0.043645466480100426 0 0.0085302217189638548 0.048972992108939767 0 0.0042156869047781454 0.045929511231030618 0 0.0058048226652289243 0.045428573008593813 0 0.0059377712059852095 0.047462889140597604 0 0.0036522884859824236 0.05388723662149314 0 0.0049011716821526436 0.05413063730515083 0 0.003228497307276465 0.051903731740744072 0 0.0058048226652289243 0.045428573008593813 0 0.0071202378262546521 0.046466629467948446 0 0.0065700094055047131 0.043941019806034778 0 0.0058048226652289243 0.045428573008593813 0 0.0071202378262546521 0.046466629467948446 0 0.0059377712059852095 0.047462889140597604 0 0.0085302217189638548 0.048972992108939767 0 0.0074628753824714875 0.052481176011938753 0 0.0062031329951858349 0.04816719100088148 0 0.0074628753824714875 0.052481176011938753 0 0.0071202378262546521 0.046466629467948446 0 0.0059377712059852095 0.047462889140597604 0 0.007669656324774384 0.04900447161737001 0 0.0053138018237493248 0.05991769226433407 0 0.0053030209171151714 0.060226275073038071 0 0.0056132134745793478 0.060197932141526536 0 0.0041025268326696177 0.05581766219399633 0 0.0048639517095354044 0.055962600462242357 0 0.0052318993991460052 0.055364537382505359 0 0.0041025268326696177 0.05581766219399633 0 0.0052318993991460052 0.055364537382505359 0 0.0049011716821526436 0.05413063730515083 0 0.0052318993991460052 0.055364537382505359 0 0.0061888197260109891 0.054486719832360808 0 0.0055004038950987513 0.056825549120184393 0 0.0036522884859824236 0.05388723662149314 0 0.0041025268326696177 0.05581766219399633 0 0.0049011716821526436 0.05413063730515083 0 0.0048639517095354044 0.055962600462242357 0 0.0052318993991460052 0.055364537382505359 0 0.0055004038950987513 0.056825549120184393 0 0.0052318993991460052 0.055364537382505359 0 0.0061888197260109891 0.054486719832360808 0 0.0049011716821526436 0.05413063730515083 0 0.0062376336286689687 0.05607062017531645 0 0.0060643649494093567 0.057178675692976376 0 0.0065047135805733599 0.0559945103550629 0 0.0061888197260109891 0.054486719832360808 0 0.0055990355010270337 0.057066252967317446 0 0.0070702983148892137 0.056197893311543339 0 0.0065047135805733599 0.0559945103550629 0 0.0072140141969895353 0.054982931278601162 0 0.0065047135805733599 0.0559945103550629 0 0.0072140141969895353 0.054982931278601162 0 0.0061888197260109891 0.054486719832360808 0 0.0072140141969895353 0.054982931278601162 0 0.0058667098437208123 0.053311017879983547 0 0.0085529395338792905 0.05474591324121441 0 0.0072140141969895353 0.054982931278601162 0 0.0061888197260109891 0.054486719832360808 0 0.0058667098437208123 0.053311017879983547 0 -0.0066667647548750361 0.04994296502137912 0 -0.012945346299515242 0.058940970530331337 0 0.0058667098437208123 0.053311017879983547 0 0.0049011716821526436 0.05413063730515083 0 0.003228497307276465 0.051903731740744072 0 0.0061888197260109891 0.054486719832360808 0 0.0058667098437208123 0.053311017879983547 0 0.0049011716821526436 0.05413063730515083 0 -0.02338152416369773 0.050868436060901467 0 -0.021882260133665361 0.053252398772519825 0 -0.019520478294513654 0.052744203687468814 0 -0.0066667647548750361 0.04994296502137912 0 0.0047397627208624598 0.041009803146674628 0 -0.02338152416369773 0.050868436060901467 0 -0.024690776597252495 0.053574281043629789 0 -0.026220082912508446 0.051845125564155652 0 -0.02338152416369773 0.050868436060901467 0 -0.021882260133665361 0.053252398772519825 0 -0.024690776597252495 0.053574281043629789 0 -0.022350774138454918 0.055956985157663862 0 -0.024690776597252495 0.053574281043629789 0 -0.026184501219454103 0.055938607479499122 0 -0.0017610156242918269 0.036781023817141593 0 0.005014056159797782 0.039658550023087054 0 -0.022350774138454918 0.055956985157663862 0 -0.021882260133665361 0.053252398772519825 0 -0.024690776597252495 0.053574281043629789 0 -0.022350774138454918 0.055956985157663862 0 -0.021882260133665361 0.053252398772519825 0 -0.019437813910002408 0.053116172166074692 0 0.01282230117901878 0.010929270358039717 0 0.012286795957557748 0.010592861683944797 0 0.012487535005432057 0.0098642893690214367 0 0.017219144928604175 0.028395570581082233 0 0.017180230284400785 0.028431834253742742 0 0.017159847984461182 0.028533714952347734 0 0.0097708197632125644 0.023407637108940234 0 0.005014056159797782 0.039658550023087054 0 0.011670451136623974 0.010551701084511596 0 0.012286795957557748 0.010592861683944797 0 0.012487535005432057 0.0098642893690214367 0 0.017180230284400785 0.028431834253742742 0 0.017164992382544604 0.028465966107540638 0 0.017159847984461182 0.028533714952347734 0 0.017180230284400785 0.028431834253742742 0 0.017164992382544604 0.028465966107540638 0 0.017144120789838388 0.028443366381544433 0 0.017164992382544604 0.028465966107540638 0 0.017144120789838388 0.028443366381544433 0 0.017147715546716024 0.028469859784765652 0 0.017126794163346469 0.028449821313674985 0 0.017147715546716024 0.028469859784765652 0 0.017135337722357997 0.028489562229024171 0 0.017120803167571145 0.028399939843814666 0 0.017126794163346469 0.028449821313674985 0 0.017144120789838388 0.028443366381544433 0 0.017126794163346469 0.028449821313674985 0 0.017144120789838388 0.028443366381544433 0 0.017147715546716024 0.028469859784765652 0 0.017164992382544604 0.028465966107540638 0 0.017153523004789246 0.02849552691567676 0 0.017159847984461182 0.028533714952347734 0 0.017147715546716024 0.028469859784765652 0 0.017135337722357997 0.028489562229024171 0 0.017153523004789246 0.02849552691567676 0 0.017164992382544604 0.028465966107540638 0 0.017147715546716024 0.028469859784765652 0 0.017153523004789246 0.02849552691567676 0 0.017135337722357997 0.028489562229024171 0 0.017144310024581895 0.028506441166395377 0 0.017153523004789246 0.02849552691567676 0 0.017144310024581895 0.028506441166395377 0 0.017153523004789246 0.02849552691567676 0 0.017151700092376321 0.028519352796572903 0 0.0042156869047781454 0.045929511231030618 0 0.0058048226652289243 0.045428573008593813 0 0.0063052622681178203 0.043805511813578092 0 0.017151700092376321 0.028519352796572903 0 0.017127557037144633 0.028535741915111771 0 0.017161931953033324 0.028534820247246573 0 0.0096904601656831978 0.043645466480100426 0 0.0052660411817210132 0.040372213346153096 0 0.017144310024581895 0.028506441166395377 0 0.017151700092376321 0.028519352796572903 0 0.017127557037144633 0.028535741915111771 0 0.017121706901083503 0.028587572041033339 0 0.017127557037144633 0.028535741915111771 0 0.017161931953033324 0.028534820247246573 0 0.01711504127122777 0.028475170854046113 0 0.017135337722357997 0.028489562229024171 0 0.017127557037144633 0.028535741915111771 0 0.017135337722357997 0.028489562229024171 0 0.017144310024581895 0.028506441166395377 0 0.017127557037144633 0.028535741915111771 0 0.0058048226652289243 0.045428573008593813 0 0.0065700094055047131 0.043941019806034778 0 0.0063052622681178203 0.043805511813578092 0 -0.021882260133665361 0.053252398772519825 0 -0.019437813910002408 0.053116172166074692 0 -0.019520478294513654 0.052744203687468814 0 0.0062031329951858349 0.04816719100088148 0 0.0047397627208624598 0.041009803146674628 0 0.017153523004789246 0.02849552691567676 0 0.017151700092376321 0.028519352796572903 0 0.017159847984461182 0.028533714952347734 0 0.005014056159797782 0.039658550023087054 0 0.0052660411817210132 0.040372213346153096 0 0.0056851482851594118 0.040288248890308465 0 0.0052660411817210132 0.040372213346153096 0 0.017151700092376321 0.028519352796572903 0 0.017159847984461182 0.028533714952347734 0 0.017156221056247877 0.028536388858146942 0 0.005014056159797782 0.039658550023087054 0 0.0047397627208624598 0.041009803146674628 0 0.0018923787023988831 0.044359188948253074 0 0.00090007944698093883 0.039780693734163819 0 0.0045700801030270754 0.041653254368182971 0 0.0047397627208624598 0.041009803146674628 0 0.0052660411817210132 0.040372213346153096 0 0.015279318404752603 0.028766585484203203 0 0.01477526758834149 0.030258581575577051 0 0.016045171099897958 0.030172468273731795 0 0.016045171099897958 0.030172468273731795 0 0.017553767459212655 0.029617603945978108 0 0.017287981444152004 0.031423935427090849 0 0.015279318404752603 0.028766585484203203 0 0.016045171099897958 0.030172468273731795 0 0.017553767459212655 0.029617603945978108 0 0.01477526758834149 0.030258581575577051 0 0.016045171099897958 0.030172468273731795 0 0.015233192459005663 0.031601989577866897 0 0.017305949893492278 0.028948773184721027 0 0.017322068048916409 0.028454701082927858 0 0.017553767459212655 0.029617603945978108 0 0.016259726313618477 0.027404129501031171 0 0.017367142357291837 0.027671383314187458 0 0.017553767459212655 0.029617603945978108 0 0.017735650975229233 0.028882258634206438 0 0.018213411241051421 0.029498705283493395 0 0.015279318404752603 0.028766585484203203 0 0.017553767459212655 0.029617603945978108 0 0.016259726313618477 0.027404129501031171 0 0.016259726313618477 0.027404129501031171 0 0.016202754534632862 0.026432266659860929 0 0.017034792260712642 0.026466153721922271 0 0.017322068048916409 0.028454701082927858 0 0.01725081009771965 0.027864730308888832 0 0.016259726313618477 0.027404129501031171 0 0.017367142357291837 0.027671383314187458 0 0.017034792260712642 0.026466153721922271 0 0.017735650975229233 0.028882258634206438 0 0.017793477026136973 0.028587160006535051 0 0.018011930343145095 0.02886147045375393 0 0.017793477026136973 0.028587160006535051 0 0.017732326885586337 0.028521683354670237 0 0.018011930343145095 0.02886147045375393 0 0.018011930343145095 0.02886147045375393 0 0.018213411241051421 0.029498705283493395 0 0.018493630321612518 0.029876870531943201 0 0.018213411241051421 0.029498705283493395 0 0.018493630321612518 0.029876870531943201 0 0.019625734061987116 0.031374998900742961 0 0.017553767459212655 0.029617603945978108 0 0.018213411241051421 0.029498705283493395 0 0.019625734061987116 0.031374998900742961 0 0.017735650975229233 0.028882258634206438 0 0.018011930343145095 0.02886147045375393 0 0.018213411241051421 0.029498705283493395 0 0.018493630321612518 0.029876870531943201 0 0.018740584502669945 0.03011268604742073 0 0.018815131018374509 0.030582069103908191 0 0.018740584502669945 0.03011268604742073 0 0.019142338524199592 0.029704375291335582 0 0.019039463529449602 0.030414868022360268 0 0.017770452061714053 0.028893232849399167 0 0.017784025376679741 0.029014616531551109 0 0.018740584502669945 0.03011268604742073 0 0.017900698763362453 0.028544690331852002 0 0.019142338524199592 0.029704375291335582 0 0.018011930343145095 0.02886147045375393 0 0.018493630321612518 0.029876870531943201 0 0.017900698763362453 0.028544690331852002 0 0.018493630321612518 0.029876870531943201 0 0.018740584502669945 0.03011268604742073 0 0.017900698763362453 0.028544690331852002 0 0.017732326885586337 0.028521683354670237 0 0.018011930343145095 0.02886147045375393 0 0.017900698763362453 0.028544690331852002 0 0.017732326885586337 0.028521683354670237 0 0.017263582426459582 0.02831431699080569 0 0.017900698763362453 0.028544690331852002 0 0.016406028817422782 0.028096283902904598 0 0.017263582426459582 0.02831431699080569 0 0.016628797623596994 0.028199916926133484 0 0.017900698763362453 0.028544690331852002 0 0.016628797623596994 0.028199916926133484 0 0.016667815817809732 0.027887440039342966 0 0.017263582426459582 0.02831431699080569 0 0.017900698763362453 0.028544690331852002 0 0.016628797623596994 0.028199916926133484 0 0.016406028817422782 0.028096283902904598 0 0.016180263602477884 0.027662382115256994 0 0.016628797623596994 0.028199916926133484 0 0.016180263602477884 0.027662382115256994 0 0.016344322597419469 0.027916001027528101 0 0.016628797623596994 0.028199916926133484 0 0.016344322597419469 0.027916001027528101 0 0.016628797623596994 0.028199916926133484 0 0.016436899057576209 0.028021459172716635 0 0.016436899057576209 0.028021459172716635 0 0.016667815817809732 0.027887440039342966 0 0.016373792480184293 0.028265225381409496 0 0.016628797623596994 0.028199916926133484 0 0.016436899057576209 0.028021459172716635 0 0.016667815817809732 0.027887440039342966 0 0.019142338524199592 0.029704375291335582 0 0.01916179236681069 0.030355664533281503 0 0.019039463529449602 0.030414868022360268 0 0.017784025376679741 0.029014616531551109 0 0.017802591618287716 0.029291424391148686 0 0.018860014540546449 0.030462701886839704 0 0.01916179236681069 0.030355664533281503 0 0.019031302318253857 0.030493472364180995 0 0.01916179236681069 0.030355664533281503 0 0.019039463529449602 0.030414868022360268 0 0.019031302318253857 0.030493472364180995 0 0.019039463529449602 0.030414868022360268 0 0.019031302318253857 0.030493472364180995 0 0.019016419904016976 0.030635080039972545 0 0.02169993053300822 0.033562978836347401 0 0.021829079126088412 0.036359320098820543 0 0.018788550287077418 0.030325789014266202 0 0.019031302318253857 0.030493472364180995 0 0.018887458871131867 0.030322376965445472 0 0.018788550287077418 0.030325789014266202 0 0.018887458871131867 0.030322376965445472 0 0.01880715882606826 0.030282812229730383 0 0.018887458871131867 0.030322376965445472 0 0.01880715882606826 0.030282812229730383 0 0.018853809379631593 0.030272509375347829 0 0.021829079126088412 0.036359320098820543 0 0.020869886477451985 0.049257311891326802 0 0.019129321050692098 0.030762131126753287 0 0.019063621590253096 0.030830778217483867 0 0.019120577075790159 0.030946144140820489 0 0.017837625954711642 0.043328869135697924 0 0.020869886477451985 0.049257311891326802 0 0.019063621590253096 0.030830778217483867 0 0.019089783645560562 0.030955646011530103 0 0.019219079688529751 0.030996998834583116 0 0.019031302318253857 0.030493472364180995 0 0.019129321050692098 0.030762131126753287 0 0.019016419904016976 0.030635080039972545 0 0.019129321050692098 0.030762131126753287 0 0.019016419904016976 0.030635080039972545 0 0.019063621590253096 0.030830778217483867 0 0.019016419904016976 0.030635080039972545 0 0.018977402103966121 0.030732611198321057 0 0.019063621590253096 0.030830778217483867 0 0.019063621590253096 0.030830778217483867 0 0.019003473101560635 0.030894980207977093 0 0.019089783645560562 0.030955646011530103 0 0.018977402103966121 0.030732611198321057 0 0.019063621590253096 0.030830778217483867 0 0.019003473101560635 0.030894980207977093 0 0.019003473101560635 0.030894980207977093 0 0.0189332724857889 0.030736990233411327 0 0.018939788615947979 0.030825009864268126 0 0.018977402103966121 0.030732611198321057 0 0.019003473101560635 0.030894980207977093 0 0.0189332724857889 0.030736990233411327 0 0.018977402103966121 0.030732611198321057 0 0.0189332724857889 0.030736990233411327 0 0.01889337542407037 0.030634205351777796 0 0.0189332724857889 0.030736990233411327 0 0.01889337542407037 0.030634205351777796 0 0.018947254859675928 0.030765043813435335 0 0.01889337542407037 0.030634205351777796 0 0.018815131018374509 0.030582069103908191 0 0.018947254859675928 0.030765043813435335 0 0.019039463529449602 0.030414868022360268 0 0.019016419904016976 0.030635080039972545 0 0.01889337542407037 0.030634205351777796 0 0.019016419904016976 0.030635080039972545 0 0.018977402103966121 0.030732611198321057 0 0.01889337542407037 0.030634205351777796 0 0.018740584502669945 0.03011268604742073 0 0.019039463529449602 0.030414868022360268 0 0.01889337542407037 0.030634205351777796 0 0.018740584502669945 0.03011268604742073 0 0.01889337542407037 0.030634205351777796 0 0.018815131018374509 0.030582069103908191 0 0.018493630321612518 0.029876870531943201 0 0.018815131018374509 0.030582069103908191 0 0.019625734061987116 0.031374998900742961 0 0.020780759357114001 0.034289373454807426 0 0.021017592661993115 0.035844514944549453 0 0.019625734061987116 0.031374998900742961 0 0.018947254859675928 0.030765043813435335 0 0.019118838548955932 0.030685206272706152 0 0.019625734061987116 0.031374998900742961 0 0.0234229091592272 0.0363588187439748 0 0.018368972700941722 0.03379121258761237 0 0.018815131018374509 0.030582069103908191 0 0.019625734061987116 0.031374998900742961 0 0.018947254859675928 0.030765043813435335 0 0.0189332724857889 0.030736990233411327 0 0.018939788615947979 0.030825009864268126 0 0.019118838548955932 0.030685206272706152 0 0.0189332724857889 0.030736990233411327 0 0.018947254859675928 0.030765043813435335 0 0.019118838548955932 0.030685206272706152 0 0.018939788615947979 0.030825009864268126 0 0.018859323728839639 0.030872747625913206 0 0.019118838548955932 0.030685206272706152 0 0.021260302986414008 0.040045705450642094 0 0.021017592661993115 0.035844514944549453 0 0.027450667624103402 0.043614205280078706 0 0.0234229091592272 0.0363588187439748 0 0.022218959192613425 0.041016833148428078 0 0.027450667624103402 0.043614205280078706 0 0.022218959192613425 0.041016833148428078 0 0.02246347865753175 0.045598254789891435 0 0.0234229091592272 0.0363588187439748 0 0.018444458805590862 0.038731950876675629 0 0.018368972700941722 0.03379121258761237 0 0.0234229091592272 0.0363588187439748 0 0.018444458805590862 0.038731950876675629 0 0.022218959192613425 0.041016833148428078 0 0.018444458805590862 0.038731950876675629 0 0.022218959192613425 0.041016833148428078 0 0.019496239573703316 0.04220701233924895 0 0.022218959192613425 0.041016833148428078 0 0.019496239573703316 0.04220701233924895 0 0.02246347865753175 0.045598254789891435 0 0.018444458805590862 0.038731950876675629 0 0.019496239573703316 0.04220701233924895 0 0.015268821986095098 0.043587594356557832 0 0.01426832188185314 0.038941973533574384 0 0.018444458805590862 0.038731950876675629 0 0.015268821986095098 0.043587594356557832 0 0.018444458805590862 0.038731950876675629 0 0.015745884107705069 0.035495884582352775 0 0.018368972700941722 0.03379121258761237 0 0.01426832188185314 0.038941973533574384 0 0.018444458805590862 0.038731950876675629 0 0.015745884107705069 0.035495884582352775 0 0.014220126420002059 0.033658507810159638 0 0.015745884107705069 0.035495884582352775 0 0.016260059168968055 0.033101064729634359 0 0.014220126420002059 0.033658507810159638 0 0.016260059168968055 0.033101064729634359 0 0.015233192459005663 0.031601989577866897 0 0.015745884107705069 0.035495884582352775 0 0.016260059168968055 0.033101064729634359 0 0.018368972700941722 0.03379121258761237 0 0.019625734061987116 0.031374998900742961 0 0.018368972700941722 0.03379121258761237 0 0.017287981444152004 0.031423935427090849 0 0.016260059168968055 0.033101064729634359 0 0.018368972700941722 0.03379121258761237 0 0.017287981444152004 0.031423935427090849 0 0.017553767459212655 0.029617603945978108 0 0.019625734061987116 0.031374998900742961 0 0.017287981444152004 0.031423935427090849 0 0.016045171099897958 0.030172468273731795 0 0.017287981444152004 0.031423935427090849 0 0.015233192459005663 0.031601989577866897 0 0.016260059168968055 0.033101064729634359 0 0.017287981444152004 0.031423935427090849 0 0.015233192459005663 0.031601989577866897 0 0.0286884804610326 0.074502554039939217 0 0.026073303979542755 0.077223127723134083 0 0.0023224324864118961 0.080997366580733657 0 0.0097918511520058132 0.07562260935734072 0 0.014686545502342524 0.083260788159513779 0 0.0097918511520058132 0.07562260935734072 0 0.015599176661382606 0.075400830253388507 0 0.012133517673250202 0.07007821803711288 0 0.0023224324864118961 0.080997366580733657 0 0.0097918511520058132 0.07562260935734072 0 0.0059863284001279212 0.074037805923419894 0 0.0097918511520058132 0.07562260935734072 0 0.015599176661382606 0.075400830253388507 0 0.014686545502342524 0.083260788159513779 0 0.019829986235467022 0.079038084523609942 0 0.015599176661382606 0.075400830253388507 0 0.014686545502342524 0.083260788159513779 0 0.019829986235467022 0.079038084523609942 0 0.026763380110351096 0.083348502722320764 0 0.014686545502342524 0.083260788159513779 0 0.019829986235467022 0.079038084523609942 0 0.024368200847287629 0.079767814716415628 0 0.026763380110351096 0.083348502722320764 0 0.024368200847287629 0.079767814716415628 0 0.02074859711052246 0.074179345900146201 0 0.024439315028668231 0.074223034393875384 0 0.019829986235467022 0.079038084523609942 0 0.024368200847287629 0.079767814716415628 0 0.02074859711052246 0.074179345900146201 0 0.019829986235467022 0.079038084523609942 0 0.02074859711052246 0.074179345900146201 0 0.015599176661382606 0.075400830253388507 0 0.02074859711052246 0.074179345900146201 0 0.015599176661382606 0.075400830253388507 0 0.01673369185488683 0.070318012740504032 0 0.02074859711052246 0.074179345900146201 0 0.01673369185488683 0.070318012740504032 0 0.020376477469453005 0.067069187982609899 0 0.01673369185488683 0.070318012740504032 0 0.01552380443272019 0.064510113706712224 0 0.012133517673250202 0.07007821803711288 0 0.02074859711052246 0.074179345900146201 0 0.020376477469453005 0.067069187982609899 0 0.024961919387441883 0.070063946754800516 0 0.02074859711052246 0.074179345900146201 0 0.024961919387441883 0.070063946754800516 0 0.024439315028668231 0.074223034393875384 0 0.020376477469453005 0.067069187982609899 0 0.01552380443272019 0.064510113706712224 0 0.021410446099586103 0.059117200923125002 0 0.020376477469453005 0.067069187982609899 0 0.025557698089602416 0.064403351290526711 0 0.024961919387441883 0.070063946754800516 0 0.020376477469453005 0.067069187982609899 0 0.021410446099586103 0.059117200923125002 0 0.025557698089602416 0.064403351290526711 0 0.01673369185488683 0.070318012740504032 0 0.020376477469453005 0.067069187982609899 0 0.01552380443272019 0.064510113706712224 0 0.01552380443272019 0.064510113706712224 0 0.010610333729031654 0.065674581588547679 0 0.012133517673250202 0.07007821803711288 0 0.015599176661382606 0.075400830253388507 0 0.01673369185488683 0.070318012740504032 0 0.012133517673250202 0.07007821803711288 0 0.010610333729031654 0.065674581588547679 0 0.012133517673250202 0.07007821803711288 0 0.0075087848456164017 0.069625572744648326 0 0.0097918511520058132 0.07562260935734072 0 0.0059863284001279212 0.074037805923419894 0 0.0075087848456164017 0.069625572744648326 0 0.0097918511520058132 0.07562260935734072 0 0.012133517673250202 0.07007821803711288 0 0.0075087848456164017 0.069625572744648326 0 0.00429115532384515 0.06993828190386249 0 0.0059863284001279212 0.074037805923419894 0 0.0075087848456164017 0.069625572744648326 0 0.0034451561870056744 0.068137449991574381 0 0.0075087848456164017 0.069625572744648326 0 0.0066915870084375117 0.064994558962725171 0 0.010610333729031654 0.065674581588547679 0 0.0075087848456164017 0.069625572744648326 0 0.0066915870084375117 0.064994558962725171 0 0.0040895972538163971 0.061525638365681382 0 0.0066915870084375117 0.064994558962725171 0 0.010797182215591651 0.059984996836614311 0 0.010610333729031654 0.065674581588547679 0 0.0066915870084375117 0.064994558962725171 0 0.010797182215591651 0.059984996836614311 0 0.01552380443272019 0.064510113706712224 0 0.010610333729031654 0.065674581588547679 0 0.010797182215591651 0.059984996836614311 0 0.010001660043901194 0.059032634090129585 0 0.009867120426738608 0.053234855769475661 0 0.015450629083067637 0.051601508831123091 0 0.004599971153692017 0.055242621711498456 0 0.010001660043901194 0.059032634090129585 0 0.009867120426738608 0.053234855769475661 0 0.004599971153692017 0.055242621711498456 0 0.009867120426738608 0.053234855769475661 0 0.0076390873983022698 0.045845699413674446 0 0.009867120426738608 0.053234855769475661 0 0.0076390873983022698 0.045845699413674446 0 0.015450629083067637 0.051601508831123091 0 0.014266026865353231 0.047456653224283107 0 0.017459192451223623 0.046994045110397738 0 0.0076390873983022698 0.045845699413674446 0 0.02246347865753175 0.045598254789891435 0 0.015450629083067637 0.051601508831123091 0 0.019496239573703316 0.04220701233924895 0 0.015268821986095098 0.043587594356557832 0 0.02246347865753175 0.045598254789891435 0 0.02246347865753175 0.045598254789891435 0 0.015450629083067637 0.051601508831123091 0 0.02418255245258857 0.051641388325966334 0 0.01552380443272019 0.064510113706712224 0 0.010797182215591651 0.059984996836614311 0 0.021410446099586103 0.059117200923125002 0 0.015034387480179611 0.060313019587538909 0 0.016278371135472029 0.060152178379225783 0 0.015450629083067637 0.051601508831123091 0 0.021410446099586103 0.059117200923125002 0 0.02418255245258857 0.051641388325966334 0 0.010001660043901194 0.059032634090129585 0 0.015450629083067637 0.051601508831123091 0 0.021410446099586103 0.059117200923125002 0 0.021410446099586103 0.059117200923125002 0 0.031340193529413814 0.057357872064875505 0 0.025557698089602416 0.064403351290526711 0 0.021410446099586103 0.059117200923125002 0 0.031340193529413814 0.057357872064875505 0 0.02418255245258857 0.051641388325966334 0 0.031340193529413814 0.057357872064875505 0 0.028844136079434615 0.067562802143748837 0 0.025557698089602416 0.064403351290526711 0 0.018859323728839639 0.030872747625913206 0 0.018735425816447153 0.03118319498371001 0 0.018882149904654387 0.03099198942252528 0 0.027450667624103402 0.043614205280078706 0 0.031340193529413814 0.057357872064875505 0 0.02418255245258857 0.051641388325966334 0 0.021260302986414008 0.040045705450642094 0 0.020776815922353482 0.047410671810884542 0 0.027450667624103402 0.043614205280078706 0 0.02246347865753175 0.045598254789891435 0 0.02418255245258857 0.051641388325966334 0 0.018939788615947979 0.030825009864268126 0 0.018882149904654387 0.03099198942252528 0 0.01894972140699281 0.030988307060912514 0 0.018939788615947979 0.030825009864268126 0 0.018859323728839639 0.030872747625913206 0 0.018882149904654387 0.03099198942252528 0 0.018882149904654387 0.03099198942252528 0 0.018907839870933613 0.031148134685342291 0 0.01894972140699281 0.030988307060912514 0 0.018735425816447153 0.03118319498371001 0 0.018882149904654387 0.03099198942252528 0 0.018907839870933613 0.031148134685342291 0 0.018735425816447153 0.03118319498371001 0 0.018907839870933613 0.031148134685342291 0 0.018847328643561586 0.031310119210201201 0 0.018907839870933613 0.031148134685342291 0 0.018847328643561586 0.031310119210201201 0 0.01899749419748414 0.031311753224677143 0 0.018735425816447153 0.03118319498371001 0 0.018847328643561586 0.031310119210201201 0 0.018737848060360239 0.031599321427715564 0 0.025539143499846727 0.081155967606660398 0 0.026019978620653271 0.081242688038214647 0 0.024887367416482963 0.081828973461255727 0 0.018667793386832096 0.060343054811860156 0 0.020715264232388904 0.056574992243278568 0 0.018847328643561586 0.031310119210201201 0 0.018737848060360239 0.031599321427715564 0 0.01899749419748414 0.031311753224677143 0 0.031340193529413814 0.057357872064875505 0 0.028844136079434615 0.067562802143748837 0 0.033658326532875898 0.072464938415880961 0 0.020776815922353482 0.047410671810884542 0 0.018667793386832096 0.060343054811860156 0 0.028844136079434615 0.067562802143748837 0 0.025557698089602416 0.064403351290526711 0 0.024961919387441883 0.070063946754800516 0 0.028844136079434615 0.067562802143748837 0 0.024961919387441883 0.070063946754800516 0 0.027699034100131831 0.073008707123956976 0 0.024961919387441883 0.070063946754800516 0 0.027699034100131831 0.073008707123956976 0 0.024439315028668231 0.074223034393875384 0 0.028844136079434615 0.067562802143748837 0 0.027699034100131831 0.073008707123956976 0 0.033658326532875898 0.072464938415880961 0 0.025933398757141065 0.081263707100689156 0 0.025965442366105197 0.081695308874677172 0 0.025756079255395751 0.082430885545978952 0 0.018667793386832096 0.060343054811860156 0 0.018767627609241982 0.060994196195183321 0 0.024368200847287629 0.079767814716415628 0 0.025961594684245578 0.081150394022818512 0 0.025933398757141065 0.081263707100689156 0 0.024368200847287629 0.079767814716415628 0 0.025933398757141065 0.081263707100689156 0 0.025965442366105197 0.081695308874677172 0 0.024368200847287629 0.079767814716415628 0 0.027699034100131831 0.073008707123956976 0 0.024439315028668231 0.074223034393875384 0 0.018342823106699744 0.063609294557509771 0 0.018667793386832096 0.060343054811860156 0 0.024368200847287629 0.079767814716415628 0 0.027699034100131831 0.073008707123956976 0 0.033658326532875898 0.072464938415880961 0 0.024368200847287629 0.079767814716415628 0 0.025965442366105197 0.081695308874677172 0 0.026763380110351096 0.083348502722320764 0 0.026761855107508638 0.08127344796607415 0 0.027303967473252231 0.080702419150733187 0 0.025539143499846727 0.081155967606660398 0 0.02473796443507276 0.080500007867321643 0 0.025248601920946804 0.080053970863573701 0 0.025539143499846727 0.081155967606660398 0 0.025933398757141065 0.081263707100689156 0 0.025756079255395751 0.082430885545978952 0 0.025539143499846727 0.081155967606660398 0 0.025248601920946804 0.080053970863573701 0 0.025946325714617403 0.079835263545794982 0 0.025539143499846727 0.081155967606660398 0 0.026019978620653271 0.081242688038214647 0 0.025933398757141065 0.081263707100689156 0 0.024097363430798366 0.080816556007735865 0 0.02473796443507276 0.080500007867321643 0 0.0246951673301159 0.081231027799710462 0 0.025539143499846727 0.081155967606660398 0 0.02473796443507276 0.080500007867321643 0 0.0246951673301159 0.081231027799710462 0 0.02473796443507276 0.080500007867321643 0 0.024128255495522308 0.080286953384745924 0 0.024648063502873213 0.079688680498268369 0 0.024097363430798366 0.080816556007735865 0 0.02473796443507276 0.080500007867321643 0 0.024128255495522308 0.080286953384745924 0 0.024097363430798366 0.080816556007735865 0 0.024128255495522308 0.080286953384745924 0 0.023645282478551116 0.080481405708450943 0 0.024128255495522308 0.080286953384745924 0 0.023645282478551116 0.080481405708450943 0 0.023561478098490494 0.079895292333188636 0 0.023645282478551116 0.080481405708450943 0 0.02300783507613342 0.080488013328243929 0 0.023561478098490494 0.079895292333188636 0 0.023645282478551116 0.080481405708450943 0 0.02344502962746213 0.081028371715615208 0 0.02300783507613342 0.080488013328243929 0 0.024097363430798366 0.080816556007735865 0 0.023645282478551116 0.080481405708450943 0 0.02344502962746213 0.081028371715615208 0 0.024097363430798366 0.080816556007735865 0 0.02344502962746213 0.081028371715615208 0 0.023766394135850168 0.081578577336031785 0 0.02344502962746213 0.081028371715615208 0 0.023766394135850168 0.081578577336031785 0 0.022847162725590918 0.081785538698976784 0 0.023766394135850168 0.081578577336031785 0 0.0246951673301159 0.081231027799710462 0 0.024887367416482963 0.081828973461255727 0 0.024097363430798366 0.080816556007735865 0 0.023766394135850168 0.081578577336031785 0 0.0246951673301159 0.081231027799710462 0 0.025539143499846727 0.081155967606660398 0 0.0246951673301159 0.081231027799710462 0 0.024887367416482963 0.081828973461255727 0 0.018907839870933613 0.031148134685342291 0 0.01899749419748414 0.031311753224677143 0 0.019005034256475945 0.031105618895529565 0 0.01899749419748414 0.031311753224677143 0 0.019005034256475945 0.031105618895529565 0 0.019091820918535313 0.031109950321473841 0 0.020715264232388904 0.056574992243278568 0 0.02040738966293246 0.054014815256938575 0 0.019003473101560635 0.030894980207977093 0 0.018939788615947979 0.030825009864268126 0 0.01894972140699281 0.030988307060912514 0 0.019003473101560635 0.030894980207977093 0 0.019005034256475945 0.031105618895529565 0 0.01894972140699281 0.030988307060912514 0 0.019003473101560635 0.030894980207977093 0 0.019005034256475945 0.031105618895529565 0 0.019091820918535313 0.031109950321473841 0 0.018907839870933613 0.031148134685342291 0 0.019005034256475945 0.031105618895529565 0 0.01894972140699281 0.030988307060912514 0 0.019003473101560635 0.030894980207977093 0 0.019089783645560562 0.030955646011530103 0 0.019091820918535313 0.031109950321473841 0 0.019089783645560562 0.030955646011530103 0 0.019091820918535313 0.031109950321473841 0 0.019219079688529751 0.030996998834583116 0 0.023766394135850168 0.081578577336031785 0 0.023599577864431287 0.082422526471531865 0 0.022847162725590918 0.081785538698976784 0 0.023766394135850168 0.081578577336031785 0 0.024887367416482963 0.081828973461255727 0 0.023599577864431287 0.082422526471531865 0 0.023599577864431287 0.082422526471531865 0 0.022656033621897869 0.082928641865294916 0 0.022847162725590918 0.081785538698976784 0 0.022829631985060925 0.071099463779014133 0 0.024605666282008228 0.073372002441708009 0 0.022229633186225659 0.074827319670588546 0 0.020869886477451985 0.049257311891326802 0 0.020265719357820216 0.072657030991551949 0 0.02040738966293246 0.054014815256938575 0 0.020869886477451985 0.049257311891326802 0 0.018853809379631593 0.030272509375347829 0 0.018773748508575737 0.03024899345747014 0 0.018770608676959965 0.030221050602460796 0 0.020869886477451985 0.049257311891326802 0 0.019124927976544907 0.05545424822169398 0 0.018706695221161512 0.030263102687460224 0 0.01880715882606826 0.030282812229730383 0 0.018773748508575737 0.03024899345747014 0 0.01880715882606826 0.030282812229730383 0 0.018853809379631593 0.030272509375347829 0 0.018773748508575737 0.03024899345747014 0 0.018773748508575737 0.03024899345747014 0 0.018770608676959965 0.030221050602460796 0 0.018693983755447303 0.030220091385287872 0 0.024605666282008228 0.073372002441708009 0 0.024699378150848383 0.074980019993048541 0 0.022229633186225659 0.074827319670588546 0 0.024605666282008228 0.073372002441708009 0 0.024699378150848383 0.074980019993048541 0 0.02616065052126194 0.075367340252375292 0 0.019124927976544907 0.05545424822169398 0 0.017605650902326634 0.063358143600251979 0 0.024699378150848383 0.074980019993048541 0 0.025093745451567343 0.076448871390032508 0 0.02616065052126194 0.075367340252375292 0 0.025093745451567343 0.076448871390032508 0 0.023579671418191884 0.075936511267032061 0 0.022953798059653772 0.077513232962900525 0 0.024699378150848383 0.074980019993048541 0 0.023579671418191884 0.075936511267032061 0 0.022229633186225659 0.074827319670588546 0 0.024699378150848383 0.074980019993048541 0 0.025093745451567343 0.076448871390032508 0 0.023579671418191884 0.075936511267032061 0 0.020265719357820216 0.072657030991551949 0 0.020882707095742633 0.077265737378582319 0 0.02344502962746213 0.081028371715615208 0 0.022847162725590918 0.081785538698976784 0 0.02300783507613342 0.080488013328243929 0 0.023579671418191884 0.075936511267032061 0 0.022229633186225659 0.074827319670588546 0 0.022953798059653772 0.077513232962900525 0 0.022229633186225659 0.074827319670588546 0 0.022953798059653772 0.077513232962900525 0 0.021884826337686826 0.078092540369448529 0 0.021884826337686826 0.078092540369448529 0 0.022904293344748562 0.078216844234082386 0 0.02232541466535826 0.078690198728300131 0 0.022953798059653772 0.077513232962900525 0 0.021884826337686826 0.078092540369448529 0 0.022904293344748562 0.078216844234082386 0 0.018015296167389477 0.066917541255625795 0 0.01799100753673661 0.069824555799945232 0 0.024429039424628946 0.076753674583014839 0 0.022953798059653772 0.077513232962900525 0 0.022904293344748562 0.078216844234082386 0 0.018015296167389477 0.066917541255625795 0 0.018769591662025735 0.06811079619002218 0 0.023821467174585984 0.07718327951691345 0 0.022904293344748562 0.078216844234082386 0 0.02346795890272723 0.07812609808770965 0 0.023821467174585984 0.07718327951691345 0 0.02346795890272723 0.07812609808770965 0 0.024477493257979304 0.076882027997749736 0 0.017719426901010058 0.073670178332320133 0 0.017255551438296352 0.065672946449219116 0 0.020569638523966333 0.081190574540120589 0 0.018994024227294477 0.081410079304646304 0 0.019507922017365679 0.08048544817122269 0 0.020569638523966333 0.081190574540120589 0 0.020480828499771932 0.079696726332696199 0 0.022317750578293966 0.079143830751945893 0 0.020480828499771932 0.079696726332696199 0 0.019714542134296433 0.078672456791698472 0 0.019062356078224471 0.079560629583029077 0 0.020480828499771932 0.079696726332696199 0 0.019062356078224471 0.079560629583029077 0 0.019507922017365679 0.08048544817122269 0 0.020569638523966333 0.081190574540120589 0 0.020480828499771932 0.079696726332696199 0 0.019507922017365679 0.08048544817122269 0 0.022904293344748562 0.078216844234082386 0 0.02346795890272723 0.07812609808770965 0 0.022317750578293966 0.079143830751945893 0 0.022904293344748562 0.078216844234082386 0 0.02232541466535826 0.078690198728300131 0 0.022317750578293966 0.079143830751945893 0 0.020480828499771932 0.079696726332696199 0 0.022317750578293966 0.079143830751945893 0 0.021274422117041926 0.079013460076444594 0 0.017719426901010058 0.073670178332320133 0 0.018427993980744423 0.075257944071935381 0 0.02232541466535826 0.078690198728300131 0 0.022317750578293966 0.079143830751945893 0 0.022757512107529465 0.079056891183622052 0 0.022317750578293966 0.079143830751945893 0 0.021274422117041926 0.079013460076444594 0 0.02192537812966373 0.078276316203167648 0 0.022317750578293966 0.079143830751945893 0 0.02192537812966373 0.078276316203167648 0 0.022757512107529465 0.079056891183622052 0 0.021274422117041926 0.079013460076444594 0 0.02192537812966373 0.078276316203167648 0 0.020767150825481601 0.077998020288424438 0 0.021274422117041926 0.079013460076444594 0 0.020767150825481601 0.077998020288424438 0 0.018672640245854993 0.077801760388149441 0 0.021274422117041926 0.079013460076444594 0 0.019714542134296433 0.078672456791698472 0 0.019276539509298817 0.076715838961066318 0 0.019390256421673389 0.078152809384764724 0 0.018097189491193478 0.07709586874154449 0 0.020480828499771932 0.079696726332696199 0 0.021274422117041926 0.079013460076444594 0 0.019714542134296433 0.078672456791698472 0 0.020767150825481601 0.077998020288424438 0 0.021093821765347211 0.076746039857750234 0 0.018672640245854993 0.077801760388149441 0 0.018973654271232598 0.0749993514966628 0 0.021093821765347211 0.076746039857750234 0 0.022565186104206419 0.074999896734895682 0 0.018973654271232598 0.0749993514966628 0 0.021093821765347211 0.076746039857750234 0 0.018672640245854993 0.077801760388149441 0 0.021093821765347211 0.076746039857750234 0 0.022565186104206419 0.074999896734895682 0 0.023937157845113771 0.077810198710120168 0 0.02192537812966373 0.078276316203167648 0 0.020767150825481601 0.077998020288424438 0 0.021093821765347211 0.076746039857750234 0 0.023107674075053732 0.077092456531812639 0 0.023989202905323567 0.077329602809431311 0 0.02192537812966373 0.078276316203167648 0 0.021093821765347211 0.076746039857750234 0 0.022699062347810859 0.077191001348557609 0 0.022699062347810859 0.077191001348557609 0 0.02351606874646632 0.078340939700907206 0 0.022721962295694998 0.078218986659265341 0 0.02192537812966373 0.078276316203167648 0 0.022699062347810859 0.077191001348557609 0 0.022721962295694998 0.078218986659265341 0 0.022699062347810859 0.077191001348557609 0 0.024179985916723452 0.077646998400638906 0 0.02351606874646632 0.078340939700907206 0 0.023989202905323567 0.077329602809431311 0 0.025744795174531872 0.077728730664174336 0 0.022565186104206419 0.074999896734895682 0 0.023937157845113771 0.077810198710120168 0 0.026157640933891248 0.074999969695037721 0 0.023937157845113771 0.077810198710120168 0 0.026157640933891248 0.074999969695037721 0 0.026693010552803726 0.078719162489779212 0 0.026156673528558664 0.075003107776388411 0 0.025744795174531872 0.077728730664174336 0 0.026157822259669394 0.07500013834214829 0 0.026784735921366466 0.078751825185183838 0 0.028705318135375031 0.077128118071525018 0 0.025744795174531872 0.077728730664174336 0 0.02742819693800164 0.07840144029150671 0 0.024368583069277017 0.077711740195677087 0 0.024516740895142955 0.078691902492854515 0 0.025483570733458204 0.078078971566547167 0 0.02436687806200287 0.078762228306270887 0 0.02351606874646632 0.078340939700907206 0 0.023746399106039495 0.079226685366197494 0 0.025744795174531872 0.077728730664174336 0 0.025521491398230779 0.078296018404973786 0 0.024179985916723452 0.077646998400638906 0 0.02436687806200287 0.078762228306270887 0 0.02351606874646632 0.078340939700907206 0 0.02351606874646632 0.078340939700907206 0 0.022721962295694998 0.078218986659265341 0 0.022757512107529465 0.079056891183622052 0 0.02192537812966373 0.078276316203167648 0 0.022721962295694998 0.078218986659265341 0 0.022757512107529465 0.079056891183622052 0 0.02351606874646632 0.078340939700907206 0 0.022757512107529465 0.079056891183622052 0 0.023746399106039495 0.079226685366197494 0 0.022757512107529465 0.079056891183622052 0 0.023746399106039495 0.079226685366197494 0 0.023561478098490494 0.079895292333188636 0 0.02300783507613342 0.080488013328243929 0 0.022757512107529465 0.079056891183622052 0 0.023561478098490494 0.079895292333188636 0 0.020882707095742633 0.077265737378582319 0 0.021207707720236262 0.077993121700188142 0 0.021884826337686826 0.078092540369448529 0 0.02232541466535826 0.078690198728300131 0 0.022757512107529465 0.079056891183622052 0 0.024128255495522308 0.080286953384745924 0 0.023561478098490494 0.079895292333188636 0 0.024648063502873213 0.079688680498268369 0 0.02473796443507276 0.080500007867321643 0 0.024648063502873213 0.079688680498268369 0 0.025248601920946804 0.080053970863573701 0 0.024516740895142955 0.078691902492854515 0 0.024648063502873213 0.079688680498268369 0 0.025417164541569556 0.079057221322094445 0 0.025521491398230779 0.078296018404973786 0 0.025472248860433869 0.078596329157404235 0 0.02436687806200287 0.078762228306270887 0 0.023746399106039495 0.079226685366197494 0 0.024648063502873213 0.079688680498268369 0 0.023746399106039495 0.079226685366197494 0 0.023561478098490494 0.079895292333188636 0 0.024648063502873213 0.079688680498268369 0 0.024648063502873213 0.079688680498268369 0 0.025248601920946804 0.080053970863573701 0 0.025417164541569556 0.079057221322094445 0 0.025248601920946804 0.080053970863573701 0 0.025946325714617403 0.079835263545794982 0 0.025417164541569556 0.079057221322094445 0 0.025946325714617403 0.079835263545794982 0 0.026585381696700543 0.078446967913083809 0 0.025417164541569556 0.079057221322094445 0 0.025756079255395751 0.082430885545978952 0 0.026703362587816065 0.078859243607709711 0 0.028290338209096679 0.081061485338942474 0 0.025965442366105197 0.081695308874677172 0 0.025756079255395751 0.082430885545978952 0 0.026763380110351096 0.083348502722320764 0 0.025756079255395751 0.082430885545978952 0 0.026763380110351096 0.083348502722320764 0 0.028290338209096679 0.081061485338942474 0 0.027303967473252231 0.080702419150733187 0 0.029044476429056065 0.078937109128788457 0 0.029044476429056065 0.078937109128788457 0 0.02742819693800164 0.07840144029150671 0 0.026585381696700543 0.078446967913083809 0 0.025417164541569556 0.079057221322094445 0 0.025483570733458204 0.078078971566547167 0 0.024516740895142955 0.078691902492854515 0 0.025417164541569556 0.079057221322094445 0 0.025483570733458204 0.078078971566547167 0 0.026784735921366466 0.078751825185183838 0 0.029290498017513801 0.079560786158552693 0 0.028705318135375031 0.077128118071525018 0 0.029290498017513801 0.079560786158552693 0 0.028705318135375031 0.077128118071525018 0 0.03061538310127004 0.077945872801153865 0 0.030273185787094651 0.074999615406891346 0 0.028705318135375031 0.077128118071525018 0 0.03061538310127004 0.077945872801153865 0 0.026157822259669394 0.07500013834214829 0 0.030273185787094651 0.074999615406891346 0 0.028705318135375031 0.077128118071525018 0 0.030273185787094651 0.074999615406891346 0 0.033013848186697885 0.077706240471063975 0 0.034250682886708135 0.074841240596736053 0 0.030273185787094651 0.074999615406891346 0 0.03061538310127004 0.077945872801153865 0 0.033013848186697885 0.077706240471063975 0 0.029044476429056065 0.078937109128788457 0 0.030686125545572006 0.077437883049565545 0 0.031806577391073773 0.080381129615308702 0 0.03061538310127004 0.077945872801153865 0 0.033013848186697885 0.077706240471063975 0 0.031806577391073773 0.080381129615308702 0 0.029290498017513801 0.079560786158552693 0 0.03061538310127004 0.077945872801153865 0 0.031130717028296874 0.079507243302458744 0 0.032197256227592737 0.077370026012842166 0 0.032434292567236636 0.07896592961130558 0 0.032197256227592737 0.077370026012842166 0 0.03428302778884481 0.076385125193063758 0 0.034623860140891576 0.078531948990533715 0 0.032197256227592737 0.077370026012842166 0 0.034623860140891576 0.078531948990533715 0 0.032434292567236636 0.07896592961130558 0 0.032197256227592737 0.077370026012842166 0 0.03428302778884481 0.076385125193063758 0 0.034248952084351948 0.074840638808767568 0 0.030686125545572006 0.077437883049565545 0 0.031392932712845149 0.076564049068052281 0 0.03428302778884481 0.076385125193063758 0 0.034248952084351948 0.074840638808767568 0 0.035991599442054503 0.076449324600159685 0 0.03850428381860798 0.074999331248817636 0 0.034248952084351948 0.074840638808767568 0 0.035991599442054503 0.076449324600159685 0 0.03428302778884481 0.076385125193063758 0 0.035991599442054503 0.076449324600159685 0 0.034623860140891576 0.078531948990533715 0 0.03844997281762718 0.077742059069591293 0 0.035991599442054503 0.076449324600159685 0 0.034623860140891576 0.078531948990533715 0 0.037739284500736298 0.080959314921307049 0 0.034623860140891576 0.078531948990533715 0 0.03513021214002842 0.082030649667826652 0 0.034623860140891576 0.078531948990533715 0 0.032356496360915754 0.080269925061803915 0 0.03513021214002842 0.082030649667826652 0 0.031130717028296874 0.079507243302458744 0 0.032434292567236636 0.07896592961130558 0 0.032356496360915754 0.080269925061803915 0 0.029044476429056065 0.078937109128788457 0 0.030087742107235301 0.079314885023657966 0 0.034623860140891576 0.078531948990533715 0 0.032434292567236636 0.07896592961130558 0 0.032356496360915754 0.080269925061803915 0 0.026703362587816065 0.078859243607709711 0 0.028290338209096679 0.081061485338942474 0 0.032356496360915754 0.080269925061803915 0 0.028290338209096679 0.081061485338942474 0 0.032356496360915754 0.080269925061803915 0 0.033141698313435296 0.084910696769698146 0 0.026063662009047788 0.078124448678474373 0 0.026073303979542755 0.077223127723134083 0 0.026763380110351096 0.083348502722320764 0 0.028290338209096679 0.081061485338942474 0 0.033141698313435296 0.084910696769698146 0 0.032356496360915754 0.080269925061803915 0 0.03513021214002842 0.082030649667826652 0 0.033141698313435296 0.084910696769698146 0 0.037533572468739125 0.085488854423350996 0 0.03513021214002842 0.082030649667826652 0 0.033141698313435296 0.084910696769698146 0 0.0053870660230904265 0.061218730974531975 0 0.0050348469654202021 0.061157139370905229 0 0.0052217813464322067 0.061471175815234952 0 0.0053870660230904265 0.061218730974531975 0 0.0050348469654202021 0.061157139370905229 0 0.0052457000416695505 0.060882343566250281 0 0.0053870660230904265 0.061218730974531975 0 0.0057363882128483026 0.061079091614081572 0 0.005516406645683313 0.060907846813219493 0 0.0050348469654202021 0.061157139370905229 0 0.0049466875699936555 0.061481105796719712 0 0.004782864555805919 0.061257769072634013 0 0.0050348469654202021 0.061157139370905229 0 0.0049466875699936555 0.061481105796719712 0 0.0052217813464322067 0.061471175815234952 0 0.0049466875699936555 0.061481105796719712 0 0.0052217813464322067 0.061471175815234952 0 0.0051570823312446059 0.06178441164970154 0 0.0049466875699936555 0.061481105796719712 0 0.0051570823312446059 0.06178441164970154 0 0.0049828026835962236 0.061886997742910885 0 0.0053870660230904265 0.061218730974531975 0 0.0052217813464322067 0.061471175815234952 0 0.0055003077907033451 0.061596411330034941 0 0.0052217813464322067 0.061471175815234952 0 0.0055003077907033451 0.061596411330034941 0 0.0051570823312446059 0.06178441164970154 0 -0.0039622604318139357 0.061065093864327326 0 -0.0024945997304602271 0.061958404872903342 0 -0.01147957943812492 0.062724324502775985 0 -0.011345749777181804 0.063749361539849767 0 -0.010311352455826064 0.061760449129855878 0 0.0051041585029960954 0.060902068199675564 0 0.0055038474719826371 0.060083915223053001 0 0.0054444723725702209 0.061412668813726708 0 0.006149221439907428 0.059848121277404527 0 0.0055038474719826371 0.060083915223053001 0 0.0054444723725702209 0.061412668813726708 0 -0.011250179954977898 0.06189484236845428 0 -0.01147957943812492 0.062724324502775985 0 -0.010311352455826064 0.061760449129855878 0 -0.0014386453993623927 0.072627281163019169 0 -0.0062503137804053553 0.070540488887190542 0 0.0016542907875982771 0.066403661053087801 0 0.0012082744873352965 0.065339200739513839 0 -0.00095964394479824326 0.068271700370552899 0 -0.011250179954977898 0.06189484236845428 0 -0.01147957943812492 0.062724324502775985 0 -0.012488924748874079 0.062802366337991813 0 -0.0040589663198990064 0.066030895149186281 0 -0.0062503137804053553 0.070540488887190542 0 -0.01147957943812492 0.062724324502775985 0 -0.01196701321045617 0.063406381750080912 0 -0.012488924748874079 0.062802366337991813 0 -0.01147957943812492 0.062724324502775985 0 -0.01196701321045617 0.063406381750080912 0 -0.011345749777181804 0.063749361539849767 0 -0.01196701321045617 0.063406381750080912 0 -0.011345749777181804 0.063749361539849767 0 -0.012010106203785889 0.064108410870474322 0 -0.01196701321045617 0.063406381750080912 0 -0.012010106203785889 0.064108410870474322 0 -0.012504562777834407 0.063872844344512167 0 0.0055370022874600506 0.060622804219584693 0 0.0060449433576253413 0.058890367451407098 0 0.0053870660230904265 0.061218730974531975 0 0.0055003077907033451 0.061596411330034941 0 0.0057363882128483026 0.061079091614081572 0 0.0051041585029960954 0.060902068199675564 0 0.0055038474719826371 0.060083915223053001 0 0.0053523099433969296 0.059518812739735492 0 0.006149221439907428 0.059848121277404527 0 0.0055038474719826371 0.060083915223053001 0 0.0051912021861689273 0.059365512199568773 0 0.0060377751605285874 0.058991610067523598 0 0.0060449433576253413 0.058890367451407098 0 0.0060449433576253413 0.058890367451407098 0 0.006721895853374662 0.056841297880350104 0 0.0048782436255867161 0.059051903119583853 0 0.0045296808032085139 0.057454148672366333 0 0.0055004038950987513 0.056825549120184393 0 0.0057363882128483026 0.061079091614081572 0 0.0056851815257159162 0.060639034153026253 0 0.005516406645683313 0.060907846813219493 0 0.0051912021861689273 0.059365512199568773 0 0.0061192377754836257 0.058263987415409162 0 0.0055990355010270337 0.057066252967317446 0 0.0060449433576253413 0.058890367451407098 0 0.0060643649494093567 0.057178675692976376 0 0.006149221439907428 0.059848121277404527 0 0.0051912021861689273 0.059365512199568773 0 0.0061192377754836257 0.058263987415409162 0 -0.011345749777181804 0.063749361539849767 0 -0.012010106203785889 0.064108410870474322 0 -0.012382250299098462 0.065508476598216805 0 0.006149221439907428 0.059848121277404527 0 0.0061192377754836257 0.058263987415409162 0 0.0073008759553334721 0.057436656726013578 0 -0.0039622604318139357 0.061065093864327326 0 -0.006575679067987901 0.059866188612954438 0 -0.012010106203785889 0.064108410870474322 0 -0.012382250299098462 0.065508476598216805 0 -0.012387106516051837 0.064480626692404841 0 0.0061192377754836257 0.058263987415409162 0 0.0064796026340519968 0.057251208463871793 0 0.0073008759553334721 0.057436656726013578 0 0.0061192377754836257 0.058263987415409162 0 0.0064796026340519968 0.057251208463871793 0 0.0055990355010270337 0.057066252967317446 0 0.0064796026340519968 0.057251208463871793 0 0.0064134497011066431 0.056752046026154801 0 0.0055990355010270337 0.057066252967317446 0 0.0065047135805733599 0.0559945103550629 0 0.0064134497011066431 0.056752046026154801 0 0.0055990355010270337 0.057066252967317446 0 0.0070702983148892137 0.056197893311543339 0 0.0064796026340519968 0.057251208463871793 0 0.0073008759553334721 0.057436656726013578 0 0.0070702983148892137 0.056197893311543339 0 0.0064796026340519968 0.057251208463871793 0 0.0064134497011066431 0.056752046026154801 0 0.0070702983148892137 0.056197893311543339 0 0.0065047135805733599 0.0559945103550629 0 0.0064134497011066431 0.056752046026154801 0 0.0041821381092153539 0.05584248992831492 0 0.0045296808032085139 0.057454148672366333 0 0.0049544762014367997 0.056535815953633516 0 0.0074628753824714875 0.052481176011938753 0 0.006721895853374662 0.056841297880350104 0 0.0045296808032085139 0.057454148672366333 0 0.0055004038950987513 0.056825549120184393 0 0.0049544762014367997 0.056535815953633516 0 0.0048639517095354044 0.055962600462242357 0 0.0055004038950987513 0.056825549120184393 0 0.0049544762014367997 0.056535815953633516 0 0.0041025268326696177 0.05581766219399633 0 0.0048639517095354044 0.055962600462242357 0 0.0049544762014367997 0.056535815953633516 0 0.0074628753824714875 0.052481176011938753 0 0.0073645859363824194 0.052709573706651379 0 0.0054268234540985078 0.060504115642673141 0 0.0052457000416695505 0.060882343566250281 0 0.0051339027774510229 0.060418899259465961 0 0.0053030209171151714 0.060226275073038071 0 0.0056132134745793478 0.060197932141526536 0 0.0054268234540985078 0.060504115642673141 0 0.0056132134745793478 0.060197932141526536 0 0.0056851815257159162 0.060639034153026253 0 0.0054268234540985078 0.060504115642673141 0 0.0053030209171151714 0.060226275073038071 0 0.0054268234540985078 0.060504115642673141 0 0.0051339027774510229 0.060418899259465961 0 0.0054268234540985078 0.060504115642673141 0 0.0052457000416695505 0.060882343566250281 0 0.005516406645683313 0.060907846813219493 0 0.0056851815257159162 0.060639034153026253 0 0.0054268234540985078 0.060504115642673141 0 0.005516406645683313 0.060907846813219493 0 0.0053870660230904265 0.061218730974531975 0 0.0052457000416695505 0.060882343566250281 0 0.005516406645683313 0.060907846813219493 0 0.0052457000416695505 0.060882343566250281 0 0.0049322449640195496 0.060832461355767697 0 0.0051339027774510229 0.060418899259465961 0 0.0050348469654202021 0.061157139370905229 0 0.0049322449640195496 0.060832461355767697 0 0.0048117913700444475 0.061054924502157298 0 0.0050348469654202021 0.061157139370905229 0 0.0052457000416695505 0.060882343566250281 0 0.0049322449640195496 0.060832461355767697 0 0.0050415453832432363 0.060102701319128433 0 0.0051339027774510229 0.060418899259465961 0 0.004841875628288056 0.060337088441537456 0 0.0051339027774510229 0.060418899259465961 0 0.004841875628288056 0.060337088441537456 0 0.0047101756144903115 0.060590199127769806 0 0.012810673372632796 0.047243515387324686 0 0.010115459458689392 0.057981934205473547 0 0.0049322449640195496 0.060832461355767697 0 0.0051339027774510229 0.060418899259465961 0 0.0046277960599397693 0.060766064327078831 0 0.0070965316844100335 0.05948140403366068 0 0.010115459458689392 0.057981934205473547 0 0.0046224896648482333 0.06009980308096545 0 0.004841875628288056 0.060337088441537456 0 0.0047101756144903115 0.060590199127769806 0 0.016228251154582238 0.056263026109137942 0 0.016482492722932472 0.057966294632013929 0 0.014777444235350693 0.057798387468630176 0 0.012810673372632796 0.047243515387324686 0 0.018449141609618105 0.049203219594242245 0 0.018563082600756332 0.030256166736476776 0 0.018357273814921114 0.030287680477154116 0 0.018571171894705148 0.030206209763321969 0 0.016482492722932472 0.057966294632013929 0 0.014777444235350693 0.057798387468630176 0 0.014785276142246548 0.058153727929216074 0 0.010115459458689392 0.057981934205473547 0 0.011832074627578145 0.061543294850716843 0 0.016482492722932472 0.057966294632013929 0 0.014785276142246548 0.058153727929216074 0 0.015075786385401252 0.058701314896086008 0 0.0045188126974026362 0.061031362815355657 0 0.0046572741543759013 0.060832907963965996 0 0.0043368857692642135 0.061006533119654628 0 0.0045188126974026362 0.061031362815355657 0 0.0046634422796818396 0.060924083796065016 0 0.004662982501142895 0.06110044724129466 0 0.0046634422796818396 0.060924083796065016 0 0.0048117913700444475 0.061054924502157298 0 0.004662982501142895 0.06110044724129466 0 0.0049322449640195496 0.060832461355767697 0 0.0046634422796818396 0.060924083796065016 0 0.0048117913700444475 0.061054924502157298 0 0.0049322449640195496 0.060832461355767697 0 0.0046634422796818396 0.060924083796065016 0 0.0046277960599397693 0.060766064327078831 0 0.0045188126974026362 0.061031362815355657 0 0.0046634422796818396 0.060924083796065016 0 0.0046572741543759013 0.060832907963965996 0 0.010046825557398982 0.058112445352784002 0 0.010115459458689392 0.057981934205473547 0 0.018706695221161512 0.030263102687460224 0 0.018773748508575737 0.03024899345747014 0 0.018693983755447303 0.030220091385287872 0 0.018563082600756332 0.030256166736476776 0 0.018706695221161512 0.030263102687460224 0 0.018693983755447303 0.030220091385287872 0 0.018563082600756332 0.030256166736476776 0 0.018693983755447303 0.030220091385287872 0 0.018571171894705148 0.030206209763321969 0 0.014785276142246548 0.058153727929216074 0 0.015075786385401252 0.058701314896086008 0 0.013627556525668398 0.059468153466098246 0 0.014777444235350693 0.057798387468630176 0 0.014785276142246548 0.058153727929216074 0 0.013422456568821555 0.059296405913605466 0 0.01688769412606015 0.062709535612907957 0 0.016497827008162453 0.064852267701253935 0 0.018770608676959965 0.030221050602460796 0 0.018693983755447303 0.030220091385287872 0 0.018710155307474153 0.030198891098805532 0 0.018449141609618105 0.049203219594242245 0 0.017605650902326634 0.063358143600251979 0 0.018693983755447303 0.030220091385287872 0 0.018571171894705148 0.030206209763321969 0 0.018710155307474153 0.030198891098805532 0 0.014785276142246548 0.058153727929216074 0 0.013422456568821555 0.059296405913605466 0 0.013743832077164488 0.059403565101702131 0 0.01968477054335686 0.066334406716024627 0 0.017372972597955678 0.068667347136134718 0 0.016507613518261077 0.067595879758135968 0 0.018015296167389477 0.066917541255625795 0 0.017605650902326634 0.063358143600251979 0 0.018015296167389477 0.066917541255625795 0 0.017255551438296352 0.065672946449219116 0 0.013422456568821555 0.059296405913605466 0 0.013743832077164488 0.059403565101702131 0 0.013622056214873401 0.059540499638214124 0 0.017605650902326634 0.063358143600251979 0 0.017255551438296352 0.065672946449219116 0 0.016497827008162453 0.064852267701253935 0 0.017255551438296352 0.065672946449219116 0 0.0035495086202336902 0.061286548049677383 0 0.0034267212646480589 0.061394182630773078 0 0.0040551490921144498 0.061374941897084936 0 0.011832074627578145 0.061543294850716843 0 0.016497827008162453 0.064852267701253935 0 0.0034267212646480589 0.061394182630773078 0 0.0040551490921144498 0.061374941897084936 0 0.004075410851536604 0.062533907967837268 0 0.0043368857692642135 0.061006533119654628 0 0.0035495086202336902 0.061286548049677383 0 0.0040551490921144498 0.061374941897084936 0 0.0040551490921144498 0.061374941897084936 0 0.0043773078912369544 0.061274171252480331 0 0.0044391772140869165 0.061591956371100008 0 0.0043368857692642135 0.061006533119654628 0 0.0040551490921144498 0.061374941897084936 0 0.0043773078912369544 0.061274171252480331 0 0.004075410851536604 0.062533907967837268 0 0.0054410384564139071 0.062528707011139203 0 0.0050864430012883344 0.063905540346873027 0 0.0040551490921144498 0.061374941897084936 0 0.004075410851536604 0.062533907967837268 0 0.0054410384564139071 0.062528707011139203 0 0.004301499517222326 0.062867225437938712 0 0.0048698542627504723 0.063693580681343981 0 0.018806877822201289 0.083067229940946882 0 0.017517432184396494 0.081508515687075594 0 0.018994024227294477 0.081410079304646304 0 0.017255551438296352 0.065672946449219116 0 0.014057321124224843 0.068953176613688272 0 0.020569638523966333 0.081190574540120589 0 0.018806877822201289 0.083067229940946882 0 0.018994024227294477 0.081410079304646304 0 0.017517432184396494 0.081508515687075594 0 0.018994024227294477 0.081410079304646304 0 0.018433646061597961 0.080561471871427245 0 0.018994024227294477 0.081410079304646304 0 0.019507922017365679 0.08048544817122269 0 0.018433646061597961 0.080561471871427245 0 0.004782864555805919 0.061257769072634013 0 0.0045683499408808344 0.061292152995692066 0 0.0046883611954366732 0.061501666889740299 0 0.0049466875699936555 0.061481105796719712 0 0.004782864555805919 0.061257769072634013 0 0.0046883611954366732 0.061501666889740299 0 0.0050348469654202021 0.061157139370905229 0 0.0048117913700444475 0.061054924502157298 0 0.004782864555805919 0.061257769072634013 0 0.0048117913700444475 0.061054924502157298 0 0.004782864555805919 0.061257769072634013 0 0.004662982501142895 0.06110044724129466 0 0.004782864555805919 0.061257769072634013 0 0.004662982501142895 0.06110044724129466 0 0.0045683499408808344 0.061292152995692066 0 0.0043773078912369544 0.061274171252480331 0 0.0045683499408808344 0.061292152995692066 0 0.0044391772140869165 0.061591956371100008 0 0.0045188126974026362 0.061031362815355657 0 0.0043773078912369544 0.061274171252480331 0 0.0045683499408808344 0.061292152995692066 0 0.0045188126974026362 0.061031362815355657 0 0.004662982501142895 0.06110044724129466 0 0.0045683499408808344 0.061292152995692066 0 0.0045188126974026362 0.061031362815355657 0 0.0043368857692642135 0.061006533119654628 0 0.0043773078912369544 0.061274171252480331 0 0.0045683499408808344 0.061292152995692066 0 0.0044391772140869165 0.061591956371100008 0 0.0046883611954366732 0.061501666889740299 0 0.0070770376006760545 0.064466233399029987 0 0.0068674352479259296 0.066612377807044543 0 0.0044391772140869165 0.061591956371100008 0 0.0046883611954366732 0.061501666889740299 0 0.0047484703430254295 0.061876211973537966 0 0.0049466875699936555 0.061481105796719712 0 0.0046883611954366732 0.061501666889740299 0 0.0047484703430254295 0.061876211973537966 0 0.0068674352479259296 0.066612377807044543 0 0.0058239222195032971 0.069113573425016478 0 0.0069238518910729376 0.06388893550543942 0 0.0050864430012883344 0.063905540346873027 0 0.0061842431096967359 0.065291269311360534 0 0.0048698542627504723 0.063693580681343981 0 0.0068674352479259296 0.066612377807044543 0 0.0054410384564139071 0.062528707011139203 0 0.0069238518910729376 0.06388893550543942 0 0.0050864430012883344 0.063905540346873027 0 0.0161955466383891 0.07992120344955965 0 0.016157586083254599 0.077862390101884463 0 0.014875506410963 0.078306821221626993 0 0.011625642233134515 0.070753122666613238 0 0.0092840279351130584 0.071852520633071668 0 0.016157586083254599 0.077862390101884463 0 0.014875506410963 0.078306821221626993 0 0.015710113672251065 0.076755089077878383 0 0.0074736632731658087 0.072013286293743359 0 0.0075596853044053352 0.071862614116494986 0 0.0073332337265035125 0.071893180139962737 0 0.0075596853044053352 0.071862614116494986 0 0.0074553724654025585 0.071738444410741592 0 0.0073332337265035125 0.071893180139962737 0 0.0092840279351130584 0.071852520633071668 0 0.0091547069568102095 0.07302836932288051 0 0.0068674352479259296 0.066612377807044543 0 0.0092840279351130584 0.071852520633071668 0 0.019062356078224471 0.079560629583029077 0 0.019507922017365679 0.08048544817122269 0 0.018433646061597961 0.080561471871427245 0 0.019062356078224471 0.079560629583029077 0 0.018433646061597961 0.080561471871427245 0 0.017547386669104943 0.079621611926247143 0 0.014057321124224843 0.068953176613688272 0 0.011625642233134515 0.070753122666613238 0 0.017517432184396494 0.081508515687075594 0 0.0161955466383891 0.07992120344955965 0 0.017547386669104943 0.079621611926247143 0 0.017517432184396494 0.081508515687075594 0 0.018433646061597961 0.080561471871427245 0 0.017547386669104943 0.079621611926247143 0 0.0161955466383891 0.07992120344955965 0 0.017547386669104943 0.079621611926247143 0 0.017248430030695507 0.078363411873159289 0 0.0161955466383891 0.07992120344955965 0 0.016157586083254599 0.077862390101884463 0 0.017248430030695507 0.078363411873159289 0 0.016157586083254599 0.077862390101884463 0 0.017248430030695507 0.078363411873159289 0 0.016881336790915663 0.077376211764717914 0 0.017248430030695507 0.078363411873159289 0 0.018460378319217166 0.078309073621292413 0 0.017690495199976983 0.077044372204000164 0 0.017547386669104943 0.079621611926247143 0 0.017248430030695507 0.078363411873159289 0 0.018460378319217166 0.078309073621292413 0 0.019714542134296433 0.078672456791698472 0 0.018460378319217166 0.078309073621292413 0 0.019276539509298817 0.076715838961066318 0 0.019062356078224471 0.079560629583029077 0 0.017547386669104943 0.079621611926247143 0 0.018460378319217166 0.078309073621292413 0 0.019714542134296433 0.078672456791698472 0 0.019062356078224471 0.079560629583029077 0 0.018460378319217166 0.078309073621292413 0 0.019276539509298817 0.076715838961066318 0 0.017690495199976983 0.077044372204000164 0 0.017142855658337008 0.075752798586300185 0 0.018460378319217166 0.078309073621292413 0 0.019276539509298817 0.076715838961066318 0 0.017690495199976983 0.077044372204000164 0 0.017690495199976983 0.077044372204000164 0 0.017012270830223882 0.076715475155660434 0 0.017142855658337008 0.075752798586300185 0 0.017248430030695507 0.078363411873159289 0 0.017690495199976983 0.077044372204000164 0 0.016881336790915663 0.077376211764717914 0 0.016157586083254599 0.077862390101884463 0 0.016881336790915663 0.077376211764717914 0 0.01633448352909949 0.076686695412031977 0 0.017690495199976983 0.077044372204000164 0 0.016881336790915663 0.077376211764717914 0 0.017012270830223882 0.076715475155660434 0 0.016881336790915663 0.077376211764717914 0 0.017012270830223882 0.076715475155660434 0 0.01633448352909949 0.076686695412031977 0 0.017012270830223882 0.076715475155660434 0 0.017142855658337008 0.075752798586300185 0 0.01633448352909949 0.076686695412031977 0 0.017142855658337008 0.075752798586300185 0 0.01633448352909949 0.076686695412031977 0 0.015704215896100254 0.076756952867098452 0 0.019276539509298817 0.076715838961066318 0 0.017142855658337008 0.075752798586300185 0 0.017249155819682418 0.074519718472217056 0 0.017142855658337008 0.075752798586300185 0 0.016892521526043928 0.074540264051714863 0 0.015704215896100254 0.076756952867098452 0 0.017142855658337008 0.075752798586300185 0 0.016892521526043928 0.074540264051714863 0 0.017249155819682418 0.074519718472217056 0 0.01492263177100033 0.074999412117489103 0 0.014851614979095408 0.075131340455439483 0 0.015311210543150735 0.074793280405823587 0 0.014678969834464844 0.074851607913095225 0 0.015242704601362532 0.07498002435046254 0 0.014915604049171034 0.074996158337835836 0 0.014678969834464844 0.074851607913095225 0 0.018973654271232598 0.0749993514966628 0 0.018672640245854993 0.077801760388149441 0 0.01531186824172312 0.074793457045043671 0 0.018097189491193478 0.07709586874154449 0 0.015242704601362532 0.07498002435046254 0 0.0096771078751175157 0.074935411896530371 0 0.010969145863558606 0.074790850978738985 0 0.010190272051052725 0.074252565274752561 0 0.0091547069568102095 0.07302836932288051 0 0.011314165779413318 0.07347405969056095 0 0.0094090074565514534 0.074604741448046533 0 0.010190272051052725 0.074252565274752561 0 0.0093681658647593227 0.074034458523967714 0 0.0094090074565514534 0.074604741448046533 0 0.0096771078751175157 0.074935411896530371 0 0.010190272051052725 0.074252565274752561 0 0.0092009025257127237 0.073104318606201951 0 0.0091547069568102095 0.07302836932288051 0 0.0092840279351130584 0.071852520633071668 0 0.011314165779413318 0.07347405969056095 0 0.009941367243371772 0.073623034159601017 0 0.0098502107906092602 0.073512408380383573 0 0.010013447015772716 0.073494243513934465 0 0.016157586083254599 0.077862390101884463 0 0.01633448352909949 0.076686695412031977 0 0.015710113672251065 0.076755089077878383 0 0.011571590143058783 0.073500568261527802 0 0.011314165779413318 0.07347405969056095 0 0.011770608705869341 0.073313222187903176 0 0.010177418377236729 0.073400162788159168 0 0.010190272051052725 0.074252565274752561 0 0.014922317457309358 0.074999996136774674 0 0.014795378662066466 0.075235988890476724 0 0.011704556717825476 0.074999997286710821 0 0.014678969834464844 0.074851607913095225 0 0.011130235984509596 0.074767689476206503 0 0.014795378662066466 0.075235988890476724 0 0.011704556717825476 0.074999997286710821 0 0.011361348857682864 0.075430009355317157 0 0.011770608705869341 0.073313222187903176 0 0.010969145863558606 0.074790850978738985 0 0.010190272051052725 0.074252565274752561 0 0.014678969834464844 0.074851607913095225 0 0.011314165779413318 0.07347405969056095 0 0.011704556717825476 0.074999997286710821 0 0.011361348857682864 0.075430009355317157 0 0.0084868024428619432 0.074999993962981445 0 0.011130235984509596 0.074767689476206503 0 0.0083861916221325498 0.074806887842554681 0 0.010177418377236729 0.073400162788159168 0 0.0093681658647593227 0.074034458523967714 0 0.0085859650472339573 0.073489045720197321 0 0.010177418377236729 0.073400162788159168 0 0.010190272051052725 0.074252565274752561 0 0.0093681658647593227 0.074034458523967714 0 0.011361348857682864 0.075430009355317157 0 0.0084868024428619432 0.074999993962981445 0 0.0079277073265995798 0.075623640614807627 0 0.0085859650472339573 0.073489045720197321 0 0.0074463008872711102 0.074755884840779288 0 0.008479756150340011 0.074425513864512335 0 0.0084856528249872189 0.074998583593460219 0 0.0083861916221325498 0.074806887842554681 0 0.0084866268035887257 0.075000035034238979 0 0.0080341518457879464 0.074999956903445755 0 0.0079461996971102091 0.075517427964168549 0 0.0093681658647593227 0.074034458523967714 0 0.0085859650472339573 0.073489045720197321 0 0.008479756150340011 0.074425513864512335 0 0.0080341518457879464 0.074999956903445755 0 0.0079461996971102091 0.075517427964168549 0 0.0048091592767778102 0.07672056179354271 0 0.0079461996971102091 0.075517427964168549 0 0.0059312449776858572 0.077757866451395125 0 0.0048091592767778102 0.07672056179354271 0 0.0080307303814698798 0.075000093266780282 0 0.0049710611125214701 0.075525434534074065 0 0.0080339739032790694 0.075000003189509709 0 0.0040882395492569381 0.077090701892119001 0 0.0037741912189588798 0.074999980334557514 0 0.0083861916221325498 0.074806887842554681 0 0.0055326984633048363 0.074395427764120184 0 0.0055326984633048363 0.074395427764120184 0 0.0049710611125214701 0.075525434534074065 0 0.0074463008872711102 0.074755884840779288 0 0.0078602417977118935 0.075138533938631027 0 0.008479756150340011 0.074425513864512335 0 0.0055326984633048363 0.074395427764120184 0 0.005733654938353038 0.07325389508359717 0 0.0055192219879979711 0.073171266599263499 0 0.0055824177731109625 0.073228507993823466 0 0.0054528564217737044 0.073244654017596791 0 0.0051923005824193657 0.062034047640735855 0 0.0050421251689581953 0.062199593988639376 0 0.0043881693743583706 0.061752408028248232 0 0.005733654938353038 0.07325389508359717 0 0.0044265086737541575 0.074373907949617277 0 0.0055326984633048363 0.074395427764120184 0 0.0044265086737541575 0.074373907949617277 0 0.0049727297984932693 0.075647639124831426 0 0.0043477031765537496 0.076346690519862467 0 0.0041943997993501873 0.075651687666947076 0 0.0094090074565514534 0.074604741448046533 0 0.0096748032106541582 0.074932598003197376 0 0.0078602417977118935 0.075138533938631027 0 0.0094090074565514534 0.074604741448046533 0 0.0078602417977118935 0.075138533938631027 0 0.008479756150340011 0.074425513864512335 0 0.0091547069568102095 0.07302836932288051 0 0.005733654938353038 0.07325389508359717 0 0.0094090074565514534 0.074604741448046533 0 0.0093681658647593227 0.074034458523967714 0 0.008479756150340011 0.074425513864512335 0 0.0074553724654025585 0.071738444410741592 0 0.0071920976084553926 0.071772047933460079 0 0.0073332337265035125 0.071893180139962737 0 0.0049996520430592101 0.062092784028732258 0 0.0050882367013366844 0.062079790114051174 0 0.0049828026835962236 0.061886997742910885 0 0.0051923005824193657 0.062034047640735855 0 0.0049996520430592101 0.062092784028732258 0 0.0050882367013366844 0.062079790114051174 0 0.005733654938353038 0.07325389508359717 0 0.0058239222195032971 0.069113573425016478 0 -0.00088102881548380945 0.061754682401126366 0 -0.0020741514790126696 0.06244957385053701 0 0.0050421251689581953 0.062199593988639376 0 0.0051685235174728783 0.061980719511591592 0 0.0053643991631662667 0.061851119432691587 0 0.0050421251689581953 0.062199593988639376 0 0.0041519626445475563 0.064592428314774922 0 0.0041941341393407954 0.062726025000871405 0 0.0051923005824193657 0.062034047640735855 0 0.0050421251689581953 0.062199593988639376 0 0.0050882367013366844 0.062079790114051174 0 0.0050421251689581953 0.062199593988639376 0 0.0041941341393407954 0.062726025000871405 0 0.0043881693743583706 0.061752408028248232 0 0.0050421251689581953 0.062199593988639376 0 0.0050882367013366844 0.062079790114051174 0 0.0051685235174728783 0.061980719511591592 0 0.0055370022874600506 0.060622804219584693 0 0.0053872442275566127 0.061152594979622686 0 0.0050882367013366844 0.062079790114051174 0 0.0051685235174728783 0.061980719511591592 0 0.0051570823312446059 0.06178441164970154 0 0.0055003077907033451 0.061596411330034941 0 0.0051685235174728783 0.061980719511591592 0 0.0051570823312446059 0.06178441164970154 0 0.0050882367013366844 0.062079790114051174 0 0.0051570823312446059 0.06178441164970154 0 0.0049828026835962236 0.061886997742910885 0 0.0049466875699936555 0.061481105796719712 0 0.0047360476307351075 0.061899703339437478 0 0.0049828026835962236 0.061886997742910885 0 0.0047360476307351075 0.061899703339437478 0 0.0049996520430592101 0.062092784028732258 0 0.0049828026835962236 0.061886997742910885 0 3.9733329856336202e-05 0.082803605754141613 0 -0.0013021968772707684 0.081291141915337053 0 -0.0022566570354944225 0.082399938394785557 0 3.9733329856336202e-05 0.082803605754141613 0 0.0011281730474820215 0.081120744806534473 0 -1.9237085011669679e-05 0.081219793900987047 0 3.9733329856336202e-05 0.082803605754141613 0 -1.9237085011669679e-05 0.081219793900987047 0 -0.0013021968772707684 0.081291141915337053 0 0.0016542907875982771 0.066403661053087801 0 0.0012082744873352965 0.065339200739513839 0 0.0041519626445475563 0.064592428314774922 0 0.0051041585029960954 0.060902068199675564 0 0.0051685235174728783 0.061980719511591592 0 0.0054444723725702209 0.061412668813726708 0 0.0012082744873352965 0.065339200739513839 0 0.0041519626445475563 0.064592428314774922 0 0.0032749870283044239 0.062620280710161846 0 -0.0040589663198990064 0.066030895149186281 0 -0.0020741514790126696 0.06244957385053701 0 -0.011250179954977898 0.06189484236845428 0 -0.010311352455826064 0.061760449129855878 0 -0.0099333072964982987 0.060998339951425694 0 -0.0024945997304602271 0.061958404872903342 0 -0.0020741514790126696 0.06244957385053701 0 0.0051685235174728783 0.061980719511591592 0 0.0054444723725702209 0.061412668813726708 0 0.0053643991631662667 0.061851119432691587 0 -0.0014386453993623927 0.072627281163019169 0 0.0024716147839695148 0.074069365924279318 0 0.0017902616323302041 0.080391373843855224 0 5.9069062652292981e-05 0.079659255551788641 0 0.0027266109420689159 0.079333662234598853 0 3.9733329856336202e-05 0.082803605754141613 0 0.0011281730474820215 0.081120744806534473 0 0.0017957714009212227 0.080391779449380252 0 0.0022033490008978108 0.074489391199209096 0 0.0024716147839695148 0.074069365924279318 0 0.0041519626445475563 0.064592428314774922 0 0.0041941341393407954 0.062726025000871405 0 0.0032749870283044239 0.062620280710161846 0 0.0024716147839695148 0.074069365924279318 0 0.0044265086737541575 0.074373907949617277 0 0.0041941341393407954 0.062726025000871405 0 0.0032749870283044239 0.062620280710161846 0 0.0043881693743583706 0.061752408028248232 0 0.0011281730474820215 0.081120744806534473 0 0.0017902616323302041 0.080391373843855224 0 5.9069062652292981e-05 0.079659255551788641 0 0.0011281730474820215 0.081120744806534473 0 5.9069062652292981e-05 0.079659255551788641 0 -1.9237085011669679e-05 0.081219793900987047 0 5.9069062652292981e-05 0.079659255551788641 0 -1.9237085011669679e-05 0.081219793900987047 0 -0.0013021968772707684 0.081291141915337053 0 0.002298651396198806 0.076585849882281634 0 0.0021489573734236192 0.075804494411769105 0 0.00023747626921779324 0.076825353781914518 0 0.002298651396198806 0.076585849882281634 0 0.0021489573734236192 0.075804494411769105 0 0.0034062154087352095 0.075820126151078485 0 0.0012535066724673552 0.078569451009017049 0 0.0015534570708030657 0.076594826115042702 0 -0.00031928259388840275 0.077829422174519797 0 0.0021489573734236192 0.075804494411769105 0 0.0034062154087352095 0.075820126151078485 0 0.0040498468297634899 0.074792265620109599 0 0.0019106263453393889 0.076884793601251639 0 0.0049710611125214701 0.075525434534074065 0 0.002298651396198806 0.076585849882281634 0 0.0043477031765537496 0.076346690519862467 0 0.0034062154087352095 0.075820126151078485 0 0.0012535066724673552 0.078569451009017049 0 0.004086147876973624 0.07708940885989933 0 0.0035432382956302176 0.076587350335112311 0 0.0015007666023555135 0.076467261823659816 0 0.0044265086737541575 0.074373907949617277 0 0.0043477031765537496 0.076346690519862467 0 0.0034062154087352095 0.075820126151078485 0 0.0041943997993501873 0.075651687666947076 0 0.0034062154087352095 0.075820126151078485 0 0.0041943997993501873 0.075651687666947076 0 0.0040498468297634899 0.074792265620109599 0 0.0049727297984932693 0.075647639124831426 0 0.0041943997993501873 0.075651687666947076 0 0.0040498468297634899 0.074792265620109599 0 0.0040882395492569381 0.077090701892119001 0 0.0035432382956302176 0.076587350335112311 0 0.0037741912189588798 0.074999980334557514 0 0.0049710611125214701 0.075525434534074065 0 0.0049573446056517022 0.07553582948049431 0 0.0035432382956302176 0.076587350335112311 0 0.0037741912189588798 0.074999980334557514 0 0.0015534570708030657 0.076594826115042702 0 0.0015534570708030657 0.076594826115042702 0 -0.00048563829201035821 0.074999950427981993 0 -0.00031928259388840275 0.077829422174519797 0 0.0037741912189588798 0.074999980334557514 0 0.0015534570708030657 0.076594826115042702 0 -0.00048563829201035821 0.074999950427981993 0 0.0012535066724673552 0.078569451009017049 0 0.0035432382956302176 0.076587350335112311 0 0.0015534570708030657 0.076594826115042702 0 -0.00048563829201035821 0.074999950427981993 0 -0.0022395569095411006 0.077057285350546817 0 -0.00031928259388840275 0.077829422174519797 0 -0.0022395569095411006 0.077057285350546817 0 -0.0039290021258526556 0.07859758448950685 0 -0.0047455032505812978 0.074999940704858284 0 -0.00048563829201035821 0.074999950427981993 0 -0.0022395569095411006 0.077057285350546817 0 -0.0047455032505812978 0.074999940704858284 0 -0.0022395569095411006 0.077057285350546817 0 -0.0039290021258526556 0.07859758448950685 0 -0.0021102311366405801 0.078822531167099114 0 -0.0039290021258526556 0.07859758448950685 0 -0.0028082177269740673 0.079460982304321304 0 -0.0021102311366405801 0.078822531167099114 0 0.0012535066724673552 0.078569451009017049 0 -0.00031928259388840275 0.077829422174519797 0 -0.0016221843842283133 0.080034184047187235 0 -0.0021102311366405801 0.078822531167099114 0 -0.00031928259388840275 0.077829422174519797 0 -0.0016221843842283133 0.080034184047187235 0 -0.0028082177269740673 0.079460982304321304 0 -0.0021102311366405801 0.078822531167099114 0 -0.0016221843842283133 0.080034184047187235 0 0.0019106263453393889 0.076884793601251639 0 -0.00064533255806039128 0.07790281949724949 0 -0.0022395569095411006 0.077057285350546817 0 -0.0021102311366405801 0.078822531167099114 0 -0.00031928259388840275 0.077829422174519797 0 -0.0090051255251079772 0.074999995593470675 0 -0.0066693856445107164 0.078201468969765722 0 -0.0095456664118089944 0.077846215658336868 0 -0.0039290021258526556 0.07859758448950685 0 -0.0047455032505812978 0.074999940704858284 0 -0.0066693856445107164 0.078201468969765722 0 -0.0090051255251079772 0.074999995593470675 0 -0.0047455032505812978 0.074999940704858284 0 -0.0066693856445107164 0.078201468969765722 0 -0.0039290021258526556 0.07859758448950685 0 -0.0066693856445107164 0.078201468969765722 0 -0.0056741449283077691 0.080172426588878992 0 -0.0066693856445107164 0.078201468969765722 0 -0.0075521275398339627 0.080622039775535156 0 -0.0095456664118089944 0.077846215658336868 0 -0.0075521275398339627 0.080622039775535156 0 -0.0096068400568395853 0.080655366313417035 0 -0.0095456664118089944 0.077846215658336868 0 -0.0075521275398339627 0.080622039775535156 0 -0.0071124722373275412 0.083009873670403592 0 -0.0096068400568395853 0.080655366313417035 0 -0.0066693856445107164 0.078201468969765722 0 -0.0075521275398339627 0.080622039775535156 0 -0.0056741449283077691 0.080172426588878992 0 -0.0075521275398339627 0.080622039775535156 0 -0.0056741449283077691 0.080172426588878992 0 -0.0061423102559390649 0.082017615341278535 0 -0.0056741449283077691 0.080172426588878992 0 -0.0061423102559390649 0.082017615341278535 0 -0.0038539284129522036 0.081091439615106245 0 -0.0037921503299906019 0.079970176850525571 0 -0.0029119712474380446 0.079411597691951288 0 -0.0075521275398339627 0.080622039775535156 0 -0.0061423102559390649 0.082017615341278535 0 -0.0071124722373275412 0.083009873670403592 0 -0.0061423102559390649 0.082017615341278535 0 -0.0058157334583271826 0.083302871618778376 0 -0.0042700504807628575 0.082605394369305571 0 -0.0061423102559390649 0.082017615341278535 0 -0.0058157334583271826 0.083302871618778376 0 -0.0071124722373275412 0.083009873670403592 0 -0.0058157334583271826 0.083302871618778376 0 -0.0071124722373275412 0.083009873670403592 0 -0.0070936971287806723 0.084405255468726473 0 -0.0071124722373275412 0.083009873670403592 0 -0.0095814959046423755 0.082986162513907183 0 -0.0099244516915159495 0.080424758941665397 0 -0.0071124722373275412 0.083009873670403592 0 -0.0095814959046423755 0.082986162513907183 0 -0.008859699059485044 0.084476244652608043 0 -0.0087590048282802872 0.081523229116842122 0 -0.010060096936029673 0.080297996106938468 0 5.9069062652292981e-05 0.079659255551788641 0 -0.0013021968772707684 0.081291141915337053 0 -0.0025742372417515182 0.079994475393587061 0 0.0015007666023555135 0.076467261823659816 0 -0.00064533255806039128 0.07790281949724949 0 -0.0030705240633282153 0.0812841007369038 0 -0.0013021968772707684 0.081291141915337053 0 -0.0025742372417515182 0.079994475393587061 0 -0.0028082177269740673 0.079460982304321304 0 -0.0016221843842283133 0.080034184047187235 0 -0.0038539284129522036 0.081091439615106245 0 -0.00064533255806039128 0.07790281949724949 0 -0.0029119712474380446 0.079411597691951288 0 -0.0039290021258526556 0.07859758448950685 0 -0.0028082177269740673 0.079460982304321304 0 -0.0038539284129522036 0.081091439615106245 0 -0.0039290021258526556 0.07859758448950685 0 -0.0056741449283077691 0.080172426588878992 0 -0.0038539284129522036 0.081091439615106245 0 -0.0030705240633282153 0.0812841007369038 0 -0.0025742372417515182 0.079994475393587061 0 -0.0043935913438063676 0.081012712271137308 0 -0.0030705240633282153 0.0812841007369038 0 -0.0043935913438063676 0.081012712271137308 0 -0.0042700504807628575 0.082605394369305571 0 -0.0061423102559390649 0.082017615341278535 0 -0.0043935913438063676 0.081012712271137308 0 -0.0042700504807628575 0.082605394369305571 0 -0.0058157334583271826 0.083302871618778376 0 -0.0042700504807628575 0.082605394369305571 0 -0.0045784791502944998 0.083923045929285719 0 -0.0042700504807628575 0.082605394369305571 0 -0.0025726876363095876 0.083872348458729234 0 -0.0045784791502944998 0.083923045929285719 0 3.9733329856336202e-05 0.082803605754141613 0 -0.0022566570354944225 0.082399938394785557 0 -0.0025726876363095876 0.083872348458729234 0 -0.0042700504807628575 0.082605394369305571 0 -0.0022566570354944225 0.082399938394785557 0 -0.0025726876363095876 0.083872348458729234 0 -0.0030705240633282153 0.0812841007369038 0 -0.0042700504807628575 0.082605394369305571 0 -0.0022566570354944225 0.082399938394785557 0 -0.0030705240633282153 0.0812841007369038 0 -0.0013021968772707684 0.081291141915337053 0 -0.0022566570354944225 0.082399938394785557 0 3.9733329856336202e-05 0.082803605754141613 0 -0.0025726876363095876 0.083872348458729234 0 -0.0016953873209942275 0.085155926157750444 0 -0.0016953873209942275 0.085155926157750444 0 -0.0033760903223437324 0.086307228303778391 0 -0.0037132977327312819 0.084813344122842568 0 -0.0025726876363095876 0.083872348458729234 0 -0.0016953873209942275 0.085155926157750444 0 -0.0037132977327312819 0.084813344122842568 0 -0.01196701321045617 0.063406381750080912 0 -0.012488924748874079 0.062802366337991813 0 -0.012504562777834407 0.063872844344512167 0 -0.013086703372676744 0.063998044501274123 0 -0.013594395266460554 0.064606210031407568 0 -0.013617292407844392 0.064324633323361954 0 -0.012488924748874079 0.062802366337991813 0 -0.013358014039378188 0.064061856801980552 0 -0.012504562777834407 0.063872844344512167 0 -0.0062503137804053553 0.070540488887190542 0 -0.0086720902139100151 0.068184308034165794 0 -0.0062503137804053553 0.070540488887190542 0 -0.0081731669094508904 0.074467070032319227 0 -0.013358014039378188 0.064061856801980552 0 -0.012504562777834407 0.063872844344512167 0 -0.012899534417034989 0.064464122009686722 0 -0.012010106203785889 0.064108410870474322 0 -0.012504562777834407 0.063872844344512167 0 -0.012387106516051837 0.064480626692404841 0 -0.0049699323758386274 0.087425606992348692 0 -0.0033760903223437324 0.086307228303778391 0 -0.0037132977327312819 0.084813344122842568 0 -0.0095517029128290454 0.077864023536114269 0 -0.009223838691496903 0.081125440343382774 0 -0.0051520027551730822 0.087828905498320078 0 -0.0052680329235833155 0.086031225974517705 0 -0.0037132977327312819 0.084813344122842568 0 -0.013594395266460554 0.064606210031407568 0 -0.014174447004871209 0.064655416557314438 0 -0.013617292407844392 0.064324633323361954 0 -0.0095517029128290454 0.077864023536114269 0 -0.0081731669094508904 0.074467070032319227 0 -0.0052680329235833155 0.086031225974517705 0 -0.0050736890804417697 0.08488057334732621 0 -0.0037132977327312819 0.084813344122842568 0 -0.0025726876363095876 0.083872348458729234 0 -0.0037132977327312819 0.084813344122842568 0 -0.0045784791502944998 0.083923045929285719 0 -0.0050736890804417697 0.08488057334732621 0 -0.0037132977327312819 0.084813344122842568 0 -0.0045784791502944998 0.083923045929285719 0 -0.0050736890804417697 0.08488057334732621 0 -0.0045784791502944998 0.083923045929285719 0 -0.0056609307864471962 0.084337182384588788 0 -0.0058157334583271826 0.083302871618778376 0 -0.0056609307864471962 0.084337182384588788 0 -0.0070936971287806723 0.084405255468726473 0 -0.0056609307864471962 0.084337182384588788 0 -0.0070936971287806723 0.084405255468726473 0 -0.0061572678942451589 0.085317843049736317 0 -0.0058157334583271826 0.083302871618778376 0 -0.0045784791502944998 0.083923045929285719 0 -0.0056609307864471962 0.084337182384588788 0 -0.0070936971287806723 0.084405255468726473 0 -0.0061572678942451589 0.085317843049736317 0 -0.0073764878995541657 0.085994039495789779 0 -0.0050736890804417697 0.08488057334732621 0 -0.0056609307864471962 0.084337182384588788 0 -0.0061572678942451589 0.085317843049736317 0 -0.0052680329235833155 0.086031225974517705 0 -0.0050736890804417697 0.08488057334732621 0 -0.0061572678942451589 0.085317843049736317 0 -0.0070936971287806723 0.084405255468726473 0 -0.008859699059485044 0.084476244652608043 0 -0.0081094138819429052 0.085278022219989397 0 -0.0071124722373275412 0.083009873670403592 0 -0.0070936971287806723 0.084405255468726473 0 -0.008859699059485044 0.084476244652608043 0 -0.0070936971287806723 0.084405255468726473 0 -0.0081094138819429052 0.085278022219989397 0 -0.0073764878995541657 0.085994039495789779 0 -0.008859699059485044 0.084476244652608043 0 -0.0091005624174804334 0.086224358423158079 0 -0.010798274291100165 0.084551058997060127 0 -0.008859699059485044 0.084476244652608043 0 -0.0081094138819429052 0.085278022219989397 0 -0.0091005624174804334 0.086224358423158079 0 -0.0091005624174804334 0.086224358423158079 0 -0.0077197164973716306 0.087608692978454486 0 -0.0094601032962515017 0.088757951386425199 0 -0.0081094138819429052 0.085278022219989397 0 -0.0091005624174804334 0.086224358423158079 0 -0.0073764878995541657 0.085994039495789779 0 -0.0091005624174804334 0.086224358423158079 0 -0.0077197164973716306 0.087608692978454486 0 -0.0073764878995541657 0.085994039495789779 0 -0.0052680329235833155 0.086031225974517705 0 -0.0061572678942451589 0.085317843049736317 0 -0.0062720705052974187 0.087071865732341491 0 -0.0061572678942451589 0.085317843049736317 0 -0.0073764878995541657 0.085994039495789779 0 -0.0062720705052974187 0.087071865732341491 0 -0.0077197164973716306 0.087608692978454486 0 -0.0062720705052974187 0.087071865732341491 0 -0.0067938528644496728 0.087950935400378225 0 -0.0077197164973716306 0.087608692978454486 0 -0.0073764878995541657 0.085994039495789779 0 -0.0062720705052974187 0.087071865732341491 0 -0.0062720705052974187 0.087071865732341491 0 -0.0059112779376157268 0.088351298996845809 0 -0.0067938528644496728 0.087950935400378225 0 -0.0051520027551730822 0.087828905498320078 0 -0.0062720705052974187 0.087071865732341491 0 -0.0059112779376157268 0.088351298996845809 0 -0.0051520027551730822 0.087828905498320078 0 -0.0052680329235833155 0.086031225974517705 0 -0.0062720705052974187 0.087071865732341491 0 -0.0095517029128290454 0.077864023536114269 0 -0.0096000522512347253 0.078126960934753964 0 -0.0095517029128290454 0.077864023536114269 0 -0.013563662663773146 0.075101481533249692 0 -0.014174447004871209 0.064655416557314438 0 -0.014659241154861382 0.065418194167176272 0 -0.0141281577468176 0.065273081151283219 0 -0.0051778084615309253 0.087827163117399784 0 -0.0059112779376157268 0.088351298996845809 0 -0.0063843979380788455 0.09025086992450225 0 -0.0059112779376157268 0.088351298996845809 0 -0.0067938528644496728 0.087950935400378225 0 -0.0072937416589803072 0.089033433578344853 0 -0.0077197164973716306 0.087608692978454486 0 -0.0067938528644496728 0.087950935400378225 0 -0.0072937416589803072 0.089033433578344853 0 -0.0059112779376157268 0.088351298996845809 0 -0.0072937416589803072 0.089033433578344853 0 -0.0063843979380788455 0.09025086992450225 0 -0.0077197164973716306 0.087608692978454486 0 -0.0072937416589803072 0.089033433578344853 0 -0.0094601032962515017 0.088757951386425199 0 -0.0072937416589803072 0.089033433578344853 0 -0.0094601032962515017 0.088757951386425199 0 -0.0083951217361302195 0.09076879422895763 0 -0.0094601032962515017 0.088757951386425199 0 -0.0083951217361302195 0.09076879422895763 0 -0.010236622377587407 0.090720404554019266 0 -0.0083951217361302195 0.09076879422895763 0 -0.0075797061359248611 0.092663421895861992 0 -0.0091443380188549785 0.092729726463259624 0 -0.0083951217361302195 0.09076879422895763 0 -0.010236622377587407 0.090720404554019266 0 -0.0091443380188549785 0.092729726463259624 0 -0.014659241154861382 0.065418194167176272 0 -0.014659972602027536 0.06598735553606537 0 -0.015207339707940016 0.066467974422467893 0 -0.013563662663773146 0.075101481533249692 0 -0.01793992485947999 0.069997930098184558 0 -0.0083951217361302195 0.09076879422895763 0 -0.0063843979380788455 0.09025086992450225 0 -0.0075797061359248611 0.092663421895861992 0 -0.014659241154861382 0.065418194167176272 0 -0.014442898739300719 0.065724451679033805 0 -0.0141281577468176 0.065273081151283219 0 -0.014659241154861382 0.065418194167176272 0 -0.014442898739300719 0.065724451679033805 0 -0.014659972602027536 0.06598735553606537 0 -0.0072937416589803072 0.089033433578344853 0 -0.0083951217361302195 0.09076879422895763 0 -0.0063843979380788455 0.09025086992450225 0 -0.014659972602027536 0.06598735553606537 0 -0.014353600781793163 0.066120979606372768 0 -0.015207339707940016 0.066467974422467893 0 -0.014442898739300719 0.065724451679033805 0 -0.014353600781793163 0.066120979606372768 0 -0.01412745939788404 0.065814054368836555 0 -0.014442898739300719 0.065724451679033805 0 -0.014659972602027536 0.06598735553606537 0 -0.014353600781793163 0.066120979606372768 0 -0.014353600781793163 0.066120979606372768 0 -0.01412745939788404 0.065814054368836555 0 -0.013764569326200552 0.065922999362841753 0 -0.013764569326200552 0.065922999362841753 0 -0.012732600224920752 0.065846971035001589 0 -0.014076934929917047 0.066441486708444339 0 -0.014353600781793163 0.066120979606372768 0 -0.013764569326200552 0.065922999362841753 0 -0.014076934929917047 0.066441486708444339 0 -0.01412745939788404 0.065814054368836555 0 -0.013793179231344299 0.065591742638652251 0 -0.013764569326200552 0.065922999362841753 0 -0.01412745939788404 0.065814054368836555 0 -0.013793179231344299 0.065591742638652251 0 -0.0141281577468176 0.065273081151283219 0 -0.014442898739300719 0.065724451679033805 0 -0.01412745939788404 0.065814054368836555 0 -0.0141281577468176 0.065273081151283219 0 -0.013502238579036345 0.065269712229293952 0 -0.013793179231344299 0.065591742638652251 0 -0.0141281577468176 0.065273081151283219 0 -0.013793179231344299 0.065591742638652251 0 -0.013421758818705224 0.065671039273911894 0 -0.013764569326200552 0.065922999362841753 0 -0.013502238579036345 0.065269712229293952 0 -0.013793179231344299 0.065591742638652251 0 -0.013421758818705224 0.065671039273911894 0 -0.013421758818705224 0.065671039273911894 0 -0.013764569326200552 0.065922999362841753 0 -0.012732600224920752 0.065846971035001589 0 -0.012732600224920752 0.065846971035001589 0 -0.012382250299098462 0.065508476598216805 0 -0.013183357044073351 0.066797601560110081 0 -0.012732600224920752 0.065846971035001589 0 -0.012382250299098462 0.065508476598216805 0 -0.012755629166529931 0.06535641391286777 0 -0.012382250299098462 0.065508476598216805 0 -0.012755629166529931 0.06535641391286777 0 -0.012693171581378313 0.064969427455621606 0 -0.012732600224920752 0.065846971035001589 0 -0.012755629166529931 0.06535641391286777 0 -0.013105702653989046 0.065445764516208205 0 -0.013421758818705224 0.065671039273911894 0 -0.012732600224920752 0.065846971035001589 0 -0.013105702653989046 0.065445764516208205 0 -0.012755629166529931 0.06535641391286777 0 -0.013105702653989046 0.065445764516208205 0 -0.013064967669021852 0.065025489613127582 0 -0.013502238579036345 0.065269712229293952 0 -0.013421758818705224 0.065671039273911894 0 -0.013105702653989046 0.065445764516208205 0 -0.013502238579036345 0.065269712229293952 0 -0.013064967669021852 0.065025489613127582 0 -0.013393120843940294 0.064822055308081952 0 -0.013502238579036345 0.065269712229293952 0 -0.013105702653989046 0.065445764516208205 0 -0.013064967669021852 0.065025489613127582 0 -0.013064967669021852 0.065025489613127582 0 -0.012693171581378313 0.064969427455621606 0 -0.012899534417034989 0.064464122009686722 0 -0.013064967669021852 0.065025489613127582 0 -0.012899534417034989 0.064464122009686722 0 -0.013393120843940294 0.064822055308081952 0 -0.012382250299098462 0.065508476598216805 0 -0.012693171581378313 0.064969427455621606 0 -0.012387106516051837 0.064480626692404841 0 -0.012755629166529931 0.06535641391286777 0 -0.013064967669021852 0.065025489613127582 0 -0.012693171581378313 0.064969427455621606 0 -0.012504562777834407 0.063872844344512167 0 -0.012387106516051837 0.064480626692404841 0 -0.012899534417034989 0.064464122009686722 0 -0.012693171581378313 0.064969427455621606 0 -0.012387106516051837 0.064480626692404841 0 -0.012899534417034989 0.064464122009686722 0 -0.013358014039378188 0.064061856801980552 0 -0.012899534417034989 0.064464122009686722 0 -0.013393120843940294 0.064822055308081952 0 -0.0086720902139100151 0.068184308034165794 0 -0.0095854387251895247 0.067764838878005065 0 -0.013594395266460554 0.064606210031407568 0 -0.014174447004871209 0.064655416557314438 0 -0.0141281577468176 0.065273081151283219 0 -0.013358014039378188 0.064061856801980552 0 -0.0141281577468176 0.065273081151283219 0 -0.013393120843940294 0.064822055308081952 0 -0.013502238579036345 0.065269712229293952 0 -0.0141281577468176 0.065273081151283219 0 -0.013393120843940294 0.064822055308081952 0 -0.038328802177960877 0.067867540162310669 0 -0.038525706920624819 0.067900050112318741 0 -0.0383554515482726 0.068042686506018704 0 -0.038328802177960877 0.067867540162310669 0 -0.03842971242168184 0.067742669715106729 0 -0.038525706920624819 0.067900050112318741 0 -0.033687838652297804 0.067353192787524538 0 -0.037084160874558653 0.066718137634011895 0 -0.038864651685091921 0.066374205466136649 0 -0.038168787291723731 0.066550385108055207 0 -0.038358703190615379 0.066096388801554287 0 -0.038718431486463201 0.067088261303967861 0 -0.039244109802954959 0.066349167919434404 0 -0.038168787291723731 0.066550385108055207 0 -0.036234716550900145 0.066690066297964104 0 -0.033687838652297804 0.067353192787524538 0 -0.03842971242168184 0.067742669715106729 0 -0.038525706920624819 0.067900050112318741 0 -0.038510177261968988 0.067732779064223883 0 -0.011539921181240656 0.089377678546562436 0 -0.013844055964649797 0.088599769366057193 0 -0.012487010694526273 0.092096395841284817 0 -0.033687838652297804 0.067353192787524538 0 -0.024622083636236147 0.071414816122103347 0 -0.025015518776767196 0.076511892642750337 0 -0.024622083636236147 0.071414816122103347 0 -0.010236622377587407 0.090720404554019266 0 -0.0091443380188549785 0.092729726463259624 0 -0.012487010694526273 0.092096395841284817 0 -0.010236622377587407 0.090720404554019266 0 -0.011539921181240656 0.089377678546562436 0 -0.012487010694526273 0.092096395841284817 0 -0.0094601032962515017 0.088757951386425199 0 -0.011539921181240656 0.089377678546562436 0 -0.011363280342356796 0.086979714049096823 0 -0.0094601032962515017 0.088757951386425199 0 -0.010236622377587407 0.090720404554019266 0 -0.011539921181240656 0.089377678546562436 0 -0.011539921181240656 0.089377678546562436 0 -0.013844055964649797 0.088599769366057193 0 -0.011363280342356796 0.086979714049096823 0 -0.013844055964649797 0.088599769366057193 0 -0.011363280342356796 0.086979714049096823 0 -0.012912892139629956 0.084789042308424559 0 -0.0091005624174804334 0.086224358423158079 0 -0.011363280342356796 0.086979714049096823 0 -0.010798274291100165 0.084551058997060127 0 -0.0091005624174804334 0.086224358423158079 0 -0.0094601032962515017 0.088757951386425199 0 -0.011363280342356796 0.086979714049096823 0 -0.010798274291100165 0.084551058997060127 0 -0.012912892139629956 0.084789042308424559 0 -0.011173384270035452 0.082400594124630272 0 -0.011363280342356796 0.086979714049096823 0 -0.010798274291100165 0.084551058997060127 0 -0.012912892139629956 0.084789042308424559 0 -0.0095814959046423755 0.082986162513907183 0 -0.008859699059485044 0.084476244652608043 0 -0.010798274291100165 0.084551058997060127 0 -0.012912892139629956 0.084789042308424559 0 -0.015272817539464632 0.085081176200046682 0 -0.014610801002246175 0.082917519421655164 0 -0.038525706920624819 0.067900050112318741 0 -0.038575804398712388 0.068287197253465728 0 -0.0383554515482726 0.068042686506018704 0 -0.025015518776767196 0.076511892642750337 0 -0.026183568226410176 0.076088376484507683 0 -0.013844055964649797 0.088599769366057193 0 -0.012912892139629956 0.084789042308424559 0 -0.015272817539464632 0.085081176200046682 0 -0.038328802177960877 0.067867540162310669 0 -0.0383554515482726 0.068042686506018704 0 -0.038083471454243845 0.06797224150930635 0 -0.036234716550900145 0.066690066297964104 0 -0.036695432450464485 0.066851649819194336 0 -0.0383554515482726 0.068042686506018704 0 -0.038247693647807286 0.068266035330019778 0 -0.038083471454243845 0.06797224150930635 0 -0.038575804398712388 0.068287197253465728 0 -0.0383554515482726 0.068042686506018704 0 -0.038247693647807286 0.068266035330019778 0 -0.038575804398712388 0.068287197253465728 0 -0.038247693647807286 0.068266035330019778 0 -0.038247321080528723 0.068616947188298999 0 -0.038247693647807286 0.068266035330019778 0 -0.038247321080528723 0.068616947188298999 0 -0.037954781270628291 0.068494178332522873 0 -0.038247321080528723 0.068616947188298999 0 -0.038449664707569706 0.069077522684468581 0 -0.037963332540886033 0.068958755890901044 0 -0.038575804398712388 0.068287197253465728 0 -0.038247321080528723 0.068616947188298999 0 -0.038449664707569706 0.069077522684468581 0 -0.02709534333136538 0.074141622566541124 0 -0.027273779413004528 0.07404819894121481 0 -0.015272817539464632 0.085081176200046682 0 -0.016377385808141794 0.081722952516067288 0 -0.014610801002246175 0.082917519421655164 0 -0.015272817539464632 0.085081176200046682 0 -0.016377385808141794 0.081722952516067288 0 -0.016777865424483066 0.081544084016764828 0 -0.026183568226410176 0.076088376484507683 0 -0.027273779413004528 0.07404819894121481 0 -0.014610801002246175 0.082917519421655164 0 -0.01441305701337121 0.08190455897254241 0 -0.015387525088288325 0.081618203217661583 0 -0.014610801002246175 0.082917519421655164 0 -0.01441305701337121 0.08190455897254241 0 -0.013312185569126707 0.082373210725334003 0 -0.016377385808141794 0.081722952516067288 0 -0.014610801002246175 0.082917519421655164 0 -0.015387525088288325 0.081618203217661583 0 -0.016377385808141794 0.081722952516067288 0 -0.015387525088288325 0.081618203217661583 0 -0.016363430754301321 0.08115873784945507 0 -0.015387525088288325 0.081618203217661583 0 -0.015706415520957744 0.08055154222578248 0 -0.016363430754301321 0.08115873784945507 0 -0.015387525088288325 0.081618203217661583 0 -0.015706415520957744 0.08055154222578248 0 -0.014884812227063554 0.080928677544311781 0 -0.015706415520957744 0.08055154222578248 0 -0.016812895518181718 0.080197591491470835 0 -0.016363430754301321 0.08115873784945507 0 -0.014884812227063554 0.080928677544311781 0 -0.01471986556694615 0.079638724605545774 0 -0.013808079653224916 0.081193016219580347 0 -0.01441305701337121 0.08190455897254241 0 -0.014884812227063554 0.080928677544311781 0 -0.013808079653224916 0.081193016219580347 0 -0.01441305701337121 0.08190455897254241 0 -0.015387525088288325 0.081618203217661583 0 -0.014884812227063554 0.080928677544311781 0 -0.015706415520957744 0.08055154222578248 0 -0.014884812227063554 0.080928677544311781 0 -0.01471986556694615 0.079638724605545774 0 -0.015706415520957744 0.08055154222578248 0 -0.01471986556694615 0.079638724605545774 0 -0.016086084200324428 0.079712674577435569 0 -0.015706415520957744 0.08055154222578248 0 -0.016086084200324428 0.079712674577435569 0 -0.016812895518181718 0.080197591491470835 0 -0.027273779413004528 0.07404819894121481 0 -0.028763071164257394 0.074163600172676092 0 -0.016812895518181718 0.080197591491470835 0 -0.01700541504478759 0.081168975520155437 0 -0.018007537029545818 0.079365166924595443 0 -0.016086084200324428 0.079712674577435569 0 -0.016812895518181718 0.080197591491470835 0 -0.01703354358295513 0.079224935218482617 0 -0.016812895518181718 0.080197591491470835 0 -0.018007537029545818 0.079365166924595443 0 -0.01703354358295513 0.079224935218482617 0 -0.01700541504478759 0.081168975520155437 0 -0.016833624326899468 0.081605169667776811 0 -0.020247118589983945 0.080185890751693509 0 -0.01700541504478759 0.081168975520155437 0 -0.018007537029545818 0.079365166924595443 0 -0.020247118589983945 0.080185890751693509 0 -0.016377385808141794 0.081722952516067288 0 -0.016363430754301321 0.08115873784945507 0 -0.016811331286091604 0.081565523446738467 0 -0.01700541504478759 0.081168975520155437 0 -0.016363430754301321 0.08115873784945507 0 -0.016811331286091604 0.081565523446738467 0 -0.027185427528843387 0.074198636874641968 0 -0.027273779413004528 0.07404819894121481 0 -0.016812895518181718 0.080197591491470835 0 -0.01700541504478759 0.081168975520155437 0 -0.016363430754301321 0.08115873784945507 0 -0.0095814959046423755 0.082986162513907183 0 -0.011173384270035452 0.082400594124630272 0 -0.0099244516915159495 0.080424758941665397 0 -0.0095814959046423755 0.082986162513907183 0 -0.010798274291100165 0.084551058997060127 0 -0.011173384270035452 0.082400594124630272 0 -0.012912892139629956 0.084789042308424559 0 -0.014610801002246175 0.082917519421655164 0 -0.013312185569126707 0.082373210725334003 0 -0.012912892139629956 0.084789042308424559 0 -0.011173384270035452 0.082400594124630272 0 -0.013312185569126707 0.082373210725334003 0 -0.011173384270035452 0.082400594124630272 0 -0.013312185569126707 0.082373210725334003 0 -0.012528890213041027 0.080544798877907622 0 -0.01441305701337121 0.08190455897254241 0 -0.013312185569126707 0.082373210725334003 0 -0.013808079653224916 0.081193016219580347 0 -0.013312185569126707 0.082373210725334003 0 -0.013808079653224916 0.081193016219580347 0 -0.012528890213041027 0.080544798877907622 0 -0.01471986556694615 0.079638724605545774 0 -0.013808079653224916 0.081193016219580347 0 -0.012528890213041027 0.080544798877907622 0 -0.012528890213041027 0.080544798877907622 0 -0.0099244516915159495 0.080424758941665397 0 -0.012632052609000716 0.077939387861423168 0 -0.011173384270035452 0.082400594124630272 0 -0.012528890213041027 0.080544798877907622 0 -0.0099244516915159495 0.080424758941665397 0 -0.0096068400568395853 0.080655366313417035 0 -0.0095456664118089944 0.077846215658336868 0 -0.01245351485607977 0.078071914698534861 0 -0.010060096936029673 0.080297996106938468 0 -0.012282756726636408 0.078209396018046676 0 -0.01471986556694615 0.079638724605545774 0 -0.012528890213041027 0.080544798877907622 0 -0.012632052609000716 0.077939387861423168 0 -0.0095456664118089944 0.077846215658336868 0 -0.01245351485607977 0.078071914698534861 0 -0.013264859553564358 0.074999973070486795 0 -0.012282756726636408 0.078209396018046676 0 -0.013619299865186984 0.076948746993703243 0 -0.01245351485607977 0.078071914698534861 0 -0.013264859553564358 0.074999973070486795 0 -0.015334680568035811 0.075385458875071545 0 -0.0090051255251079772 0.074999995593470675 0 -0.0095456664118089944 0.077846215658336868 0 -0.013264859553564358 0.074999973070486795 0 -0.017471921886691666 0.078114356413479177 0 -0.01675415763452379 0.076669732786814007 0 -0.019494120054962261 0.077272413443696855 0 -0.017471921886691666 0.078114356413479177 0 -0.016181027471166471 0.078548081097980532 0 -0.01675415763452379 0.076669732786814007 0 -0.017471921886691666 0.078114356413479177 0 -0.018007537029545818 0.079365166924595443 0 -0.019494120054962261 0.077272413443696855 0 -0.017471921886691666 0.078114356413479177 0 -0.01703354358295513 0.079224935218482617 0 -0.016181027471166471 0.078548081097980532 0 -0.016086084200324428 0.079712674577435569 0 -0.01703354358295513 0.079224935218482617 0 -0.016181027471166471 0.078548081097980532 0 -0.017471921886691666 0.078114356413479177 0 -0.018007537029545818 0.079365166924595443 0 -0.01703354358295513 0.079224935218482617 0 -0.01471986556694615 0.079638724605545774 0 -0.016181027471166471 0.078548081097980532 0 -0.015110680274242495 0.077616728080948591 0 -0.01471986556694615 0.079638724605545774 0 -0.012632052609000716 0.077939387861423168 0 -0.015110680274242495 0.077616728080948591 0 -0.01471986556694615 0.079638724605545774 0 -0.016086084200324428 0.079712674577435569 0 -0.016181027471166471 0.078548081097980532 0 -0.016181027471166471 0.078548081097980532 0 -0.015110680274242495 0.077616728080948591 0 -0.01675415763452379 0.076669732786814007 0 -0.015110680274242495 0.077616728080948591 0 -0.015334680568035811 0.075385458875071545 0 -0.01675415763452379 0.076669732786814007 0 -0.012632052609000716 0.077939387861423168 0 -0.015110680274242495 0.077616728080948591 0 -0.015334680568035811 0.075385458875071545 0 -0.013264859553564358 0.074999973070486795 0 -0.015334680568035811 0.075385458875071545 0 -0.017524654600003329 0.074999925370277526 0 -0.015334680568035811 0.075385458875071545 0 -0.017524654600003329 0.074999925370277526 0 -0.01675415763452379 0.076669732786814007 0 -0.017524654600003329 0.074999925370277526 0 -0.01675415763452379 0.076669732786814007 0 -0.019494120054962261 0.077272413443696855 0 -0.017524654600003329 0.074999925370277526 0 -0.019494120054962261 0.077272413443696855 0 -0.021784366160247787 0.074999913183106781 0 -0.018007537029545818 0.079365166924595443 0 -0.019494120054962261 0.077272413443696855 0 -0.020247118589983945 0.080185890751693509 0 -0.019494120054962261 0.077272413443696855 0 -0.023648645761715586 0.078691739262124721 0 -0.020247118589983945 0.080185890751693509 0 -0.030273322532229353 0.073847737755718637 0 -0.028763071164257394 0.074163600172676092 0 -0.019494120054962261 0.077272413443696855 0 -0.021784366160247787 0.074999913183106781 0 -0.023648645761715586 0.078691739262124721 0 -0.021784366160247787 0.074999913183106781 0 -0.026044156927411879 0.075000005738738107 0 -0.023648645761715586 0.078691739262124721 0 -0.026047832292000316 0.075002519294293399 0 -0.030273322532229353 0.073847737755718637 0 -0.026044341195933785 0.075000047180366985 0 -0.026174964723203898 0.076132878117333283 0 -0.023924634749844621 0.078519031039241988 0 -0.031345834293734186 0.074644523405379512 0 -0.031246393082894914 0.0750748294625425 0 -0.027429624847283333 0.075917331428612442 0 -0.026044341195933785 0.075000047180366985 0 -0.02891806096428726 0.074999944160898183 0 -0.027429624847283333 0.075917331428612442 0 -0.02646941736590679 0.077422144570648846 0 -0.029119920714089802 0.07622884157105865 0 -0.027429624847283333 0.075917331428612442 0 -0.026044341195933785 0.075000047180366985 0 -0.026174964723203898 0.076132878117333283 0 -0.031204788107514491 0.074762156875561356 0 -0.031345834293734186 0.074644523405379512 0 -0.027429624847283333 0.075917331428612442 0 -0.026174964723203898 0.076132878117333283 0 -0.02646941736590679 0.077422144570648846 0 -0.0330130242584801 0.075690247069165884 0 -0.033215696616242102 0.075477288232137618 0 -0.032968402204793995 0.075638036482635257 0 -0.031345834293734186 0.074644523405379512 0 -0.033554586339359337 0.072625077641734689 0 -0.026174964723203898 0.076132878117333283 0 -0.026454403994343151 0.077317741684811966 0 -0.023924634749844621 0.078519031039241988 0 -0.031345834293734186 0.074644523405379512 0 -0.030273322532229353 0.073847737755718637 0 -0.035987162301881197 0.070898237626924251 0 -0.036848616035809079 0.07049132345009379 0 -0.036580250301179229 0.069668430236688478 0 -0.035987162301881197 0.070898237626924251 0 -0.036580250301179229 0.069668430236688478 0 -0.035715645873265027 0.069613379243522552 0 -0.035715645873265027 0.069613379243522552 0 -0.036120509307405187 0.068879065610504983 0 -0.035442835199915645 0.068357438343574328 0 -0.033554586339359337 0.072625077641734689 0 -0.0350644500022083 0.070428206600395393 0 -0.036580250301179229 0.069668430236688478 0 -0.035715645873265027 0.069613379243522552 0 -0.036120509307405187 0.068879065610504983 0 -0.036580250301179229 0.069668430236688478 0 -0.036120509307405187 0.068879065610504983 0 -0.036801633375805221 0.068827072072186413 0 -0.036801633375805221 0.068827072072186413 0 -0.037428321488835264 0.068763693556872965 0 -0.037455568302210321 0.069493675174050681 0 -0.036580250301179229 0.069668430236688478 0 -0.036801633375805221 0.068827072072186413 0 -0.037455568302210321 0.069493675174050681 0 -0.034765466964306442 0.069601080194068299 0 -0.035844499168269574 0.068709775030610196 0 -0.038247321080528723 0.068616947188298999 0 -0.037963332540886033 0.068958755890901044 0 -0.037954781270628291 0.068494178332522873 0 -0.037428321488835264 0.068763693556872965 0 -0.037455568302210321 0.069493675174050681 0 -0.037954781270628291 0.068494178332522873 0 -0.037963332540886033 0.068958755890901044 0 -0.037414367255110811 0.069116081207666366 0 -0.037954781270628291 0.068494178332522873 0 -0.038449664707569706 0.069077522684468581 0 -0.037963332540886033 0.068958755890901044 0 -0.037755590082494357 0.069495610175578829 0 -0.037963332540886033 0.068958755890901044 0 -0.037755590082494357 0.069495610175578829 0 -0.037414367255110811 0.069116081207666366 0 -0.036848616035809079 0.07049132345009379 0 -0.036580250301179229 0.069668430236688478 0 -0.037455568302210321 0.069493675174050681 0 -0.036878667065657109 0.06993695961697298 0 -0.037755590082494357 0.069495610175578829 0 -0.037414367255110811 0.069116081207666366 0 -0.030273322532229353 0.073847737755718637 0 -0.034765466964306442 0.069601080194068299 0 -0.033792854399529983 0.075814350653509291 0 -0.033981237894060309 0.075921323558966233 0 -0.033973870192046507 0.075442982394517868 0 -0.033661173360128104 0.075978145745116049 0 -0.033981237894060309 0.075921323558966233 0 -0.034246042421087461 0.076262488690124072 0 -0.033661173360128104 0.075978145745116049 0 -0.033792854399529983 0.075814350653509291 0 -0.033981237894060309 0.075921323558966233 0 -0.035558373494441714 0.075953844405364748 0 -0.037015099445651192 0.07603256980916645 0 -0.03571302214702058 0.074999015238470648 0 -0.03383850925427128 0.075893179990798185 0 -0.038185382274841168 0.076617204279466875 0 -0.033792854399529983 0.075814350653509291 0 -0.03383850925427128 0.075893179990798185 0 -0.033973870192046507 0.075442982394517868 0 -0.03571302214702058 0.074999015238470648 0 -0.03383850925427128 0.075893179990798185 0 -0.031796215205718598 0.075000864189738906 0 -0.03383850925427128 0.075893179990798185 0 -0.033289679451462842 0.075909566121203878 0 -0.032569583529931188 0.075696985423119201 0 -0.033792854399529983 0.075814350653509291 0 -0.03383850925427128 0.075893179990798185 0 -0.033289679451462842 0.075909566121203878 0 -0.033661173360128104 0.075978145745116049 0 -0.033792854399529983 0.075814350653509291 0 -0.033289679451462842 0.075909566121203878 0 -0.033661173360128104 0.075978145745116049 0 -0.033289679451462842 0.075909566121203878 0 -0.033203236197778457 0.075932425436155665 0 -0.033289679451462842 0.075909566121203878 0 -0.032887635606800296 0.075764503176875442 0 -0.033203236197778457 0.075932425436155665 0 -0.032887635606800296 0.075764503176875442 0 -0.032569583529931188 0.075696985423119201 0 -0.032661535273626273 0.075662978938031464 0 -0.033289679451462842 0.075909566121203878 0 -0.032887635606800296 0.075764503176875442 0 -0.032569583529931188 0.075696985423119201 0 -0.03383850925427128 0.075893179990798185 0 -0.031796215205718598 0.075000864189738906 0 -0.032569583529931188 0.075696985423119201 0 -0.031796215205718598 0.075000864189738906 0 -0.032569583529931188 0.075696985423119201 0 -0.032661535273626273 0.075662978938031464 0 -0.031791334515834303 0.074999955695972148 0 -0.031246393082894914 0.0750748294625425 0 -0.031792034731241106 0.075000024416459282 0 -0.02891806096428726 0.074999944160898183 0 -0.029119920714089802 0.07622884157105865 0 -0.027429624847283333 0.075917331428612442 0 -0.02891806096428726 0.074999944160898183 0 -0.029119920714089802 0.07622884157105865 0 -0.0330130242584801 0.075690247069165884 0 -0.032661535273626273 0.075662978938031464 0 -0.032968402204793995 0.075638036482635257 0 -0.032887635606800296 0.075764503176875442 0 -0.032661535273626273 0.075662978938031464 0 -0.032968402204793995 0.075638036482635257 0 -0.032887635606800296 0.075764503176875442 0 -0.032968402204793995 0.075638036482635257 0 -0.033140054350148107 0.075541380751523945 0 -0.033215696616242102 0.075477288232137618 0 -0.032968402204793995 0.075638036482635257 0 -0.033140054350148107 0.075541380751523945 0 -0.033215696616242102 0.075477288232137618 0 -0.033281220612519938 0.075138465220881342 0 -0.033329157335392545 0.075150656295227769 0 -0.033215696616242102 0.075477288232137618 0 -0.033140054350148107 0.075541380751523945 0 -0.033281220612519938 0.075138465220881342 0 -0.03345907510534183 0.072332799908234949 0 -0.033975621578982186 0.071837467792442711 0 -0.033287226949369642 0.075325877228880775 0 -0.033140798446448072 0.074451035418156133 0 -0.033281220612519938 0.075138465220881342 0 -0.033287226949369642 0.075325877228880775 0 -0.033140054350148107 0.075541380751523945 0 -0.033281220612519938 0.075138465220881342 0 -0.033287226949369642 0.075325877228880775 0 -0.033110078099173969 0.07579039676008846 0 -0.033043829378710518 0.076022684003867094 0 -0.033287226949369642 0.075325877228880775 0 -0.033140054350148107 0.075541380751523945 0 -0.033110078099173969 0.07579039676008846 0 -0.032887635606800296 0.075764503176875442 0 -0.033140054350148107 0.075541380751523945 0 -0.033110078099173969 0.07579039676008846 0 -0.032887635606800296 0.075764503176875442 0 -0.033110078099173969 0.07579039676008846 0 -0.033203236197778457 0.075932425436155665 0 -0.033661173360128104 0.075978145745116049 0 -0.033203236197778457 0.075932425436155665 0 -0.033792942459562103 0.076298026095043978 0 -0.033203236197778457 0.075932425436155665 0 -0.033043829378710518 0.076022684003867094 0 -0.033792942459562103 0.076298026095043978 0 -0.033110078099173969 0.07579039676008846 0 -0.033203236197778457 0.075932425436155665 0 -0.033043829378710518 0.076022684003867094 0 -0.033287226949369642 0.075325877228880775 0 -0.033043829378710518 0.076022684003867094 0 -0.033140798446448072 0.074451035418156133 0 -0.033140798446448072 0.074451035418156133 0 -0.030910964541280062 0.073854663279076235 0 -0.032224925661681524 0.072633086891688209 0 -0.033039401616639118 0.075198417206626428 0 -0.032801679261969953 0.074788450989102098 0 -0.033043829378710518 0.076022684003867094 0 -0.033140798446448072 0.074451035418156133 0 -0.030910964541280062 0.073854663279076235 0 -0.033902198730314963 0.077124399423870851 0 -0.03417723868973728 0.076758994410754275 0 -0.034491196833836696 0.076982619993585216 0 -0.033902198730314963 0.077124399423870851 0 -0.03417723868973728 0.076758994410754275 0 -0.033792942459562103 0.076298026095043978 0 -0.033043829378710518 0.076022684003867094 0 -0.033902198730314963 0.077124399423870851 0 -0.033792942459562103 0.076298026095043978 0 -0.03417723868973728 0.076758994410754275 0 -0.033792942459562103 0.076298026095043978 0 -0.034435709096072381 0.076580000570266163 0 -0.033792942459562103 0.076298026095043978 0 -0.034246042421087461 0.076262488690124072 0 -0.034435709096072381 0.076580000570266163 0 -0.033661173360128104 0.075978145745116049 0 -0.033792942459562103 0.076298026095043978 0 -0.034246042421087461 0.076262488690124072 0 -0.031303621861405589 0.070832675862436689 0 -0.031324742998001212 0.068356987023270296 0 -0.029599343388038518 0.068845629663366117 0 -0.031303621861405589 0.070832675862436689 0 -0.032981579033488355 0.06897739641142403 0 -0.031324742998001212 0.068356987023270296 0 -0.030910964541280062 0.073854663279076235 0 -0.031303621861405589 0.070832675862436689 0 -0.029136094321210022 0.071319920225691349 0 -0.030910964541280062 0.073854663279076235 0 -0.031303621861405589 0.070832675862436689 0 -0.032224925661681524 0.072633086891688209 0 -0.031303621861405589 0.070832675862436689 0 -0.032224925661681524 0.072633086891688209 0 -0.033609171215721614 0.071454123427887456 0 -0.033140798446448072 0.074451035418156133 0 -0.032224925661681524 0.072633086891688209 0 -0.033609171215721614 0.071454123427887456 0 -0.031303621861405589 0.070832675862436689 0 -0.033609171215721614 0.071454123427887456 0 -0.032981579033488355 0.06897739641142403 0 -0.033609171215721614 0.071454123427887456 0 -0.034989178095683707 0.069183246498595474 0 -0.032981579033488355 0.06897739641142403 0 -0.033609171215721614 0.071454123427887456 0 -0.034989178095683707 0.069183246498595474 0 -0.035953020849190165 0.0711084880628928 0 -0.033140798446448072 0.074451035418156133 0 -0.033609171215721614 0.071454123427887456 0 -0.035540320566146623 0.073109489140308487 0 -0.033609171215721614 0.071454123427887456 0 -0.035540320566146623 0.073109489140308487 0 -0.035953020849190165 0.0711084880628928 0 -0.035540320566146623 0.073109489140308487 0 -0.03773258700271219 0.072099730400495582 0 -0.035953020849190165 0.0711084880628928 0 -0.033975621578982186 0.071837467792442711 0 -0.0350644500022083 0.070428206600395393 0 -0.0350644500022083 0.070428206600395393 0 -0.035378195700824309 0.069196328700974641 0 -0.03773258700271219 0.072099730400495582 0 -0.035953020849190165 0.0711084880628928 0 -0.036991691608738747 0.069483750038358799 0 -0.034989178095683707 0.069183246498595474 0 -0.035953020849190165 0.0711084880628928 0 -0.036991691608738747 0.069483750038358799 0 -0.034989178095683707 0.069183246498595474 0 -0.036991691608738747 0.069483750038358799 0 -0.035934258383951548 0.066951246582805671 0 -0.035378195700824309 0.069196328700974641 0 -0.035397211086181934 0.068563197717046373 0 -0.036137916083566195 0.067511934468603402 0 -0.035934258383951548 0.066951246582805671 0 -0.036657225938649722 0.067057512732268967 0 -0.034346817184056543 0.067277838072942381 0 -0.032704951187675385 0.06651350457344353 0 -0.034990788338725855 0.064752576201988363 0 -0.035934258383951548 0.066951246582805671 0 -0.034346817184056543 0.067277838072942381 0 -0.034990788338725855 0.064752576201988363 0 -0.034989178095683707 0.069183246498595474 0 -0.034346817184056543 0.067277838072942381 0 -0.032981579033488355 0.06897739641142403 0 -0.034989178095683707 0.069183246498595474 0 -0.035934258383951548 0.066951246582805671 0 -0.034346817184056543 0.067277838072942381 0 -0.032981579033488355 0.06897739641142403 0 -0.032704951187675385 0.06651350457344353 0 -0.031324742998001212 0.068356987023270296 0 -0.034346817184056543 0.067277838072942381 0 -0.032981579033488355 0.06897739641142403 0 -0.032704951187675385 0.06651350457344353 0 -0.03132962406047219 0.065524340987047389 0 -0.030409488599571721 0.066770550257605948 0 -0.030272162345421433 0.064221976732031727 0 -0.032704951187675385 0.06651350457344353 0 -0.03132962406047219 0.065524340987047389 0 -0.030409488599571721 0.066770550257605948 0 -0.032704951187675385 0.06651350457344353 0 -0.030409488599571721 0.066770550257605948 0 -0.031324742998001212 0.068356987023270296 0 -0.030409488599571721 0.066770550257605948 0 -0.031324742998001212 0.068356987023270296 0 -0.029599343388038518 0.068845629663366117 0 -0.037741079836852175 0.067530227453623234 0 -0.037463718127810172 0.068269962248182797 0 -0.036561848057792674 0.067926111552214591 0 -0.037314800627901289 0.068461543537285174 0 -0.03675946755642201 0.068912912972692933 0 -0.037741079836852175 0.067530227453623234 0 -0.037078182057662244 0.067785376360916721 0 -0.037294066977329877 0.067180947765419274 0 -0.037741079836852175 0.067530227453623234 0 -0.038083471454243845 0.06797224150930635 0 -0.038068368167352755 0.067181821956581872 0 -0.037741079836852175 0.067530227453623234 0 -0.038083471454243845 0.06797224150930635 0 -0.037463718127810172 0.068269962248182797 0 -0.038083471454243845 0.06797224150930635 0 -0.037954781270628291 0.068494178332522873 0 -0.037463718127810172 0.068269962248182797 0 -0.038247693647807286 0.068266035330019778 0 -0.038083471454243845 0.06797224150930635 0 -0.037954781270628291 0.068494178332522873 0 -0.037428321488835264 0.068763693556872965 0 -0.037954781270628291 0.068494178332522873 0 -0.037463718127810172 0.068269962248182797 0 -0.036801633375805221 0.068827072072186413 0 -0.037428321488835264 0.068763693556872965 0 -0.037463718127810172 0.068269962248182797 0 -0.036801633375805221 0.068827072072186413 0 -0.037463718127810172 0.068269962248182797 0 -0.036561848057792674 0.067926111552214591 0 -0.036120509307405187 0.068879065610504983 0 -0.036801633375805221 0.068827072072186413 0 -0.036561848057792674 0.067926111552214591 0 -0.0350644500022083 0.070428206600395393 0 -0.03675946755642201 0.068912912972692933 0 -0.036120509307405187 0.068879065610504983 0 -0.035442835199915645 0.068357438343574328 0 -0.036561848057792674 0.067926111552214591 0 -0.036137916083566195 0.067511934468603402 0 -0.037078182057662244 0.067785376360916721 0 -0.036657225938649722 0.067057512732268967 0 -0.036283024086968846 0.068124434866223188 0 -0.036137916083566195 0.067511934468603402 0 -0.037078182057662244 0.067785376360916721 0 -0.037294066977329877 0.067180947765419274 0 -0.036657225938649722 0.067057512732268967 0 -0.037244874846121025 0.066569591413202456 0 -0.037078182057662244 0.067785376360916721 0 -0.037294066977329877 0.067180947765419274 0 -0.036657225938649722 0.067057512732268967 0 -0.036657225938649722 0.067057512732268967 0 -0.037244874846121025 0.066569591413202456 0 -0.036739479817320148 0.065567319910102964 0 -0.035934258383951548 0.066951246582805671 0 -0.036657225938649722 0.067057512732268967 0 -0.036739479817320148 0.065567319910102964 0 -0.037704969608216059 0.066890193349447652 0 -0.038168787291723731 0.066550385108055207 0 -0.037578126417360851 0.065949464970372282 0 -0.037244874846121025 0.066569591413202456 0 -0.037704969608216059 0.066890193349447652 0 -0.037578126417360851 0.065949464970372282 0 -0.037294066977329877 0.067180947765419274 0 -0.037244874846121025 0.066569591413202456 0 -0.037704969608216059 0.066890193349447652 0 -0.037741079836852175 0.067530227453623234 0 -0.037294066977329877 0.067180947765419274 0 -0.037704969608216059 0.066890193349447652 0 -0.037704969608216059 0.066890193349447652 0 -0.038068368167352755 0.067181821956581872 0 -0.038168787291723731 0.066550385108055207 0 -0.038718431486463201 0.067088261303967861 0 -0.038083471454243845 0.06797224150930635 0 -0.038068368167352755 0.067181821956581872 0 -0.038718431486463201 0.067088261303967861 0 -0.038068368167352755 0.067181821956581872 0 -0.038168787291723731 0.066550385108055207 0 -0.037741079836852175 0.067530227453623234 0 -0.037704969608216059 0.066890193349447652 0 -0.038068368167352755 0.067181821956581872 0 -0.038168787291723731 0.066550385108055207 0 -0.037578126417360851 0.065949464970372282 0 -0.038358703190615379 0.066096388801554287 0 -0.034490387340552438 0.064327466809872294 0 -0.034310817790969984 0.065048694389460496 0 -0.031398244245042631 0.061174304660069428 0 -0.032026320813631687 0.061434753221882896 0 -0.031392923900430511 0.061038963274342398 0 -0.031708251475443858 0.061167628915616862 0 -0.031772464443935972 0.061127706680994653 0 -0.031398244245042631 0.061174304660069428 0 -0.031850811305717971 0.061625155896918318 0 -0.031908698039301089 0.062224488993130177 0 -0.031398244245042631 0.061174304660069428 0 -0.031073282506070565 0.060289969208990525 0 -0.031426703470838237 0.060582818661607703 0 -0.031398244245042631 0.061174304660069428 0 -0.031850811305717971 0.061625155896918318 0 -0.032026320813631687 0.061434753221882896 0 -0.031850811305717971 0.061625155896918318 0 -0.032026320813631687 0.061434753221882896 0 -0.032396958949002158 0.062138512039500653 0 -0.037244874846121025 0.066569591413202456 0 -0.037578126417360851 0.065949464970372282 0 -0.036739479817320148 0.065567319910102964 0 -0.034490387340552438 0.064327466809872294 0 -0.034130851798652932 0.064048244843257746 0 -0.032593130399387493 0.062061896380427403 0 -0.032396958949002158 0.062138512039500653 0 -0.032663232366760581 0.062409287374846446 0 -0.032026320813631687 0.061434753221882896 0 -0.032593130399387493 0.062061896380427403 0 -0.032396958949002158 0.062138512039500653 0 -0.032396958949002158 0.062138512039500653 0 -0.032301571902392717 0.062567454065955805 0 -0.031908698039301089 0.062224488993130177 0 -0.032396958949002158 0.062138512039500653 0 -0.032663232366760581 0.062409287374846446 0 -0.032637499408117644 0.062385781382784708 0 -0.03192355773139513 0.060927475368658272 0 -0.031979775972627265 0.061438630147816801 0 -0.032396958949002158 0.062138512039500653 0 -0.032301571902392717 0.062567454065955805 0 -0.032637499408117644 0.062385781382784708 0 -0.032117720154602174 0.060850478576038834 0 -0.032463528971275808 0.060895750837178089 0 -0.031890191877496109 0.061117807537262793 0 -0.032117720154602174 0.060850478576038834 0 -0.031890191877496109 0.061117807537262793 0 -0.031914398575002965 0.060795015745982943 0 -0.03192355773139513 0.060927475368658272 0 -0.031912392220442169 0.060922162925315312 0 -0.031324565229694311 0.059918176575659517 0 -0.031073282506070565 0.060289969208990525 0 -0.031228761354221576 0.059889110620427247 0 -0.031173247452360942 0.059859005506197181 0 -0.031073282506070565 0.060289969208990525 0 -0.031228761354221576 0.059889110620427247 0 -0.031136270046282624 0.059870173001618419 0 -0.031173247452360942 0.059859005506197181 0 -0.031073282506070565 0.060289969208990525 0 -0.03192355773139513 0.060927475368658272 0 -0.031772464443935972 0.061127706680994653 0 -0.031324565229694311 0.059918176575659517 0 -0.031401347065466982 0.060246059229148385 0 -0.031073282506070565 0.060289969208990525 0 -0.031324565229694311 0.059918176575659517 0 -0.031401347065466982 0.060246059229148385 0 -0.031510732401356441 0.060097072422026818 0 -0.031401347065466982 0.060246059229148385 0 -0.031073282506070565 0.060289969208990525 0 -0.031426703470838237 0.060582818661607703 0 -0.031850811305717971 0.061625155896918318 0 -0.032396958949002158 0.062138512039500653 0 -0.031908698039301089 0.062224488993130177 0 -0.031673027926505788 0.064017076308540782 0 -0.031214771168731632 0.06243198790208801 0 -0.030272162345421433 0.064221976732031727 0 -0.031214771168731632 0.06243198790208801 0 -0.030272162345421433 0.064221976732031727 0 -0.029867018834712784 0.062471461182276748 0 -0.03132962406047219 0.065524340987047389 0 -0.031673027926505788 0.064017076308540782 0 -0.030272162345421433 0.064221976732031727 0 -0.032704951187675385 0.06651350457344353 0 -0.03132962406047219 0.065524340987047389 0 -0.031673027926505788 0.064017076308540782 0 -0.032704951187675385 0.06651350457344353 0 -0.031673027926505788 0.064017076308540782 0 -0.034990788338725855 0.064752576201988363 0 -0.032361186555026802 0.063917961737959231 0 -0.033214919136210747 0.063941446558751322 0 -0.031673027926505788 0.064017076308540782 0 -0.03221089086739997 0.062884221781711894 0 -0.031214771168731632 0.06243198790208801 0 -0.031673027926505788 0.064017076308540782 0 -0.03221089086739997 0.062884221781711894 0 -0.032560478278242412 0.062859095349907301 0 -0.03221089086739997 0.062884221781711894 0 -0.032560478278242412 0.062859095349907301 0 -0.032663232366760581 0.062409287374846446 0 -0.034130851798652932 0.064048244843257746 0 -0.033214919136210747 0.063941446558751322 0 -0.035934258383951548 0.066951246582805671 0 -0.036739479817320148 0.065567319910102964 0 -0.034990788338725855 0.064752576201988363 0 -0.032593130399387493 0.062061896380427403 0 -0.032560478278242412 0.062859095349907301 0 -0.032663232366760581 0.062409287374846446 0 -0.031979775972627265 0.061438630147816801 0 -0.031696697930474894 0.06179875040669558 0 -0.032663232366760581 0.062409287374846446 0 -0.032637499408117644 0.062385781382784708 0 -0.032462734013241311 0.062276159013709552 0 -0.031890191877496109 0.061117807537262793 0 -0.031606393558411612 0.061545902890234164 0 -0.031655771842475457 0.060845577832357313 0 -0.031890191877496109 0.061117807537262793 0 -0.031655771842475457 0.060845577832357313 0 -0.031914398575002965 0.060795015745982943 0 -0.031606393558411612 0.061545902890234164 0 -0.031303900253805111 0.06118887806644429 0 -0.031655771842475457 0.060845577832357313 0 -0.03221089086739997 0.062884221781711894 0 -0.032663232366760581 0.062409287374846446 0 -0.032462734013241311 0.062276159013709552 0 -0.03221089086739997 0.062884221781711894 0 -0.032462734013241311 0.062276159013709552 0 -0.031214771168731632 0.06243198790208801 0 -0.031696697930474894 0.06179875040669558 0 -0.031371006339104272 0.062009687106142956 0 -0.031606393558411612 0.061545902890234164 0 -0.031303900253805111 0.06118887806644429 0 -0.031214771168731632 0.06243198790208801 0 -0.031303900253805111 0.06118887806644429 0 -0.03053196819074875 0.061358407704678444 0 -0.031214771168731632 0.06243198790208801 0 -0.031303900253805111 0.06118887806644429 0 -0.03053196819074875 0.061358407704678444 0 -0.030908161484503371 0.060784810169703878 0 -0.03053196819074875 0.061358407704678444 0 -0.031214771168731632 0.06243198790208801 0 -0.029867018834712784 0.062471461182276748 0 -0.030773738630045865 0.060285697588107763 0 -0.030908161484503371 0.060784810169703878 0 -0.030158468692080394 0.060685096360018814 0 -0.03053196819074875 0.061358407704678444 0 -0.030908161484503371 0.060784810169703878 0 -0.030158468692080394 0.060685096360018814 0 -0.030773738630045865 0.060285697588107763 0 -0.030908161484503371 0.060784810169703878 0 -0.031516788174888379 0.060547178100618666 0 -0.031303900253805111 0.06118887806644429 0 -0.030908161484503371 0.060784810169703878 0 -0.031516788174888379 0.060547178100618666 0 -0.030686188394383283 0.060198866492813717 0 -0.031208602833439823 0.060294166918765747 0 -0.030620503766237255 0.060053105123578816 0 -0.030997294597944348 0.060095747046331548 0 -0.030927823360932472 0.059711630646766371 0 -0.030997294597944348 0.060095747046331548 0 -0.031327520596420841 0.059981062803269487 0 -0.031254009667976534 0.059724936939814857 0 -0.031303900253805111 0.06118887806644429 0 -0.031516788174888379 0.060547178100618666 0 -0.031655771842475457 0.060845577832357313 0 -0.031208602833439823 0.060294166918765747 0 -0.031503510650568368 0.060347259883816555 0 -0.031516788174888379 0.060547178100618666 0 -0.031655771842475457 0.060845577832357313 0 -0.031716030253798468 0.060418392502212072 0 -0.031655771842475457 0.060845577832357313 0 -0.031914398575002965 0.060795015745982943 0 -0.031716030253798468 0.060418392502212072 0 -0.031327520596420841 0.059981062803269487 0 -0.031716030253798468 0.060418392502212072 0 -0.031605967582887348 0.059944231557510469 0 -0.030997294597944348 0.060095747046331548 0 -0.031327520596420841 0.059981062803269487 0 -0.031716030253798468 0.060418392502212072 0 -0.031327520596420841 0.059981062803269487 0 -0.031423239593326699 0.05978660968573099 0 -0.031605967582887348 0.059944231557510469 0 -0.031423239593326699 0.05978660968573099 0 -0.031254009667976534 0.059724936939814857 0 -0.031384120986967967 0.059594178064735111 0 -0.031327520596420841 0.059981062803269487 0 -0.031423239593326699 0.05978660968573099 0 -0.031254009667976534 0.059724936939814857 0 -0.031254009667976534 0.059724936939814857 0 -0.031207524605931219 0.059440776879528576 0 -0.031384120986967967 0.059594178064735111 0 -0.031207524605931219 0.059440776879528576 0 -0.031384120986967967 0.059594178064735111 0 -0.031363402577131848 0.059337057488074385 0 -0.031254009667976534 0.059724936939814857 0 -0.031207524605931219 0.059440776879528576 0 -0.030927823360932472 0.059711630646766371 0 -0.030997294597944348 0.060095747046331548 0 -0.031254009667976534 0.059724936939814857 0 -0.030927823360932472 0.059711630646766371 0 -0.030620503766237255 0.060053105123578816 0 -0.030927823360932472 0.059711630646766371 0 -0.030656091196634934 0.059633428600201301 0 -0.030927823360932472 0.059711630646766371 0 -0.030802771310979707 0.059358174529199351 0 -0.030656091196634934 0.059633428600201301 0 -0.031207524605931219 0.059440776879528576 0 -0.030927823360932472 0.059711630646766371 0 -0.030802771310979707 0.059358174529199351 0 -0.030802771310979707 0.059358174529199351 0 -0.030532814110919664 0.0594044190559401 0 -0.030656091196634934 0.059633428600201301 0 -0.030532814110919664 0.0594044190559401 0 -0.030656091196634934 0.059633428600201301 0 -0.030377296768875284 0.059643935897521164 0 -0.030620503766237255 0.060053105123578816 0 -0.030656091196634934 0.059633428600201301 0 -0.030377296768875284 0.059643935897521164 0 -0.031300236526732812 0.059756312201329646 0 -0.031356551304891636 0.05974860096571083 0 -0.031349120373617631 0.059656762936297937 0 -0.03126724352043507 0.059782796915359933 0 -0.031300236526732812 0.059756312201329646 0 -0.031349120373617631 0.059656762936297937 0 -0.031371627535106417 0.059717669421660832 0 -0.03126724352043507 0.059782796915359933 0 -0.031349120373617631 0.059656762936297937 0 -0.031371627535106417 0.059717669421660832 0 -0.031349120373617631 0.059656762936297937 0 -0.031430521622548786 0.059612245424458213 0 -0.031324565229694311 0.059918176575659517 0 -0.031371627535106417 0.059717669421660832 0 -0.03126724352043507 0.059782796915359933 0 -0.031324565229694311 0.059918176575659517 0 -0.031228761354221576 0.059889110620427247 0 -0.03126724352043507 0.059782796915359933 0 -0.031173247452360942 0.059859005506197181 0 -0.031228761354221576 0.059889110620427247 0 -0.03126724352043507 0.059782796915359933 0 -0.03120097206861968 0.059829223358414646 0 -0.031173247452360942 0.059859005506197181 0 -0.031253802691322032 0.059792363013855827 0 -0.03126724352043507 0.059782796915359933 0 -0.031253802691322032 0.059792363013855827 0 -0.031300236526732812 0.059756312201329646 0 -0.031173247452360942 0.059859005506197181 0 -0.03126724352043507 0.059782796915359933 0 -0.031253802691322032 0.059792363013855827 0 -0.03192355773139513 0.060927475368658272 0 -0.03173053467775009 0.060553722297309431 0 -0.032117720154602174 0.060850478576038834 0 -0.032463528971275808 0.060895750837178089 0 -0.032214706981078201 0.060545354260633698 0 -0.03120097206861968 0.059829223358414646 0 -0.031253802691322032 0.059792363013855827 0 -0.031348385028120644 0.059739893538317497 0 -0.031253802691322032 0.059792363013855827 0 -0.031348385028120644 0.059739893538317497 0 -0.031314018702059271 0.059780165359851617 0 -0.031253802691322032 0.059792363013855827 0 -0.031300236526732812 0.059756312201329646 0 -0.031314018702059271 0.059780165359851617 0 -0.032117720154602174 0.060850478576038834 0 -0.031914398575002965 0.060795015745982943 0 -0.032214706981078201 0.060545354260633698 0 -0.032214706981078201 0.060545354260633698 0 -0.031716030253798468 0.060418392502212072 0 -0.031605967582887348 0.059944231557510469 0 -0.031914398575002965 0.060795015745982943 0 -0.032214706981078201 0.060545354260633698 0 -0.031716030253798468 0.060418392502212072 0 -0.03173053467775009 0.060553722297309431 0 -0.031659723144989965 0.060423677864404647 0 -0.031348385028120644 0.059739893538317497 0 -0.031605967582887348 0.059944231557510469 0 -0.031403089014324703 0.059829464198050443 0 -0.031605967582887348 0.059944231557510469 0 -0.031403089014324703 0.059829464198050443 0 -0.031433500551373027 0.059769934132191997 0 -0.031403089014324703 0.059829464198050443 0 -0.031356551304891636 0.05974860096571083 0 -0.031433500551373027 0.059769934132191997 0 -0.031423239593326699 0.05978660968573099 0 -0.031605967582887348 0.059944231557510469 0 -0.031433500551373027 0.059769934132191997 0 -0.031300236526732812 0.059756312201329646 0 -0.031314018702059271 0.059780165359851617 0 -0.031356551304891636 0.05974860096571083 0 -0.031348385028120644 0.059739893538317497 0 -0.031403089014324703 0.059829464198050443 0 -0.031314018702059271 0.059780165359851617 0 -0.031403089014324703 0.059829464198050443 0 -0.031314018702059271 0.059780165359851617 0 -0.031356551304891636 0.05974860096571083 0 -0.031356551304891636 0.05974860096571083 0 -0.031376907705723545 0.059623081959475341 0 -0.031433500551373027 0.059769934132191997 0 -0.031356551304891636 0.05974860096571083 0 -0.031376907705723545 0.059623081959475341 0 -0.031349120373617631 0.059656762936297937 0 -0.031376907705723545 0.059623081959475341 0 -0.031433500551373027 0.059769934132191997 0 -0.031384120986967967 0.059594178064735111 0 -0.031423239593326699 0.05978660968573099 0 -0.031433500551373027 0.059769934132191997 0 -0.031384120986967967 0.059594178064735111 0 -0.031376907705723545 0.059623081959475341 0 -0.031384120986967967 0.059594178064735111 0 -0.031352251752039796 0.059440086550338528 0 -0.031376907705723545 0.059623081959475341 0 -0.03137557409543635 0.059522929008041091 0 -0.031352251752039796 0.059440086550338528 0 -0.031376907705723545 0.059623081959475341 0 -0.03137557409543635 0.059522929008041091 0 -0.031349120373617631 0.059656762936297937 0 -0.03137557409543635 0.059522929008041091 0 -0.031349120373617631 0.059656762936297937 0 -0.031417893176317262 0.059507160926375625 0 -0.031349120373617631 0.059656762936297937 0 -0.031417893176317262 0.059507160926375625 0 -0.031430521622548786 0.059612245424458213 0 -0.03137557409543635 0.059522929008041091 0 -0.031417893176317262 0.059507160926375625 0 -0.031388687358888528 0.059344783569096324 0 -0.031417893176317262 0.059507160926375625 0 -0.03144349350941833 0.059459802425183332 0 -0.031450999487636203 0.059548856677732277 0 -0.03144349350941833 0.059459802425183332 0 -0.031450999487636203 0.059548856677732277 0 -0.031462942267487436 0.059427357631823781 0 -0.031450999487636203 0.059548856677732277 0 -0.031464193522916212 0.059585615656306101 0 -0.031402104934902086 0.059598392060429446 0 -0.031450999487636203 0.059548856677732277 0 -0.031430521622548786 0.059612245424458213 0 -0.031464193522916212 0.059585615656306101 0 -0.031417893176317262 0.059507160926375625 0 -0.031450999487636203 0.059548856677732277 0 -0.031430521622548786 0.059612245424458213 0 -0.031371627535106417 0.059717669421660832 0 -0.031430521622548786 0.059612245424458213 0 -0.031479630785557565 0.059676305269529301 0 -0.031430521622548786 0.059612245424458213 0 -0.031464193522916212 0.059585615656306101 0 -0.031479630785557565 0.059676305269529301 0 -0.031464193522916212 0.059585615656306101 0 -0.031479630785557565 0.059676305269529301 0 -0.031417692284454644 0.059482994948668114 0 -0.031444548160488472 0.059707772484560911 0 -0.031472151788512329 0.059608825324884193 0 -0.031324565229694311 0.059918176575659517 0 -0.031371627535106417 0.059717669421660832 0 -0.031479630785557565 0.059676305269529301 0 -0.031359471630975501 0.059771091768033191 0 -0.031444548160488472 0.059707772484560911 0 -0.031984550602396002 0.059602613773563372 0 -0.031901227593278972 0.059799257713638525 0 -0.031965400014177754 0.059844070264602998 0 -0.031984550602396002 0.059602613773563372 0 -0.031901227593278972 0.059799257713638525 0 -0.031796491438239628 0.059657196842459001 0 -0.031577851862565155 0.059883714076207309 0 -0.031796491438239628 0.059657196842459001 0 -0.031806847580559967 0.059901919231391085 0 -0.031901227593278972 0.059799257713638525 0 -0.031796491438239628 0.059657196842459001 0 -0.031806847580559967 0.059901919231391085 0 -0.031464193522916212 0.059585615656306101 0 -0.031417692284454644 0.059482994948668114 0 -0.031402104934902086 0.059598392060429446 0 -0.031417692284454644 0.059482994948668114 0 -0.030996759047318009 0.059563106595395474 0 -0.030823839410076565 0.05947819606103745 0 -0.031472151788512329 0.059608825324884193 0 -0.031150375402401551 0.059609522222227818 0 -0.031984550602396002 0.059602613773563372 0 -0.031796491438239628 0.059657196842459001 0 -0.032205678926124283 0.059452684833762294 0 -0.031417692284454644 0.059482994948668114 0 -0.031402104934902086 0.059598392060429446 0 -0.030996759047318009 0.059563106595395474 0 -0.031402104934902086 0.059598392060429446 0 -0.0313807153786878 0.059597220613572262 0 -0.030996759047318009 0.059563106595395474 0 -0.029113154575587587 0.059345561642701501 0 -0.029583904309797987 0.05964334688416937 0 -0.031450999487636203 0.059548856677732277 0 -0.031454570629333489 0.05951116560696014 0 -0.031462942267487436 0.059427357631823781 0 -0.031450999487636203 0.059548856677732277 0 -0.031402104934902086 0.059598392060429446 0 -0.031454570629333489 0.05951116560696014 0 -0.029113154575587587 0.059345561642701501 0 -0.026990709143231366 0.056219123276676393 0 -0.031454570629333489 0.05951116560696014 0 -0.0313807153786878 0.059597220613572262 0 -0.031546268303729419 0.05939768977338903 0 -0.031402104934902086 0.059598392060429446 0 -0.031454570629333489 0.05951116560696014 0 -0.0313807153786878 0.059597220613572262 0 -0.02989740288512293 0.061113146518448722 0 -0.030515830072702685 0.060280783940032542 0 -0.030627734020882352 0.061055545554635222 0 -0.030921911347292261 0.060671944707797708 0 -0.030515830072702685 0.060280783940032542 0 -0.030627734020882352 0.061055545554635222 0 -0.02989740288512293 0.061113146518448722 0 -0.029737839927833892 0.060490261889672554 0 -0.030515830072702685 0.060280783940032542 0 -0.029737839927833892 0.060490261889672554 0 -0.030515830072702685 0.060280783940032542 0 -0.029405313398512871 0.059813804611486505 0 -0.030515830072702685 0.060280783940032542 0 -0.029405313398512871 0.059813804611486505 0 -0.030823839410076565 0.05947819606103745 0 -0.030921911347292261 0.060671944707797708 0 -0.030515830072702685 0.060280783940032542 0 -0.030996759047318009 0.059563106595395474 0 0.010711702158492193 0.013414070842948404 0 0.010545587622166695 0.012360758446603486 0 0.0095328063198567726 0.013408753666099815 0 0.010545587622166695 0.012360758446603486 0 0.0095328063198567726 0.013408753666099815 0 0.0091302176441419147 0.01194612500634107 0 0.006711336185015215 0.012988030792291825 0 0.0095328063198567726 0.013408753666099815 0 0.0091302176441419147 0.01194612500634107 0 -0.02989740288512293 0.061113146518448722 0 -0.029737839927833892 0.060490261889672554 0 -0.028337357176077792 0.060603958724068402 0 -0.011979867840883377 0.037135028056657762 0 -0.0091458443506442708 0.036579129355581504 0 -0.028337357176077792 0.060603958724068402 0 -0.027976896954017554 0.058985063783465248 0 -0.029405313398512871 0.059813804611486505 0 -0.029737839927833892 0.060490261889672554 0 -0.028337357176077792 0.060603958724068402 0 -0.029405313398512871 0.059813804611486505 0 0.010545587622166695 0.012360758446603486 0 0.010588829202093489 0.011248410575395816 0 0.0091302176441419147 0.01194612500634107 0 -0.025361092653262845 0.058666382204759109 0 -0.028337357176077792 0.060603958724068402 0 -0.027976896954017554 0.058985063783465248 0 -0.025361092653262845 0.058666382204759109 0 -0.027976896954017554 0.058985063783465248 0 -0.027533511451443064 0.057566241405937392 0 -0.0059779516615265753 0.036247465501118126 0 -0.0091458443506442708 0.036579129355581504 0 -0.027976896954017554 0.058985063783465248 0 -0.029016686892322834 0.058084915978700559 0 -0.027533511451443064 0.057566241405937392 0 -0.027976896954017554 0.058985063783465248 0 -0.029405313398512871 0.059813804611486505 0 -0.029016686892322834 0.058084915978700559 0 -0.029405313398512871 0.059813804611486505 0 -0.029016686892322834 0.058084915978700559 0 -0.030080425012002365 0.058582651689242406 0 -0.029016686892322834 0.058084915978700559 0 -0.028554662153778547 0.05621727490088415 0 -0.030609312347960618 0.056948985792753287 0 -0.028554662153778547 0.05621727490088415 0 -0.030609312347960618 0.056948985792753287 0 -0.029715780730664613 0.054993201903201422 0 -0.029016686892322834 0.058084915978700559 0 -0.028554662153778547 0.05621727490088415 0 -0.027533511451443064 0.057566241405937392 0 -0.028554662153778547 0.05621727490088415 0 -0.026184501219454103 0.055938607479499122 0 -0.027533511451443064 0.057566241405937392 0 -0.025361092653262845 0.058666382204759109 0 -0.026184501219454103 0.055938607479499122 0 -0.027533511451443064 0.057566241405937392 0 -0.030515830072702685 0.060280783940032542 0 -0.030996759047318009 0.059563106595395474 0 -0.030823839410076565 0.05947819606103745 0 -0.032205678926124283 0.059452684833762294 0 -0.03138237635389781 0.059230344568667076 0 -0.031822748647645546 0.059344391535582568 0 -0.032205678926124283 0.059452684833762294 0 -0.031822748647645546 0.059344391535582568 0 -0.032015155667304035 0.059467142842008484 0 -0.031984550602396002 0.059602613773563372 0 -0.032205678926124283 0.059452684833762294 0 -0.032015155667304035 0.059467142842008484 0 -0.029405313398512871 0.059813804611486505 0 -0.032205678926124283 0.059452684833762294 0 -0.03138237635389781 0.059230344568667076 0 -0.030537441001444749 0.059739741387430469 0 -0.031150375402401551 0.059609522222227818 0 -0.029405313398512871 0.059813804611486505 0 -0.030080425012002365 0.058582651689242406 0 -0.03138237635389781 0.059230344568667076 0 -0.030080425012002365 0.058582651689242406 0 -0.03138237635389781 0.059230344568667076 0 -0.030609312347960618 0.056948985792753287 0 -0.03138237635389781 0.059230344568667076 0 -0.032136254159349911 0.059543905695408107 0 -0.031822748647645546 0.059344391535582568 0 -0.026270285031193878 0.060302225458415314 0 -0.025508128788640772 0.060080941108403473 0 -0.029016686892322834 0.058084915978700559 0 -0.030080425012002365 0.058582651689242406 0 -0.030609312347960618 0.056948985792753287 0 -0.032136254159349911 0.059543905695408107 0 -0.031955836011590709 0.059572166159753713 0 -0.032102653078315474 0.05981659031399357 0 -0.031984550602396002 0.059602613773563372 0 -0.031955836011590709 0.059572166159753713 0 -0.031965400014177754 0.059844070264602998 0 -0.032136254159349911 0.059543905695408107 0 -0.031955836011590709 0.059572166159753713 0 -0.031822748647645546 0.059344391535582568 0 -0.031955836011590709 0.059572166159753713 0 -0.031822748647645546 0.059344391535582568 0 -0.032015155667304035 0.059467142842008484 0 -0.031984550602396002 0.059602613773563372 0 -0.031955836011590709 0.059572166159753713 0 -0.032015155667304035 0.059467142842008484 0 -0.032056254821938163 0.059969630592769968 0 -0.032102653078315474 0.05981659031399357 0 -0.032147876114908262 0.060102768596925066 0 -0.031965400014177754 0.059844070264602998 0 -0.032056254821938163 0.059969630592769968 0 -0.032102653078315474 0.05981659031399357 0 -0.031955836011590709 0.059572166159753713 0 -0.031965400014177754 0.059844070264602998 0 -0.032102653078315474 0.05981659031399357 0 -0.031965400014177754 0.059844070264602998 0 -0.03200371924770061 0.060037786676137891 0 -0.032056254821938163 0.059969630592769968 0 -0.032102653078315474 0.05981659031399357 0 -0.032325703875518148 0.059855820305208259 0 -0.032147876114908262 0.060102768596925066 0 -0.032136254159349911 0.059543905695408107 0 -0.032102653078315474 0.05981659031399357 0 -0.032325703875518148 0.059855820305208259 0 -0.025508128788640772 0.060080941108403473 0 -0.023107948392859137 0.059605797591458197 0 -0.023107948392859137 0.059605797591458197 0 -0.022837389660903734 0.063089773939339261 0 -0.014765498774987656 0.067880932237291372 0 -0.013763201511697142 0.067608927475315869 0 -0.014427541871681382 0.067230618605574236 0 -0.014210638262485231 0.068467355452978676 0 -0.014765498774987656 0.067880932237291372 0 -0.013763201511697142 0.067608927475315869 0 -0.014765498774987656 0.067880932237291372 0 -0.014864094356187851 0.067319412579420798 0 -0.014427541871681382 0.067230618605574236 0 -0.014765498774987656 0.067880932237291372 0 -0.015342018254137302 0.067280121078609298 0 -0.014864094356187851 0.067319412579420798 0 -0.022837389660903734 0.063089773939339261 0 -0.022559992175133589 0.066110912316427684 0 -0.032147876114908262 0.060102768596925066 0 -0.032041316549176906 0.060121605345283567 0 -0.03201612057870256 0.060279337583555304 0 -0.031992815618172042 0.060199496439311433 0 -0.032041316549176906 0.060121605345283567 0 -0.031994347321417503 0.060147347508874127 0 -0.031992815618172042 0.060199496439311433 0 -0.032041316549176906 0.060121605345283567 0 -0.03201612057870256 0.060279337583555304 0 -0.03200371924770061 0.060037786676137891 0 -0.032041316549176906 0.060121605345283567 0 -0.031994347321417503 0.060147347508874127 0 -0.03200371924770061 0.060037786676137891 0 -0.032056254821938163 0.059969630592769968 0 -0.032041316549176906 0.060121605345283567 0 -0.032056254821938163 0.059969630592769968 0 -0.032147876114908262 0.060102768596925066 0 -0.032041316549176906 0.060121605345283567 0 -0.028554662153778547 0.05621727490088415 0 -0.026184501219454103 0.055938607479499122 0 -0.027374393587266281 0.053921913093400151 0 -0.024690776597252495 0.053574281043629789 0 -0.026184501219454103 0.055938607479499122 0 -0.027374393587266281 0.053921913093400151 0 -0.028554662153778547 0.05621727490088415 0 -0.02989575538819475 0.054765690907720072 0 -0.027374393587266281 0.053921913093400151 0 -0.024344912099070342 0.058450982710552955 0 -0.023107948392859137 0.059605797591458197 0 -0.023107948392859137 0.059605797591458197 0 -0.018828065370083261 0.059895399592652714 0 -0.02989575538819475 0.054765690907720072 0 -0.027374393587266281 0.053921913093400151 0 -0.028520505641593138 0.051866697862593535 0 -0.027374393587266281 0.053921913093400151 0 -0.028520505641593138 0.051866697862593535 0 -0.026220082912508446 0.051845125564155652 0 -0.024690776597252495 0.053574281043629789 0 -0.027374393587266281 0.053921913093400151 0 -0.026220082912508446 0.051845125564155652 0 -0.028520505641593138 0.051866697862593535 0 -0.026220082912508446 0.051845125564155652 0 -0.027132709199217848 0.049005210110429673 0 -0.02338152416369773 0.050868436060901467 0 -0.026220082912508446 0.051845125564155652 0 -0.027132709199217848 0.049005210110429673 0 -0.018828065370083261 0.059895399592652714 0 -0.012945346299515242 0.058940970530331337 0 -0.013763201511697142 0.067608927475315869 0 -0.013958600030221284 0.066893609858341627 0 -0.014427541871681382 0.067230618605574236 0 -0.013763201511697142 0.067608927475315869 0 -0.013958600030221284 0.066893609858341627 0 -0.013278600649581742 0.06673092178720548 0 -0.013958600030221284 0.066893609858341627 0 -0.014085363895077217 0.06668398977549006 0 -0.014347511769469159 0.066777480010439344 0 -0.012732600224920752 0.065846971035001589 0 -0.014266341154956395 0.066701273231426231 0 -0.014076934929917047 0.066441486708444339 0 -0.012732600224920752 0.065846971035001589 0 -0.014108741182215978 0.066413033525674653 0 -0.013594016731922429 0.066576431888227872 0 -0.01442662654863832 0.065314198832141707 0 -0.015797796812611828 0.065565939270010434 0 -0.0139286650734648 0.066640467756168442 0 -0.014108741182215978 0.066413033525674653 0 -0.013594016731922429 0.066576431888227872 0 -0.013958600030221284 0.066893609858341627 0 -0.014085363895077217 0.06668398977549006 0 -0.0139286650734648 0.066640467756168442 0 -0.013958600030221284 0.066893609858341627 0 -0.0139286650734648 0.066640467756168442 0 -0.013594016731922429 0.066576431888227872 0 -0.014085363895077217 0.06668398977549006 0 -0.0139286650734648 0.066640467756168442 0 -0.014108741182215978 0.066413033525674653 0 -0.013958600030221284 0.066893609858341627 0 -0.013594016731922429 0.066576431888227872 0 -0.013278600649581742 0.06673092178720548 0 -0.012742838252006826 0.059274218466332448 0 -0.012945346299515242 0.058940970530331337 0 -0.012732600224920752 0.065846971035001589 0 -0.013594016731922429 0.066576431888227872 0 -0.013183357044073351 0.066797601560110081 0 -0.006575679067987901 0.059866188612954438 0 -0.012945346299515242 0.058940970530331337 0 0.0070702983148892137 0.056197893311543339 0 0.0073008759553334721 0.057436656726013578 0 0.0085529395338792905 0.05474591324121441 0 0.0070702983148892137 0.056197893311543339 0 0.0072140141969895353 0.054982931278601162 0 0.0085529395338792905 0.05474591324121441 0 -0.015199325810085628 0.066982754346286741 0 -0.014864094356187851 0.067319412579420798 0 -0.014684817755153687 0.066931274156461315 0 -0.02139077834348593 0.069311061122471915 0 -0.021539152912452151 0.069386630780028796 0 -0.021529082097819268 0.069141477829285106 0 -0.020964288680287307 0.066580110656151936 0 -0.023117252583580418 0.066465150867426631 0 -0.022116771635797217 0.068395457282335426 0 -0.021289253061243848 0.066644294233500004 0 -0.020462837860907336 0.06753339606563033 0 -0.020964288680287307 0.066580110656151936 0 -0.022559992175133589 0.066110912316427684 0 -0.031992179031497918 0.060227000786787999 0 -0.031984265915657707 0.060232161770665288 0 -0.031984937603189677 0.060216605999023023 0 -0.022559992175133589 0.066110912316427684 0 -0.023117252583580418 0.066465150867426631 0 -0.022763820903110965 0.065874608997557968 0 -0.022559992175133589 0.066110912316427684 0 -0.031992815618172042 0.060199496439311433 0 -0.031992179031497918 0.060227000786787999 0 -0.031984937603189677 0.060216605999023023 0 -0.015199325810085628 0.066982754346286741 0 -0.015342018254137302 0.067280121078609298 0 -0.014864094356187851 0.067319412579420798 0 -0.014864094356187851 0.067319412579420798 0 -0.014427541871681382 0.067230618605574236 0 -0.014684817755153687 0.066931274156461315 0 -0.014108741182215978 0.066413033525674653 0 -0.015199325810085628 0.066982754346286741 0 -0.014684817755153687 0.066931274156461315 0 -0.013958600030221284 0.066893609858341627 0 -0.014427541871681382 0.067230618605574236 0 -0.014347511769469159 0.066777480010439344 0 -0.014427541871681382 0.067230618605574236 0 -0.014684817755153687 0.066931274156461315 0 -0.014347511769469159 0.066777480010439344 0 -0.014266341154956395 0.066701273231426231 0 -0.016142315516642039 0.067668551006502445 0 -0.015143249191760386 0.066747894109802738 0 -0.016406153079074601 0.069461763187706638 0 -0.01793992485947999 0.069997930098184558 0 -0.015797796812611828 0.065565939270010434 0 -0.020964288680287307 0.066580110656151936 0 -0.014076934929917047 0.066441486708444339 0 -0.015143249191760386 0.066747894109802738 0 -0.015548613929587632 0.06646953138240462 0 -0.014353600781793163 0.066120979606372768 0 -0.014076934929917047 0.066441486708444339 0 -0.015207339707940016 0.066467974422467893 0 -0.014085363895077217 0.06668398977549006 0 -0.014108741182215978 0.066413033525674653 0 -0.014347511769469159 0.066777480010439344 0 -0.014108741182215978 0.066413033525674653 0 -0.014684817755153687 0.066931274156461315 0 -0.014347511769469159 0.066777480010439344 0 -0.014266341154956395 0.066701273231426231 0 -0.014076934929917047 0.066441486708444339 0 -0.015143249191760386 0.066747894109802738 0 -0.015143249191760386 0.066747894109802738 0 -0.015548613929587632 0.06646953138240462 0 -0.015636990797659064 0.066654499760132324 0 -0.018268185175030514 0.069507823288456588 0 -0.01844903276022429 0.069533174402815284 0 -0.01793992485947999 0.069997930098184558 0 -0.019160727333615745 0.07023533707769182 0 -0.01844903276022429 0.069533174402815284 0 -0.019160727333615745 0.07023533707769182 0 -0.018015864069426912 0.070565911203382056 0 -0.018107836539945292 0.070759616358624294 0 -0.018936301461660383 0.070602286867182451 0 -0.01793992485947999 0.069997930098184558 0 -0.01844903276022429 0.069533174402815284 0 -0.020964288680287307 0.066580110656151936 0 -0.01844903276022429 0.069533174402815284 0 -0.02139077834348593 0.069311061122471915 0 -0.021241360498125441 0.069008019473208226 0 -0.021529082097819268 0.069141477829285106 0 -0.016142315516642039 0.067668551006502445 0 -0.015143249191760386 0.066747894109802738 0 -0.015653429510348121 0.06664998530932921 0 -0.021241360498125441 0.069008019473208226 0 -0.021529082097819268 0.069141477829285106 0 -0.021485668231256264 0.068962570535856527 0 -0.023117252583580418 0.066465150867426631 0 -0.0244193431935791 0.068440751585324644 0 -0.021529082097819268 0.069141477829285106 0 -0.021485668231256264 0.068962570535856527 0 -0.02192637121633341 0.068982048356903428 0 -0.019686751815692873 0.070168062905773348 0 -0.025077510981412855 0.070385270749083767 0 -0.025485253542614172 0.069948309654324817 0 -0.024645823396680543 0.068236237502507152 0 -0.025071145206786931 0.066240388896251431 0 -0.024329301457968557 0.06822414284525545 0 -0.019686751815692873 0.070168062905773348 0 -0.025485253542614172 0.069948309654324817 0 -0.026767479961096307 0.068829166661096217 0 -0.021539152912452151 0.069386630780028796 0 -0.021529082097819268 0.069141477829285106 0 -0.02192637121633341 0.068982048356903428 0 -0.019160727333615745 0.07023533707769182 0 -0.024622083636236147 0.071414816122103347 0 -0.019160727333615745 0.07023533707769182 0 -0.0244193431935791 0.068440751585324644 0 -0.0244193431935791 0.068440751585324644 0 -0.024418918717707638 0.068445812007302639 0 -0.032196117440453434 0.060462765128334567 0 -0.031885711084780229 0.060570924645352638 0 -0.031790609086628348 0.061732507487761247 0 -0.025224577146507048 0.065682964145303183 0 -0.025900106785193864 0.068320686874803263 0 -0.026028779891469837 0.066740015861330798 0 -0.024645823396680543 0.068236237502507152 0 -0.025071145206786931 0.066240388896251431 0 -0.032026865155404718 0.060402883013115069 0 -0.031885711084780229 0.060570924645352638 0 -0.031888044360491016 0.060399297392700217 0 -0.032026865155404718 0.060402883013115069 0 -0.032196117440453434 0.060462765128334567 0 -0.031885711084780229 0.060570924645352638 0 -0.025288274979619222 0.065682181949801938 0 -0.025224577146507048 0.065682964145303183 0 -0.031984265915657707 0.060232161770665288 0 -0.031977672916951805 0.060222032732306682 0 -0.031984937603189677 0.060216605999023023 0 -0.023117252583580418 0.066465150867426631 0 -0.025224577146507048 0.065682964145303183 0 -0.032879348774658791 0.063882732621484958 0 -0.031786760786402871 0.066740581791038617 0 -0.031885711084780229 0.060570924645352638 0 -0.031755897741231796 0.060986994400470118 0 -0.031744122688770471 0.060690598616149248 0 -0.031810046930153393 0.0605092025920188 0 -0.031885711084780229 0.060570924645352638 0 -0.031744122688770471 0.060690598616149248 0 -0.031810046930153393 0.0605092025920188 0 -0.031744122688770471 0.060690598616149248 0 -0.031742985394381196 0.060532979031039852 0 -0.031810046930153393 0.0605092025920188 0 -0.031885711084780229 0.060570924645352638 0 -0.031888044360491016 0.060399297392700217 0 -0.030709103188842537 0.06821067165723374 0 -0.027722639071671759 0.06877309583848043 0 -0.029567300393293434 0.069747929771353745 0 -0.031885711084780229 0.060570924645352638 0 -0.031790609086628348 0.061732507487761247 0 -0.031054151789995203 0.061714840265492933 0 -0.025078278188904245 0.07038423919869212 0 -0.025485253542614172 0.069948309654324817 0 -0.026164142305293521 0.070428661398540468 0 -0.0244193431935791 0.068440751585324644 0 -0.025900106785193864 0.068320686874803263 0 -0.025900106785193864 0.068320686874803263 0 -0.024622083636236147 0.071414816122103347 0 -0.025485253542614172 0.069948309654324817 0 -0.026164142305293521 0.070428661398540468 0 -0.026767479961096307 0.068829166661096217 0 -0.027386407433414944 0.06966000955048747 0 -0.027722639071671759 0.06877309583848043 0 -0.029567300393293434 0.069747929771353745 0 -0.025900106785193864 0.068320686874803263 0 -0.031786760786402871 0.066740581791038617 0 -0.031786760786402871 0.066740581791038617 0 -0.034310817790969984 0.065048694389460496 0 -0.033687838652297804 0.067353192787524538 0 -0.031786760786402871 0.066740581791038617 0 -0.031755897741231796 0.060986994400470118 0 -0.0315740878209353 0.0609178565729636 0 -0.031744122688770471 0.060690598616149248 0 -0.031755897741231796 0.060986994400470118 0 -0.0315740878209353 0.0609178565729636 0 -0.031392923900430511 0.061038963274342398 0 -0.038864651685091921 0.066374205466136649 0 -0.039026707895417748 0.066143390953592174 0 -0.038358703190615379 0.066096388801554287 0 -0.0315740878209353 0.0609178565729636 0 -0.031392923900430511 0.061038963274342398 0 -0.031460556710086317 0.061002420566518306 0 -0.031398244245042631 0.061174304660069428 0 -0.031392923900430511 0.061038963274342398 0 -0.031460556710086317 0.061002420566518306 0 -0.031398244245042631 0.061174304660069428 0 -0.031460556710086317 0.061002420566518306 0 -0.031534003723756462 0.060811963193852833 0 -0.0315740878209353 0.0609178565729636 0 -0.031460556710086317 0.061002420566518306 0 -0.031534003723756462 0.060811963193852833 0 -0.031534003723756462 0.060811963193852833 0 -0.031644392071155554 0.060610778635033689 0 -0.031566412426384284 0.060405446272686285 0 -0.031398244245042631 0.061174304660069428 0 -0.031534003723756462 0.060811963193852833 0 -0.031426703470838237 0.060582818661607703 0 -0.0315740878209353 0.0609178565729636 0 -0.031744122688770471 0.060690598616149248 0 -0.031644392071155554 0.060610778635033689 0 -0.0315740878209353 0.0609178565729636 0 -0.031534003723756462 0.060811963193852833 0 -0.031644392071155554 0.060610778635033689 0 -0.031744122688770471 0.060690598616149248 0 -0.031644392071155554 0.060610778635033689 0 -0.031742985394381196 0.060532979031039852 0 -0.031644392071155554 0.060610778635033689 0 -0.031742985394381196 0.060532979031039852 0 -0.03170618092183302 0.060350769727299747 0 -0.031644392071155554 0.060610778635033689 0 -0.03170618092183302 0.060350769727299747 0 -0.031566412426384284 0.060405446272686285 0 -0.03170618092183302 0.060350769727299747 0 -0.031566412426384284 0.060405446272686285 0 -0.031627158952170248 0.060151045489222545 0 -0.031534003723756462 0.060811963193852833 0 -0.031426703470838237 0.060582818661607703 0 -0.031566412426384284 0.060405446272686285 0 -0.031401347065466982 0.060246059229148385 0 -0.031566412426384284 0.060405446272686285 0 -0.031510732401356441 0.060097072422026818 0 -0.031401347065466982 0.060246059229148385 0 -0.031426703470838237 0.060582818661607703 0 -0.031566412426384284 0.060405446272686285 0 -0.031324565229694311 0.059918176575659517 0 -0.031577851862565155 0.059883714076207309 0 -0.031510732401356441 0.060097072422026818 0 -0.031577851862565155 0.059883714076207309 0 -0.031510732401356441 0.060097072422026818 0 -0.031627158952170248 0.060151045489222545 0 -0.031566412426384284 0.060405446272686285 0 -0.031510732401356441 0.060097072422026818 0 -0.031627158952170248 0.060151045489222545 0 -0.031577851862565155 0.059883714076207309 0 -0.031627158952170248 0.060151045489222545 0 -0.031760732392537107 0.060108079860513607 0 -0.031577851862565155 0.059883714076207309 0 -0.031760732392537107 0.060108079860513607 0 -0.031806847580559967 0.059901919231391085 0 -0.03170618092183302 0.060350769727299747 0 -0.031627158952170248 0.060151045489222545 0 -0.031760732392537107 0.060108079860513607 0 -0.031760732392537107 0.060108079860513607 0 -0.031867974375634232 0.060117972023054543 0 -0.031806847580559967 0.059901919231391085 0 -0.031867974375634232 0.060117972023054543 0 -0.031806847580559967 0.059901919231391085 0 -0.031909117229054727 0.059956631254836835 0 -0.031901227593278972 0.059799257713638525 0 -0.031806847580559967 0.059901919231391085 0 -0.031909117229054727 0.059956631254836835 0 -0.031901227593278972 0.059799257713638525 0 -0.031965400014177754 0.059844070264602998 0 -0.031909117229054727 0.059956631254836835 0 -0.031965400014177754 0.059844070264602998 0 -0.031909117229054727 0.059956631254836835 0 -0.031956524210835856 0.060090766899780934 0 -0.031965400014177754 0.059844070264602998 0 -0.03200371924770061 0.060037786676137891 0 -0.031956524210835856 0.060090766899780934 0 -0.031867974375634232 0.060117972023054543 0 -0.031909117229054727 0.059956631254836835 0 -0.031956524210835856 0.060090766899780934 0 -0.031956524210835856 0.060090766899780934 0 -0.031992442724882796 0.060223736598075742 0 -0.031932241645345742 0.060254327625732136 0 -0.031867974375634232 0.060117972023054543 0 -0.031956524210835856 0.060090766899780934 0 -0.031932241645345742 0.060254327625732136 0 -0.031994347321417503 0.060147347508874127 0 -0.031956524210835856 0.060090766899780934 0 -0.031992442724882796 0.060223736598075742 0 -0.03200371924770061 0.060037786676137891 0 -0.031994347321417503 0.060147347508874127 0 -0.031956524210835856 0.060090766899780934 0 -0.031992815618172042 0.060199496439311433 0 -0.031994347321417503 0.060147347508874127 0 -0.031992442724882796 0.060223736598075742 0 -0.031992815618172042 0.060199496439311433 0 -0.031984937603189677 0.060216605999023023 0 -0.031992442724882796 0.060223736598075742 0 -0.031977672916951805 0.060222032732306682 0 -0.031984937603189677 0.060216605999023023 0 -0.031992442724882796 0.060223736598075742 0 -0.032026865155404718 0.060402883013115069 0 -0.031992442724882796 0.060223736598075742 0 -0.031932241645345742 0.060254327625732136 0 -0.032026865155404718 0.060402883013115069 0 -0.03205083866195637 0.060414065371045857 0 -0.031992442724882796 0.060223736598075742 0 -0.025224577146507048 0.065682964145303183 0 -0.025606692822281028 0.065011010457586588 0 -0.032026865155404718 0.060402883013115069 0 -0.031932241645345742 0.060254327625732136 0 -0.031888044360491016 0.060399297392700217 0 -0.031932241645345742 0.060254327625732136 0 -0.031888044360491016 0.060399297392700217 0 -0.031818832090082419 0.060330864855240411 0 -0.031810046930153393 0.0605092025920188 0 -0.031888044360491016 0.060399297392700217 0 -0.031818832090082419 0.060330864855240411 0 -0.031810046930153393 0.0605092025920188 0 -0.031742985394381196 0.060532979031039852 0 -0.031818832090082419 0.060330864855240411 0 -0.031742985394381196 0.060532979031039852 0 -0.03170618092183302 0.060350769727299747 0 -0.031818832090082419 0.060330864855240411 0 -0.03170618092183302 0.060350769727299747 0 -0.031760732392537107 0.060108079860513607 0 -0.031818832090082419 0.060330864855240411 0 -0.031760732392537107 0.060108079860513607 0 -0.031867974375634232 0.060117972023054543 0 -0.031818832090082419 0.060330864855240411 0 -0.031867974375634232 0.060117972023054543 0 -0.031932241645345742 0.060254327625732136 0 -0.031818832090082419 0.060330864855240411 0 -0.077483982324291462 0.058556559392720989 0 -0.074997002856940956 0.063264576486753751 0 -0.074999187754099667 0.054604042309511283 0 -0.077483982324291462 0.058556559392720989 0 -0.080533478133757413 0.055555953340406097 0 -0.078109522607853518 0.055438067326754249 0 -0.077980453657157695 0.05945921786538267 0 -0.078451441207892714 0.0577144934628279 0 -0.077483982324291462 0.058556559392720989 0 -0.080577133015069621 0.059819846148282417 0 -0.080533478133757413 0.055555953340406097 0 -0.08174835571252205 0.056539507231905102 0 -0.080967193835687498 0.057666732219111193 0 -0.080533478133757413 0.055555953340406097 0 -0.08174835571252205 0.056539507231905102 0 -0.080967193835687498 0.057666732219111193 0 -0.082359307492369763 0.058196082067538596 0 -0.077483982324291462 0.058556559392720989 0 -0.080577133015069621 0.059819846148282417 0 -0.077453542226564698 0.062925545592791413 0 -0.080577133015069621 0.059819846148282417 0 -0.080257072920144348 0.064020079590411769 0 -0.077453542226564698 0.062925545592791413 0 -0.081297142719177873 0.05938553686043839 0 -0.082187621399866226 0.059493458102022168 0 -0.082359307492369763 0.058196082067538596 0 -0.077980453657157695 0.05945921786538267 0 -0.076082333714298941 0.063449563653038665 0 -0.080967193835687498 0.057666732219111193 0 -0.081297142719177873 0.05938553686043839 0 -0.082359307492369763 0.058196082067538596 0 -0.080257072920144348 0.064020079590411769 0 -0.0777194089189195 0.066512689732379837 0 -0.080321047543072704 0.069599794882479249 0 -0.076082333714298941 0.063449563653038665 0 -0.071815344526882305 0.072189119289553044 0 -0.081297142719177873 0.05938553686043839 0 -0.081913807896270036 0.060016439545221435 0 -0.081663317555673492 0.06059064412175108 0 -0.081297142719177873 0.05938553686043839 0 -0.081913807896270036 0.060016439545221435 0 -0.082187621399866226 0.059493458102022168 0 -0.080257072920144348 0.064020079590411769 0 -0.0777194089189195 0.066512689732379837 0 -0.077453542226564698 0.062925545592791413 0 -0.077453542226564698 0.062925545592791413 0 -0.074997002856940956 0.063264576486753751 0 -0.075856750734279929 0.06720682769905871 0 -0.0777194089189195 0.066512689732379837 0 -0.077453542226564698 0.062925545592791413 0 -0.075856750734279929 0.06720682769905871 0 -0.077483982324291462 0.058556559392720989 0 -0.077453542226564698 0.062925545592791413 0 -0.074997002856940956 0.063264576486753751 0 -0.074997002856940956 0.063264576486753751 0 -0.075856750734279929 0.06720682769905871 0 -0.073902402811138343 0.073216414561181373 0 -0.074997002856940956 0.063264576486753751 0 -0.074991991788076265 0.074998324805151201 0 -0.073902402811138343 0.073216414561181373 0 -0.075856750734279929 0.06720682769905871 0 -0.073902402811138343 0.073216414561181373 0 -0.076107300827957067 0.06976762526014775 0 -0.074991991788076265 0.074998324805151201 0 -0.073902402811138343 0.073216414561181373 0 -0.066138389552718807 0.074992817398974523 0 -0.073902402811138343 0.073216414561181373 0 -0.071975050266709098 0.072956701697653448 0 -0.074182441679029903 0.071765040473047007 0 -0.073902402811138343 0.073216414561181373 0 -0.066138389552718807 0.074992817398974523 0 -0.071975050266709098 0.072956701697653448 0 -0.06611554142282064 0.074999991501060181 0 -0.066532411317921064 0.078739419403835872 0 -0.064183848403777485 0.07767091017578083 0 -0.06612118820894039 0.074997954987596385 0 -0.069005566524927953 0.074264843412077827 0 -0.071975050266709098 0.072956701697653448 0 -0.074182441679029903 0.071765040473047007 0 -0.075243524473801962 0.070905595653711656 0 -0.069005566524927953 0.074264843412077827 0 -0.071815344526882305 0.072189119289553044 0 -0.066532411317921064 0.078739419403835872 0 -0.066986081145383652 0.082399049146251305 0 -0.065344451716394858 0.080390808778673481 0 -0.066986081145383652 0.082399049146251305 0 -0.065307179731121753 0.082401879200662428 0 -0.065344451716394858 0.080390808778673481 0 -0.073902402811138343 0.073216414561181373 0 -0.074182441679029903 0.071765040473047007 0 -0.076107300827957067 0.06976762526014775 0 -0.074182441679029903 0.071765040473047007 0 -0.076107300827957067 0.06976762526014775 0 -0.075243524473801962 0.070905595653711656 0 -0.073012417484506209 0.072006764759037181 0 -0.071815344526882305 0.072189119289553044 0 -0.0777194089189195 0.066512689732379837 0 -0.076107300827957067 0.06976762526014775 0 -0.080321047543072704 0.069599794882479249 0 -0.0777194089189195 0.066512689732379837 0 -0.075856750734279929 0.06720682769905871 0 -0.076107300827957067 0.06976762526014775 0 -0.081663317555673492 0.06059064412175108 0 -0.08212340573228058 0.060358937437603198 0 -0.082273619952343016 0.060560591969871048 0 -0.071815344526882305 0.072189119289553044 0 -0.070126168628738259 0.073275105176422065 0 -0.081913807896270036 0.060016439545221435 0 -0.081663317555673492 0.06059064412175108 0 -0.08212340573228058 0.060358937437603198 0 -0.082042454647621277 0.060382096585749279 0 -0.082415503693735709 0.060382351211189553 0 -0.081196940756386074 0.060017105837749447 0 -0.070126168628738259 0.073275105176422065 0 -0.070363925032700725 0.072186085242560122 0 -0.082192578993271467 0.06016381109543481 0 -0.082042454647621277 0.060382096585749279 0 -0.082415503693735709 0.060382351211189553 0 -0.081913807896270036 0.060016439545221435 0 -0.08212340573228058 0.060358937437603198 0 -0.082192578993271467 0.06016381109543481 0 -0.08212340573228058 0.060358937437603198 0 -0.082192578993271467 0.06016381109543481 0 -0.082415503693735709 0.060382351211189553 0 -0.070184356040727813 0.073099935255368217 0 -0.070126168628738259 0.073275105176422065 0 -0.082042454647621277 0.060382096585749279 0 -0.081196940756386074 0.060017105837749447 0 -0.081326878140821471 0.062660145909617951 0 -0.062038370462692422 0.082416384416271762 0 -0.063181547545526018 0.079938078479081701 0 -0.060100695077405529 0.080202354683019533 0 -0.070126168628738259 0.073275105176422065 0 -0.066317752346224806 0.07612379923816727 0 -0.06515910000319669 0.082404256135192588 0 -0.062038370462692422 0.082416384416271762 0 -0.063181547545526018 0.079938078479081701 0 -0.065307179731121753 0.082401879200662428 0 -0.063338548327664446 0.079977707623455435 0 -0.065344451716394858 0.080390808778673481 0 -0.066532411317921064 0.078739419403835872 0 -0.065344451716394858 0.080390808778673481 0 -0.064183848403777485 0.07767091017578083 0 -0.063338548327664446 0.079977707623455435 0 -0.065344451716394858 0.080390808778673481 0 -0.064183848403777485 0.07767091017578083 0 -0.063181547545526018 0.079938078479081701 0 -0.061206029694062386 0.077471532477857596 0 -0.060100695077405529 0.080202354683019533 0 -0.066317752346224806 0.07612379923816727 0 -0.062644226407262138 0.076028486811483886 0 -0.063338548327664446 0.079977707623455435 0 -0.064183848403777485 0.07767091017578083 0 -0.061311144574113421 0.077516994826894461 0 -0.061311144574113421 0.077516994826894461 0 -0.062685082557947081 0.074999966822250325 0 -0.059254393767125609 0.074999995045562817 0 -0.064183848403777485 0.07767091017578083 0 -0.061311144574113421 0.077516994826894461 0 -0.062685082557947081 0.074999966822250325 0 -0.06611554142282064 0.074999991501060181 0 -0.064183848403777485 0.07767091017578083 0 -0.062685082557947081 0.074999966822250325 0 -0.056507839688441454 0.076672439012667681 0 -0.059254259612120753 0.074999989142907397 0 -0.057919853462294175 0.07815256332630599 0 -0.056507839688441454 0.076672439012667681 0 -0.059254259612120753 0.074999989142907397 0 -0.055331179037505798 0.074999871756195186 0 -0.061206029694062386 0.077471532477857596 0 -0.059254259612120753 0.074999989142907397 0 -0.057919853462294175 0.07815256332630599 0 -0.062644226407262138 0.076028486811483886 0 -0.05925988664784948 0.074999978563467989 0 -0.061206029694062386 0.077471532477857596 0 -0.057919853462294175 0.07815256332630599 0 -0.060100695077405529 0.080202354683019533 0 -0.056507839688441454 0.076672439012667681 0 -0.057919853462294175 0.07815256332630599 0 -0.054643324295070864 0.077526980242238738 0 -0.057919853462294175 0.07815256332630599 0 -0.057468800394351524 0.080722224854701832 0 -0.060100695077405529 0.080202354683019533 0 -0.057919853462294175 0.07815256332630599 0 -0.057468800394351524 0.080722224854701832 0 -0.055231724946089654 0.07998224195731192 0 -0.062038370462692422 0.082416384416271762 0 -0.060100695077405529 0.080202354683019533 0 -0.058912588269535812 0.082423312421121941 0 -0.057468800394351524 0.080722224854701832 0 -0.060100695077405529 0.080202354683019533 0 -0.058912588269535812 0.082423312421121941 0 -0.081196940756386074 0.060017105837749447 0 -0.078501591705545146 0.059943719141331654 0 -0.079787906137968753 0.061304366083403249 0 -0.070363925032700725 0.072186085242560122 0 -0.068548663179508321 0.071463196290582592 0 -0.078501591705545146 0.059943719141331654 0 -0.07838979161535925 0.060979262968381645 0 -0.079787906137968753 0.061304366083403249 0 -0.078501591705545146 0.059943719141331654 0 -0.07838979161535925 0.060979262968381645 0 -0.076722778169396239 0.060104817502836617 0 -0.068548663179508321 0.071463196290582592 0 -0.066352529745659819 0.070843194738895304 0 -0.078501591705545146 0.059943719141331654 0 -0.076722778169396239 0.060104817502836617 0 -0.076212717028283 0.060054096808938515 0 -0.07838979161535925 0.060979262968381645 0 -0.076722778169396239 0.060104817502836617 0 -0.078622879827419528 0.062564390531969008 0 -0.057468800394351524 0.080722224854701832 0 -0.058912588269535812 0.082423312421121941 0 -0.055789906070897864 0.082419650939521263 0 -0.076722778169396239 0.060104817502836617 0 -0.076548523597590554 0.060961015435193222 0 -0.076813731181473832 0.060964201899480749 0 -0.077745111977378101 0.060091077982236119 0 -0.078076401081502753 0.060017311329075736 0 -0.076548523597590554 0.060961015435193222 0 -0.076667518047936409 0.061044355712017634 0 -0.076642628821407086 0.061119861118620049 0 -0.070128132764351869 0.064496273335562793 0 -0.071322199394724464 0.063191419818437566 0 -0.076548523597590554 0.060961015435193222 0 -0.076667518047936409 0.061044355712017634 0 -0.076813731181473832 0.060964201899480749 0 -0.076646542867131282 0.06210864787115418 0 -0.076642628821407086 0.061119861118620049 0 -0.076812398915876712 0.061113473942910682 0 -0.076667518047936409 0.061044355712017634 0 -0.076678349187738248 0.061058063502372723 0 -0.076663912792058253 0.06107465727263172 0 -0.076667518047936409 0.061044355712017634 0 -0.076642628821407086 0.061119861118620049 0 -0.076663912792058253 0.06107465727263172 0 -0.076678349187738248 0.061058063502372723 0 -0.076813731181473832 0.060964201899480749 0 -0.076606690934932886 0.061067676944443525 0 -0.078076401081502753 0.060017311329075736 0 -0.076509750801637771 0.055737518139444268 0 -0.076667518047936409 0.061044355712017634 0 -0.076678349187738248 0.061058063502372723 0 -0.076813731181473832 0.060964201899480749 0 -0.078622879827419528 0.062564390531969008 0 -0.079787906137968753 0.061304366083403249 0 -0.081326878140821471 0.062660145909617951 0 -0.07838979161535925 0.060979262968381645 0 -0.078622879827419528 0.062564390531969008 0 -0.079787906137968753 0.061304366083403249 0 -0.081196940756386074 0.060017105837749447 0 -0.079787906137968753 0.061304366083403249 0 -0.081326878140821471 0.062660145909617951 0 -0.079033604977841621 0.059073580508260844 0 -0.078384563625373868 0.058612359366643503 0 -0.082192578993271467 0.06016381109543481 0 -0.082042454647621277 0.060382096585749279 0 -0.083221511606008783 0.059474379550975606 0 -0.082192578993271467 0.06016381109543481 0 -0.083221511606008783 0.059474379550975606 0 -0.082187621399866226 0.059493458102022168 0 -0.081913807896270036 0.060016439545221435 0 -0.082192578993271467 0.06016381109543481 0 -0.082187621399866226 0.059493458102022168 0 -0.083221511606008783 0.059474379550975606 0 -0.082187621399866226 0.059493458102022168 0 -0.082359307492369763 0.058196082067538596 0 -0.078622879827419528 0.062564390531969008 0 -0.081326878140821471 0.062660145909617951 0 -0.080427175764953895 0.065008525432169811 0 -0.083221511606008783 0.059474379550975606 0 -0.084004500451583933 0.058021803269615493 0 -0.082359307492369763 0.058196082067538596 0 -0.078384563625373868 0.058612359366643503 0 -0.076509750801637771 0.055737518139444268 0 -0.076509750801637771 0.055737518139444268 0 -0.076116689513700653 0.048934013835469671 0 -0.084004500451583933 0.058021803269615493 0 -0.082359307492369763 0.058196082067538596 0 -0.083132806991683933 0.056217579052395869 0 -0.08174835571252205 0.056539507231905102 0 -0.082359307492369763 0.058196082067538596 0 -0.083132806991683933 0.056217579052395869 0 -0.07016255611935826 0.034717821788340993 0 -0.072109075554826582 0.03731834539594573 0 -0.069066298522069289 0.037469059788140892 0 -0.076531970882230793 0.060863149934064886 0 -0.076616347595197365 0.060980419514334236 0 -0.076686301165539636 0.060844741505129751 0 -0.076606690934932886 0.061067676944443525 0 -0.076531970882230793 0.060863149934064886 0 -0.076616347595197365 0.060980419514334236 0 -0.076509750801637771 0.055737518139444268 0 -0.072578779929142981 0.050852095803227526 0 -0.076686301165539636 0.060844741505129751 0 -0.076664900609136902 0.061025255973534927 0 -0.076812398915876712 0.061113473942910682 0 -0.076616347595197365 0.060980419514334236 0 -0.076686301165539636 0.060844741505129751 0 -0.076664900609136902 0.061025255973534927 0 -0.066125766621363949 0.062310746298421656 0 -0.065249583888841695 0.066423491681939117 0 -0.050776384383817222 0.069908581429190444 0 -0.051758302365288528 0.073265802273536212 0 -0.052370348157622593 0.071844457207655338 0 -0.076664900609136902 0.061025255973534927 0 -0.076642628821407086 0.061119861118620049 0 -0.076652270301407574 0.061056897639059353 0 -0.076616347595197365 0.060980419514334236 0 -0.076664900609136902 0.061025255973534927 0 -0.076652270301407574 0.061056897639059353 0 -0.076664900609136902 0.061025255973534927 0 -0.076642628821407086 0.061119861118620049 0 -0.076812398915876712 0.061113473942910682 0 -0.076642628821407086 0.061119861118620049 0 -0.076663912792058253 0.06107465727263172 0 -0.076652270301407574 0.061056897639059353 0 -0.076678349187738248 0.061058063502372723 0 -0.076663912792058253 0.06107465727263172 0 -0.076652270301407574 0.061056897639059353 0 -0.076606690934932886 0.061067676944443525 0 -0.076616347595197365 0.060980419514334236 0 -0.076652270301407574 0.061056897639059353 0 -0.076678349187738248 0.061058063502372723 0 -0.076606690934932886 0.061067676944443525 0 -0.076652270301407574 0.061056897639059353 0 -0.053983033949066228 0.072308763051540534 0 -0.054822306067288815 0.073280984110371178 0 -0.055529651084101642 0.073853362722466218 0 -0.05549678008838093 0.072529183843271339 0 -0.057510400953922618 0.072737142308084479 0 -0.058280694102897629 0.074817483252877875 0 -0.050242663699228654 0.075135138540660673 0 -0.046564723989029597 0.07551847938669097 0 -0.053983033949066228 0.072308763051540534 0 -0.053693781920874976 0.073104565999430424 0 -0.05304714575360106 0.072302961409821648 0 -0.053983033949066228 0.072308763051540534 0 -0.054822306067288815 0.073280984110371178 0 -0.053693781920874976 0.073104565999430424 0 -0.05549678008838093 0.072529183843271339 0 -0.057510400953922618 0.072737142308084479 0 -0.056733848528225245 0.071224497367892575 0 -0.054822306067288815 0.073280984110371178 0 -0.053984617334866009 0.073763642404849339 0 -0.054481629999883145 0.074192302971271745 0 -0.054822306067288815 0.073280984110371178 0 -0.055135665591048474 0.074091208908332956 0 -0.054481629999883145 0.074192302971271745 0 -0.054822306067288815 0.073280984110371178 0 -0.053984617334866009 0.073763642404849339 0 -0.053693781920874976 0.073104565999430424 0 -0.053984617334866009 0.073763642404849339 0 -0.053693781920874976 0.073104565999430424 0 -0.053320745817076284 0.073802636947610176 0 -0.053320745817076284 0.073802636947610176 0 -0.052679352410778035 0.073799467435089389 0 -0.05294817192830744 0.073158206275571194 0 -0.052679352410778035 0.073799467435089389 0 -0.05294817192830744 0.073158206275571194 0 -0.052526688000647193 0.072844287752031153 0 -0.053693781920874976 0.073104565999430424 0 -0.053320745817076284 0.073802636947610176 0 -0.05294817192830744 0.073158206275571194 0 -0.052679352410778035 0.073799467435089389 0 -0.051758302365288528 0.073265802273536212 0 -0.052526688000647193 0.072844287752031153 0 -0.051758302365288528 0.073265802273536212 0 -0.052526688000647193 0.072844287752031153 0 -0.052370348157622593 0.071844457207655338 0 -0.052526688000647193 0.072844287752031153 0 -0.05304714575360106 0.072302961409821648 0 -0.052370348157622593 0.071844457207655338 0 -0.053693781920874976 0.073104565999430424 0 -0.05294817192830744 0.073158206275571194 0 -0.05304714575360106 0.072302961409821648 0 -0.05294817192830744 0.073158206275571194 0 -0.052526688000647193 0.072844287752031153 0 -0.05304714575360106 0.072302961409821648 0 -0.053983033949066228 0.072308763051540534 0 -0.05304714575360106 0.072302961409821648 0 -0.052519210769586773 0.070281600082684151 0 -0.052519210769586773 0.070281600082684151 0 -0.055512834585072585 0.069965022529050569 0 -0.053820750065013856 0.068547056635592366 0 -0.05549678008838093 0.072529183843271339 0 -0.052519210769586773 0.070281600082684151 0 -0.055512834585072585 0.069965022529050569 0 -0.050242663699228654 0.075135138540660673 0 -0.050553797583078541 0.07436224484514857 0 -0.05304714575360106 0.072302961409821648 0 -0.052370348157622593 0.071844457207655338 0 -0.052519210769586773 0.070281600082684151 0 -0.050776384383817222 0.069908581429190444 0 -0.052370348157622593 0.071844457207655338 0 -0.052519210769586773 0.070281600082684151 0 -0.055512834585072585 0.069965022529050569 0 -0.056733848528225245 0.071224497367892575 0 -0.058361657061204539 0.070032981840398828 0 -0.05549678008838093 0.072529183843271339 0 -0.055512834585072585 0.069965022529050569 0 -0.056733848528225245 0.071224497367892575 0 -0.024992395536187036 0.067112404052447616 0 -0.02639488996380392 0.067101008618611832 0 -0.026799634055306439 0.069227818432090679 0 -0.057510400953922618 0.072737142308084479 0 -0.056733848528225245 0.071224497367892575 0 -0.058361657061204539 0.070032981840398828 0 -0.038588776107385196 0.073518430197052301 0 -0.037355559370063629 0.072371030853371099 0 -0.02639488996380392 0.067101008618611832 0 -0.026799634055306439 0.069227818432090679 0 -0.027978860254167008 0.066523225032309841 0 -0.028775231188171643 0.068436182920056904 0 -0.027055223433113198 0.069324640087621681 0 -0.027978860254167008 0.066523225032309841 0 -0.028775231188171643 0.068436182920056904 0 -0.027978860254167008 0.066523225032309841 0 -0.02914423532821369 0.066422612894913455 0 -0.027055223433113198 0.069324640087621681 0 -0.028239973113488328 0.071346715965391938 0 -0.02589270247460233 0.072232399319951998 0 -0.028775231188171643 0.068436182920056904 0 -0.029549243809094076 0.07043111940605043 0 -0.027055223433113198 0.069324640087621681 0 -0.029549243809094076 0.07043111940605043 0 -0.027055223433113198 0.069324640087621681 0 -0.028239973113488328 0.071346715965391938 0 -0.029549243809094076 0.07043111940605043 0 -0.028239973113488328 0.071346715965391938 0 -0.029603837163761713 0.072060398291206113 0 -0.044239254790544073 0.068832946629995534 0 -0.044949756832078802 0.075139171568633562 0 -0.038588776107385196 0.073518430197052301 0 -0.043699108359646605 0.0753488823821655 0 -0.026799634055306439 0.069227818432090679 0 -0.025345294944677167 0.071856370031470662 0 -0.025642547901619836 0.072097735347149208 0 -0.024992395536187036 0.067112404052447616 0 -0.026799634055306439 0.069227818432090679 0 -0.025345294944677167 0.071856370031470662 0 -0.057510400953922618 0.072737142308084479 0 -0.058361657061204539 0.070032981840398828 0 -0.058682035577048916 0.07515311400020358 0 -0.057510400953922618 0.072737142308084479 0 -0.058280694102897629 0.074817483252877875 0 -0.058682035577048916 0.07515311400020358 0 -0.047244038289416417 0.075735050537758253 0 -0.046564723989029597 0.07551847938669097 0 -0.054822306067288815 0.073280984110371178 0 -0.055646095814564395 0.073832511372053183 0 -0.055135665591048474 0.074091208908332956 0 -0.055135665591048474 0.074091208908332956 0 -0.055399134108264157 0.074471016759163844 0 -0.055618036955260512 0.074192681484058207 0 -0.055646095814564395 0.073832511372053183 0 -0.055135665591048474 0.074091208908332956 0 -0.055618036955260512 0.074192681484058207 0 -0.055135665591048474 0.074091208908332956 0 -0.055399134108264157 0.074471016759163844 0 -0.054861821668222635 0.074767814128554669 0 -0.055399134108264157 0.074471016759163844 0 -0.055998369801596524 0.07464504915492183 0 -0.055359875771617384 0.074847763704911058 0 -0.055399134108264157 0.074471016759163844 0 -0.055359875771617384 0.074847763704911058 0 -0.054861821668222635 0.074767814128554669 0 -0.055399134108264157 0.074471016759163844 0 -0.055998369801596524 0.07464504915492183 0 -0.055618036955260512 0.074192681484058207 0 -0.04495354261688507 0.076406674121723611 0 -0.044949756832078802 0.075139171568633562 0 -0.055998369801596524 0.07464504915492183 0 -0.055618036955260512 0.074192681484058207 0 -0.055928634353402305 0.074050460355396475 0 -0.047029417739023048 0.075765642609538733 0 -0.04686530215276688 0.073418449277791162 0 -0.047724018938961471 0.074121941827389973 0 -0.044949756832078802 0.075139171568633562 0 -0.043699108359646605 0.0753488823821655 0 -0.055646095814564395 0.073832511372053183 0 -0.055618036955260512 0.074192681484058207 0 -0.055928634353402305 0.074050460355396475 0 -0.046564723989029597 0.07551847938669097 0 -0.044949756832078802 0.075139171568633562 0 -0.04495354261688507 0.076406674121723611 0 -0.043699108359646605 0.0753488823821655 0 -0.043699108359646605 0.0753488823821655 0 -0.043480687271122358 0.078482015158051754 0 -0.050861164153419791 0.092586982492010764 0 -0.050100676461578536 0.090300865587747386 0 -0.04816077617374117 0.09041195584608272 0 -0.051153653512690252 0.091896162198020701 0 -0.050861164153419791 0.092586982492010764 0 -0.050100676461578536 0.090300865587747386 0 -0.055998369801596524 0.07464504915492183 0 -0.055112747348821996 0.075544315651498009 0 -0.055359875771617384 0.074847763704911058 0 -0.055112747348821996 0.075544315651498009 0 -0.055359875771617384 0.074847763704911058 0 -0.054861821668222635 0.074767814128554669 0 -0.02589270247460233 0.072232399319951998 0 -0.028834483108153137 0.073823385660436738 0 -0.029147653376596847 0.074235615485978776 0 -0.02589270247460233 0.072232399319951998 0 -0.028479556638509283 0.072555199706861931 0 -0.028834483108153137 0.073823385660436738 0 -0.043699108359646605 0.0753488823821655 0 -0.038081196836127436 0.075710046344800233 0 -0.042172098456626138 0.077075740695616193 0 -0.041429515557597441 0.076529199668662395 0 -0.04109814196349805 0.076477781372237125 0 -0.028479556638509283 0.072555199706861931 0 -0.029603837163761713 0.072060398291206113 0 -0.029833662650738783 0.073397528602185388 0 -0.028239973113488328 0.071346715965391938 0 -0.028479556638509283 0.072555199706861931 0 -0.029603837163761713 0.072060398291206113 0 -0.028239973113488328 0.071346715965391938 0 -0.02589270247460233 0.072232399319951998 0 -0.028479556638509283 0.072555199706861931 0 -0.028479556638509283 0.072555199706861931 0 -0.028834483108153137 0.073823385660436738 0 -0.029833662650738783 0.073397528602185388 0 -0.037998385651908363 0.075639927539162877 0 -0.038081196836127436 0.075710046344800233 0 -0.028834483108153137 0.073823385660436738 0 -0.029165851695459807 0.074239501885779199 0 -0.029833662650738783 0.073397528602185388 0 -0.04816077617374117 0.09041195584608272 0 -0.047961680934229818 0.086842017912718367 0 -0.045376453443887334 0.088225774870233781 0 -0.04816077617374117 0.09041195584608272 0 -0.049282162087521328 0.088561119157871709 0 -0.047961680934229818 0.086842017912718367 0 -0.041429515557597441 0.076529199668662395 0 -0.04109814196349805 0.076477781372237125 0 -0.040687948944215978 0.075982021232352273 0 -0.043480687271122358 0.078482015158051754 0 -0.040045006307683061 0.078000713656481743 0 -0.050100676461578536 0.090300865587747386 0 -0.04816077617374117 0.09041195584608272 0 -0.049282162087521328 0.088561119157871709 0 -0.049282162087521328 0.088561119157871709 0 -0.050891361829439784 0.087065144953226495 0 -0.047961680934229818 0.086842017912718367 0 -0.047961680934229818 0.086842017912718367 0 -0.046278561115762333 0.086393446632622509 0 -0.045376453443887334 0.088225774870233781 0 -0.04495354261688507 0.076406674121723611 0 -0.047919717391539614 0.081584648502418131 0 -0.050100676461578536 0.090300865587747386 0 -0.049282162087521328 0.088561119157871709 0 -0.050891361829439784 0.087065144953226495 0 -0.055998369801596524 0.07464504915492183 0 -0.055112747348821996 0.075544315651498009 0 -0.054678788766622848 0.077306321896127989 0 -0.051153653512690252 0.091896162198020701 0 -0.050100676461578536 0.090300865587747386 0 -0.050891361829439784 0.087065144953226495 0 -0.04495354261688507 0.076406674121723611 0 -0.048326171093765892 0.076987293559854952 0 -0.051173126614533958 0.082518419209366062 0 -0.051066720246504896 0.08061098451292921 0 -0.051918883321456825 0.080867983626661075 0 -0.054678788766622848 0.077306321896127989 0 -0.053863388247948972 0.076783099648970704 0 -0.054333652047703331 0.076254685606222505 0 -0.054678788766622848 0.077306321896127989 0 -0.053249854847744686 0.077327314827786139 0 -0.053143694336892811 0.077947943225265701 0 -0.053249854847744686 0.077327314827786139 0 -0.053863388247948972 0.076783099648970704 0 -0.053250327254226071 0.076444640804854205 0 -0.054678788766622848 0.077306321896127989 0 -0.053249854847744686 0.077327314827786139 0 -0.053863388247948972 0.076783099648970704 0 -0.053863388247948972 0.076783099648970704 0 -0.053698488685498535 0.076125744426366757 0 -0.054333652047703331 0.076254685606222505 0 -0.053863388247948972 0.076783099648970704 0 -0.053250327254226071 0.076444640804854205 0 -0.053698488685498535 0.076125744426366757 0 -0.053250327254226071 0.076444640804854205 0 -0.053698488685498535 0.076125744426366757 0 -0.053118081057195808 0.075780608268485497 0 -0.055112747348821996 0.075544315651498009 0 -0.054678788766622848 0.077306321896127989 0 -0.054333652047703331 0.076254685606222505 0 -0.053698488685498535 0.076125744426366757 0 -0.054333652047703331 0.076254685606222505 0 -0.054356943036048433 0.075527689741542864 0 -0.055112747348821996 0.075544315651498009 0 -0.054333652047703331 0.076254685606222505 0 -0.054356943036048433 0.075527689741542864 0 -0.055112747348821996 0.075544315651498009 0 -0.054356943036048433 0.075527689741542864 0 -0.054861821668222635 0.074767814128554669 0 -0.054356943036048433 0.075527689741542864 0 -0.054861821668222635 0.074767814128554669 0 -0.054286931876585967 0.074818408600957884 0 -0.053698488685498535 0.076125744426366757 0 -0.054356943036048433 0.075527689741542864 0 -0.053564537812904357 0.075250453871529732 0 -0.053698488685498535 0.076125744426366757 0 -0.053564537812904357 0.075250453871529732 0 -0.053118081057195808 0.075780608268485497 0 -0.054356943036048433 0.075527689741542864 0 -0.053564537812904357 0.075250453871529732 0 -0.054286931876585967 0.074818408600957884 0 -0.053564537812904357 0.075250453871529732 0 -0.053797360609330637 0.074485098235727423 0 -0.054286931876585967 0.074818408600957884 0 -0.053797360609330637 0.074485098235727423 0 -0.054481629999883145 0.074192302971271745 0 -0.054286931876585967 0.074818408600957884 0 -0.053564537812904357 0.075250453871529732 0 -0.053797360609330637 0.074485098235727423 0 -0.053097529888782219 0.074515168371937918 0 -0.053320745817076284 0.073802636947610176 0 -0.053797360609330637 0.074485098235727423 0 -0.053097529888782219 0.074515168371937918 0 -0.053984617334866009 0.073763642404849339 0 -0.053320745817076284 0.073802636947610176 0 -0.053797360609330637 0.074485098235727423 0 -0.053984617334866009 0.073763642404849339 0 -0.053797360609330637 0.074485098235727423 0 -0.054481629999883145 0.074192302971271745 0 -0.055135665591048474 0.074091208908332956 0 -0.054481629999883145 0.074192302971271745 0 -0.054861821668222635 0.074767814128554669 0 -0.054481629999883145 0.074192302971271745 0 -0.054861821668222635 0.074767814128554669 0 -0.054286931876585967 0.074818408600957884 0 -0.076646542867131282 0.06210864787115418 0 -0.076812398915876712 0.061113473942910682 0 -0.07704782759247622 0.062109241939312797 0 -0.065249583888841695 0.066423491681939117 0 -0.064533014898466787 0.068915324948401871 0 -0.051758302365288528 0.073265802273536212 0 -0.052769593640741033 0.07480298628772987 0 -0.052412821932594014 0.076127586145540604 0 -0.052679352410778035 0.073799467435089389 0 -0.051758302365288528 0.073265802273536212 0 -0.052769593640741033 0.07480298628772987 0 -0.052679352410778035 0.073799467435089389 0 -0.053097529888782219 0.074515168371937918 0 -0.052769593640741033 0.07480298628772987 0 -0.053320745817076284 0.073802636947610176 0 -0.052679352410778035 0.073799467435089389 0 -0.053097529888782219 0.074515168371937918 0 -0.053564537812904357 0.075250453871529732 0 -0.052769593640741033 0.07480298628772987 0 -0.053118081057195808 0.075780608268485497 0 -0.052769593640741033 0.07480298628772987 0 -0.052412821932594014 0.076127586145540604 0 -0.053118081057195808 0.075780608268485497 0 -0.053564537812904357 0.075250453871529732 0 -0.053097529888782219 0.074515168371937918 0 -0.052769593640741033 0.07480298628772987 0 -0.070128132764351869 0.064496273335562793 0 -0.066352529745659819 0.070843194738895304 0 -0.076646542867131282 0.06210864787115418 0 -0.07704782759247622 0.062109241939312797 0 -0.076807604083567488 0.063203504793294507 0 -0.064533014898466787 0.068915324948401871 0 -0.063457534058499035 0.070528892681848782 0 -0.053249854847744686 0.077327314827786139 0 -0.052412821932594014 0.076127586145540604 0 -0.053143694336892811 0.077947943225265701 0 -0.053249854847744686 0.077327314827786139 0 -0.053250327254226071 0.076444640804854205 0 -0.052412821932594014 0.076127586145540604 0 -0.053250327254226071 0.076444640804854205 0 -0.052412821932594014 0.076127586145540604 0 -0.053118081057195808 0.075780608268485497 0 -0.07704782759247622 0.062109241939312797 0 -0.076807604083567488 0.063203504793294507 0 -0.077357590924812328 0.063210917004737577 0 -0.076722778169396239 0.060104817502836617 0 -0.076548523597590554 0.060961015435193222 0 -0.076212717028283 0.060054096808938515 0 -0.052412821932594014 0.076127586145540604 0 -0.053143694336892811 0.077947943225265701 0 -0.052894605176021445 0.078771707738838251 0 -0.066352529745659819 0.070843194738895304 0 -0.063457534058499035 0.070528892681848782 0 -0.055635517925804866 0.08213935846036699 0 -0.053939636141645944 0.08214316807579769 0 -0.054781483854961177 0.081134859604145931 0 -0.051918883321456825 0.080867983626661075 0 -0.052770010911055598 0.078949828159731533 0 -0.051668616956169401 0.079619559715454272 0 -0.048326171093765892 0.076987293559854952 0 -0.049236759606571451 0.077217983241515228 0 -0.054678788766622848 0.077306321896127989 0 -0.053037135675950232 0.078746660312442512 0 -0.052770010911055598 0.078949828159731533 0 -0.054678788766622848 0.077306321896127989 0 -0.053143694336892811 0.077947943225265701 0 -0.053037135675950232 0.078746660312442512 0 -0.053143694336892811 0.077947943225265701 0 -0.053037135675950232 0.078746660312442512 0 -0.052894605176021445 0.078771707738838251 0 -0.063391698584530545 0.07054306168563812 0 -0.063457534058499035 0.070528892681848782 0 -0.053037135675950232 0.078746660312442512 0 -0.053060462101418078 0.07904690903863254 0 -0.052770010911055598 0.078949828159731533 0 -0.053060462101418078 0.07904690903863254 0 -0.052770010911055598 0.078949828159731533 0 -0.052337333810006166 0.078152020256242141 0 -0.063457534058499035 0.070528892681848782 0 -0.059299280481021802 0.074967826694067152 0 -0.053939636141645944 0.08214316807579769 0 -0.054781483854961177 0.081134859604145931 0 -0.052830314008915413 0.079042787900913833 0 -0.05192524917796535 0.078838413347746633 0 -0.052770010911055598 0.078949828159731533 0 -0.052337333810006166 0.078152020256242141 0 -0.05192524917796535 0.078838413347746633 0 -0.052770010911055598 0.078949828159731533 0 -0.051668616956169401 0.079619559715454272 0 -0.055133097688840171 0.079864329986822205 0 -0.054781483854961177 0.081134859604145931 0 -0.052830314008915413 0.079042787900913833 0 -0.057468800394351524 0.080722224854701832 0 -0.055789906070897864 0.082419650939521263 0 -0.055231724946089654 0.07998224195731192 0 -0.066352529745659819 0.070843194738895304 0 -0.063812056592909394 0.075132390258768986 0 -0.055635517925804866 0.08213935846036699 0 -0.055133097688840171 0.079864329986822205 0 -0.054781483854961177 0.081134859604145931 0 -0.057919853462294175 0.07815256332630599 0 -0.055231724946089654 0.07998224195731192 0 -0.054643324295070864 0.077526980242238738 0 -0.055133097688840171 0.079864329986822205 0 -0.054643324295070864 0.077526980242238738 0 -0.052830314008915413 0.079042787900913833 0 -0.063812056592909394 0.075132390258768986 0 -0.062883618305847849 0.075778217083031341 0 -0.059299280481021802 0.074967826694067152 0 -0.057712912239419462 0.075047911747251311 0 -0.052830314008915413 0.079042787900913833 0 -0.05306153145250634 0.077109571090438339 0 -0.051570409782719914 0.07572891486212445 0 -0.054643324295070864 0.077526980242238738 0 -0.052830314008915413 0.079042787900913833 0 -0.05306153145250634 0.077109571090438339 0 -0.054643324295070864 0.077526980242238738 0 -0.053184061508151068 0.076133447051079148 0 -0.05306153145250634 0.077109571090438339 0 -0.053184061508151068 0.076133447051079148 0 -0.055331179037505798 0.074999871756195186 0 -0.051408266089601105 0.075000162963053757 0 -0.053184061508151068 0.076133447051079148 0 -0.05306153145250634 0.077109571090438339 0 -0.051570409782719914 0.07572891486212445 0 -0.053184061508151068 0.076133447051079148 0 -0.051570409782719914 0.07572891486212445 0 -0.051408266089601105 0.075000162963053757 0 -0.056507839688441454 0.076672439012667681 0 -0.054643324295070864 0.077526980242238738 0 -0.055331179037505798 0.074999871756195186 0 -0.054643324295070864 0.077526980242238738 0 -0.053184061508151068 0.076133447051079148 0 -0.055331179037505798 0.074999871756195186 0 -0.0478319144281662 0.076953560771218885 0 -0.047484494632008004 0.074999334763503872 0 -0.05009081474714127 0.077027024637095015 0 -0.0478319144281662 0.076953560771218885 0 -0.047484494632008004 0.074999334763503872 0 -0.04595035982055766 0.076751975647282797 0 -0.047484494632008004 0.074999334763503872 0 -0.051408266089601105 0.075000162963053757 0 -0.05009081474714127 0.077027024637095015 0 -0.051570409782719914 0.07572891486212445 0 -0.051408266089601105 0.075000162963053757 0 -0.05009081474714127 0.077027024637095015 0 -0.049188667365021289 0.079068140496038719 0 -0.048983166096759602 0.080379928862017613 0 -0.052337333810006166 0.078152020256242141 0 -0.051570409782719914 0.07572891486212445 0 -0.05009081474714127 0.077027024637095015 0 -0.052337333810006166 0.078152020256242141 0 -0.05009081474714127 0.077027024637095015 0 -0.050882901344303677 0.078796130849299484 0 -0.05009081474714127 0.077027024637095015 0 -0.047807732153714727 0.079553647563861657 0 -0.050618738392302881 0.08198558725221701 0 -0.0478319144281662 0.076953560771218885 0 -0.05009081474714127 0.077027024637095015 0 -0.047807732153714727 0.079553647563861657 0 -0.0478319144281662 0.076953560771218885 0 -0.047807732153714727 0.079553647563861657 0 -0.04595035982055766 0.076751975647282797 0 -0.047807732153714727 0.079553647563861657 0 -0.046491698975137385 0.081636466248670297 0 -0.050618738392302881 0.08198558725221701 0 -0.046491698975137385 0.081636466248670297 0 -0.050618738392302881 0.08198558725221701 0 -0.046898751599258992 0.0840888800884253 0 -0.05192524917796535 0.078838413347746633 0 -0.052337333810006166 0.078152020256242141 0 -0.050882901344303677 0.078796130849299484 0 -0.05192524917796535 0.078838413347746633 0 -0.050882901344303677 0.078796130849299484 0 -0.051668616956169401 0.079619559715454272 0 -0.047919717391539614 0.081584648502418131 0 -0.048983166096759602 0.080379928862017613 0 -0.051066720246504896 0.08061098451292921 0 -0.050882901344303677 0.078796130849299484 0 -0.051668616956169401 0.079619559715454272 0 -0.050891361829439784 0.087065144953226495 0 -0.050618738392302881 0.08198558725221701 0 -0.047961680934229818 0.086842017912718367 0 -0.051066720246504896 0.08061098451292921 0 -0.051918883321456825 0.080867983626661075 0 -0.051668616956169401 0.079619559715454272 0 -0.050618738392302881 0.08198558725221701 0 -0.046898751599258992 0.0840888800884253 0 -0.047961680934229818 0.086842017912718367 0 -0.046898751599258992 0.0840888800884253 0 -0.047961680934229818 0.086842017912718367 0 -0.046278561115762333 0.086393446632622509 0 -0.038432461897576133 0.077094456000900077 0 -0.040045006307683061 0.078000713656481743 0 -0.039604845854072486 0.079177962883476172 0 -0.040045006307683061 0.078000713656481743 0 -0.044944587068226106 0.085699683086451456 0 -0.042585673935154708 0.084868928928061027 0 -0.045376453443887334 0.088225774870233781 0 -0.046278561115762333 0.086393446632622509 0 -0.044944587068226106 0.085699683086451456 0 -0.045376453443887334 0.088225774870233781 0 -0.035756134910428977 0.077145165300473023 0 -0.035721876701477556 0.077157797253813373 0 -0.035732473267203843 0.077104547821483183 0 -0.046898751599258992 0.0840888800884253 0 -0.046278561115762333 0.086393446632622509 0 -0.044944587068226106 0.085699683086451456 0 -0.044944587068226106 0.085699683086451456 0 -0.0438752621057312 0.084415532895200623 0 -0.044603715719642736 0.083276131888491034 0 -0.044944587068226106 0.085699683086451456 0 -0.0438752621057312 0.084415532895200623 0 -0.042585673935154708 0.084868928928061027 0 -0.043373141237685681 0.083800518627593273 0 -0.0438752621057312 0.084415532895200623 0 -0.042585673935154708 0.084868928928061027 0 -0.043373141237685681 0.083800518627593273 0 -0.0438752621057312 0.084415532895200623 0 -0.044603715719642736 0.083276131888491034 0 -0.046898751599258992 0.0840888800884253 0 -0.044944587068226106 0.085699683086451456 0 -0.044603715719642736 0.083276131888491034 0 -0.035627613426774979 0.075775353191985195 0 -0.035748884290756289 0.07551283705399317 0 -0.035756134910428977 0.077145165300473023 0 -0.035646750674065635 0.077055325285476872 0 -0.035800804372727299 0.077252549540642534 0 -0.035646750674065635 0.077055325285476872 0 -0.034339521400072251 0.075796240200225268 0 -0.032625113468156434 0.07614284374155586 0 -0.035721876701477556 0.077157797253813373 0 -0.03575979977982132 0.077150820651234464 0 -0.035794256935733099 0.077193605905919838 0 -0.035756134910428977 0.077145165300473023 0 -0.035721876701477556 0.077157797253813373 0 -0.03575979977982132 0.077150820651234464 0 -0.035756134910428977 0.077145165300473023 0 -0.03575979977982132 0.077150820651234464 0 -0.035646750674065635 0.077055325285476872 0 -0.03575979977982132 0.077150820651234464 0 -0.035794256935733099 0.077193605905919838 0 -0.035646750674065635 0.077055325285476872 0 -0.035721876701477556 0.077157797253813373 0 -0.035794256935733099 0.077193605905919838 0 -0.0359765133148367 0.07723854385693224 0 -0.042585673935154708 0.084868928928061027 0 -0.042267116575272233 0.082381436872303399 0 -0.039257703107973538 0.081164392582014327 0 -0.039604845854072486 0.079177962883476172 0 -0.038432617746573618 0.078455584988731564 0 -0.043373141237685681 0.083800518627593273 0 -0.042585673935154708 0.084868928928061027 0 -0.042267116575272233 0.082381436872303399 0 -0.042267116575272233 0.082381436872303399 0 -0.042074919513144717 0.080391977191489342 0 -0.039257703107973538 0.081164392582014327 0 -0.046491698975137385 0.081636466248670297 0 -0.046898751599258992 0.0840888800884253 0 -0.044603715719642736 0.083276131888491034 0 -0.043373141237685681 0.083800518627593273 0 -0.042267116575272233 0.082381436872303399 0 -0.044603715719642736 0.083276131888491034 0 -0.042267116575272233 0.082381436872303399 0 -0.044603715719642736 0.083276131888491034 0 -0.044428632510225732 0.080850322374122499 0 -0.042267116575272233 0.082381436872303399 0 -0.042074919513144717 0.080391977191489342 0 -0.044428632510225732 0.080850322374122499 0 -0.047807732153714727 0.079553647563861657 0 -0.046491698975137385 0.081636466248670297 0 -0.044428632510225732 0.080850322374122499 0 -0.046491698975137385 0.081636466248670297 0 -0.044603715719642736 0.083276131888491034 0 -0.044428632510225732 0.080850322374122499 0 -0.044380868475488305 0.078846815477589774 0 -0.041482662566123103 0.078300330209735244 0 -0.04595035982055766 0.076751975647282797 0 -0.047807732153714727 0.079553647563861657 0 -0.044428632510225732 0.080850322374122499 0 -0.044380868475488305 0.078846815477589774 0 -0.047807732153714727 0.079553647563861657 0 -0.044380868475488305 0.078846815477589774 0 -0.04595035982055766 0.076751975647282797 0 -0.042074919513144717 0.080391977191489342 0 -0.044428632510225732 0.080850322374122499 0 -0.044380868475488305 0.078846815477589774 0 -0.042074919513144717 0.080391977191489342 0 -0.039257703107973538 0.081164392582014327 0 -0.041482662566123103 0.078300330209735244 0 -0.041482662566123103 0.078300330209735244 0 -0.038418352644319094 0.075338681836389282 0 -0.04595035982055766 0.076751975647282797 0 -0.042074919513144717 0.080391977191489342 0 -0.044380868475488305 0.078846815477589774 0 -0.041482662566123103 0.078300330209735244 0 -0.039257703107973538 0.081164392582014327 0 -0.038773042556749328 0.077787656348056067 0 -0.041482662566123103 0.078300330209735244 0 -0.038773042556749328 0.077787656348056067 0 -0.041482662566123103 0.078300330209735244 0 -0.038418352644319094 0.075338681836389282 0 -0.043561384006645845 0.074999994832192815 0 -0.042262781659453325 0.076780767351414647 0 -0.04595035982055766 0.076751975647282797 0 -0.040230900437828336 0.076213176166048086 0 -0.042578882584088262 0.076379455144075861 0 -0.047484494632008004 0.074999334763503872 0 -0.043561384006645845 0.074999994832192815 0 -0.04595035982055766 0.076751975647282797 0 -0.03571302214702058 0.074999015238470648 0 -0.039639089254556351 0.075000207835879198 0 -0.038185382274841168 0.076617204279466875 0 -0.038418352644319094 0.075338681836389282 0 -0.033973870192046507 0.075442982394517868 0 -0.035717594093188275 0.076159732340301253 0 -0.042262781659453325 0.076780767351414647 0 -0.039639089254556351 0.075000207835879198 0 -0.038185382274841168 0.076617204279466875 0 -0.040230900437828336 0.076213176166048086 0 -0.037015099445651192 0.07603256980916645 0 -0.043561384006645845 0.074999994832192815 0 -0.042262781659453325 0.076780767351414647 0 -0.039639089254556351 0.075000207835879198 0 -0.038432617746573618 0.078455584988731564 0 -0.037731349823580958 0.07773058446080737 0 -0.039257703107973538 0.081164392582014327 0 -0.038773042556749328 0.077787656348056067 0 -0.036098774775534755 0.076403259542945384 0 -0.034713606680534442 0.076381045473373849 0 -0.034488433309754644 0.076474859077409904 0 -0.038418352644319094 0.075338681836389282 0 -0.035717594093188275 0.076159732340301253 0 -0.036098774775534755 0.076403259542945384 0 -0.035717594093188275 0.076159732340301253 0 -0.036098774775534755 0.076403259542945384 0 -0.035976842628767602 0.076852164670283787 0 -0.0359765133148367 0.07723854385693224 0 -0.036098774775534755 0.076403259542945384 0 -0.035976842628767602 0.076852164670283787 0 -0.035717594093188275 0.076159732340301253 0 -0.03472617467095071 0.076409882521698336 0 -0.034843748581125357 0.076620911985992135 0 -0.035717594093188275 0.076159732340301253 0 -0.035976842628767602 0.076852164670283787 0 -0.035862658924145398 0.077511752780514559 0 -0.038773042556749328 0.077787656348056067 0 -0.038418352644319094 0.075338681836389282 0 -0.036098774775534755 0.076403259542945384 0 -0.033973870192046507 0.075442982394517868 0 -0.035717594093188275 0.076159732340301253 0 -0.034468277005872801 0.076127018227883328 0 -0.035717594093188275 0.076159732340301253 0 -0.03472617467095071 0.076409882521698336 0 -0.034468277005872801 0.076127018227883328 0 -0.033981237894060309 0.075921323558966233 0 -0.033973870192046507 0.075442982394517868 0 -0.034468277005872801 0.076127018227883328 0 -0.033981237894060309 0.075921323558966233 0 -0.034468277005872801 0.076127018227883328 0 -0.034246042421087461 0.076262488690124072 0 -0.03472617467095071 0.076409882521698336 0 -0.034468277005872801 0.076127018227883328 0 -0.034246042421087461 0.076262488690124072 0 -0.03472617467095071 0.076409882521698336 0 -0.034246042421087461 0.076262488690124072 0 -0.034435709096072381 0.076580000570266163 0 -0.03472617467095071 0.076409882521698336 0 -0.034435709096072381 0.076580000570266163 0 -0.034843748581125357 0.076620911985992135 0 -0.034435709096072381 0.076580000570266163 0 -0.034843748581125357 0.076620911985992135 0 -0.034491196833836696 0.076982619993585216 0 -0.035794256935733099 0.077193605905919838 0 -0.0359765133148367 0.07723854385693224 0 -0.035862658924145398 0.077511752780514559 0 -0.035794256935733099 0.077193605905919838 0 -0.035862658924145398 0.077511752780514559 0 -0.035646750674065635 0.077055325285476872 0 -0.0359765133148367 0.07723854385693224 0 -0.035976842628767602 0.076852164670283787 0 -0.035862658924145398 0.077511752780514559 0 -0.034488433309754644 0.076474859077409904 0 -0.03367157015496014 0.075624833156026569 0 -0.034843748581125357 0.076620911985992135 0 -0.034491196833836696 0.076982619993585216 0 -0.034892171194520934 0.077280829061476972 0 -0.035862658924145398 0.077511752780514559 0 -0.035646750674065635 0.077055325285476872 0 -0.035916783877710814 0.07610526089487113 0 -0.035646750674065635 0.077055325285476872 0 -0.035916783877710814 0.07610526089487113 0 -0.034339521400072251 0.075796240200225268 0 -0.03417723868973728 0.076758994410754275 0 -0.034435709096072381 0.076580000570266163 0 -0.034491196833836696 0.076982619993585216 0 -0.033902198730314963 0.077124399423870851 0 -0.034491196833836696 0.076982619993585216 0 -0.034494446582133416 0.077554199087645659 0 -0.032801679261969953 0.074788450989102098 0 -0.032335761102121441 0.07372663915525933 0 -0.034491196833836696 0.076982619993585216 0 -0.034494446582133416 0.077554199087645659 0 -0.034892171194520934 0.077280829061476972 0 -0.029136094321210022 0.071319920225691349 0 -0.027650297153044429 0.069111545386057516 0 -0.029599343388038518 0.068845629663366117 0 -0.031303621861405589 0.070832675862436689 0 -0.029136094321210022 0.071319920225691349 0 -0.029599343388038518 0.068845629663366117 0 -0.031650773319376775 0.071916424844753427 0 -0.03367157015496014 0.075624833156026569 0 -0.032335761102121441 0.07372663915525933 0 -0.031650773319376775 0.071916424844753427 0 -0.034494446582133416 0.077554199087645659 0 -0.034957020120696319 0.077959165538936365 0 -0.034892171194520934 0.077280829061476972 0 -0.035674307278176727 0.072296969213300255 0 -0.035916783877710814 0.07610526089487113 0 -0.034353107074334942 0.074397400516526435 0 -0.035916783877710814 0.07610526089487113 0 -0.034339521400072251 0.075796240200225268 0 -0.034353107074334942 0.074397400516526435 0 -0.034339521400072251 0.075796240200225268 0 -0.032625113468156434 0.07614284374155586 0 -0.033039149415535637 0.074741039981246482 0 -0.034339521400072251 0.075796240200225268 0 -0.033039149415535637 0.074741039981246482 0 -0.034353107074334942 0.074397400516526435 0 -0.038081196836127436 0.075710046344800233 0 -0.035748884290756289 0.07551283705399317 0 -0.029165851695459807 0.074239501885779199 0 -0.032625113468156434 0.07614284374155586 0 -0.031461849137751595 0.074319261749271781 0 -0.035756134910428977 0.077145165300473023 0 -0.035800804372727299 0.077252549540642534 0 -0.035954800671555306 0.077278698443399879 0 -0.036053913273014417 0.077385527525725528 0 -0.035800804372727299 0.077252549540642534 0 -0.035954800671555306 0.077278698443399879 0 -0.032625113468156434 0.07614284374155586 0 -0.033039149415535637 0.074741039981246482 0 -0.031461849137751595 0.074319261749271781 0 -0.038081196836127436 0.075710046344800233 0 -0.040045006307683061 0.078000713656481743 0 -0.031461849137751595 0.074319261749271781 0 -0.029833662650738783 0.073397528602185388 0 -0.03119953130907363 0.072041145716087399 0 -0.029165851695459807 0.074239501885779199 0 -0.031461849137751595 0.074319261749271781 0 -0.029833662650738783 0.073397528602185388 0 -0.031461849137751595 0.074319261749271781 0 -0.03119953130907363 0.072041145716087399 0 -0.033198556237264899 0.072763875157895883 0 -0.029603837163761713 0.072060398291206113 0 -0.029833662650738783 0.073397528602185388 0 -0.03119953130907363 0.072041145716087399 0 -0.035674307278176727 0.072296969213300255 0 -0.034353107074334942 0.074397400516526435 0 -0.033198556237264899 0.072763875157895883 0 -0.033039149415535637 0.074741039981246482 0 -0.034353107074334942 0.074397400516526435 0 -0.033198556237264899 0.072763875157895883 0 -0.033039149415535637 0.074741039981246482 0 -0.031461849137751595 0.074319261749271781 0 -0.033198556237264899 0.072763875157895883 0 -0.027991702101447684 0.068035403852095902 0 -0.0269440715507345 0.06672856384051587 0 -0.027883318538017336 0.067076263627775704 0 -0.031650773319376775 0.071916424844753427 0 -0.02951919504405438 0.06881432005947781 0 -0.03119953130907363 0.072041145716087399 0 -0.033198556237264899 0.072763875157895883 0 -0.032573806891406154 0.069364071134465036 0 -0.035674307278176727 0.072296969213300255 0 -0.033198556237264899 0.072763875157895883 0 -0.032573806891406154 0.069364071134465036 0 -0.028775231188171643 0.068436182920056904 0 -0.029549243809094076 0.07043111940605043 0 -0.032573806891406154 0.069364071134465036 0 -0.029549243809094076 0.07043111940605043 0 -0.03119953130907363 0.072041145716087399 0 -0.032573806891406154 0.069364071134465036 0 -0.029549243809094076 0.07043111940605043 0 -0.029603837163761713 0.072060398291206113 0 -0.03119953130907363 0.072041145716087399 0 -0.0269440715507345 0.06672856384051587 0 -0.026793865285884629 0.065568884520499041 0 -0.026017136252886007 0.065061501457963716 0 -0.028775231188171643 0.068436182920056904 0 -0.032573806891406154 0.069364071134465036 0 -0.02914423532821369 0.066422612894913455 0 -0.02951919504405438 0.06881432005947781 0 -0.027743010793779155 0.066637644416907546 0 -0.0269440715507345 0.06672856384051587 0 -0.026793865285884629 0.065568884520499041 0 -0.027841972234920468 0.065735301411570968 0 -0.0269440715507345 0.06672856384051587 0 -0.027841972234920468 0.065735301411570968 0 -0.027883318538017336 0.067076263627775704 0 -0.027841972234920468 0.065735301411570968 0 -0.028983801159346151 0.065553691729563546 0 -0.027883318538017336 0.067076263627775704 0 -0.028983801159346151 0.065553691729563546 0 -0.029068919670502309 0.06726305805773633 0 -0.027883318538017336 0.067076263627775704 0 -0.030409488599571721 0.066770550257605948 0 -0.028983801159346151 0.065553691729563546 0 -0.029068919670502309 0.06726305805773633 0 -0.030409488599571721 0.066770550257605948 0 -0.028983801159346151 0.065553691729563546 0 -0.030272162345421433 0.064221976732031727 0 -0.027650297153044429 0.069111545386057516 0 -0.029599343388038518 0.068845629663366117 0 -0.029068919670502309 0.06726305805773633 0 -0.030409488599571721 0.066770550257605948 0 -0.029599343388038518 0.068845629663366117 0 -0.029068919670502309 0.06726305805773633 0 -0.027650297153044429 0.069111545386057516 0 -0.029068919670502309 0.06726305805773633 0 -0.027883318538017336 0.067076263627775704 0 -0.031650773319376775 0.071916424844753427 0 -0.03116665924887714 0.070483805676530065 0 -0.02856628409050347 0.063835015730072761 0 -0.030272162345421433 0.064221976732031727 0 -0.029867018834712784 0.062471461182276748 0 -0.028983801159346151 0.065553691729563546 0 -0.02856628409050347 0.063835015730072761 0 -0.030272162345421433 0.064221976732031727 0 -0.027841972234920468 0.065735301411570968 0 -0.028983801159346151 0.065553691729563546 0 -0.02856628409050347 0.063835015730072761 0 -0.026793865285884629 0.065568884520499041 0 -0.027841972234920468 0.065735301411570968 0 -0.027252282526234715 0.06481599987909599 0 -0.027841972234920468 0.065735301411570968 0 -0.02856628409050347 0.063835015730072761 0 -0.027252282526234715 0.06481599987909599 0 -0.026793865285884629 0.065568884520499041 0 -0.026542103027755507 0.064836204467701691 0 -0.026017136252886007 0.065061501457963716 0 -0.026542103027755507 0.064836204467701691 0 -0.02609442399898081 0.064405200587566339 0 -0.026017136252886007 0.065061501457963716 0 -0.026793865285884629 0.065568884520499041 0 -0.027252282526234715 0.06481599987909599 0 -0.026542103027755507 0.064836204467701691 0 -0.027252282526234715 0.06481599987909599 0 -0.026542103027755507 0.064836204467701691 0 -0.02660899849348965 0.064191561127082505 0 -0.027252282526234715 0.06481599987909599 0 -0.02660899849348965 0.064191561127082505 0 -0.027321090379441665 0.063699862005667129 0 -0.026542103027755507 0.064836204467701691 0 -0.02660899849348965 0.064191561127082505 0 -0.02609442399898081 0.064405200587566339 0 -0.02660899849348965 0.064191561127082505 0 -0.027321090379441665 0.063699862005667129 0 -0.026518132864297803 0.063138076135964602 0 -0.02660899849348965 0.064191561127082505 0 -0.026518132864297803 0.063138076135964602 0 -0.026035914036102899 0.063908665789966873 0 -0.02660899849348965 0.064191561127082505 0 -0.026035914036102899 0.063908665789966873 0 -0.02609442399898081 0.064405200587566339 0 -0.02856628409050347 0.063835015730072761 0 -0.027252282526234715 0.06481599987909599 0 -0.027321090379441665 0.063699862005667129 0 -0.02856628409050347 0.063835015730072761 0 -0.027321090379441665 0.063699862005667129 0 -0.027743776422265106 0.06253924646926752 0 -0.027321090379441665 0.063699862005667129 0 -0.027743776422265106 0.06253924646926752 0 -0.026518132864297803 0.063138076135964602 0 -0.027743776422265106 0.06253924646926752 0 -0.028271320096626612 0.061306844367339776 0 -0.028910540996632175 0.062215749161932149 0 -0.029131948462784815 0.061895236692008117 0 -0.029930317672438218 0.060849414593733719 0 -0.026518132864297803 0.063138076135964602 0 -0.026656313958019481 0.061716785502120147 0 -0.025845850558360816 0.062663694972250064 0 -0.027743776422265106 0.06253924646926752 0 -0.026518132864297803 0.063138076135964602 0 -0.026415036315017987 0.061047755843465661 0 -0.027743776422265106 0.06253924646926752 0 -0.026415036315017987 0.061047755843465661 0 -0.028271320096626612 0.061306844367339776 0 -0.026415036315017987 0.061047755843465661 0 -0.028271320096626612 0.061306844367339776 0 -0.027961705201761146 0.060103940350266741 0 -0.028271320096626612 0.061306844367339776 0 -0.029637471821614182 0.061175855267406876 0 -0.028910540996632175 0.062215749161932149 0 -0.028271320096626612 0.061306844367339776 0 -0.029637471821614182 0.061175855267406876 0 -0.027961705201761146 0.060103940350266741 0 -0.02856628409050347 0.063835015730072761 0 -0.027743776422265106 0.06253924646926752 0 -0.028910540996632175 0.062215749161932149 0 -0.02856628409050347 0.063835015730072761 0 -0.028910540996632175 0.062215749161932149 0 -0.029867018834712784 0.062471461182276748 0 -0.029637471821614182 0.061175855267406876 0 -0.028910540996632175 0.062215749161932149 0 -0.029867018834712784 0.062471461182276748 0 -0.03053196819074875 0.061358407704678444 0 -0.029637471821614182 0.061175855267406876 0 -0.029867018834712784 0.062471461182276748 0 -0.03053196819074875 0.061358407704678444 0 -0.029637471821614182 0.061175855267406876 0 -0.030158468692080394 0.060685096360018814 0 -0.029637471821614182 0.061175855267406876 0 -0.030158468692080394 0.060685096360018814 0 -0.029734842177405966 0.060495838156588475 0 -0.029637471821614182 0.061175855267406876 0 -0.029734842177405966 0.060495838156588475 0 -0.029472220634941627 0.060518328035895304 0 -0.03041620706133991 0.059318280189378368 0 -0.030555913770470511 0.058766940854612447 0 -0.029734842177405966 0.060495838156588475 0 -0.029629672530501337 0.060250249522202266 0 -0.029472220634941627 0.060518328035895304 0 -0.029734842177405966 0.060495838156588475 0 -0.029629672530501337 0.060250249522202266 0 -0.029841022735602449 0.059939213399588215 0 -0.030158468692080394 0.060685096360018814 0 -0.029734842177405966 0.060495838156588475 0 -0.029841022735602449 0.059939213399588215 0 -0.030158468692080394 0.060685096360018814 0 -0.029966183798481066 0.059896511123446468 0 -0.030034424993361401 0.060078501808817082 0 -0.029966183798481066 0.059896511123446468 0 -0.030034424993361401 0.060078501808817082 0 -0.030215691010140332 0.059846461120086084 0 -0.029629672530501337 0.060250249522202266 0 -0.029841022735602449 0.059939213399588215 0 -0.029637685030206074 0.060004024664888057 0 -0.030089856794001488 0.060269419851612889 0 -0.029934678322620777 0.059930400951305404 0 -0.030773738630045865 0.060285697588107763 0 -0.030158468692080394 0.060685096360018814 0 -0.030034424993361401 0.060078501808817082 0 -0.030620503766237255 0.060053105123578816 0 -0.030034424993361401 0.060078501808817082 0 -0.030215691010140332 0.059846461120086084 0 -0.030686188394383283 0.060198866492813717 0 -0.030365687310061083 0.060145295462690568 0 -0.030620503766237255 0.060053105123578816 0 -0.030377296768875284 0.059643935897521164 0 -0.030215691010140332 0.059846461120086084 0 -0.030377296768875284 0.059643935897521164 0 -0.030215691010140332 0.059846461120086084 0 -0.030082060827224439 0.05956730604460294 0 -0.029934678322620777 0.059930400951305404 0 -0.029727027640205475 0.059459373384648878 0 -0.029966183798481066 0.059896511123446468 0 -0.030082060827224439 0.05956730604460294 0 -0.029814332215784771 0.059410084323387562 0 -0.029966183798481066 0.059896511123446468 0 -0.030215691010140332 0.059846461120086084 0 -0.030082060827224439 0.05956730604460294 0 -0.029841022735602449 0.059939213399588215 0 -0.0296053987771999 0.05977762873161839 0 -0.029637685030206074 0.060004024664888057 0 -0.030082060827224439 0.05956730604460294 0 -0.030268591680680371 0.059329691967897669 0 -0.029814332215784771 0.059410084323387562 0 -0.030377296768875284 0.059643935897521164 0 -0.030082060827224439 0.05956730604460294 0 -0.030268591680680371 0.059329691967897669 0 -0.030532814110919664 0.0594044190559401 0 -0.030377296768875284 0.059643935897521164 0 -0.030268591680680371 0.059329691967897669 0 -0.029441141073230082 0.059343484304303001 0 -0.029492924342759387 0.059577829503136462 0 -0.029323173119268776 0.059541224510039473 0 -0.029441141073230082 0.059343484304303001 0 -0.029323173119268776 0.059541224510039473 0 -0.029316216794899513 0.059399146821010655 0 -0.029323173119268776 0.059541224510039473 0 -0.029316216794899513 0.059399146821010655 0 -0.029297775177092696 0.059488404601873372 0 -0.029441141073230082 0.059343484304303001 0 -0.029316216794899513 0.059399146821010655 0 -0.029301849972624749 0.059215513328689212 0 -0.029441141073230082 0.059343484304303001 0 -0.029675775710908219 0.059393117179111207 0 -0.029492924342759387 0.059577829503136462 0 -0.029492924342759387 0.059577829503136462 0 -0.029475293929174914 0.059788373629104656 0 -0.02939179448171729 0.05971702897949633 0 -0.029841022735602449 0.059939213399588215 0 -0.029675775710908219 0.059393117179111207 0 -0.0296053987771999 0.05977762873161839 0 -0.029492924342759387 0.059577829503136462 0 -0.0296053987771999 0.05977762873161839 0 -0.029475293929174914 0.059788373629104656 0 -0.029675775710908219 0.059393117179111207 0 -0.029492924342759387 0.059577829503136462 0 -0.0296053987771999 0.05977762873161839 0 -0.0296053987771999 0.05977762873161839 0 -0.029637685030206074 0.060004024664888057 0 -0.029500792019201801 0.059973839639911757 0 -0.0296053987771999 0.05977762873161839 0 -0.029475293929174914 0.059788373629104656 0 -0.029500792019201801 0.059973839639911757 0 -0.029475293929174914 0.059788373629104656 0 -0.029384786027892521 0.059908952491947894 0 -0.029500792019201801 0.059973839639911757 0 -0.029384786027892521 0.059908952491947894 0 -0.029307600483815859 0.059822589417439523 0 -0.029289877982342859 0.059948581878489025 0 -0.029307600483815859 0.059822589417439523 0 -0.029219880554616322 0.05976644097576176 0 -0.029289877982342859 0.059948581878489025 0 -0.029307600483815859 0.059822589417439523 0 -0.02939179448171729 0.05971702897949633 0 -0.029272986789213563 0.059713776946270523 0 -0.029384786027892521 0.059908952491947894 0 -0.029307600483815859 0.059822589417439523 0 -0.02939179448171729 0.05971702897949633 0 -0.029475293929174914 0.059788373629104656 0 -0.029384786027892521 0.059908952491947894 0 -0.02939179448171729 0.05971702897949633 0 -0.029492924342759387 0.059577829503136462 0 -0.02939179448171729 0.05971702897949633 0 -0.029323173119268776 0.059541224510039473 0 -0.029323173119268776 0.059541224510039473 0 -0.02933739270198582 0.059564695206496189 0 -0.029293711389576906 0.059537844499729931 0 -0.029323173119268776 0.059541224510039473 0 -0.029272986789213563 0.059713776946270523 0 -0.02922482887240134 0.059758415132629604 0 -0.033568244858720203 0.058905620092735707 0 -0.033676000951929574 0.058828223533012106 0 -0.02939179448171729 0.05971702897949633 0 -0.029323173119268776 0.059541224510039473 0 -0.029272986789213563 0.059713776946270523 0 -0.033676000951929574 0.058828223533012106 0 -0.036014323950961671 0.05738847327035701 0 -0.029307600483815859 0.059822589417439523 0 -0.029272986789213563 0.059713776946270523 0 -0.029219880554616322 0.05976644097576176 0 -0.033657476814147082 0.058843936180433522 0 -0.033676000951929574 0.058828223533012106 0 -0.033676000951929574 0.058828223533012106 0 -0.032812172165869485 0.058094401173815965 0 -0.033228978070940274 0.056520692995980955 0 -0.033253139053231143 0.05987005523941117 0 -0.031566038107476997 0.058702384888547662 0 -0.029361682926306042 0.060122264939821056 0 -0.029170019257490069 0.060119964511333654 0 -0.029472220634941627 0.060518328035895304 0 -0.029219880554616322 0.05976644097576176 0 -0.029289877982342859 0.059948581878489025 0 -0.029170019257490069 0.060119964511333654 0 -0.032812172165869485 0.058094401173815965 0 -0.036014323950961671 0.05738847327035701 0 -0.029289877982342859 0.059948581878489025 0 -0.029361682926306042 0.060122264939821056 0 -0.029170019257490069 0.060119964511333654 0 -0.029384786027892521 0.059908952491947894 0 -0.029289877982342859 0.059948581878489025 0 -0.029361682926306042 0.060122264939821056 0 -0.029637685030206074 0.060004024664888057 0 -0.029500792019201801 0.059973839639911757 0 -0.029518967284013868 0.060176970049126928 0 -0.029384786027892521 0.059908952491947894 0 -0.029361682926306042 0.060122264939821056 0 -0.029500792019201801 0.059973839639911757 0 -0.029361682926306042 0.060122264939821056 0 -0.029500792019201801 0.059973839639911757 0 -0.029518967284013868 0.060176970049126928 0 -0.029361682926306042 0.060122264939821056 0 -0.029518967284013868 0.060176970049126928 0 -0.029472220634941627 0.060518328035895304 0 -0.029629672530501337 0.060250249522202266 0 -0.029518967284013868 0.060176970049126928 0 -0.029472220634941627 0.060518328035895304 0 -0.029629672530501337 0.060250249522202266 0 -0.029637685030206074 0.060004024664888057 0 -0.029518967284013868 0.060176970049126928 0 -0.026656313958019481 0.061716785502120147 0 -0.026708542595797462 0.060226812778047166 0 -0.026122079468917564 0.061078014875488779 0 -0.029930317672438218 0.060849414593733719 0 -0.032812172165869485 0.058094401173815965 0 -0.032812172165869485 0.058094401173815965 0 -0.030555913770470511 0.058766940854612447 0 -0.026415036315017987 0.061047755843465661 0 -0.026411965941905043 0.059029846364173778 0 -0.027961705201761146 0.060103940350266741 0 -0.044065817652768562 0.057395596500221711 0 -0.038402774884026172 0.056231538226689692 0 -0.026122079468917564 0.061078014875488779 0 -0.02541303171236178 0.061066105921050322 0 -0.025723493978616924 0.061766158637793382 0 -0.026122079468917564 0.061078014875488779 0 -0.02541303171236178 0.061066105921050322 0 -0.026217418069093255 0.060408551622668706 0 -0.060218375623724105 0.051243210694241564 0 -0.059155493071581661 0.050948006398402537 0 -0.059233609280695911 0.052554890516265489 0 -0.060218375623724105 0.051243210694241564 0 -0.059785621615053013 0.05010243569251082 0 -0.059155493071581661 0.050948006398402537 0 -0.060218375623724105 0.051243210694241564 0 -0.059785621615053013 0.05010243569251082 0 -0.060411596912701246 0.049934166038234404 0 -0.059785621615053013 0.05010243569251082 0 -0.059211475937020384 0.049450544077032539 0 -0.059155493071581661 0.050948006398402537 0 -0.060411596912701246 0.049934166038234404 0 -0.05990328099313523 0.049385356703988775 0 -0.060729025705545135 0.049189455015248337 0 -0.059785621615053013 0.05010243569251082 0 -0.060411596912701246 0.049934166038234404 0 -0.05990328099313523 0.049385356703988775 0 -0.059785621615053013 0.05010243569251082 0 -0.05990328099313523 0.049385356703988775 0 -0.059211475937020384 0.049450544077032539 0 -0.060218375623724105 0.051243210694241564 0 -0.060411596912701246 0.049934166038234404 0 -0.061139408155296483 0.050004862160858303 0 -0.02541303171236178 0.061066105921050322 0 -0.026089827020108768 0.0601620232244158 0 -0.026217418069093255 0.060408551622668706 0 -0.026086086631154193 0.060156501496347548 0 -0.026217418069093255 0.060408551622668706 0 -0.026272703707404331 0.059913396213521423 0 -0.026708542595797462 0.060226812778047166 0 -0.026122079468917564 0.061078014875488779 0 -0.026217418069093255 0.060408551622668706 0 -0.026708542595797462 0.060226812778047166 0 -0.026217418069093255 0.060408551622668706 0 -0.026272703707404331 0.059913396213521423 0 -0.038402774884026172 0.056231538226689692 0 -0.038252883746812696 0.056215174881558867 0 -0.060411596912701246 0.049934166038234404 0 -0.061139408155296483 0.050004862160858303 0 -0.060729025705545135 0.049189455015248337 0 -0.038402774884026172 0.056231538226689692 0 -0.041183656182798581 0.056537629288967543 0 -0.036014323950961671 0.05738847327035701 0 -0.041183656182798581 0.056537629288967543 0 -0.041316774877182577 0.058619890527632362 0 -0.042826084594193854 0.056640160052319206 0 -0.038684487421922778 0.053772972319166203 0 -0.038402774884026172 0.056231538226689692 0 -0.036014323950961671 0.05738847327035701 0 -0.02933739270198582 0.059564695206496189 0 -0.029302012930918553 0.059633357177835508 0 -0.029290759515925344 0.059578759287839352 0 -0.029302012930918553 0.059633357177835508 0 -0.029290759515925344 0.059578759287839352 0 -0.029235638726769202 0.059595823303097137 0 -0.02933739270198582 0.059564695206496189 0 -0.029290759515925344 0.059578759287839352 0 -0.029293711389576906 0.059537844499729931 0 -0.029238922948155905 0.059523660791428762 0 -0.029235638726769202 0.059595823303097137 0 -0.029105053323692145 0.059443567525119943 0 -0.029323173119268776 0.059541224510039473 0 -0.029293711389576906 0.059537844499729931 0 -0.029297775177092696 0.059488404601873372 0 -0.029290759515925344 0.059578759287839352 0 -0.029293711389576906 0.059537844499729931 0 -0.029238922948155905 0.059523660791428762 0 -0.029293711389576906 0.059537844499729931 0 -0.029297775177092696 0.059488404601873372 0 -0.029250751952969365 0.059459544768990652 0 -0.029293711389576906 0.059537844499729931 0 -0.029238922948155905 0.059523660791428762 0 -0.029250751952969365 0.059459544768990652 0 -0.029290759515925344 0.059578759287839352 0 -0.029238922948155905 0.059523660791428762 0 -0.029235638726769202 0.059595823303097137 0 -0.041183656182798581 0.056537629288967543 0 -0.043737995941200154 0.05437160592864769 0 -0.041183656182798581 0.056537629288967543 0 -0.046093254125490299 0.057193862931721899 0 -0.05990328099313523 0.049385356703988775 0 -0.060729025705545135 0.049189455015248337 0 -0.059339971989036962 0.048279603551323512 0 -0.05949609164707665 0.048460136904375888 0 -0.059339971989036962 0.048279603551323512 0 -0.059291529357564744 0.048073410177797572 0 -0.05990328099313523 0.049385356703988775 0 -0.059339971989036962 0.048279603551323512 0 -0.059211475937020384 0.049450544077032539 0 -0.059291529357564744 0.048073410177797572 0 -0.05898282615437208 0.048019989967903701 0 -0.058928783630770754 0.048133804563740862 0 -0.059291529357564744 0.048073410177797572 0 -0.05898282615437208 0.048019989967903701 0 -0.059068165629466644 0.04805493052006584 0 -0.059339971989036962 0.048279603551323512 0 -0.059291529357564744 0.048073410177797572 0 -0.059068165629466644 0.04805493052006584 0 -0.029105053323692145 0.059443567525119943 0 -0.0292193420321534 0.059310436349509096 0 -0.029058646365970175 0.05908754318713174 0 -0.0292193420321534 0.059310436349509096 0 -0.029316216794899513 0.059399146821010655 0 -0.029301849972624749 0.059215513328689212 0 -0.0292193420321534 0.059310436349509096 0 -0.029316216794899513 0.059399146821010655 0 -0.029250751952969365 0.059459544768990652 0 -0.029316216794899513 0.059399146821010655 0 -0.029297775177092696 0.059488404601873372 0 -0.029250751952969365 0.059459544768990652 0 -0.029238922948155905 0.059523660791428762 0 -0.029105053323692145 0.059443567525119943 0 -0.029250751952969365 0.059459544768990652 0 -0.029105053323692145 0.059443567525119943 0 -0.0292193420321534 0.059310436349509096 0 -0.029250751952969365 0.059459544768990652 0 -0.05934771889484039 0.047810410684493924 0 -0.059016424880960608 0.048031376549323879 0 -0.058588431801610392 0.047890818072597957 0 -0.05934771889484039 0.047810410684493924 0 -0.059447104007595668 0.04804494772580746 0 -0.059016424880960608 0.048031376549323879 0 -0.059447104007595668 0.04804494772580746 0 -0.059016424880960608 0.048031376549323879 0 -0.059136798707974565 0.048157967543498693 0 -0.059016424880960608 0.048031376549323879 0 -0.05898282615437208 0.048019989967903701 0 -0.059136798707974565 0.048157967543498693 0 -0.05898282615437208 0.048019989967903701 0 -0.059068165629466644 0.04805493052006584 0 -0.058588431801610392 0.047890818072597957 0 -0.059016424880960608 0.048031376549323879 0 -0.05898282615437208 0.048019989967903701 0 -0.058588431801610392 0.047890818072597957 0 -0.058588431801610392 0.047890818072597957 0 -0.058717460183661307 0.048817940828406112 0 -0.055893377621143318 0.050391994123599133 0 -0.059068165629466644 0.04805493052006584 0 -0.058588431801610392 0.047890818072597957 0 -0.058717460183661307 0.048817940828406112 0 -0.059339971989036962 0.048279603551323512 0 -0.059068165629466644 0.04805493052006584 0 -0.058717460183661307 0.048817940828406112 0 -0.059339971989036962 0.048279603551323512 0 -0.058717460183661307 0.048817940828406112 0 -0.059211475937020384 0.049450544077032539 0 -0.058820594389202938 0.04924926417541859 0 -0.058901290511653971 0.049637680538816759 0 -0.058588431801610392 0.047890818072597957 0 -0.059086884629117521 0.04713815632800681 0 -0.05958744722711154 0.047390095595256157 0 -0.05934771889484039 0.047810410684493924 0 -0.058588431801610392 0.047890818072597957 0 -0.05958744722711154 0.047390095595256157 0 -0.059086884629117521 0.04713815632800681 0 -0.059741572520846373 0.046983825749339826 0 -0.05958744722711154 0.047390095595256157 0 -0.055893377621143318 0.050391994123599133 0 -0.058154610637646056 0.050697457774685338 0 -0.056676440414530557 0.053321137618862098 0 -0.059086884629117521 0.04713815632800681 0 -0.06014607921699161 0.046115931580741766 0 -0.059741572520846373 0.046983825749339826 0 -0.053655681839548483 0.052921380285514352 0 -0.052823410794786536 0.054550047024455664 0 -0.059211475937020384 0.049450544077032539 0 -0.058154610637646056 0.050697457774685338 0 -0.05990738174063507 0.053042261009734679 0 -0.058717460183661307 0.048817940828406112 0 -0.059211475937020384 0.049450544077032539 0 -0.058154610637646056 0.050697457774685338 0 -0.058717460183661307 0.048817940828406112 0 -0.055893377621143318 0.050391994123599133 0 -0.058154610637646056 0.050697457774685338 0 -0.05990738174063507 0.053042261009734679 0 -0.057985323873581733 0.05530208818871802 0 -0.056676440414530557 0.053321137618862098 0 -0.058154610637646056 0.050697457774685338 0 -0.05990738174063507 0.053042261009734679 0 -0.056676440414530557 0.053321137618862098 0 -0.052823410794786536 0.054550047024455664 0 -0.049977321915539497 0.059214344092780466 0 -0.05990738174063507 0.053042261009734679 0 -0.057985323873581733 0.05530208818871802 0 -0.060406740216549286 0.057475037504526288 0 -0.057985323873581733 0.05530208818871802 0 -0.056676440414530557 0.053321137618862098 0 -0.05569219700065791 0.055654175054544029 0 -0.055893377621143318 0.050391994123599133 0 -0.056676440414530557 0.053321137618862098 0 -0.053287204028144367 0.054798380036148224 0 -0.058901290511653971 0.049637680538816759 0 -0.059652866130086662 0.050295647634475631 0 -0.059086884629117521 0.04713815632800681 0 -0.060037103776869945 0.044186355613499692 0 -0.06014607921699161 0.046115931580741766 0 -0.056676440414530557 0.053321137618862098 0 -0.053287204028144367 0.054798380036148224 0 -0.05569219700065791 0.055654175054544029 0 -0.053287204028144367 0.054798380036148224 0 -0.05569219700065791 0.055654175054544029 0 -0.054168106118970404 0.05760612840449425 0 -0.05569219700065791 0.055654175054544029 0 -0.05656169998388226 0.057762362609732415 0 -0.054168106118970404 0.05760612840449425 0 -0.05656169998388226 0.057762362609732415 0 -0.054168106118970404 0.05760612840449425 0 -0.054301100583553211 0.059911821996929487 0 -0.054168106118970404 0.05760612840449425 0 -0.054301100583553211 0.059911821996929487 0 -0.050916051075954837 0.059954921194888572 0 -0.05656169998388226 0.057762362609732415 0 -0.054301100583553211 0.059911821996929487 0 -0.057013045389589838 0.061988328680370762 0 -0.054301100583553211 0.059911821996929487 0 -0.053179355812538152 0.062768095268011803 0 -0.050916051075954837 0.059954921194888572 0 -0.054301100583553211 0.059911821996929487 0 -0.053179355812538152 0.062768095268011803 0 -0.057013045389589838 0.061988328680370762 0 -0.052374690410432606 0.06063060852608259 0 -0.049977321915539497 0.059214344092780466 0 -0.05529119869117894 0.063447701978546198 0 -0.057576258010504762 0.060411709803996939 0 -0.057954587967668114 0.065081418800354729 0 -0.05656169998388226 0.057762362609732415 0 -0.057013045389589838 0.061988328680370762 0 -0.060406740216549286 0.057475037504526288 0 -0.057985323873581733 0.05530208818871802 0 -0.05656169998388226 0.057762362609732415 0 -0.060406740216549286 0.057475037504526288 0 -0.057985323873581733 0.05530208818871802 0 -0.05569219700065791 0.055654175054544029 0 -0.05656169998388226 0.057762362609732415 0 -0.044065817652768562 0.057395596500221711 0 -0.049977321915539497 0.059214344092780466 0 -0.02541303171236178 0.061066105921050322 0 -0.024778384904486899 0.061929647146470826 0 -0.025723493978616924 0.061766158637793382 0 -0.024778384904486899 0.061929647146470826 0 -0.025723493978616924 0.061766158637793382 0 -0.025845850558360816 0.062663694972250064 0 -0.026656313958019481 0.061716785502120147 0 -0.026122079468917564 0.061078014875488779 0 -0.025723493978616924 0.061766158637793382 0 -0.026656313958019481 0.061716785502120147 0 -0.025723493978616924 0.061766158637793382 0 -0.025845850558360816 0.062663694972250064 0 -0.024778384904486899 0.061929647146470826 0 -0.025393608484701742 0.063132630532776707 0 -0.024738582430501324 0.063407935637447038 0 -0.024778384904486899 0.061929647146470826 0 -0.025845850558360816 0.062663694972250064 0 -0.025393608484701742 0.063132630532776707 0 -0.049977321915539497 0.059214344092780466 0 -0.045556878935124764 0.064170927680295475 0 -0.024738582430501324 0.063407935637447038 0 -0.025545062346347243 0.064063749981039031 0 -0.025867962798556951 0.065622574217429105 0 -0.025393608484701742 0.063132630532776707 0 -0.024738582430501324 0.063407935637447038 0 -0.025545062346347243 0.064063749981039031 0 -0.025845850558360816 0.062663694972250064 0 -0.025393608484701742 0.063132630532776707 0 -0.026035914036102899 0.063908665789966873 0 -0.026518132864297803 0.063138076135964602 0 -0.025845850558360816 0.062663694972250064 0 -0.026035914036102899 0.063908665789966873 0 -0.025545062346347243 0.064063749981039031 0 -0.026035914036102899 0.063908665789966873 0 -0.02609442399898081 0.064405200587566339 0 -0.025393608484701742 0.063132630532776707 0 -0.025545062346347243 0.064063749981039031 0 -0.026035914036102899 0.063908665789966873 0 -0.025545062346347243 0.064063749981039031 0 -0.02609442399898081 0.064405200587566339 0 -0.026017136252886007 0.065061501457963716 0 -0.026792174847590937 0.065618478080100115 0 -0.027743010793779155 0.066637644416907546 0 -0.025545062346347243 0.064063749981039031 0 -0.027978860254167008 0.066523225032309841 0 -0.02914423532821369 0.066422612894913455 0 -0.02639488996380392 0.067101008618611832 0 -0.027978860254167008 0.066523225032309841 0 -0.025867962798556951 0.065622574217429105 0 -0.024992395536187036 0.067112404052447616 0 -0.024738582430501324 0.063407935637447038 0 -0.025867962798556951 0.065622574217429105 0 -0.025545062346347243 0.064063749981039031 0 -0.027978860254167008 0.066523225032309841 0 -0.025867962798556951 0.065622574217429105 0 -0.044239254790544073 0.068832946629995534 0 -0.045556878935124764 0.064170927680295475 0 -0.024992395536187036 0.067112404052447616 0 -0.02639488996380392 0.067101008618611832 0 -0.025867962798556951 0.065622574217429105 0 -0.058361657061204539 0.070032981840398828 0 -0.057954587967668114 0.065081418800354729 0 -0.055849346155961169 0.067625165373034937 0 -0.055512834585072585 0.069965022529050569 0 -0.058361657061204539 0.070032981840398828 0 -0.055849346155961169 0.067625165373034937 0 -0.055512834585072585 0.069965022529050569 0 -0.055849346155961169 0.067625165373034937 0 -0.053820750065013856 0.068547056635592366 0 -0.055849346155961169 0.067625165373034937 0 -0.053820750065013856 0.068547056635592366 0 -0.053054998195443202 0.066389220583305139 0 -0.052519210769586773 0.070281600082684151 0 -0.053820750065013856 0.068547056635592366 0 -0.051950095012116601 0.068131688502425111 0 -0.053820750065013856 0.068547056635592366 0 -0.053054998195443202 0.066389220583305139 0 -0.051950095012116601 0.068131688502425111 0 -0.055849346155961169 0.067625165373034937 0 -0.053054998195443202 0.066389220583305139 0 -0.055516896518129404 0.0656344999682201 0 -0.053179355812538152 0.062768095268011803 0 -0.057013045389589838 0.061988328680370762 0 -0.053054998195443202 0.066389220583305139 0 -0.05529119869117894 0.063447701978546198 0 -0.053054998195443202 0.066389220583305139 0 -0.055516896518129404 0.0656344999682201 0 -0.052374690410432606 0.06063060852608259 0 -0.052181835659466547 0.062172855420398139 0 -0.05529119869117894 0.063447701978546198 0 -0.057954587967668114 0.065081418800354729 0 -0.055516896518129404 0.0656344999682201 0 -0.057954587967668114 0.065081418800354729 0 -0.055849346155961169 0.067625165373034937 0 -0.055516896518129404 0.0656344999682201 0 -0.067892454542705205 0.040323988186287081 0 -0.070091797726616056 0.03944987038351172 0 -0.069868877063956877 0.041501173849588929 0 -0.053179355812538152 0.062768095268011803 0 -0.053054998195443202 0.066389220583305139 0 -0.049011169017449702 0.065102309902860186 0 -0.066125766621363949 0.062310746298421656 0 -0.066765815763969019 0.051662887207663342 0 -0.050776384383817222 0.069908581429190444 0 -0.049011169017449702 0.065102309902860186 0 -0.051950095012116601 0.068131688502425111 0 -0.053054998195443202 0.066389220583305139 0 -0.049011169017449702 0.065102309902860186 0 -0.051950095012116601 0.068131688502425111 0 -0.050776384383817222 0.069908581429190444 0 -0.052519210769586773 0.070281600082684151 0 -0.051950095012116601 0.068131688502425111 0 -0.072578779929142981 0.050852095803227526 0 -0.066765815763969019 0.051662887207663342 0 -0.076531970882230793 0.060863149934064886 0 -0.076686301165539636 0.060844741505129751 0 -0.076569741772128844 0.060554454293879213 0 -0.069066298522069289 0.037469059788140892 0 -0.067892454542705205 0.040323988186287081 0 -0.070091797726616056 0.03944987038351172 0 -0.072109075554826582 0.03731834539594573 0 -0.069066298522069289 0.037469059788140892 0 -0.070091797726616056 0.03944987038351172 0 -0.072109075554826582 0.03731834539594573 0 -0.070091797726616056 0.03944987038351172 0 -0.072065087850537946 0.039419974495436105 0 -0.072109075554826582 0.03731834539594573 0 -0.072065087850537946 0.039419974495436105 0 -0.074278439689817052 0.04004553614742562 0 -0.076116689513700653 0.048934013835469671 0 -0.07711122754670266 0.047412878341031264 0 -0.071594191730564527 0.04099744369945852 0 -0.073559538420974152 0.042791314128033511 0 -0.074278439689817052 0.04004553614742562 0 -0.072065087850537946 0.039419974495436105 0 -0.071594191730564527 0.04099744369945852 0 -0.074278439689817052 0.04004553614742562 0 -0.070091797726616056 0.03944987038351172 0 -0.071594191730564527 0.04099744369945852 0 -0.069868877063956877 0.041501173849588929 0 -0.070091797726616056 0.03944987038351172 0 -0.072065087850537946 0.039419974495436105 0 -0.071594191730564527 0.04099744369945852 0 -0.069868877063956877 0.041501173849588929 0 -0.071045819046001754 0.043204785111229382 0 -0.068771967647071483 0.043588928657827743 0 -0.071594191730564527 0.04099744369945852 0 -0.069868877063956877 0.041501173849588929 0 -0.071045819046001754 0.043204785111229382 0 -0.071594191730564527 0.04099744369945852 0 -0.071045819046001754 0.043204785111229382 0 -0.073559538420974152 0.042791314128033511 0 -0.071045819046001754 0.043204785111229382 0 -0.073559538420974152 0.042791314128033511 0 -0.073027094745602039 0.045332071774050513 0 -0.071045819046001754 0.043204785111229382 0 -0.070423695830194297 0.04495980874709956 0 -0.068771967647071483 0.043588928657827743 0 -0.071045819046001754 0.043204785111229382 0 -0.070423695830194297 0.04495980874709956 0 -0.073027094745602039 0.045332071774050513 0 -0.066635054153674336 0.039952779810946311 0 -0.064616150543614193 0.043285519312677115 0 -0.066119884733218864 0.044861914063545248 0 -0.066635054153674336 0.039952779810946311 0 -0.062925287083503811 0.041940573790633665 0 -0.064616150543614193 0.043285519312677115 0 -0.064266551362103852 0.032981326383529776 0 -0.066635054153674336 0.039952779810946311 0 -0.062204657637464723 0.038368874102279411 0 -0.067892454542705205 0.040323988186287081 0 -0.069868877063956877 0.041501173849588929 0 -0.068771967647071483 0.043588928657827743 0 -0.066765815763969019 0.051662887207663342 0 -0.066419296718761567 0.044204778752330802 0 -0.066765815763969019 0.051662887207663342 0 -0.061893804873639886 0.050895942808942267 0 -0.053179355812538152 0.062768095268011803 0 -0.049011169017449702 0.065102309902860186 0 -0.050916051075954837 0.059954921194888572 0 -0.053287204028144367 0.054798380036148224 0 -0.054168106118970404 0.05760612840449425 0 -0.050916051075954837 0.059954921194888572 0 -0.059652866130086662 0.050295647634475631 0 -0.061893804873639886 0.050895942808942267 0 -0.066635054153674336 0.039952779810946311 0 -0.062204657637464723 0.038368874102279411 0 -0.062925287083503811 0.041940573790633665 0 -0.060037103776869945 0.044186355613499692 0 -0.062204657637464723 0.038368874102279411 0 -0.062925287083503811 0.041940573790633665 0 -0.060037103776869945 0.044186355613499692 0 -0.062925287083503811 0.041940573790633665 0 -0.063156531056920984 0.044829525856334464 0 -0.060037103776869945 0.044186355613499692 0 -0.063156531056920984 0.044829525856334464 0 -0.06014607921699161 0.046115931580741766 0 -0.063156531056920984 0.044829525856334464 0 -0.06014607921699161 0.046115931580741766 0 -0.067890305035915879 0.048616791947341143 0 -0.062925287083503811 0.041940573790633665 0 -0.063156531056920984 0.044829525856334464 0 -0.064616150543614193 0.043285519312677115 0 -0.066635054153674336 0.039952779810946311 0 -0.066119884733218864 0.044861914063545248 0 -0.069226817892138595 0.0473186764314295 0 -0.066419296718761567 0.044204778752330802 0 -0.067365715725149933 0.045484733165501556 0 -0.063156531056920984 0.044829525856334464 0 -0.066119884733218864 0.044861914063545248 0 -0.067890305035915879 0.048616791947341143 0 -0.063156531056920984 0.044829525856334464 0 -0.064616150543614193 0.043285519312677115 0 -0.066119884733218864 0.044861914063545248 0 -0.066119884733218864 0.044861914063545248 0 -0.067890305035915879 0.048616791947341143 0 -0.069226817892138595 0.0473186764314295 0 -0.060538394549515075 0.046921669429866496 0 -0.06029759720900895 0.04686565148591406 0 -0.060405546276972144 0.047205213698378788 0 -0.060082051028033698 0.047073826755654552 0 -0.06029759720900895 0.04686565148591406 0 -0.060405546276972144 0.047205213698378788 0 -0.060538394549515075 0.046921669429866496 0 -0.060405546276972144 0.047205213698378788 0 -0.060729984324143983 0.047205990247567664 0 -0.062518781442962718 0.046026970054643034 0 -0.064545287145933022 0.046229045067922601 0 -0.06014607921699161 0.046115931580741766 0 -0.060538394549515075 0.046921669429866496 0 -0.06029759720900895 0.04686565148591406 0 -0.06014607921699161 0.046115931580741766 0 -0.060082051028033698 0.047073826755654552 0 -0.059741572520846373 0.046983825749339826 0 -0.06014607921699161 0.046115931580741766 0 -0.060082051028033698 0.047073826755654552 0 -0.06029759720900895 0.04686565148591406 0 -0.060082051028033698 0.047073826755654552 0 -0.059741572520846373 0.046983825749339826 0 -0.05958744722711154 0.047390095595256157 0 -0.060082051028033698 0.047073826755654552 0 -0.05958744722711154 0.047390095595256157 0 -0.059899067399659195 0.047619480998853839 0 -0.060082051028033698 0.047073826755654552 0 -0.059899067399659195 0.047619480998853839 0 -0.060405546276972144 0.047205213698378788 0 -0.05934771889484039 0.047810410684493924 0 -0.05958744722711154 0.047390095595256157 0 -0.059899067399659195 0.047619480998853839 0 -0.060405546276972144 0.047205213698378788 0 -0.060285812967777221 0.047668862734075688 0 -0.06062582020394388 0.047504092285876653 0 -0.059899067399659195 0.047619480998853839 0 -0.060405546276972144 0.047205213698378788 0 -0.060285812967777221 0.047668862734075688 0 -0.060285812967777221 0.047668862734075688 0 -0.059984050647599166 0.047979266668591376 0 -0.060507910097527269 0.047972925730987881 0 -0.060285812967777221 0.047668862734075688 0 -0.06062582020394388 0.047504092285876653 0 -0.060507910097527269 0.047972925730987881 0 -0.059447104007595668 0.04804494772580746 0 -0.059899067399659195 0.047619480998853839 0 -0.059984050647599166 0.047979266668591376 0 -0.059899067399659195 0.047619480998853839 0 -0.060285812967777221 0.047668862734075688 0 -0.059984050647599166 0.047979266668591376 0 -0.05934771889484039 0.047810410684493924 0 -0.059447104007595668 0.04804494772580746 0 -0.059899067399659195 0.047619480998853839 0 -0.060922730519073737 0.047744413603147171 0 -0.061372324615862464 0.047589960725691403 0 -0.061196399880629353 0.048113324180384671 0 -0.060922730519073737 0.047744413603147171 0 -0.060951652268524455 0.047395943787540057 0 -0.061372324615862464 0.047589960725691403 0 -0.060922730519073737 0.047744413603147171 0 -0.06062582020394388 0.047504092285876653 0 -0.060507910097527269 0.047972925730987881 0 -0.060922730519073737 0.047744413603147171 0 -0.06062582020394388 0.047504092285876653 0 -0.060951652268524455 0.047395943787540057 0 -0.060729984324143983 0.047205990247567664 0 -0.060951652268524455 0.047395943787540057 0 -0.061157245233567796 0.047097404096289729 0 -0.06062582020394388 0.047504092285876653 0 -0.060729984324143983 0.047205990247567664 0 -0.060951652268524455 0.047395943787540057 0 -0.060405546276972144 0.047205213698378788 0 -0.06062582020394388 0.047504092285876653 0 -0.060729984324143983 0.047205990247567664 0 -0.060951652268524455 0.047395943787540057 0 -0.061157245233567796 0.047097404096289729 0 -0.061372324615862464 0.047589960725691403 0 -0.072922629820834917 0.049420422996371359 0 -0.072101289747986352 0.047062228090319728 0 -0.074786305991703675 0.048520750797548043 0 -0.064545287145933022 0.046229045067922601 0 -0.067998487116731843 0.045718344362569191 0 -0.060538394549515075 0.046921669429866496 0 -0.060729984324143983 0.047205990247567664 0 -0.061157245233567796 0.047097404096289729 0 -0.072922629820834917 0.049420422996371359 0 -0.069226817892138595 0.0473186764314295 0 -0.072101289747986352 0.047062228090319728 0 -0.067890305035915879 0.048616791947341143 0 -0.072922629820834917 0.049420422996371359 0 -0.069226817892138595 0.0473186764314295 0 -0.070423695830194297 0.04495980874709956 0 -0.068771967647071483 0.043588928657827743 0 -0.069226817892138595 0.0473186764314295 0 -0.070423695830194297 0.04495980874709956 0 -0.069226817892138595 0.0473186764314295 0 -0.072101289747986352 0.047062228090319728 0 -0.070423695830194297 0.04495980874709956 0 -0.072101289747986352 0.047062228090319728 0 -0.073027094745602039 0.045332071774050513 0 -0.072101289747986352 0.047062228090319728 0 -0.073027094745602039 0.045332071774050513 0 -0.074786305991703675 0.048520750797548043 0 -0.073027094745602039 0.045332071774050513 0 -0.075996005239962444 0.045992081869524387 0 -0.075495733871300624 0.044599858530603359 0 -0.074989849486071167 0.045045245186760327 0 -0.075932259600749646 0.045255290596268878 0 -0.073027094745602039 0.045332071774050513 0 -0.076014115942047059 0.046909136171772045 0 -0.074786305991703675 0.048520750797548043 0 -0.075996005239962444 0.045992081869524387 0 -0.07754157451674476 0.045032267114864299 0 -0.077722867292456921 0.0459277401882347 0 -0.075996005239962444 0.045992081869524387 0 -0.077722867292456921 0.0459277401882347 0 -0.075495733871300624 0.044599858530603359 0 -0.076658517545956747 0.049067820059777785 0 -0.077711429964152451 0.049466456638538922 0 -0.078641002401868942 0.048330599386283243 0 -0.075932259600749646 0.045255290596268878 0 -0.076932434953983719 0.044999578649874521 0 -0.076014115942047059 0.046909136171772045 0 -0.076658517545956747 0.049067820059777785 0 -0.078641002401868942 0.048330599386283243 0 -0.076658517545956747 0.049067820059777785 0 -0.077711429964152451 0.049466456638538922 0 -0.0767792160163875 0.050076067911542801 0 -0.072922629820834917 0.049420422996371359 0 -0.074786305991703675 0.048520750797548043 0 -0.076781720869962489 0.050217586233748043 0 -0.076014115942047059 0.046909136171772045 0 -0.076658517545956747 0.049067820059777785 0 -0.074786305991703675 0.048520750797548043 0 -0.076658517545956747 0.049067820059777785 0 -0.074786305991703675 0.048520750797548043 0 -0.076781720869962489 0.050217586233748043 0 -0.067998487116731843 0.045718344362569191 0 -0.073962987433326646 0.043808756442543582 0 -0.061157245233567796 0.047097404096289729 0 -0.061826150754804909 0.047262141577956156 0 -0.061372324615862464 0.047589960725691403 0 -0.074082929829343711 0.044418306508983929 0 -0.073962987433326646 0.043808756442543582 0 -0.077711429964152451 0.049466456638538922 0 -0.0767792160163875 0.050076067911542801 0 -0.078696155149848873 0.049877470302370032 0 -0.073962987433326646 0.043808756442543582 0 -0.072731446833658786 0.042634281288764155 0 -0.081211614193609574 0.041552587491456461 0 -0.080882572835921845 0.038034876954203968 0 -0.079352970446569859 0.039900955209903534 0 -0.080882572835921845 0.038034876954203968 0 -0.078695707270347942 0.037983058113362056 0 -0.079352970446569859 0.039900955209903534 0 -0.061858772717385026 0.047813071057859868 0 -0.061372324615862464 0.047589960725691403 0 -0.061590371879833697 0.048095983526604602 0 -0.061826150754804909 0.047262141577956156 0 -0.061858772717385026 0.047813071057859868 0 -0.061372324615862464 0.047589960725691403 0 -0.076335927846652094 0.039252107949084097 0 -0.074999987020321568 0.038096731270136408 0 -0.076066429373383579 0.040668054930951991 0 -0.076335927846652094 0.039252107949084097 0 -0.076940803742380784 0.038215963180784719 0 -0.077334657248027766 0.040028749072802773 0 -0.076335927846652094 0.039252107949084097 0 -0.074999987020321568 0.038096731270136408 0 -0.076940803742380784 0.038215963180784719 0 -0.077324882888681348 0.040870818649644397 0 -0.076700535140891715 0.041894436186289019 0 -0.078695707270347942 0.037983058113362056 0 -0.077294441858266144 0.04005250836269085 0 -0.079352970446569859 0.039900955209903534 0 -0.076940803742380784 0.038215963180784719 0 -0.078695707270347942 0.037983058113362056 0 -0.077334657248027766 0.040028749072802773 0 -0.081211614193609574 0.041552587491456461 0 -0.079352970446569859 0.039900955209903534 0 -0.077035152781013611 0.040437646110628729 0 -0.073962987433326646 0.043808756442543582 0 -0.076472828192175865 0.042272895735516354 0 -0.0767792160163875 0.050076067911542801 0 -0.078696155149848873 0.049877470302370032 0 -0.08021052045750364 0.050941640307958974 0 -0.077294441858266144 0.04005250836269085 0 -0.079352970446569859 0.039900955209903534 0 -0.077035152781013611 0.040437646110628729 0 -0.077711429964152451 0.049466456638538922 0 -0.078696155149848873 0.049877470302370032 0 -0.07879291049964264 0.04930969544243799 0 -0.078696155149848873 0.049877470302370032 0 -0.079823463538679779 0.049679640954951559 0 -0.07879291049964264 0.04930969544243799 0 -0.078696155149848873 0.049877470302370032 0 -0.079823463538679779 0.049679640954951559 0 -0.08021052045750364 0.050941640307958974 0 -0.076472828192175865 0.042272895735516354 0 -0.075803318310556603 0.043157437345534559 0 -0.07707845513971251 0.040414828118030391 0 -0.076066429373383579 0.040668054930951991 0 -0.075959297175133472 0.042089880004424811 0 -0.079823463538679779 0.049679640954951559 0 -0.08021052045750364 0.050941640307958974 0 -0.081112735089833327 0.049587015983112936 0 -0.074999987020321568 0.038096731270136408 0 -0.076066429373383579 0.040668054930951991 0 -0.074999990030225464 0.041613640523384759 0 -0.077334657248027766 0.040028749072802773 0 -0.07707845513971251 0.040414828118030391 0 -0.076066429373383579 0.040668054930951991 0 -0.076335927846652094 0.039252107949084097 0 -0.077334657248027766 0.040028749072802773 0 -0.076066429373383579 0.040668054930951991 0 -0.076700535140891715 0.041894436186289019 0 -0.076472828192175865 0.042272895735516354 0 -0.076066429373383579 0.040668054930951991 0 -0.075959297175133472 0.042089880004424811 0 -0.074999990030225464 0.041613640523384759 0 -0.075803318310556603 0.043157437345534559 0 -0.075001203262559726 0.041622104309591595 0 -0.075963552398852399 0.042096608748754497 0 -0.074999997714634017 0.041613677416349769 0 -0.074999999498154654 0.043528024483151614 0 -0.075605203394449524 0.042946988193256659 0 -0.074999648898990787 0.043530645606699489 0 -0.07754157451674476 0.045032267114864299 0 -0.075803318310556603 0.043157437345534559 0 -0.075002557022991065 0.0435277354289745 0 -0.074999648898990787 0.043530645606699489 0 -0.07754157451674476 0.045032267114864299 0 -0.077722867292456921 0.0459277401882347 0 -0.075803318310556603 0.043157437345534559 0 -0.076932434953983719 0.044999578649874521 0 -0.079823463538679779 0.049679640954951559 0 -0.081112735089833327 0.049587015983112936 0 -0.078641002401868942 0.048330599386283243 0 -0.077711429964152451 0.049466456638538922 0 -0.07879291049964264 0.04930969544243799 0 -0.078641002401868942 0.048330599386283243 0 -0.079823463538679779 0.049679640954951559 0 -0.07879291049964264 0.04930969544243799 0 -0.078641002401868942 0.048330599386283243 0 -0.074999648898990787 0.043530645606699489 0 -0.077722867292456921 0.0459277401882347 0 -0.074999187754099667 0.054604042309511283 0 -0.077722867292456921 0.0459277401882347 0 -0.080217269783519327 0.049808531991476841 0 -0.074999187754099667 0.054604042309511283 0 -0.077496335270802061 0.046335499186337767 0 -0.077532370578431736 0.046710561113316722 0 -0.077722867292456921 0.0459277401882347 0 -0.075495733871300624 0.044599858530603359 0 -0.076464670401189191 0.043066029872684153 0 -0.073559538420974152 0.042791314128033511 0 -0.073027094745602039 0.045332071774050513 0 -0.075495733871300624 0.044599858530603359 0 -0.073559538420974152 0.042791314128033511 0 -0.075495733871300624 0.044599858530603359 0 -0.076464670401189191 0.043066029872684153 0 -0.077532370578431736 0.046710561113316722 0 -0.07711122754670266 0.047412878341031264 0 -0.073559538420974152 0.042791314128033511 0 -0.076464670401189191 0.043066029872684153 0 -0.074278439689817052 0.04004553614742562 0 -0.080217269783519327 0.049808531991476841 0 -0.07950822936697001 0.053176202754503521 0 -0.082155457755357278 0.053601976041442637 0 -0.08174835571252205 0.056539507231905102 0 -0.082155457755357278 0.053601976041442637 0 -0.080533478133757413 0.055555953340406097 0 -0.08174835571252205 0.056539507231905102 0 -0.083132806991683933 0.056217579052395869 0 -0.082155457755357278 0.053601976041442637 0 -0.07950822936697001 0.053176202754503521 0 -0.082155457755357278 0.053601976041442637 0 -0.080533478133757413 0.055555953340406097 0 -0.07950822936697001 0.053176202754503521 0 -0.080533478133757413 0.055555953340406097 0 -0.078109522607853518 0.055438067326754249 0 -0.080217269783519327 0.049808531991476841 0 -0.07950822936697001 0.053176202754503521 0 -0.074999187754099667 0.054604042309511283 0 -0.077483982324291462 0.058556559392720989 0 -0.078109522607853518 0.055438067326754249 0 -0.074999187754099667 0.054604042309511283 0 -0.07950822936697001 0.053176202754503521 0 -0.078109522607853518 0.055438067326754249 0 -0.074999187754099667 0.054604042309511283 0 -0.079506117080921299 0.020595329581539701 0 -0.07884081873283591 0.02232604276372142 0 -0.079656304296943758 0.023576811858712843 0 -0.074661289998883343 0.025319727093215248 0 -0.074204979966865148 0.027011163476379826 0 -0.078452471190710152 0.021411955162750022 0 -0.077729259756087563 0.022216007406199806 0 -0.077752664856783602 0.020452334383310192 0 -0.077729259756087563 0.022216007406199806 0 -0.076319322535208581 0.021312069643955368 0 -0.077752664856783602 0.020452334383310192 0 -0.078452471190710152 0.021411955162750022 0 -0.079506117080921299 0.020595329581539701 0 -0.07884081873283591 0.02232604276372142 0 -0.078452471190710152 0.021411955162750022 0 -0.079506117080921299 0.020595329581539701 0 -0.077752664856783602 0.020452334383310192 0 -0.07884081873283591 0.02232604276372142 0 -0.078337815475505349 0.023402419391340929 0 -0.079656304296943758 0.023576811858712843 0 -0.07884081873283591 0.02232604276372142 0 -0.077729259756087563 0.022216007406199806 0 -0.078337815475505349 0.023402419391340929 0 -0.078452471190710152 0.021411955162750022 0 -0.07884081873283591 0.02232604276372142 0 -0.077729259756087563 0.022216007406199806 0 -0.077729259756087563 0.022216007406199806 0 -0.077421948111720928 0.02325042978490784 0 -0.078337815475505349 0.023402419391340929 0 -0.077729259756087563 0.022216007406199806 0 -0.077421948111720928 0.02325042978490784 0 -0.076814796421708353 0.022524270013915593 0 -0.077421948111720928 0.02325042978490784 0 -0.076814796421708353 0.022524270013915593 0 -0.075988310582324026 0.023248212901431684 0 -0.077729259756087563 0.022216007406199806 0 -0.076814796421708353 0.022524270013915593 0 -0.076319322535208581 0.021312069643955368 0 -0.076814796421708353 0.022524270013915593 0 -0.075988310582324026 0.023248212901431684 0 -0.076319322535208581 0.021312069643955368 0 -0.07499979708382265 0.023180750355204713 0 -0.076319322535208581 0.021312069643955368 0 -0.074999238962198136 0.018812997390425953 0 -0.07499979708382265 0.023180750355204713 0 -0.075988310582324026 0.023248212901431684 0 -0.076319322535208581 0.021312069643955368 0 -0.076319322535208581 0.021312069643955368 0 -0.074999238962198136 0.018812997390425953 0 -0.076730900156611395 0.018967613184075253 0 -0.076319322535208581 0.021312069643955368 0 -0.076730900156611395 0.018967613184075253 0 -0.077752664856783602 0.020452334383310192 0 -0.076730900156611395 0.018967613184075253 0 -0.078222584002865886 0.018258565093022573 0 -0.076943542221983283 0.015826177469004471 0 -0.078222584002865886 0.018258565093022573 0 -0.081030220304390665 0.020564311845045518 0 -0.079408550488687196 0.014583246386132991 0 -0.076730900156611395 0.018967613184075253 0 -0.077752664856783602 0.020452334383310192 0 -0.078222584002865886 0.018258565093022573 0 -0.079506117080921299 0.020595329581539701 0 -0.077752664856783602 0.020452334383310192 0 -0.078222584002865886 0.018258565093022573 0 -0.079506117080921299 0.020595329581539701 0 -0.078222584002865886 0.018258565093022573 0 -0.081030220304390665 0.020564311845045518 0 -0.078932971489780332 0.012823011500311947 0 -0.080130040435938577 0.010369294017875843 0 -0.079408550488687196 0.014583246386132991 0 -0.075781966994361696 0.017742637394151037 0 -0.076272111622424477 0.016526620032249178 0 -0.078932971489780332 0.012823011500311947 0 -0.079133157057639694 0.011060741593117674 0 -0.078638301556843107 0.011093517335775346 0 -0.079133157057639694 0.011060741593117674 0 -0.078638301556843107 0.011093517335775346 0 -0.078964737365974119 0.010095601079032629 0 -0.079133157057639694 0.011060741593117674 0 -0.080130040435938577 0.010369294017875843 0 -0.078964737365974119 0.010095601079032629 0 -0.078932971489780332 0.012823011500311947 0 -0.079133157057639694 0.011060741593117674 0 -0.080130040435938577 0.010369294017875843 0 -0.078932971489780332 0.012823011500311947 0 -0.078638301556843107 0.011093517335775346 0 -0.078349447152646676 0.011427639335378983 0 -0.078638301556843107 0.011093517335775346 0 -0.077997455709696364 0.010017607806521989 0 -0.078459200528846251 0.010136927804959357 0 -0.078638301556843107 0.011093517335775346 0 -0.078459200528846251 0.010136927804959357 0 -0.078964737365974119 0.010095601079032629 0 -0.077997455709696364 0.010017607806521989 0 -0.077492212855535439 0.0098697425396941131 0 -0.078349447152646676 0.011427639335378983 0 -0.078638301556843107 0.011093517335775346 0 -0.077997455709696364 0.010017607806521989 0 -0.078349447152646676 0.011427639335378983 0 -0.077997455709696364 0.010017607806521989 0 -0.078345692615638715 0.0094019753897029226 0 -0.077770451684695582 0.0091087020299060184 0 -0.078345692615638715 0.0094019753897029226 0 -0.078964737365974119 0.010095601079032629 0 -0.078966315138524146 0.0091417988028624306 0 -0.077997455709696364 0.010017607806521989 0 -0.078459200528846251 0.010136927804959357 0 -0.078345692615638715 0.0094019753897029226 0 -0.078459200528846251 0.010136927804959357 0 -0.078345692615638715 0.0094019753897029226 0 -0.078964737365974119 0.010095601079032629 0 -0.078345692615638715 0.0094019753897029226 0 -0.078966315138524146 0.0091417988028624306 0 -0.078262128955759278 0.0086056557831163064 0 -0.077770451684695582 0.0091087020299060184 0 -0.078262128955759278 0.0086056557831163064 0 -0.077433699974918765 0.0083824252252760311 0 -0.078345692615638715 0.0094019753897029226 0 -0.077770451684695582 0.0091087020299060184 0 -0.078262128955759278 0.0086056557831163064 0 -0.081030220304390665 0.020564311845045518 0 -0.08165530482540953 0.025555648477389011 0 -0.079852525217387185 0.024744955288667519 0 -0.079506117080921299 0.020595329581539701 0 -0.081030220304390665 0.020564311845045518 0 -0.079852525217387185 0.024744955288667519 0 -0.075781966994361696 0.017742637394151037 0 -0.073968470656790131 0.02185524205233734 0 -0.080130040435938577 0.010369294017875843 0 -0.078966315138524146 0.0091417988028624306 0 -0.079519306389966474 0.0083555950961460967 0 -0.080130040435938577 0.010369294017875843 0 -0.078964737365974119 0.010095601079032629 0 -0.078966315138524146 0.0091417988028624306 0 -0.079519306389966474 0.0083555950961460967 0 -0.078354752446864503 0.0077949254422852174 0 -0.079126868342656767 0.0069752167560253545 0 -0.073968470656790131 0.02185524205233734 0 -0.070561772621310526 0.032830954682323207 0 -0.08165530482540953 0.025555648477389011 0 -0.080212297548662548 0.028769843671134297 0 -0.079852525217387185 0.024744955288667519 0 -0.078966315138524146 0.0091417988028624306 0 -0.079519306389966474 0.0083555950961460967 0 -0.078766520141351229 0.0084557477818534357 0 -0.079519306389966474 0.0083555950961460967 0 -0.078766520141351229 0.0084557477818534357 0 -0.078354752446864503 0.0077949254422852174 0 -0.078262128955759278 0.0086056557831163064 0 -0.078354752446864503 0.0077949254422852174 0 -0.077433699974918765 0.0083824252252760311 0 -0.078966315138524146 0.0091417988028624306 0 -0.078766520141351229 0.0084557477818534357 0 -0.078262128955759278 0.0086056557831163064 0 -0.078766520141351229 0.0084557477818534357 0 -0.078262128955759278 0.0086056557831163064 0 -0.078354752446864503 0.0077949254422852174 0 -0.07022099597730376 0.033897129543253121 0 -0.069371969153759011 0.03114523602149381 0 -0.062053209242308512 0.049497787171301544 0 -0.061524066909792133 0.049155414868741733 0 -0.06125674002424402 0.049550677114761542 0 -0.078354752446864503 0.0077949254422852174 0 -0.078978990250293105 0.0068756634588569487 0 -0.077179197877138936 0.0070492591476830086 0 -0.08165530482540953 0.025555648477389011 0 -0.080212297548662548 0.028769843671134297 0 -0.08233685218384354 0.030423677345978926 0 -0.072629725711378407 0.031326482085478023 0 -0.070561772621310526 0.032830954682323207 0 -0.072629725711378407 0.031326482085478023 0 -0.071882931422144553 0.033471050089428939 0 -0.078354752446864503 0.0077949254422852174 0 -0.079126868342656767 0.0069752167560253545 0 -0.078978990250293105 0.0068756634588569487 0 -0.070561772621310526 0.032830954682323207 0 -0.07022099597730376 0.033897129543253121 0 -0.07476779103269128 0.036704323147144911 0 -0.074139151425696825 0.032586092700545799 0 -0.06949805529271047 0.032660138182995145 0 -0.070561772621310526 0.032830954682323207 0 -0.070446638942756615 0.033918023568872635 0 -0.070446638942756615 0.033918023568872635 0 -0.07022099597730376 0.033897129543253121 0 -0.072876971049797734 0.033856277283664048 0 -0.07133202748900172 0.032676560927441888 0 -0.072734025153670917 0.032388623231659551 0 -0.070446638942756615 0.033918023568872635 0 -0.071882931422144553 0.033471050089428939 0 -0.07133202748900172 0.032676560927441888 0 -0.071291373196531269 0.032412466460867283 0 -0.072734025153670917 0.032388623231659551 0 -0.079863155643542155 0.027515865098214694 0 -0.077434719951018013 0.027539995015864058 0 -0.078547854499038533 0.029293310084735569 0 -0.071882931422144553 0.033471050089428939 0 -0.074786300243661244 0.030195579119076065 0 -0.079853726480296636 0.027459103966589803 0 -0.077421138659945765 0.027494135509841849 0 -0.078236901735315834 0.026222544573484476 0 -0.079734784442704529 0.026181633960642766 0 -0.079853726480296636 0.027459103966589803 0 -0.078236901735315834 0.026222544573484476 0 -0.072629725711378407 0.031326482085478023 0 -0.074204979966865148 0.027011163476379826 0 -0.072629725711378407 0.031326482085478023 0 -0.073689891110797975 0.029717469101638524 0 -0.079891483080454614 0.026315477740953646 0 -0.077854688180156825 0.024724152624176897 0 -0.079656304296943758 0.023576811858712843 0 -0.079734784442704529 0.026181633960642766 0 -0.078236901735315834 0.026222544573484476 0 -0.077901053610863302 0.0247392728132667 0 -0.078236901735315834 0.026222544573484476 0 -0.077901053610863302 0.0247392728132667 0 -0.076031227394903297 0.025481379307872035 0 -0.077421948111720928 0.02325042978490784 0 -0.077854688180156825 0.024724152624176897 0 -0.078337815475505349 0.023402419391340929 0 -0.077854688180156825 0.024724152624176897 0 -0.078337815475505349 0.023402419391340929 0 -0.079656304296943758 0.023576811858712843 0 -0.07499979708382265 0.023180750355204713 0 -0.076031227394903297 0.025481379307872035 0 -0.074999991722891374 0.027545805275595459 0 -0.07499979708382265 0.023180750355204713 0 -0.075988310582324026 0.023248212901431684 0 -0.076031227394903297 0.025481379307872035 0 -0.075988310582324026 0.023248212901431684 0 -0.077901053610863302 0.0247392728132667 0 -0.076031227394903297 0.025481379307872035 0 -0.07373267479241967 0.028992488509220364 0 -0.073689891110797975 0.029717469101638524 0 -0.077421948111720928 0.02325042978490784 0 -0.075988310582324026 0.023248212901431684 0 -0.077854688180156825 0.024724152624176897 0 -0.074786300243661244 0.030195579119076065 0 -0.075000309625985612 0.027553621978782354 0 -0.077421138659945765 0.027494135509841849 0 -0.076031227394903297 0.025481379307872035 0 -0.074999991722891374 0.027545805275595459 0 -0.077421138659945765 0.027494135509841849 0 -0.078236901735315834 0.026222544573484476 0 -0.076031227394903297 0.025481379307872035 0 -0.077434719951018013 0.027539995015864058 0 -0.074999987136060098 0.027545962713161724 0 -0.076951815225722919 0.029786804379388472 0 -0.074999987136060098 0.027545962713161724 0 -0.076951815225722919 0.029786804379388472 0 -0.074999983010276425 0.031062841254241212 0 -0.079863155643542155 0.027515865098214694 0 -0.078547854499038533 0.029293310084735569 0 -0.080211427865625906 0.031008770188105234 0 -0.077434719951018013 0.027539995015864058 0 -0.076951815225722919 0.029786804379388472 0 -0.078547854499038533 0.029293310084735569 0 -0.076951815225722919 0.029786804379388472 0 -0.078547854499038533 0.029293310084735569 0 -0.078412221206616728 0.031029309507613349 0 -0.078547854499038533 0.029293310084735569 0 -0.078412221206616728 0.031029309507613349 0 -0.080211427865625906 0.031008770188105234 0 -0.076951815225722919 0.029786804379388472 0 -0.078412221206616728 0.031029309507613349 0 -0.077006237868352478 0.032387165805661491 0 -0.078412221206616728 0.031029309507613349 0 -0.079030106907369502 0.032794477906166491 0 -0.080211427865625906 0.031008770188105234 0 -0.078412221206616728 0.031029309507613349 0 -0.079030106907369502 0.032794477906166491 0 -0.077006237868352478 0.032387165805661491 0 -0.074999983010276425 0.031062841254241212 0 -0.077006237868352478 0.032387165805661491 0 -0.074999980100245667 0.03457979684211087 0 -0.076951815225722919 0.029786804379388472 0 -0.074999983010276425 0.031062841254241212 0 -0.077006237868352478 0.032387165805661491 0 -0.077006237868352478 0.032387165805661491 0 -0.074999980100245667 0.03457979684211087 0 -0.077459837398694581 0.035606688092926622 0 -0.079030106907369502 0.032794477906166491 0 -0.077459837398694581 0.035606688092926622 0 -0.080552193090851876 0.034521025153700306 0 -0.079030106907369502 0.032794477906166491 0 -0.077006237868352478 0.032387165805661491 0 -0.077459837398694581 0.035606688092926622 0 -0.076940803742380784 0.038215963180784719 0 -0.078695707270347942 0.037983058113362056 0 -0.077459837398694581 0.035606688092926622 0 -0.078695707270347942 0.037983058113362056 0 -0.077459837398694581 0.035606688092926622 0 -0.080552193090851876 0.034521025153700306 0 -0.074999987020321568 0.038096731270136408 0 -0.074999980100245667 0.03457979684211087 0 -0.077459837398694581 0.035606688092926622 0 -0.074999987020321568 0.038096731270136408 0 -0.076940803742380784 0.038215963180784719 0 -0.077459837398694581 0.035606688092926622 0 -0.061372324615862464 0.047589960725691403 0 -0.061590371879833697 0.048095983526604602 0 -0.061196399880629353 0.048113324180384671 0 -0.061590371879833697 0.048095983526604602 0 -0.061431715105526287 0.048464523129376678 0 -0.061196399880629353 0.048113324180384671 0 -0.072731446833658786 0.042634281288764155 0 -0.072124633796957049 0.041028401923375209 0 -0.061858772717385026 0.047813071057859868 0 -0.061590371879833697 0.048095983526604602 0 -0.061873927098493035 0.048341227399585893 0 -0.080882572835921845 0.038034876954203968 0 -0.078695707270347942 0.037983058113362056 0 -0.080552193090851876 0.034521025153700306 0 -0.061590371879833697 0.048095983526604602 0 -0.061873927098493035 0.048341227399585893 0 -0.061431715105526287 0.048464523129376678 0 -0.061873927098493035 0.048341227399585893 0 -0.061431715105526287 0.048464523129376678 0 -0.06168380751744218 0.048640100628740503 0 -0.061431715105526287 0.048464523129376678 0 -0.061466026122962113 0.048762033376034485 0 -0.06168380751744218 0.048640100628740503 0 -0.061466026122962113 0.048762033376034485 0 -0.06168380751744218 0.048640100628740503 0 -0.061744359680654427 0.048795715876446939 0 -0.061873927098493035 0.048341227399585893 0 -0.06168380751744218 0.048640100628740503 0 -0.061836158414897265 0.048763033331960692 0 -0.079030106907369502 0.032794477906166491 0 -0.080552193090851876 0.034521025153700306 0 -0.080211427865625906 0.031008770188105234 0 -0.072124633796957049 0.041028401923375209 0 -0.071901516299686774 0.038654533529047699 0 -0.06168380751744218 0.048640100628740503 0 -0.061744359680654427 0.048795715876446939 0 -0.061836158414897265 0.048763033331960692 0 -0.061830870366806394 0.049230076509688636 0 -0.061792531509345681 0.04923262154761994 0 -0.061744359680654427 0.048795715876446939 0 -0.070446638942756615 0.033918023568872635 0 -0.069696157619508675 0.04073949424997822 0 -0.061833047891449847 0.048788163066048287 0 -0.061744359680654427 0.048795715876446939 0 -0.061836158414897265 0.048763033331960692 0 -0.061814967250130436 0.048784295950190695 0 -0.061833047891449847 0.048788163066048287 0 -0.061744359680654427 0.048795715876446939 0 -0.071882931422144553 0.033471050089428939 0 -0.071901516299686774 0.038654533529047699 0 -0.07022099597730376 0.033897129543253121 0 -0.067828236370329559 0.039547302204938552 0 -0.061792531509345681 0.04923262154761994 0 -0.061744359680654427 0.048795715876446939 0 -0.061414525347329128 0.049011356711160491 0 -0.061466026122962113 0.048762033376034485 0 -0.061744359680654427 0.048795715876446939 0 -0.061414525347329128 0.049011356711160491 0 -0.067828236370329559 0.039547302204938552 0 -0.066901576412788807 0.041068923045508542 0 -0.061524066909792133 0.049155414868741733 0 -0.060947458793732326 0.049235278244034487 0 -0.06125674002424402 0.049550677114761542 0 -0.061524066909792133 0.049155414868741733 0 -0.060947458793732326 0.049235278244034487 0 -0.061005651135225047 0.04884405270607 0 -0.060947458793732326 0.049235278244034487 0 -0.061005651135225047 0.04884405270607 0 -0.060478607118656331 0.049046486487711372 0 -0.060947458793732326 0.049235278244034487 0 -0.060478607118656331 0.049046486487711372 0 -0.060507991383841282 0.049578700773815848 0 -0.061005651135225047 0.04884405270607 0 -0.060490619588268374 0.048530953648364183 0 -0.060478607118656331 0.049046486487711372 0 -0.061466026122962113 0.048762033376034485 0 -0.061414525347329128 0.049011356711160491 0 -0.061005651135225047 0.04884405270607 0 -0.061431715105526287 0.048464523129376678 0 -0.061466026122962113 0.048762033376034485 0 -0.061005651135225047 0.04884405270607 0 -0.061431715105526287 0.048464523129376678 0 -0.061005651135225047 0.04884405270607 0 -0.06100732623189993 0.048453705975444586 0 -0.061431715105526287 0.048464523129376678 0 -0.06100732623189993 0.048453705975444586 0 -0.061196399880629353 0.048113324180384671 0 -0.061005651135225047 0.04884405270607 0 -0.06100732623189993 0.048453705975444586 0 -0.060490619588268374 0.048530953648364183 0 -0.06100732623189993 0.048453705975444586 0 -0.060490619588268374 0.048530953648364183 0 -0.060806865810248849 0.048192954782262931 0 -0.060922730519073737 0.047744413603147171 0 -0.060806865810248849 0.048192954782262931 0 -0.060507910097527269 0.047972925730987881 0 -0.060490619588268374 0.048530953648364183 0 -0.060806865810248849 0.048192954782262931 0 -0.060507910097527269 0.047972925730987881 0 -0.060922730519073737 0.047744413603147171 0 -0.060806865810248849 0.048192954782262931 0 -0.061196399880629353 0.048113324180384671 0 -0.06100732623189993 0.048453705975444586 0 -0.060806865810248849 0.048192954782262931 0 -0.061196399880629353 0.048113324180384671 0 -0.059632327663418007 0.048240178893695508 0 -0.06012599895366201 0.048249419248769222 0 -0.059889209223157949 0.048525175520913087 0 -0.059984050647599166 0.047979266668591376 0 -0.059632327663418007 0.048240178893695508 0 -0.06012599895366201 0.048249419248769222 0 -0.059447104007595668 0.04804494772580746 0 -0.059984050647599166 0.047979266668591376 0 -0.059632327663418007 0.048240178893695508 0 -0.059984050647599166 0.047979266668591376 0 -0.060507910097527269 0.047972925730987881 0 -0.06012599895366201 0.048249419248769222 0 -0.060490619588268374 0.048530953648364183 0 -0.060507910097527269 0.047972925730987881 0 -0.06012599895366201 0.048249419248769222 0 -0.060490619588268374 0.048530953648364183 0 -0.059889209223157949 0.048525175520913087 0 -0.059983499696179825 0.048878780584355769 0 -0.060490619588268374 0.048530953648364183 0 -0.06012599895366201 0.048249419248769222 0 -0.059889209223157949 0.048525175520913087 0 -0.059889209223157949 0.048525175520913087 0 -0.059632271454113518 0.04870567929809895 0 -0.059378163210528363 0.048416215459306564 0 -0.059632327663418007 0.048240178893695508 0 -0.059889209223157949 0.048525175520913087 0 -0.059378163210528363 0.048416215459306564 0 -0.059889209223157949 0.048525175520913087 0 -0.059632271454113518 0.04870567929809895 0 -0.059983499696179825 0.048878780584355769 0 -0.059632271454113518 0.04870567929809895 0 -0.059983499696179825 0.048878780584355769 0 -0.059476246808895794 0.048914212262323876 0 -0.059983499696179825 0.048878780584355769 0 -0.059573451305857103 0.049232858847128608 0 -0.059476246808895794 0.048914212262323876 0 -0.060490619588268374 0.048530953648364183 0 -0.059983499696179825 0.048878780584355769 0 -0.060478607118656331 0.049046486487711372 0 -0.060478607118656331 0.049046486487711372 0 -0.060065532476777109 0.049264774443384049 0 -0.060507991383841282 0.049578700773815848 0 -0.059983499696179825 0.048878780584355769 0 -0.060478607118656331 0.049046486487711372 0 -0.060065532476777109 0.049264774443384049 0 -0.059983499696179825 0.048878780584355769 0 -0.060065532476777109 0.049264774443384049 0 -0.059573451305857103 0.049232858847128608 0 -0.060065532476777109 0.049264774443384049 0 -0.059795998464583541 0.049597280104231173 0 -0.059573451305857103 0.049232858847128608 0 -0.075959442071789451 0.0081425906807038907 0 -0.075824448622123022 0.0079286836690795597 0 -0.076265001896999293 0.0079712823633070907 0 -0.075824448622123022 0.0079286836690795597 0 -0.076152452691664582 0.0077372774783066658 0 -0.075759001361793088 0.0078257593261157575 0 -0.075824448622123022 0.0079286836690795597 0 -0.076152452691664582 0.0077372774783066658 0 -0.076265001896999293 0.0079712823633070907 0 -0.075824448622123022 0.0079286836690795597 0 -0.076065754772516952 0.0078655686798124753 0 -0.075818847058696584 0.0079712062157597414 0 -0.075824448622123022 0.0079286836690795597 0 -0.075954071305644744 0.0075612544252960856 0 -0.076065754772516952 0.0078655686798124753 0 -0.075824448622123022 0.0079286836690795597 0 -0.075759001361793088 0.0078257593261157575 0 -0.075818847058696584 0.0079712062157597414 0 -0.075959442071789451 0.0081425906807038907 0 -0.075824448622123022 0.0079286836690795597 0 -0.075954071305644744 0.0075612544252960856 0 -0.067692871724645276 0.029568214380805848 0 -0.068503393146471914 0.029967804816964483 0 -0.060065532476777109 0.049264774443384049 0 -0.059795998464583541 0.049597280104231173 0 -0.060507991383841282 0.049578700773815848 0 -0.068503393146471914 0.029967804816964483 0 -0.069371969153759011 0.03114523602149381 0 -0.075954071305644744 0.0075612544252960856 0 -0.076778803332999371 0.0077567590045350791 0 -0.076065754772516952 0.0078655686798124753 0 -0.060947458793732326 0.049235278244034487 0 -0.060507991383841282 0.049578700773815848 0 -0.06125674002424402 0.049550677114761542 0 -0.075954071305644744 0.0075612544252960856 0 -0.077179197877138936 0.0070492591476830086 0 -0.076778803332999371 0.0077567590045350791 0 -0.078354752446864503 0.0077949254422852174 0 -0.077179197877138936 0.0070492591476830086 0 -0.076778803332999371 0.0077567590045350791 0 -0.078354752446864503 0.0077949254422852174 0 -0.076778803332999371 0.0077567590045350791 0 -0.077433699974918765 0.0083824252252760311 0 -0.076778803332999371 0.0077567590045350791 0 -0.077433699974918765 0.0083824252252760311 0 -0.076434253047929904 0.008217112713485698 0 -0.076778803332999371 0.0077567590045350791 0 -0.076065754772516952 0.0078655686798124753 0 -0.076434253047929904 0.008217112713485698 0 -0.076065754772516952 0.0078655686798124753 0 -0.076434253047929904 0.008217112713485698 0 -0.075818847058696584 0.0079712062157597414 0 -0.076434253047929904 0.008217112713485698 0 -0.076017232529232634 0.0081849205119729502 0 -0.075818847058696584 0.0079712062157597414 0 -0.076434253047929904 0.008217112713485698 0 -0.076471180825420301 0.0085521244707053041 0 -0.077146214659038342 0.0090214333398240341 0 -0.076434253047929904 0.008217112713485698 0 -0.076471180825420301 0.0085521244707053041 0 -0.076017232529232634 0.0081849205119729502 0 -0.076471180825420301 0.0085521244707053041 0 -0.076017232529232634 0.0081849205119729502 0 -0.076051696919670703 0.0083793941595015232 0 -0.077433699974918765 0.0083824252252760311 0 -0.076434253047929904 0.008217112713485698 0 -0.077146214659038342 0.0090214333398240341 0 -0.077770451684695582 0.0091087020299060184 0 -0.077433699974918765 0.0083824252252760311 0 -0.077146214659038342 0.0090214333398240341 0 -0.076471180825420301 0.0085521244707053041 0 -0.077146214659038342 0.0090214333398240341 0 -0.07683508985907854 0.0091934802348448766 0 -0.077997455709696364 0.010017607806521989 0 -0.077770451684695582 0.0091087020299060184 0 -0.077146214659038342 0.0090214333398240341 0 -0.077492212855535439 0.0098697425396941131 0 -0.077515351726553772 0.010312574834757466 0 -0.078349447152646676 0.011427639335378983 0 -0.077997455709696364 0.010017607806521989 0 -0.077146214659038342 0.0090214333398240341 0 -0.077492212855535439 0.0098697425396941131 0 -0.077146214659038342 0.0090214333398240341 0 -0.077492212855535439 0.0098697425396941131 0 -0.07683508985907854 0.0091934802348448766 0 -0.077492212855535439 0.0098697425396941131 0 -0.07683508985907854 0.0091934802348448766 0 -0.077515351726553772 0.010312574834757466 0 -0.076051696919670703 0.0083793941595015232 0 -0.07683508985907854 0.0091934802348448766 0 -0.076336988307105419 0.0091484412320016265 0 -0.076471180825420301 0.0085521244707053041 0 -0.076051696919670703 0.0083793941595015232 0 -0.07683508985907854 0.0091934802348448766 0 -0.07683508985907854 0.0091934802348448766 0 -0.076336988307105419 0.0091484412320016265 0 -0.077515351726553772 0.010312574834757466 0 -0.076051696919670703 0.0083793941595015232 0 -0.076336988307105419 0.0091484412320016265 0 -0.075550459334895237 0.0078936516407824443 0 -0.0747467623316867 0.0067944088394109904 0 -0.075897992447470877 0.0074459969749702528 0 -0.075423893871068695 0.0077985907064812036 0 -0.076336988307105419 0.0091484412320016265 0 -0.075550459334895237 0.0078936516407824443 0 -0.0747467623316867 0.0067944088394109904 0 -0.075550459334895237 0.0078936516407824443 0 -0.0747467623316867 0.0067944088394109904 0 -0.075423893871068695 0.0077985907064812036 0 -0.076051696919670703 0.0083793941595015232 0 -0.075550459334895237 0.0078936516407824443 0 -0.075423893871068695 0.0077985907064812036 0 -0.0747467623316867 0.0067944088394109904 0 -0.075897992447470877 0.0074459969749702528 0 -0.076756352789586701 0.0063820633892869537 0 -0.0747467623316867 0.0067944088394109904 0 -0.076756352789586701 0.0063820633892869537 0 -0.074773325526852161 0.004504852595660057 0 -0.075897992447470877 0.0074459969749702528 0 -0.075759001361793088 0.0078257593261157575 0 -0.075423893871068695 0.0077985907064812036 0 -0.075897992447470877 0.0074459969749702528 0 -0.076152452691664582 0.0077372774783066658 0 -0.075759001361793088 0.0078257593261157575 0 -0.075759001361793088 0.0078257593261157575 0 -0.075818847058696584 0.0079712062157597414 0 -0.075423893871068695 0.0077985907064812036 0 -0.076017232529232634 0.0081849205119729502 0 -0.075818847058696584 0.0079712062157597414 0 -0.075423893871068695 0.0077985907064812036 0 -0.076017232529232634 0.0081849205119729502 0 -0.076051696919670703 0.0083793941595015232 0 -0.075423893871068695 0.0077985907064812036 0 -0.077181250989747763 0.0073052798468567926 0 -0.076848199064351128 0.0076469198778001488 0 -0.076754701768691133 0.0072271744491450131 0 -0.077181250989747763 0.0073052798468567926 0 -0.076848199064351128 0.0076469198778001488 0 -0.077234166264590801 0.0076317860274205274 0 -0.075897992447470877 0.0074459969749702528 0 -0.076152452691664582 0.0077372774783066658 0 -0.076754701768691133 0.0072271744491450131 0 -0.076152452691664582 0.0077372774783066658 0 -0.076848199064351128 0.0076469198778001488 0 -0.076754701768691133 0.0072271744491450131 0 -0.076754701768691133 0.0072271744491450131 0 -0.076756352789586701 0.0063820633892869537 0 -0.077124566958116675 0.0068756907539763348 0 -0.073720843582859283 0.0042782360521650686 0 -0.073135751338400168 0.0045540561663237212 0 -0.075897992447470877 0.0074459969749702528 0 -0.076754701768691133 0.0072271744491450131 0 -0.076756352789586701 0.0063820633892869537 0 -0.077181250989747763 0.0073052798468567926 0 -0.076754701768691133 0.0072271744491450131 0 -0.077124566958116675 0.0068756907539763348 0 -0.073135751338400168 0.0045540561663237212 0 -0.070713782761693267 0.0051448636294960468 0 -0.077181250989747763 0.0073052798468567926 0 -0.077124566958116675 0.0068756907539763348 0 -0.077651491963298264 0.0070228520233009311 0 -0.071387791839299275 -0.00039287145746039448 0 -0.070168960480814141 -0.00065306496560710477 0 -0.07072603285167009 0.00028115141777675703 0 -0.070730181151576962 0.00067589834497281157 0 -0.069764252259469167 0.0014894970732581086 0 -0.071193000144982324 0.0019982423435756583 0 -0.070730181151576962 0.00067589834497281157 0 -0.071193000144982324 0.0019982423435756583 0 -0.071818019862619861 -6.7093991316327111e-05 0 -0.070730181151576962 0.00067589834497281157 0 -0.069764252259469167 0.0014894970732581086 0 -0.070160818128154723 -0.00016756872166603777 0 -0.070713782761693267 0.0051448636294960468 0 -0.07075252593279116 0.0041192414209685968 0 -0.068956053562820238 0.0019082341623075086 0 -0.071193000144982324 0.0019982423435756583 0 -0.069737013918118762 0.0032961850441147605 0 -0.070713782761693267 0.0051448636294960468 0 -0.070647806133515623 0.0049227221888525075 0 -0.069737013918118762 0.0032961850441147605 0 -0.069387632234859817 0.0049496889039812256 0 -0.073429922994602839 0.0035892713091732966 0 -0.068956053562820238 0.0019082341623075086 0 -0.069737013918118762 0.0032961850441147605 0 -0.069000291770580605 0.0052895747613395166 0 -0.070713782761693267 0.0051448636294960468 0 -0.066252111556950544 0.010692336394356227 0 -0.069737013918118762 0.0032961850441147605 0 -0.069387632234859817 0.0049496889039812256 0 -0.069000291770580605 0.0052895747613395166 0 -0.069387632234859817 0.0049496889039812256 0 -0.068400651517574254 0.0048525231933286544 0 -0.06756862261123639 0.0054768526559568322 0 -0.077181250989747763 0.0073052798468567926 0 -0.077651491963298264 0.0070228520233009311 0 -0.07741208481561003 0.0074100984252726456 0 -0.077651491963298264 0.0070228520233009311 0 -0.07741208481561003 0.0074100984252726456 0 -0.077573576955049656 0.0076960383939346936 0 -0.07741208481561003 0.0074100984252726456 0 -0.077234166264590801 0.0076317860274205274 0 -0.077573576955049656 0.0076960383939346936 0 -0.077181250989747763 0.0073052798468567926 0 -0.07741208481561003 0.0074100984252726456 0 -0.077234166264590801 0.0076317860274205274 0 -0.066252111556950544 0.010692336394356227 0 -0.057147640301512259 0.03003342847486052 0 -0.077234166264590801 0.0076317860274205274 0 -0.077573576955049656 0.0076960383939346936 0 -0.077138101525850669 0.0080168041331307258 0 -0.077573576955049656 0.0076960383939346936 0 -0.077138101525850669 0.0080168041331307258 0 -0.077462153613422013 0.0084484430821799156 0 -0.069000291770580605 0.0052895747613395166 0 -0.068796557259571595 0.0039718263295732831 0 -0.069650719148431378 0.0029620588190496307 0 -0.068400651517574254 0.0048525231933286544 0 -0.068375066354812553 0.0043858225651798484 0 -0.067595174005396219 0.0044701158598168004 0 -0.069387632234859817 0.0049496889039812256 0 -0.068400651517574254 0.0048525231933286544 0 -0.068834274040748197 0.0048428936701486952 0 -0.068400651517574254 0.0048525231933286544 0 -0.068834274040748197 0.0048428936701486952 0 -0.068375066354812553 0.0043858225651798484 0 -0.069000291770580605 0.0052895747613395166 0 -0.068834274040748197 0.0048428936701486952 0 -0.068796557259571595 0.0039718263295732831 0 -0.069387632234859817 0.0049496889039812256 0 -0.069000291770580605 0.0052895747613395166 0 -0.068834274040748197 0.0048428936701486952 0 -0.068375066354812553 0.0043858225651798484 0 -0.06771122965654218 0.0034960294584288234 0 -0.067595174005396219 0.0044701158598168004 0 -0.068796557259571595 0.0039718263295732831 0 -0.068375066354812553 0.0043858225651798484 0 -0.06771122965654218 0.0034960294584288234 0 -0.068834274040748197 0.0048428936701486952 0 -0.068796557259571595 0.0039718263295732831 0 -0.068375066354812553 0.0043858225651798484 0 -0.052909265303746345 0.03229664044496975 0 -0.056438944453929295 0.028074147346357957 0 -0.068796557259571595 0.0039718263295732831 0 -0.068438667287169228 0.0029297173193266338 0 -0.06771122965654218 0.0034960294584288234 0 -0.068796557259571595 0.0039718263295732831 0 -0.068438667287169228 0.0029297173193266338 0 -0.069650719148431378 0.0029620588190496307 0 -0.052909265303746345 0.03229664044496975 0 -0.045890746654198275 0.046613829362390176 0 -0.052909265303746345 0.03229664044496975 0 -0.057147640301512259 0.03003342847486052 0 -0.052522956405853354 0.03358017281052178 0 -0.053974243125213164 0.033568359655523211 0 -0.054098618148744525 0.032025891020687085 0 -0.057147640301512259 0.03003342847486052 0 -0.06577002598314205 0.02958902001297951 0 -0.058309087145782978 0.049603869589737358 0 -0.059080546248404933 0.049606776849227402 0 -0.058482501522692069 0.049283771844922525 0 -0.077138101525850669 0.0080168041331307258 0 -0.077462153613422013 0.0084484430821799156 0 -0.076688605853060449 0.0084043918182995486 0 -0.057147640301512259 0.03003342847486052 0 -0.045890746654198275 0.046613829362390176 0 -0.076848199064351128 0.0076469198778001488 0 -0.077138101525850669 0.0080168041331307258 0 -0.076688605853060449 0.0084043918182995486 0 -0.076848199064351128 0.0076469198778001488 0 -0.077234166264590801 0.0076317860274205274 0 -0.077138101525850669 0.0080168041331307258 0 -0.076152452691664582 0.0077372774783066658 0 -0.076848199064351128 0.0076469198778001488 0 -0.076265001896999293 0.0079712823633070907 0 -0.076848199064351128 0.0076469198778001488 0 -0.076688605853060449 0.0084043918182995486 0 -0.076265001896999293 0.0079712823633070907 0 -0.067692871724645276 0.029568214380805848 0 -0.06577002598314205 0.02958902001297951 0 -0.059795998464583541 0.049597280104231173 0 -0.059080546248404933 0.049606776849227402 0 -0.059573451305857103 0.049232858847128608 0 -0.075959442071789451 0.0081425906807038907 0 -0.076688605853060449 0.0084043918182995486 0 -0.076265001896999293 0.0079712823633070907 0 -0.059080546248404933 0.049606776849227402 0 -0.059573451305857103 0.049232858847128608 0 -0.05914889463255045 0.049109715457617047 0 -0.059573451305857103 0.049232858847128608 0 -0.05914889463255045 0.049109715457617047 0 -0.059476246808895794 0.048914212262323876 0 -0.059080546248404933 0.049606776849227402 0 -0.058862549940756188 0.049228521273490221 0 -0.058482501522692069 0.049283771844922525 0 -0.059080546248404933 0.049606776849227402 0 -0.058862549940756188 0.049228521273490221 0 -0.05914889463255045 0.049109715457617047 0 -0.058862549940756188 0.049228521273490221 0 -0.05914889463255045 0.049109715457617047 0 -0.058737619565421333 0.048921133861715031 0 -0.058737619565421333 0.048921133861715031 0 -0.059216986099622983 0.048808208436642339 0 -0.059098661439652762 0.048605567326735995 0 -0.05914889463255045 0.049109715457617047 0 -0.058737619565421333 0.048921133861715031 0 -0.059216986099622983 0.048808208436642339 0 -0.050894519374992085 0.052330748996381495 0 -0.050636215843495633 0.052366724051659555 0 -0.028925070048422843 0.056588740407090068 0 -0.028154246312087003 0.057444935526800266 0 -0.028847367192881761 0.057600152331805848 0 -0.046761669044485817 0.050918913654423269 0 -0.050636215843495633 0.052366724051659555 0 -0.05914889463255045 0.049109715457617047 0 -0.059476246808895794 0.048914212262323876 0 -0.059216986099622983 0.048808208436642339 0 -0.059216986099622983 0.048808208436642339 0 -0.059370186813457959 0.048643899773683469 0 -0.059139956825301689 0.048660550679589028 0 -0.059476246808895794 0.048914212262323876 0 -0.059216986099622983 0.048808208436642339 0 -0.059370186813457959 0.048643899773683469 0 -0.059632271454113518 0.04870567929809895 0 -0.059476246808895794 0.048914212262323876 0 -0.059370186813457959 0.048643899773683469 0 -0.059632271454113518 0.04870567929809895 0 -0.059378163210528363 0.048416215459306564 0 -0.059370186813457959 0.048643899773683469 0 -0.059378163210528363 0.048416215459306564 0 -0.059072916281265049 0.048660428297552683 0 -0.059122467534692733 0.048328246979722621 0 -0.059378163210528363 0.048416215459306564 0 -0.059370186813457959 0.048643899773683469 0 -0.059139956825301689 0.048660550679589028 0 -0.052866973576337045 0.050581717291743954 0 -0.050636215843495633 0.052366724051659555 0 -0.028154246312087003 0.057444935526800266 0 -0.028847367192881761 0.057600152331805848 0 -0.028780963511084605 0.058663421665894749 0 -0.050636215843495633 0.052366724051659555 0 -0.04634613501177804 0.052933430441152271 0 -0.059072916281265049 0.048660428297552683 0 -0.059122467534692733 0.048328246979722621 0 -0.058928783630770754 0.048133804563740862 0 -0.059122467534692733 0.048328246979722621 0 -0.058928783630770754 0.048133804563740862 0 -0.059136798707974565 0.048157967543498693 0 -0.05898282615437208 0.048019989967903701 0 -0.058928783630770754 0.048133804563740862 0 -0.059136798707974565 0.048157967543498693 0 -0.059447104007595668 0.04804494772580746 0 -0.059632327663418007 0.048240178893695508 0 -0.059136798707974565 0.048157967543498693 0 -0.059632327663418007 0.048240178893695508 0 -0.059378163210528363 0.048416215459306564 0 -0.059136798707974565 0.048157967543498693 0 -0.059378163210528363 0.048416215459306564 0 -0.059122467534692733 0.048328246979722621 0 -0.059136798707974565 0.048157967543498693 0 -0.029175960370434635 0.058959623438588134 0 -0.029301849972624749 0.059215513328689212 0 -0.029569384307520034 0.05893051902573504 0 -0.029175960370434635 0.058959623438588134 0 -0.029301849972624749 0.059215513328689212 0 -0.029182714405231357 0.059125022118257105 0 -0.0292193420321534 0.059310436349509096 0 -0.029301849972624749 0.059215513328689212 0 -0.029182714405231357 0.059125022118257105 0 -0.035225953231744697 0.058377190848742017 0 -0.037393151882301703 0.056728482769870928 0 -0.0292193420321534 0.059310436349509096 0 -0.029182714405231357 0.059125022118257105 0 -0.029058646365970175 0.05908754318713174 0 -0.043737995941200154 0.05437160592864769 0 -0.04634613501177804 0.052933430441152271 0 -0.029175960370434635 0.058959623438588134 0 -0.029182714405231357 0.059125022118257105 0 -0.029058646365970175 0.05908754318713174 0 -0.029105053323692145 0.059443567525119943 0 -0.028780963511084605 0.058663421665894749 0 -0.029058646365970175 0.05908754318713174 0 -0.029175960370434635 0.058959623438588134 0 -0.029058646365970175 0.05908754318713174 0 -0.029063052771141466 0.058737311264230194 0 -0.028780963511084605 0.058663421665894749 0 -0.029058646365970175 0.05908754318713174 0 -0.029534612806297121 0.057614108793224005 0 -0.028847367192881761 0.057600152331805848 0 -0.028780963511084605 0.058663421665894749 0 -0.029534612806297121 0.057614108793224005 0 -0.029175960370434635 0.058959623438588134 0 -0.029315473346011974 0.058699206522608786 0 -0.029569384307520034 0.05893051902573504 0 -0.029175960370434635 0.058959623438588134 0 -0.029063052771141466 0.058737311264230194 0 -0.029315473346011974 0.058699206522608786 0 -0.029315473346011974 0.058699206522608786 0 -0.029260759674199804 0.058432763075329353 0 -0.029502841653844963 0.05834875710962318 0 -0.029063052771141466 0.058737311264230194 0 -0.029315473346011974 0.058699206522608786 0 -0.029260759674199804 0.058432763075329353 0 -0.029063052771141466 0.058737311264230194 0 -0.029260759674199804 0.058432763075329353 0 -0.029129252313041577 0.058230391971663041 0 -0.037393151882301703 0.056728482769870928 0 -0.045890746654198275 0.046613829362390176 0 -0.028925070048422843 0.056588740407090068 0 -0.029534612806297121 0.057614108793224005 0 -0.029860702517915488 0.055658921465935457 0 -0.028925070048422843 0.056588740407090068 0 -0.028847367192881761 0.057600152331805848 0 -0.029534612806297121 0.057614108793224005 0 -0.058737619565421333 0.048921133861715031 0 -0.058346384045157282 0.049245294170758645 0 -0.058482501522692069 0.049283771844922525 0 -0.046761669044485817 0.050918913654423269 0 -0.045890746654198275 0.046613829362390176 0 -0.058862549940756188 0.049228521273490221 0 -0.058737619565421333 0.048921133861715031 0 -0.058482501522692069 0.049283771844922525 0 -0.058309087145782978 0.049603869589737358 0 -0.058334076423421907 0.049239149368092254 0 -0.058482501522692069 0.049283771844922525 0 -0.045890746654198275 0.046613829362390176 0 -0.046327314208807362 0.046728175739547601 0 -0.033774963883924362 0.059656367574717421 0 -0.03458142495281151 0.058874408110739559 0 -0.033065537585694971 0.058538347668144516 0 -0.029260759674199804 0.058432763075329353 0 -0.029129252313041577 0.058230391971663041 0 -0.029502841653844963 0.05834875710962318 0 -0.045890746654198275 0.046613829362390176 0 -0.035514909452054474 0.051625033923483318 0 -0.029502841653844963 0.05834875710962318 0 -0.029918474381693524 0.058436460515309277 0 -0.029569384307520034 0.05893051902573504 0 -0.029315473346011974 0.058699206522608786 0 -0.029502841653844963 0.05834875710962318 0 -0.029569384307520034 0.05893051902573504 0 -0.033065537585694971 0.058538347668144516 0 -0.031677774664899988 0.058343863144825946 0 -0.032153758219700797 0.059640923705665275 0 -0.031677774664899988 0.058343863144825946 0 -0.031206493400341491 0.058997204311359644 0 -0.032153758219700797 0.059640923705665275 0 -0.035514909452054474 0.051625033923483318 0 -0.032636801812263007 0.054345119161231539 0 -0.029918474381693524 0.058436460515309277 0 -0.029569384307520034 0.05893051902573504 0 -0.030092196252429048 0.058783262402735022 0 -0.029569384307520034 0.05893051902573504 0 -0.029892758865643524 0.059049078498094244 0 -0.030092196252429048 0.058783262402735022 0 -0.029814332215784771 0.059410084323387562 0 -0.029569384307520034 0.05893051902573504 0 -0.029892758865643524 0.059049078498094244 0 -0.029727027640205475 0.059459373384648878 0 -0.02961189874072297 0.059205572887765914 0 -0.029441141073230082 0.059343484304303001 0 -0.029675775710908219 0.059393117179111207 0 -0.029569384307520034 0.05893051902573504 0 -0.029441141073230082 0.059343484304303001 0 -0.029301849972624749 0.059215513328689212 0 -0.029569384307520034 0.05893051902573504 0 -0.030268591680680371 0.059329691967897669 0 -0.030183854442258604 0.059070715203686383 0 -0.030534916377672579 0.059076040643350737 0 -0.030183854442258604 0.059070715203686383 0 -0.030420703985286804 0.058851884768349003 0 -0.030534916377672579 0.059076040643350737 0 -0.030532814110919664 0.0594044190559401 0 -0.030268591680680371 0.059329691967897669 0 -0.030534916377672579 0.059076040643350737 0 -0.029814332215784771 0.059410084323387562 0 -0.029892758865643524 0.059049078498094244 0 -0.030183854442258604 0.059070715203686383 0 -0.030268591680680371 0.059329691967897669 0 -0.029814332215784771 0.059410084323387562 0 -0.030183854442258604 0.059070715203686383 0 -0.030183854442258604 0.059070715203686383 0 -0.030092196252429048 0.058783262402735022 0 -0.030420703985286804 0.058851884768349003 0 -0.029892758865643524 0.059049078498094244 0 -0.030183854442258604 0.059070715203686383 0 -0.030092196252429048 0.058783262402735022 0 -0.030420703985286804 0.058851884768349003 0 -0.030561929935182641 0.058775849078652256 0 -0.030534916377672579 0.059076040643350737 0 -0.030092196252429048 0.058783262402735022 0 -0.030420703985286804 0.058851884768349003 0 -0.030536881882316 0.05854768882102946 0 -0.030420703985286804 0.058851884768349003 0 -0.030536881882316 0.05854768882102946 0 -0.030561929935182641 0.058775849078652256 0 -0.030536881882316 0.05854768882102946 0 -0.030684952609061046 0.05883216083251875 0 -0.030509050260744519 0.058603110410032466 0 -0.030536881882316 0.05854768882102946 0 -0.030891892729729625 0.058760082218602995 0 -0.030684952609061046 0.05883216083251875 0 -0.032636801812263007 0.054345119161231539 0 -0.031979396446122285 0.055174701166792392 0 -0.029918474381693524 0.058436460515309277 0 -0.030092196252429048 0.058783262402735022 0 -0.030536881882316 0.05854768882102946 0 -0.031677774664899988 0.058343863144825946 0 -0.030536881882316 0.05854768882102946 0 -0.030891892729729625 0.058760082218602995 0 -0.031677774664899988 0.058343863144825946 0 -0.030891892729729625 0.058760082218602995 0 -0.031206493400341491 0.058997204311359644 0 -0.030891892729729625 0.058760082218602995 0 -0.031206493400341491 0.058997204311359644 0 -0.03085846825691951 0.059063916024127236 0 -0.031206493400341491 0.058997204311359644 0 -0.03085846825691951 0.059063916024127236 0 -0.030867743892199821 0.059505491932034284 0 -0.030684952609061046 0.05883216083251875 0 -0.030701583035833764 0.059346963949236074 0 -0.030509050260744519 0.058603110410032466 0 -0.03837213382197021 0.045839889328244829 0 -0.035392748422828066 0.05165881121094696 0 -0.030684952609061046 0.05883216083251875 0 -0.03085846825691951 0.059063916024127236 0 -0.030701583035833764 0.059346963949236074 0 -0.03837213382197021 0.045839889328244829 0 -0.035049983977220103 0.054738165516625768 0 -0.030891892729729625 0.058760082218602995 0 -0.030684952609061046 0.05883216083251875 0 -0.03085846825691951 0.059063916024127236 0 -0.040229289628262228 0.041722265199259638 0 -0.042970384931658584 0.035614367576202254 0 -0.060904326145866973 0.0021858586144198502 0 -0.060315597376294161 0.0036267251412630572 0 -0.056905052715939881 0.0022504453659955618 0 -0.031380122276007193 0.058834896098420991 0 -0.031406661461084492 0.058839926659806967 0 -0.031259807545647104 0.058880348398163189 0 -0.03085846825691951 0.059063916024127236 0 -0.030701583035833764 0.059346963949236074 0 -0.030867743892199821 0.059505491932034284 0 -0.03837213382197021 0.045839889328244829 0 -0.040229289628262228 0.041722265199259638 0 -0.060904326145866973 0.0021858586144198502 0 -0.060315597376294161 0.0036267251412630572 0 -0.06159245296326446 0.0026245149831573525 0 -0.060315597376294161 0.0036267251412630572 0 -0.061679057139530723 0.0047753096501051261 0 -0.059262918515813015 0.0062394130325643705 0 -0.060315597376294161 0.0036267251412630572 0 -0.059262918515813015 0.0062394130325643705 0 -0.056905052715939881 0.0022504453659955618 0 -0.061679057139530723 0.0047753096501051261 0 -0.063685038805855895 0.0048430756937006955 0 -0.062424544670521033 0.0062602699418664995 0 -0.060315597376294161 0.0036267251412630572 0 -0.061679057139530723 0.0047753096501051261 0 -0.061546158635902487 0.0036946315701676508 0 -0.061679057139530723 0.0047753096501051261 0 -0.061546158635902487 0.0036946315701676508 0 -0.062556411129476797 0.0038991136142354499 0 -0.061679057139530723 0.0047753096501051261 0 -0.062556411129476797 0.0038991136142354499 0 -0.063685038805855895 0.0048430756937006955 0 -0.062556411129476797 0.0038991136142354499 0 -0.063915740015193345 0.0035943203112644576 0 -0.063685038805855895 0.0048430756937006955 0 -0.040229289628262228 0.041722265199259638 0 -0.047921910893314122 0.035521649096718615 0 -0.060929840110695681 0.0021994781060357851 0 -0.06159245296326446 0.0026245149831573525 0 -0.065048759811329973 0.002273893654703507 0 -0.062556411129476797 0.0038991136142354499 0 -0.06159245296326446 0.0026245149831573525 0 -0.063915740015193345 0.0035943203112644576 0 -0.031206493400341491 0.058997204311359644 0 -0.030867743892199821 0.059505491932034284 0 -0.032153758219700797 0.059640923705665275 0 -0.060315597376294161 0.0036267251412630572 0 -0.061546158635902487 0.0036946315701676508 0 -0.06159245296326446 0.0026245149831573525 0 -0.061546158635902487 0.0036946315701676508 0 -0.062556411129476797 0.0038991136142354499 0 -0.06159245296326446 0.0026245149831573525 0 -0.040229289628262228 0.041722265199259638 0 -0.040363754304490955 0.041260262081915848 0 -0.06159245296326446 0.0026245149831573525 0 -0.065048759811329973 0.002273893654703507 0 -0.063915740015193345 0.0035943203112644576 0 -0.065048759811329973 0.002273893654703507 0 -0.065949692839164811 0.0043716473606768991 0 -0.063915740015193345 0.0035943203112644576 0 -0.052909265303746345 0.03229664044496975 0 -0.047921910893314122 0.035521649096718615 0 -0.068780002212976435 0.0024697576082517831 0 -0.065048759811329973 0.002273893654703507 0 -0.06771122965654218 0.0034960294584288234 0 -0.065048759811329973 0.002273893654703507 0 -0.06771122965654218 0.0034960294584288234 0 -0.065949692839164811 0.0043716473606768991 0 -0.033774963883924362 0.059656367574717421 0 -0.033065537585694971 0.058538347668144516 0 -0.032153758219700797 0.059640923705665275 0 -0.065949692839164811 0.0043716473606768991 0 -0.06472197381273849 0.0060722950793988262 0 -0.06756862261123639 0.0054768526559568322 0 -0.06771122965654218 0.0034960294584288234 0 -0.065949692839164811 0.0043716473606768991 0 -0.067595174005396219 0.0044701158598168004 0 -0.065949692839164811 0.0043716473606768991 0 -0.067595174005396219 0.0044701158598168004 0 -0.06756862261123639 0.0054768526559568322 0 -0.068400651517574254 0.0048525231933286544 0 -0.067595174005396219 0.0044701158598168004 0 -0.06756862261123639 0.0054768526559568322 0 -0.065949692839164811 0.0043716473606768991 0 -0.063915740015193345 0.0035943203112644576 0 -0.063685038805855895 0.0048430756937006955 0 -0.065949692839164811 0.0043716473606768991 0 -0.063685038805855895 0.0048430756937006955 0 -0.06472197381273849 0.0060722950793988262 0 -0.068988215557991214 0.0038717229504975298 0 -0.068596916841931588 0.0028106750838825813 0 -0.063685038805855895 0.0048430756937006955 0 -0.06472197381273849 0.0060722950793988262 0 -0.062424544670521033 0.0062602699418664995 0 -0.06472197381273849 0.0060722950793988262 0 -0.06606492810439446 0.007031942617415546 0 -0.062363950160504895 0.0082820441258905138 0 -0.06472197381273849 0.0060722950793988262 0 -0.06606492810439446 0.007031942617415546 0 -0.06756862261123639 0.0054768526559568322 0 -0.068975822063936751 0.0041684801874930155 0 -0.068988215557991214 0.0038717229504975298 0 -0.071193000144982324 0.0019982423435756583 0 -0.069737013918118762 0.0032961850441147605 0 -0.073429922994602839 0.0035892713091732966 0 -0.069387632234859817 0.0049496889039812256 0 -0.06606492810439446 0.007031942617415546 0 -0.06756862261123639 0.0054768526559568322 0 -0.071193000144982324 0.0019982423435756583 0 -0.073830731206972922 0.00060774009399484072 0 -0.071818019862619861 -6.7093991316327111e-05 0 -0.071193000144982324 0.0019982423435756583 0 -0.073429922994602839 0.0035892713091732966 0 -0.073830731206972922 0.00060774009399484072 0 -0.073429922994602839 0.0035892713091732966 0 -0.073830731206972922 0.00060774009399484072 0 -0.076853045487698571 0.0023803728514758017 0 -0.073830731206972922 0.00060774009399484072 0 -0.076853045487698571 0.0023803728514758017 0 -0.076236103296060884 -0.00058052294782836038 0 -0.068596916841931588 0.0028106750838825813 0 -0.067245324274621474 0.00046206924305814052 0 -0.076853045487698571 0.0023803728514758017 0 -0.079159759799913867 -0.00095399458214772749 0 -0.080147475014829106 0.0011881676775251759 0 -0.062363950160504895 0.0082820441258905138 0 -0.059262918515813015 0.0062394130325643705 0 -0.058569765881072711 0.0093906277080552953 0 -0.061679057139530723 0.0047753096501051261 0 -0.059262918515813015 0.0062394130325643705 0 -0.062424544670521033 0.0062602699418664995 0 -0.062363950160504895 0.0082820441258905138 0 -0.059262918515813015 0.0062394130325643705 0 -0.062424544670521033 0.0062602699418664995 0 -0.06472197381273849 0.0060722950793988262 0 -0.062363950160504895 0.0082820441258905138 0 -0.062424544670521033 0.0062602699418664995 0 -0.077771131694513898 -0.0023905981894307522 0 -0.076077985298263734 -0.0032131857011684231 0 -0.076236103296060884 -0.00058052294782836038 0 -0.077771131694513898 -0.0023905981894307522 0 -0.076077985298263734 -0.0032131857011684231 0 -0.077820452616468055 -0.004344790232351947 0 -0.077771131694513898 -0.0023905981894307522 0 -0.079325973872866717 -0.0032627934754846325 0 -0.079159759799913867 -0.00095399458214772749 0 -0.077771131694513898 -0.0023905981894307522 0 -0.079325973872866717 -0.0032627934754846325 0 -0.077820452616468055 -0.004344790232351947 0 -0.079325973872866717 -0.0032627934754846325 0 -0.079159759799913867 -0.00095399458214772749 0 -0.080847086775124782 -0.0026497127760630622 0 -0.076853045487698571 0.0023803728514758017 0 -0.079159759799913867 -0.00095399458214772749 0 -0.076236103296060884 -0.00058052294782836038 0 -0.077771131694513898 -0.0023905981894307522 0 -0.079159759799913867 -0.00095399458214772749 0 -0.076236103296060884 -0.00058052294782836038 0 -0.073830731206972922 0.00060774009399484072 0 -0.07285966156555701 -0.0012356296038077317 0 -0.074376681243373197 -0.0018293733837966434 0 -0.073830731206972922 0.00060774009399484072 0 -0.076236103296060884 -0.00058052294782836038 0 -0.074376681243373197 -0.0018293733837966434 0 -0.073830731206972922 0.00060774009399484072 0 -0.071818019862619861 -6.7093991316327111e-05 0 -0.07285966156555701 -0.0012356296038077317 0 -0.071818019862619861 -6.7093991316327111e-05 0 -0.07285966156555701 -0.0012356296038077317 0 -0.07148455786446424 -0.0019410969542483095 0 -0.07285966156555701 -0.0012356296038077317 0 -0.07148455786446424 -0.0019410969542483095 0 -0.072906517138736263 -0.0029956709546876976 0 -0.07285966156555701 -0.0012356296038077317 0 -0.072906517138736263 -0.0029956709546876976 0 -0.074376681243373197 -0.0018293733837966434 0 -0.072906517138736263 -0.0029956709546876976 0 -0.074309853517692218 -0.0040368327730159722 0 -0.072849772167081384 -0.0048856437070967868 0 -0.07148455786446424 -0.0019410969542483095 0 -0.072906517138736263 -0.0029956709546876976 0 -0.071456520007508781 -0.0044196431538981191 0 -0.076077985298263734 -0.0032131857011684231 0 -0.076236103296060884 -0.00058052294782836038 0 -0.074376681243373197 -0.0018293733837966434 0 -0.072906517138736263 -0.0029956709546876976 0 -0.074376681243373197 -0.0018293733837966434 0 -0.074309853517692218 -0.0040368327730159722 0 -0.076077985298263734 -0.0032131857011684231 0 -0.074376681243373197 -0.0018293733837966434 0 -0.074309853517692218 -0.0040368327730159722 0 -0.076077985298263734 -0.0032131857011684231 0 -0.074309853517692218 -0.0040368327730159722 0 -0.075842424487905222 -0.0053957773081336566 0 -0.074309853517692218 -0.0040368327730159722 0 -0.075842424487905222 -0.0053957773081336566 0 -0.073698127264709118 -0.0062714490226009395 0 -0.074309853517692218 -0.0040368327730159722 0 -0.073698127264709118 -0.0062714490226009395 0 -0.072849772167081384 -0.0048856437070967868 0 -0.075842424487905222 -0.0053957773081336566 0 -0.073698127264709118 -0.0062714490226009395 0 -0.074249199432854671 -0.0083447672525137108 0 -0.071456520007508781 -0.0044196431538981191 0 -0.071915732072329458 -0.0067752465584774661 0 -0.070241136349194724 -0.0076297727612376484 0 -0.071456520007508781 -0.0044196431538981191 0 -0.072849772167081384 -0.0048856437070967868 0 -0.071915732072329458 -0.0067752465584774661 0 -0.072906517138736263 -0.0029956709546876976 0 -0.071456520007508781 -0.0044196431538981191 0 -0.072849772167081384 -0.0048856437070967868 0 -0.073698127264709118 -0.0062714490226009395 0 -0.072849772167081384 -0.0048856437070967868 0 -0.071915732072329458 -0.0067752465584774661 0 -0.071716745755881911 -0.0061689708930280666 0 -0.071097675128051499 -0.004113280353137419 0 -0.071915732072329458 -0.0067752465584774661 0 -0.072289708102546285 -0.0092247643262338922 0 -0.070241136349194724 -0.0076297727612376484 0 -0.072289708102546285 -0.0092247643262338922 0 -0.071868474587040931 -0.010627613581525929 0 -0.070241136349194724 -0.0076297727612376484 0 -0.073698127264709118 -0.0062714490226009395 0 -0.071915732072329458 -0.0067752465584774661 0 -0.072289708102546285 -0.0092247643262338922 0 -0.071844262225709832 -0.01047214974240567 0 -0.070714276299798734 -0.011724892868984127 0 -0.071389662582019425 -0.010700744828868939 0 -0.073698127264709118 -0.0062714490226009395 0 -0.072289708102546285 -0.0092247643262338922 0 -0.074249199432854671 -0.0083447672525137108 0 -0.072132883820696367 -0.011003512687497932 0 -0.072173553551556108 -0.011044901586389405 0 -0.072289708102546285 -0.0092247643262338922 0 -0.071844262225709832 -0.01047214974240567 0 -0.071864175469165806 -0.010373917811981057 0 -0.075842424487905222 -0.0053957773081336566 0 -0.074249199432854671 -0.0083447672525137108 0 -0.078035858413519288 -0.006603445134265638 0 -0.072173553551556108 -0.011044901586389405 0 -0.070479608763848678 -0.011718381130766517 0 -0.072173553551556108 -0.011044901586389405 0 -0.073707145161380272 -0.010373972890330659 0 -0.072924944859758895 -0.011756662046601904 0 -0.071253654939288452 -0.011493901356889212 0 -0.070980435751444027 -0.01224831400716178 0 -0.075842424487905222 -0.0053957773081336566 0 -0.078035858413519288 -0.006603445134265638 0 -0.077820452616468055 -0.004344790232351947 0 -0.076077985298263734 -0.0032131857011684231 0 -0.075842424487905222 -0.0053957773081336566 0 -0.077820452616468055 -0.004344790232351947 0 -0.078035858413519288 -0.006603445134265638 0 -0.079613281934021354 -0.0051807681893464193 0 -0.081346031843008912 -0.0054540351406496147 0 -0.073707145161380272 -0.010373972890330659 0 -0.072589161563891919 -0.010799345895752776 0 -0.079325973872866717 -0.0032627934754846325 0 -0.079613281934021354 -0.0051807681893464193 0 -0.080646234002561254 -0.0039758986623559785 0 -0.079325973872866717 -0.0032627934754846325 0 -0.077820452616468055 -0.004344790232351947 0 -0.079613281934021354 -0.0051807681893464193 0 -0.078035858413519288 -0.006603445134265638 0 -0.077820452616468055 -0.004344790232351947 0 -0.079613281934021354 -0.0051807681893464193 0 -0.070980435751444027 -0.01224831400716178 0 -0.069571911982318768 -0.011230847776747582 0 -0.06902298634080721 -0.012741583496612512 0 -0.071253654939288452 -0.011493901356889212 0 -0.070980435751444027 -0.01224831400716178 0 -0.069571911982318768 -0.011230847776747582 0 -0.070479608763848678 -0.011718381130766517 0 -0.068527288813466897 -0.012443238765223399 0 -0.070714276299798734 -0.011724892868984127 0 -0.070404260771364705 -0.011221763717270433 0 -0.069435418936195564 -0.012543234647343719 0 -0.070404260771364705 -0.011221763717270433 0 -0.069435418936195564 -0.012543234647343719 0 -0.069136049424665322 -0.012109136578202832 0 -0.070714276299798734 -0.011724892868984127 0 -0.070404260771364705 -0.011221763717270433 0 -0.071389662582019425 -0.010700744828868939 0 -0.070404260771364705 -0.011221763717270433 0 -0.071502129307254997 -0.0097233997776334392 0 -0.071389662582019425 -0.010700744828868939 0 -0.070404260771364705 -0.011221763717270433 0 -0.07051801259144197 -0.010738685687001835 0 -0.071502129307254997 -0.0097233997776334392 0 -0.070404260771364705 -0.011221763717270433 0 -0.069771779173666434 -0.011418062245436069 0 -0.07051801259144197 -0.010738685687001835 0 -0.070404260771364705 -0.011221763717270433 0 -0.069771779173666434 -0.011418062245436069 0 -0.069136049424665322 -0.012109136578202832 0 -0.069771779173666434 -0.011418062245436069 0 -0.07051801259144197 -0.010738685687001835 0 -0.070004082624860214 -0.011133444055361133 0 -0.07051801259144197 -0.010738685687001835 0 -0.070664770897736387 -0.010654459884484883 0 -0.07008058747825896 -0.011276973510947119 0 -0.07051801259144197 -0.010738685687001835 0 -0.070004082624860214 -0.011133444055361133 0 -0.07008058747825896 -0.011276973510947119 0 -0.070004082624860214 -0.011133444055361133 0 -0.070024214717715846 -0.011464123017283799 0 -0.07008058747825896 -0.011276973510947119 0 -0.069765449079427888 -0.010904469970359088 0 -0.070664770897736387 -0.010654459884484883 0 -0.069787295166167829 -0.011682003980753999 0 -0.070664770897736387 -0.010654459884484883 0 -0.069787295166167829 -0.011682003980753999 0 -0.07008058747825896 -0.011276973510947119 0 -0.07051801259144197 -0.010738685687001835 0 -0.070664770897736387 -0.010654459884484883 0 -0.071502129307254997 -0.0097233997776334392 0 -0.069765449079427888 -0.010904469970359088 0 -0.070664770897736387 -0.010654459884484883 0 -0.070527536076200339 -0.0085770469197343456 0 -0.070664770897736387 -0.010654459884484883 0 -0.071502129307254997 -0.0097233997776334392 0 -0.070527536076200339 -0.0085770469197343456 0 -0.0719238960595565 -0.0070730452324570597 0 -0.071716745755881911 -0.0061689708930280666 0 -0.071502129307254997 -0.0097233997776334392 0 -0.072538324088102984 -0.0049299922054209201 0 -0.070527536076200339 -0.0085770469197343456 0 -0.071502129307254997 -0.0097233997776334392 0 -0.071389662582019425 -0.010700744828868939 0 -0.071868474587040931 -0.010627613581525929 0 -0.071389662582019425 -0.010700744828868939 0 -0.071864175469165806 -0.010373917811981057 0 -0.071868474587040931 -0.010627613581525929 0 -0.071844262225709832 -0.01047214974240567 0 -0.071389662582019425 -0.010700744828868939 0 -0.071864175469165806 -0.010373917811981057 0 -0.072289708102546285 -0.0092247643262338922 0 -0.071864175469165806 -0.010373917811981057 0 -0.071868474587040931 -0.010627613581525929 0 -0.070811608079628968 -0.0033774193439431205 0 -0.068181878277677813 -0.0063195778595629372 0 -0.071033889526112601 0.00054017523916340918 0 -0.072538324088102984 -0.0049299922054209201 0 -0.070811608079628968 -0.0033774193439431205 0 -0.070527536076200339 -0.0085770469197343456 0 -0.074344946546182067 0.0015459362208257803 0 -0.072521031427947108 0.0016386178365748135 0 -0.071033889526112601 0.00054017523916340918 0 -0.071797466517274144 -0.0040213250933697304 0 -0.071618289011038269 -0.0025895422060396795 0 -0.071797466517274144 -0.0040213250933697304 0 -0.072204662558319935 -0.0071410283140593452 0 -0.068181878277677813 -0.0063195778595629372 0 -0.070527536076200339 -0.0085770469197343456 0 -0.068375958744923138 -0.010239795909679453 0 -0.070811608079628968 -0.0033774193439431205 0 -0.068181878277677813 -0.0063195778595629372 0 -0.070527536076200339 -0.0085770469197343456 0 -0.069765449079427888 -0.010904469970359088 0 -0.070527536076200339 -0.0085770469197343456 0 -0.068375958744923138 -0.010239795909679453 0 -0.077092354420569303 -0.0028162974859152223 0 -0.074556548334549805 -0.0066301386700372252 0 -0.073366828663416719 -0.00042595252731619045 0 -0.074344946546182067 0.0015459362208257803 0 -0.077092354420569303 -0.0028162974859152223 0 -0.073366828663416719 -0.00042595252731619045 0 -0.077092354420569303 -0.0028162974859152223 0 -0.074556548334549805 -0.0066301386700372252 0 -0.076372590696321546 -0.0098526139867815016 0 -0.072204662558319935 -0.0071410283140593452 0 -0.072387957425066943 -0.011179403462571231 0 -0.077092354420569303 -0.0028162974859152223 0 -0.076372590696321546 -0.0098526139867815016 0 -0.07758308458368128 -0.010484578887182162 0 -0.068375958744923138 -0.010239795909679453 0 -0.069059442709501095 -0.011154742139726458 0 -0.068682981192380033 -0.011753778428827287 0 -0.069765449079427888 -0.010904469970359088 0 -0.068375958744923138 -0.010239795909679453 0 -0.069059442709501095 -0.011154742139726458 0 -0.069765449079427888 -0.010904469970359088 0 -0.069059442709501095 -0.011154742139726458 0 -0.069361261202524643 -0.011557350570717963 0 -0.072593083812902637 -0.0038825498135024719 0 -0.074081894204495555 -0.0030172127142872188 0 -0.07247791401346948 -0.0065889171373125595 0 -0.070912137613436024 0.00051388931005349244 0 -0.065778312007371248 -0.0061381772210470226 0 -0.07247791401346948 -0.0065889171373125595 0 -0.069853110718755634 -0.009059043285766866 0 -0.071160559374079335 -0.010365137659577663 0 -0.07247791401346948 -0.0065889171373125595 0 -0.074556548334549805 -0.0066301386700372252 0 -0.073271193973728471 -0.0096673053686051665 0 -0.07247791401346948 -0.0065889171373125595 0 -0.074556548334549805 -0.0066301386700372252 0 -0.073366828663416719 -0.00042595252731619045 0 -0.073366828663416719 -0.00042595252731619045 0 -0.070912137613436024 0.00051388931005349244 0 -0.072154308047208834 0.0015990505288480119 0 -0.07247791401346948 -0.0065889171373125595 0 -0.073366828663416719 -0.00042595252731619045 0 -0.070912137613436024 0.00051388931005349244 0 -0.073366828663416719 -0.00042595252731619045 0 -0.072154308047208834 0.0015990505288480119 0 -0.072805329287135345 0.0018069545259492355 0 -0.074344946546182067 0.0015459362208257803 0 -0.073366828663416719 -0.00042595252731619045 0 -0.072805329287135345 0.0018069545259492355 0 -0.074344946546182067 0.0015459362208257803 0 -0.072805329287135345 0.0018069545259492355 0 -0.072521031427947108 0.0016386178365748135 0 -0.072154308047208834 0.0015990505288480119 0 -0.072805329287135345 0.0018069545259492355 0 -0.072809158646006636 0.0021478254510102907 0 -0.072805329287135345 0.0018069545259492355 0 -0.072840404836280181 0.0020402672048945424 0 -0.072809158646006636 0.0021478254510102907 0 -0.072840404836280181 0.0020402672048945424 0 -0.073172928041547305 0.0021315461256213018 0 -0.073236266836918099 0.002310503117765257 0 -0.072840404836280181 0.0020402672048945424 0 -0.073236266836918099 0.002310503117765257 0 -0.072809158646006636 0.0021478254510102907 0 -0.072840404836280181 0.0020402672048945424 0 -0.073172928041547305 0.0021315461256213018 0 -0.072448126599937726 0.0017213491610501036 0 -0.073172928041547305 0.0021315461256213018 0 -0.072448126599937726 0.0017213491610501036 0 -0.072668473003755146 0.0017209502675923196 0 -0.072448126599937726 0.0017213491610501036 0 -0.072521031427947108 0.0016386178365748135 0 -0.071591810545509144 0.0011839695176308763 0 -0.072448126599937726 0.0017213491610501036 0 -0.071591810545509144 0.0011839695176308763 0 -0.07172086827287194 0.0013551622364356179 0 -0.072840404836280181 0.0020402672048945424 0 -0.072448126599937726 0.0017213491610501036 0 -0.072521031427947108 0.0016386178365748135 0 -0.072805329287135345 0.0018069545259492355 0 -0.072840404836280181 0.0020402672048945424 0 -0.072521031427947108 0.0016386178365748135 0 -0.072521031427947108 0.0016386178365748135 0 -0.071033889526112601 0.00054017523916340918 0 -0.071591810545509144 0.0011839695176308763 0 -0.070811608079628968 -0.0033774193439431205 0 -0.071033889526112601 0.00054017523916340918 0 -0.071932131439389882 3.3088538396982466e-05 0 -0.072538324088102984 -0.0049299922054209201 0 -0.070811608079628968 -0.0033774193439431205 0 -0.071932131439389882 3.3088538396982466e-05 0 -0.071033889526112601 0.00054017523916340918 0 -0.071932131439389882 3.3088538396982466e-05 0 -0.071303556244287011 0.0013222505474156489 0 -0.071456520007508781 -0.0044196431538981191 0 -0.070241136349194724 -0.0076297727612376484 0 -0.069286476432239272 -0.0030876947139099878 0 -0.071097675128051499 -0.004113280353137419 0 -0.070644824744748938 -0.0024351429748417745 0 -0.071033889526112601 0.00054017523916340918 0 -0.071591810545509144 0.0011839695176308763 0 -0.071303556244287011 0.0013222505474156489 0 -0.071591810545509144 0.0011839695176308763 0 -0.071303556244287011 0.0013222505474156489 0 -0.07172086827287194 0.0013551622364356179 0 -0.070644824744748938 -0.0024351429748417745 0 -0.070555873982258682 -0.0018541488616670117 0 -0.069286476432239272 -0.0030876947139099878 0 -0.070250749507713595 -0.0010854504456165428 0 -0.07072603285167009 0.00028115141777675703 0 -0.071303556244287011 0.0013222505474156489 0 -0.07072603285167009 0.00028115141777675703 0 -0.07172086827287194 0.0013551622364356179 0 -0.07148455786446424 -0.0019410969542483095 0 -0.071456520007508781 -0.0044196431538981191 0 -0.069286476432239272 -0.0030876947139099878 0 -0.07148455786446424 -0.0019410969542483095 0 -0.069286476432239272 -0.0030876947139099878 0 -0.070250749507713595 -0.0010854504456165428 0 -0.07148455786446424 -0.0019410969542483095 0 -0.070899315060942492 -0.0007564369741761128 0 -0.070250749507713595 -0.0010854504456165428 0 -0.071818019862619861 -6.7093991316327111e-05 0 -0.07148455786446424 -0.0019410969542483095 0 -0.070899315060942492 -0.0007564369741761128 0 -0.070899315060942492 -0.0007564369741761128 0 -0.070250749507713595 -0.0010854504456165428 0 -0.070160818128154723 -0.00016756872166603777 0 -0.070730181151576962 0.00067589834497281157 0 -0.070899315060942492 -0.0007564369741761128 0 -0.070160818128154723 -0.00016756872166603777 0 -0.070730181151576962 0.00067589834497281157 0 -0.071818019862619861 -6.7093991316327111e-05 0 -0.070899315060942492 -0.0007564369741761128 0 -0.070250749507713595 -0.0010854504456165428 0 -0.070160818128154723 -0.00016756872166603777 0 -0.07072603285167009 0.00028115141777675703 0 -0.070168960480814141 -0.00065306496560710477 0 -0.070160818128154723 -0.00016756872166603777 0 -0.07072603285167009 0.00028115141777675703 0 -0.073526403891272643 0.00099994338285528468 0 -0.071387791839299275 -0.00039287145746039448 0 -0.072151676493137418 0.00091817202876205218 0 -0.07072603285167009 0.00028115141777675703 0 -0.072151676493137418 0.00091817202876205218 0 -0.07172086827287194 0.0013551622364356179 0 -0.071387791839299275 -0.00039287145746039448 0 -0.07072603285167009 0.00028115141777675703 0 -0.072151676493137418 0.00091817202876205218 0 -0.073526403891272643 0.00099994338285528468 0 -0.072151676493137418 0.00091817202876205218 0 -0.073261192523563459 0.0018047548944613845 0 -0.073526403891272643 0.00099994338285528468 0 -0.073261192523563459 0.0018047548944613845 0 -0.074168213186068546 0.0026217668335550208 0 -0.073261192523563459 0.0018047548944613845 0 -0.072668473003755146 0.0017209502675923196 0 -0.073658244047461727 0.0022287906174385274 0 -0.072151676493137418 0.00091817202876205218 0 -0.073261192523563459 0.0018047548944613845 0 -0.072668473003755146 0.0017209502675923196 0 -0.073172928041547305 0.0021315461256213018 0 -0.072668473003755146 0.0017209502675923196 0 -0.073658244047461727 0.0022287906174385274 0 -0.072448126599937726 0.0017213491610501036 0 -0.072668473003755146 0.0017209502675923196 0 -0.07172086827287194 0.0013551622364356179 0 -0.072151676493137418 0.00091817202876205218 0 -0.072668473003755146 0.0017209502675923196 0 -0.07172086827287194 0.0013551622364356179 0 -0.074120848322680497 0.0025390086077551502 0 -0.073627091721937224 0.0024732456240696612 0 -0.07415399338822623 0.0026177828075258712 0 -0.074120848322680497 0.0025390086077551502 0 -0.073658244047461727 0.0022287906174385274 0 -0.074168213186068546 0.0026217668335550208 0 -0.074120848322680497 0.0025390086077551502 0 -0.073658244047461727 0.0022287906174385274 0 -0.073739963479000109 0.002467207330941391 0 -0.073261192523563459 0.0018047548944613845 0 -0.073658244047461727 0.0022287906174385274 0 -0.074168213186068546 0.0026217668335550208 0 -0.073526403891272643 0.00099994338285528468 0 -0.074168213186068546 0.0026217668335550208 0 -0.074773325526852161 0.004504852595660057 0 -0.074120848322680497 0.0025390086077551502 0 -0.074168213186068546 0.0026217668335550208 0 -0.074773325526852161 0.004504852595660057 0 -0.073720843582859283 0.0042782360521650686 0 -0.073656138930188825 0.004217693865793226 0 -0.074120848322680497 0.0025390086077551502 0 -0.074773325526852161 0.004504852595660057 0 -0.073627091721937224 0.0024732456240696612 0 -0.075968981832399363 0.007134132321605602 0 -0.076144010453947225 0.0070401998303224675 0 -0.0747467623316867 0.0067944088394109904 0 -0.074773325526852161 0.004504852595660057 0 -0.073627091721937224 0.0024732456240696612 0 -0.076336988307105419 0.0091484412320016265 0 -0.076857944855959703 0.01149488848640315 0 -0.077515351726553772 0.010312574834757466 0 -0.076336988307105419 0.0091484412320016265 0 -0.0747467623316867 0.0067944088394109904 0 -0.076857944855959703 0.01149488848640315 0 -0.076857944855959703 0.01149488848640315 0 -0.078440812236444113 0.011614648291403077 0 -0.077515351726553772 0.010312574834757466 0 -0.078440812236444113 0.011614648291403077 0 -0.077515351726553772 0.010312574834757466 0 -0.078349447152646676 0.011427639335378983 0 -0.076144010453947225 0.0070401998303224675 0 -0.076730911826631318 0.007006165879626638 0 -0.076857944855959703 0.01149488848640315 0 -0.078440812236444113 0.011614648291403077 0 -0.079465132364874999 0.011317672637678021 0 -0.073627091721937224 0.0024732456240696612 0 -0.07415399338822623 0.0026177828075258712 0 -0.075842165207793466 0.0028970192225518318 0 -0.07415399338822623 0.0026177828075258712 0 -0.075842165207793466 0.0028970192225518318 0 -0.074597639016858397 0.0033569428615377482 0 -0.075842165207793466 0.0028970192225518318 0 -0.076091769828516259 0.0047266854950967158 0 -0.074597639016858397 0.0033569428615377482 0 -0.076091769828516259 0.0047266854950967158 0 -0.074597639016858397 0.0033569428615377482 0 -0.074977023916211208 0.0035275842451945559 0 -0.074597639016858397 0.0033569428615377482 0 -0.073746572274770994 0.0027101898009151055 0 -0.073739963479000109 0.002467207330941391 0 -0.07415399338822623 0.0026177828075258712 0 -0.074597639016858397 0.0033569428615377482 0 -0.073739963479000109 0.002467207330941391 0 -0.074120848322680497 0.0025390086077551502 0 -0.07415399338822623 0.0026177828075258712 0 -0.073739963479000109 0.002467207330941391 0 -0.073172928041547305 0.0021315461256213018 0 -0.073658244047461727 0.0022287906174385274 0 -0.073739963479000109 0.002467207330941391 0 -0.073172928041547305 0.0021315461256213018 0 -0.073739963479000109 0.002467207330941391 0 -0.073236266836918099 0.002310503117765257 0 -0.073746572274770994 0.0027101898009151055 0 -0.073739963479000109 0.002467207330941391 0 -0.073236266836918099 0.002310503117765257 0 -0.073746572274770994 0.0027101898009151055 0 -0.073236266836918099 0.002310503117765257 0 -0.072809158646006636 0.0021478254510102907 0 -0.072154308047208834 0.0015990505288480119 0 -0.072809158646006636 0.0021478254510102907 0 -0.073050797061264272 0.0022513217249251938 0 -0.073746572274770994 0.0027101898009151055 0 -0.072809158646006636 0.0021478254510102907 0 -0.073050797061264272 0.0022513217249251938 0 -0.073746572274770994 0.0027101898009151055 0 -0.073050797061264272 0.0022513217249251938 0 -0.074977023916211208 0.0035275842451945559 0 -0.073050797061264272 0.0022513217249251938 0 -0.07411195160743253 0.0030511380530659346 0 -0.074977023916211208 0.0035275842451945559 0 -0.070912137613436024 0.00051388931005349244 0 -0.072154308047208834 0.0015990505288480119 0 -0.073050797061264272 0.0022513217249251938 0 -0.070912137613436024 0.00051388931005349244 0 -0.073050797061264272 0.0022513217249251938 0 -0.07411195160743253 0.0030511380530659346 0 -0.070912137613436024 0.00051388931005349244 0 -0.07411195160743253 0.0030511380530659346 0 -0.072733114718973424 0.0045753645748089471 0 -0.07411195160743253 0.0030511380530659346 0 -0.072733114718973424 0.0045753645748089471 0 -0.075270287281154188 0.004892835103815666 0 -0.074081894204495555 -0.0030172127142872188 0 -0.077058005721031803 -0.0003058722219990577 0 -0.073464754723498144 -0.0022230086272269889 0 -0.074081894204495555 -0.0030172127142872188 0 -0.07684326411293621 0.0046666955725837046 0 -0.075270287281154188 0.004892835103815666 0 -0.076383540878955283 0.0041128256919750533 0 -0.077676540630128382 0.00085089825620674104 0 -0.077058005721031803 -0.0003058722219990577 0 -0.07411195160743253 0.0030511380530659346 0 -0.075270287281154188 0.004892835103815666 0 -0.076383540878955283 0.0041128256919750533 0 -0.076383540878955283 0.0041128256919750533 0 -0.074977023916211208 0.0035275842451945559 0 -0.076718247898708639 0.0047534512297111673 0 -0.07411195160743253 0.0030511380530659346 0 -0.076383540878955283 0.0041128256919750533 0 -0.074977023916211208 0.0035275842451945559 0 -0.074597639016858397 0.0033569428615377482 0 -0.073746572274770994 0.0027101898009151055 0 -0.074977023916211208 0.0035275842451945559 0 -0.076091769828516259 0.0047266854950967158 0 -0.074977023916211208 0.0035275842451945559 0 -0.076718247898708639 0.0047534512297111673 0 -0.076091769828516259 0.0047266854950967158 0 -0.076718247898708639 0.0047534512297111673 0 -0.078185317027606172 0.0072554426577356723 0 -0.077444188303580047 0.0049118435046812568 0 -0.077123270943322206 0.0068044752682367123 0 -0.078185317027606172 0.0072554426577356723 0 -0.076718247898708639 0.0047534512297111673 0 -0.077444188303580047 0.0049118435046812568 0 -0.078185317027606172 0.0072554426577356723 0 -0.077444188303580047 0.0049118435046812568 0 -0.077258084485552048 0.0044326655885751649 0 -0.077123270943322206 0.0068044752682367123 0 -0.076383540878955283 0.0041128256919750533 0 -0.076718247898708639 0.0047534512297111673 0 -0.077444188303580047 0.0049118435046812568 0 -0.07684326411293621 0.0046666955725837046 0 -0.076383540878955283 0.0041128256919750533 0 -0.07746365773626479 0.0040696695897281089 0 -0.076383540878955283 0.0041128256919750533 0 -0.077444188303580047 0.0049118435046812568 0 -0.07746365773626479 0.0040696695897281089 0 -0.077444188303580047 0.0049118435046812568 0 -0.07746365773626479 0.0040696695897281089 0 -0.077258084485552048 0.0044326655885751649 0 -0.07746365773626479 0.0040696695897281089 0 -0.077357486914858734 0.0032636173318418373 0 -0.077258084485552048 0.0044326655885751649 0 -0.07746365773626479 0.0040696695897281089 0 -0.077569176006112905 0.0034853266969895077 0 -0.077357486914858734 0.0032636173318418373 0 -0.07684326411293621 0.0046666955725837046 0 -0.07746365773626479 0.0040696695897281089 0 -0.077569176006112905 0.0034853266969895077 0 -0.077676540630128382 0.00085089825620674104 0 -0.077320844012611814 0.0011818300133635525 0 -0.074999484478977974 0.0013569993364127824 0 -0.076733620330731347 0.00086489036464271923 0 -0.076389903872918288 0.0030229911655365541 0 -0.076733620330731347 0.00086489036464271923 0 -0.077357486914858734 0.0032636173318418373 0 -0.076389903872918288 0.0030229911655365541 0 -0.077569176006112905 0.0034853266969895077 0 -0.076733620330731347 0.00086489036464271923 0 -0.077357486914858734 0.0032636173318418373 0 -0.077320844012611814 0.0011818300133635525 0 -0.076776824274477476 0.0011730410635224957 0 -0.078768739075018065 0.00032315054806770035 0 -0.076733620330731347 0.00086489036464271923 0 -0.077845955021972418 7.828216524821353e-05 0 -0.077357486914858734 0.0032636173318418373 0 -0.077258084485552048 0.0044326655885751649 0 -0.076389903872918288 0.0030229911655365541 0 -0.077258084485552048 0.0044326655885751649 0 -0.076389903872918288 0.0030229911655365541 0 -0.074999678685797752 0.0057199408405994101 0 -0.074999484478977974 0.0013569993364127824 0 -0.076389903872918288 0.0030229911655365541 0 -0.074999678685797752 0.0057199408405994101 0 -0.077258084485552048 0.0044326655885751649 0 -0.074999678685797752 0.0057199408405994101 0 -0.077123270943322206 0.0068044752682367123 0 -0.074999678685797752 0.0057199408405994101 0 -0.077123270943322206 0.0068044752682367123 0 -0.07499899304664813 0.010083548390756656 0 -0.077123270943322206 0.0068044752682367123 0 -0.07499899304664813 0.010083548390756656 0 -0.076800107080493438 0.0096047127994296801 0 -0.07499899304664813 0.010083548390756656 0 -0.076800107080493438 0.0096047127994296801 0 -0.074999704661715808 0.014448022077629689 0 -0.076800107080493438 0.0096047127994296801 0 -0.074999704661715808 0.014448022077629689 0 -0.07759942622260789 0.012117525309033206 0 -0.077123270943322206 0.0068044752682367123 0 -0.076800107080493438 0.0096047127994296801 0 -0.078185317027606172 0.0072554426577356723 0 -0.078185317027606172 0.0072554426577356723 0 -0.078858865358894956 0.012696162490836937 0 -0.07759942622260789 0.012117525309033206 0 -0.079465132364874999 0.011317672637678021 0 -0.078185317027606172 0.0072554426577356723 0 -0.078858865358894956 0.012696162490836937 0 -0.075842165207793466 0.0028970192225518318 0 -0.076091769828516259 0.0047266854950967158 0 -0.078185317027606172 0.0072554426577356723 0 -0.076730911826631318 0.007006165879626638 0 -0.077005587116301788 0.0070058137263454877 0 -0.076800107080493438 0.0096047127994296801 0 -0.078185317027606172 0.0072554426577356723 0 -0.07759942622260789 0.012117525309033206 0 -0.078858865358894956 0.012696162490836937 0 -0.079408550488687196 0.014583246386132991 0 -0.07759942622260789 0.012117525309033206 0 -0.078440812236444113 0.011614648291403077 0 -0.079465132364874999 0.011317672637678021 0 -0.078858865358894956 0.012696162490836937 0 -0.078932971489780332 0.012823011500311947 0 -0.078858865358894956 0.012696162490836937 0 -0.078349447152646676 0.011427639335378983 0 -0.078440812236444113 0.011614648291403077 0 -0.078858865358894956 0.012696162490836937 0 -0.078349447152646676 0.011427639335378983 0 -0.078932971489780332 0.012823011500311947 0 -0.078858865358894956 0.012696162490836937 0 -0.079408550488687196 0.014583246386132991 0 -0.078222584002865886 0.018258565093022573 0 -0.079408550488687196 0.014583246386132991 0 -0.076943542221983283 0.015826177469004471 0 -0.079408550488687196 0.014583246386132991 0 -0.076943542221983283 0.015826177469004471 0 -0.07759942622260789 0.012117525309033206 0 -0.074999238962198136 0.018812997390425953 0 -0.076943542221983283 0.015826177469004471 0 -0.074999704661715808 0.014448022077629689 0 -0.074999238962198136 0.018812997390425953 0 -0.076730900156611395 0.018967613184075253 0 -0.076943542221983283 0.015826177469004471 0 -0.076943542221983283 0.015826177469004471 0 -0.074999704661715808 0.014448022077629689 0 -0.07759942622260789 0.012117525309033206 0 -0.04100129691105487 -0.02426275179876812 0 -0.041334094505828631 -0.024305937496293735 0 -0.041008753015664694 -0.024033299394835735 0 -0.041334094505828631 -0.024305937496293735 0 -0.041008753015664694 -0.024033299394835735 0 -0.041529514035785302 -0.024079566823939282 0 -0.041008753015664694 -0.024033299394835735 0 -0.041529514035785302 -0.024079566823939282 0 -0.041173616774482891 -0.023612391079570531 0 -0.041008753015664694 -0.024033299394835735 0 -0.040741328533037642 -0.024141420771259192 0 -0.040683782180891075 -0.023814767974845944 0 -0.040741328533037642 -0.024141420771259192 0 -0.040683782180891075 -0.023814767974845944 0 -0.040443438975907152 -0.024048350624750334 0 -0.040741328533037642 -0.024141420771259192 0 -0.040497540832224982 -0.024331395596560071 0 -0.040443438975907152 -0.024048350624750334 0 -0.040826995281808214 -0.024309866469526833 0 -0.040741328533037642 -0.024141420771259192 0 -0.040497540832224982 -0.024331395596560071 0 -0.04100129691105487 -0.02426275179876812 0 -0.040826995281808214 -0.024309866469526833 0 -0.040741328533037642 -0.024141420771259192 0 -0.04100129691105487 -0.02426275179876812 0 -0.041008753015664694 -0.024033299394835735 0 -0.040741328533037642 -0.024141420771259192 0 -0.040497540832224982 -0.024331395596560071 0 -0.041066853199607678 -0.024505259612307907 0 -0.040135314862025026 -0.024383608890781377 0 -0.0006719774435002202 0.027054918853563058 0 -0.0042224665867635026 0.028258800395645701 0 0.0027853804069699647 0.028251357118294226 0 -0.023012315202101431 0.0067355414267389283 0 -0.015897122195098531 0.00028858256577452934 0 -0.040826995281808214 -0.024309866469526833 0 -0.040497540832224982 -0.024331395596560071 0 -0.041066853199607678 -0.024505259612307907 0 -0.0006719774435002202 0.027054918853563058 0 0.0013264340214972398 0.026223286207019945 0 -4.2832057237843079e-05 0.0253922861953997 0 -0.0006719774435002202 0.027054918853563058 0 -0.0018195551046174189 0.025035739765186749 0 -4.2832057237843079e-05 0.0253922861953997 0 -0.0006719774435002202 0.027054918853563058 0 -0.0025782188537939918 0.027189518417328008 0 -0.0042224665867635026 0.028258800395645701 0 -0.0006719774435002202 0.027054918853563058 0 -0.0025782188537939918 0.027189518417328008 0 -0.0018195551046174189 0.025035739765186749 0 -0.0025782188537939918 0.027189518417328008 0 -0.0031400932036704525 0.025940257909951463 0 -0.0018195551046174189 0.025035739765186749 0 -0.0025782188537939918 0.027189518417328008 0 -0.0031400932036704525 0.025940257909951463 0 -0.0035901227526424751 0.027084119038415844 0 -0.0044188886157773902 0.026947136567752744 0 -0.0042224665867635026 0.028258800395645701 0 -0.011349081572179797 0.028155722767829992 0 -0.0031400932036704525 0.025940257909951463 0 -0.0044188886157773902 0.026947136567752744 0 -0.0035901227526424751 0.027084119038415844 0 -0.0025782188537939918 0.027189518417328008 0 -0.0035901227526424751 0.027084119038415844 0 -0.0042224665867635026 0.028258800395645701 0 -0.0044188886157773902 0.026947136567752744 0 -0.0035901227526424751 0.027084119038415844 0 -0.0042224665867635026 0.028258800395645701 0 -0.04100129691105487 -0.02426275179876812 0 -0.041334094505828631 -0.024305937496293735 0 -0.041066853199607678 -0.024505259612307907 0 -0.04100129691105487 -0.02426275179876812 0 -0.040826995281808214 -0.024309866469526833 0 -0.041066853199607678 -0.024505259612307907 0 -0.023012315202101431 0.0067355414267389283 0 -0.031347118174692788 0.016944043961907015 0 -0.041334094505828631 -0.024305937496293735 0 -0.041066853199607678 -0.024505259612307907 0 -0.042109916779803636 -0.02468255124666428 0 -0.031347118174692788 0.016944043961907015 0 -0.025737682195189598 0.032209549575340682 0 -0.0044188886157773902 0.026947136567752744 0 -0.011349081572179797 0.028155722767829992 0 -0.0070758927650053103 0.023989068342347722 0 -0.031462599199606332 0.058890272376750527 0 -0.031415032409860703 0.058997235664888147 0 -0.0313789841590984 0.05890397007994156 0 -0.031347118174692788 0.016944043961907015 0 -0.035644639343713307 0.02435749921316778 0 -0.031347118174692788 0.016944043961907015 0 -0.035045865119504228 0.001628171169095296 0 -0.042109916779803636 -0.02468255124666428 0 -0.042060652482478887 -0.023769410978834799 0 -0.042863451261321128 -0.024245772883014594 0 -0.042109916779803636 -0.02468255124666428 0 -0.041529514035785302 -0.024079566823939282 0 -0.042060652482478887 -0.023769410978834799 0 -0.041334094505828631 -0.024305937496293735 0 -0.042109916779803636 -0.02468255124666428 0 -0.041529514035785302 -0.024079566823939282 0 -0.041529514035785302 -0.024079566823939282 0 -0.042060652482478887 -0.023769410978834799 0 -0.041173616774482891 -0.023612391079570531 0 -0.042060652482478887 -0.023769410978834799 0 -0.041560786218971302 -0.023203936460544847 0 -0.041173616774482891 -0.023612391079570531 0 -0.042060652482478887 -0.023769410978834799 0 -0.042075843741869991 -0.022969756259472143 0 -0.042828967364241265 -0.023480854885500665 0 -0.042060652482478887 -0.023769410978834799 0 -0.042863451261321128 -0.024245772883014594 0 -0.042828967364241265 -0.023480854885500665 0 -0.042075843741869991 -0.022969756259472143 0 -0.042828967364241265 -0.023480854885500665 0 -0.043343398393906774 -0.022517761751910476 0 -0.042075843741869991 -0.022969756259472143 0 -0.041560786218971302 -0.023203936460544847 0 -0.041485883140797292 -0.022867912997385987 0 -0.042060652482478887 -0.023769410978834799 0 -0.042075843741869991 -0.022969756259472143 0 -0.041560786218971302 -0.023203936460544847 0 -0.041560786218971302 -0.023203936460544847 0 -0.041017726261543076 -0.023030214652397397 0 -0.041485883140797292 -0.022867912997385987 0 -0.041560786218971302 -0.023203936460544847 0 -0.041017726261543076 -0.023030214652397397 0 -0.041173616774482891 -0.023612391079570531 0 -0.041008753015664694 -0.024033299394835735 0 -0.041173616774482891 -0.023612391079570531 0 -0.040683782180891075 -0.023814767974845944 0 -0.041173616774482891 -0.023612391079570531 0 -0.040683782180891075 -0.023814767974845944 0 -0.040608392326041187 -0.02341207593546624 0 -0.041017726261543076 -0.023030214652397397 0 -0.041173616774482891 -0.023612391079570531 0 -0.040608392326041187 -0.02341207593546624 0 -0.041017726261543076 -0.023030214652397397 0 -0.040608392326041187 -0.02341207593546624 0 -0.040550873050487025 -0.023047401106531969 0 -0.040608392326041187 -0.02341207593546624 0 -0.040075704346255007 -0.023313494913929464 0 -0.040550873050487025 -0.023047401106531969 0 -0.03993393332845567 -0.022519067386603905 0 -0.039774898392062989 -0.022446046862762487 0 -0.040003200920510712 -0.022603397611452386 0 -0.03993393332845567 -0.022519067386603905 0 -0.039774898392062989 -0.022446046862762487 0 -0.039849403102605235 -0.022656047369543499 0 -0.040075704346255007 -0.023313494913929464 0 -0.040301125378913068 -0.023756730088216584 0 -0.039863185565840668 -0.023899576104568544 0 -0.031684216548466704 -0.019843938675135175 0 -0.024605927861039344 -0.01434884486944637 0 -0.040608392326041187 -0.02341207593546624 0 -0.040075704346255007 -0.023313494913929464 0 -0.040301125378913068 -0.023756730088216584 0 -0.040683782180891075 -0.023814767974845944 0 -0.040608392326041187 -0.02341207593546624 0 -0.040301125378913068 -0.023756730088216584 0 -0.00877251742951431 -0.011003775407744601 0 -0.008615922951286905 -0.0082512627581487526 0 -0.040144578152907527 -0.022621000888577769 0 -0.039774898392062989 -0.022446046862762487 0 -0.039988812492682109 -0.021374020815671295 0 -0.040144578152907527 -0.022621000888577769 0 -0.039774898392062989 -0.022446046862762487 0 -0.039984296686431012 -0.022646498506998829 0 -0.039774898392062989 -0.022446046862762487 0 -0.039988812492682109 -0.021374020815671295 0 -0.038378660645172397 -0.020723703651590056 0 -0.032161936983404166 -0.022068470912571702 0 -0.024605927861039344 -0.01434884486944637 0 0.021543498377199842 0.00013989911028119818 0 0.022606862250597704 0.002445991239985435 0 0.021413482492300587 0.0020828733207526057 0 0.022606862250597704 0.002445991239985435 0 0.021413482492300587 0.0020828733207526057 0 0.021682173940645758 0.0034210750853862259 0 0.020728515821095972 0.0030304244988693099 0 0.021413482492300587 0.0020828733207526057 0 0.021682173940645758 0.0034210750853862259 0 0.022606862250597704 0.002445991239985435 0 0.021682173940645758 0.0034210750853862259 0 0.022524476810442232 0.0039687967351036421 0 0.020667723801414972 0.0039573172438622378 0 0.021682173940645758 0.0034210750853862259 0 0.021741984289432924 0.0048081857287786958 0 0.021682173940645758 0.0034210750853862259 0 0.022524476810442232 0.0039687967351036421 0 0.021741984289432924 0.0048081857287786958 0 -0.008615922951286905 -0.0082512627581487526 0 -0.0069429358930303406 -0.001791171811717167 0 -0.039988812492682109 -0.021374020815671295 0 -0.038986712958318133 -0.019329340337497638 0 -0.038378660645172397 -0.020723703651590056 0 0.022606862250597704 0.002445991239985435 0 0.022524476810442232 0.0039687967351036421 0 0.023702888988312819 0.0047593955427639523 0 0.027565611547393554 0.0046846671276013878 0 0.023981763834229283 0.0070378348858044721 0 0.021710771347559221 0.0047886587442733837 0 -0.0069429358930303406 -0.001791171811717167 0 0.013736451364863667 0.00082061919263409539 0 0.022524476810442232 0.0039687967351036421 0 0.023702888988312819 0.0047593955427639523 0 0.021741984289432924 0.0048081857287786958 0 0.027565611547393554 0.0046846671276013878 0 0.0302129228341479 0.0097891830696468975 0 0.026285772641059146 0.0083710833775538784 0 0.027565611547393554 0.0046846671276013878 0 0.023981763834229283 0.0070378348858044721 0 0.026285772641059146 0.0083710833775538784 0 0.023981763834229283 0.0070378348858044721 0 0.021855623107416799 0.0073976129393780463 0 0.021710771347559221 0.0047886587442733837 0 0.019977055207556493 0.0056807408979360286 0 0.021855623107416799 0.0073976129393780463 0 0.021710771347559221 0.0047886587442733837 0 -0.040301125378913068 -0.023756730088216584 0 -0.040174430004053692 -0.024056580620393373 0 -0.039863185565840668 -0.023899576104568544 0 -0.040174430004053692 -0.024056580620393373 0 -0.040443438975907152 -0.024048350624750334 0 -0.040206999858799948 -0.024288913682562308 0 -0.040497540832224982 -0.024331395596560071 0 -0.040443438975907152 -0.024048350624750334 0 -0.040135314862025026 -0.024383608890781377 0 -0.017211472155564386 -0.0026915253125757918 0 -0.015897122195098531 0.00028858256577452934 0 -0.040301125378913068 -0.023756730088216584 0 -0.040174430004053692 -0.024056580620393373 0 -0.040443438975907152 -0.024048350624750334 0 -0.040683782180891075 -0.023814767974845944 0 -0.040301125378913068 -0.023756730088216584 0 -0.040443438975907152 -0.024048350624750334 0 -0.024605927861039344 -0.01434884486944637 0 -0.014150786003162741 -0.0025654571185251807 0 -0.040174430004053692 -0.024056580620393373 0 -0.039863185565840668 -0.023899576104568544 0 -0.040084504038463115 -0.024288422734558206 0 -0.038986712958318133 -0.019329340337497638 0 -0.038378660645172397 -0.020723703651590056 0 -0.038606489350565348 -0.019320171875527849 0 -0.024605927861039344 -0.01434884486944637 0 -0.016829354151535848 -0.0009416350554676639 0 -0.020224138776873186 -0.0033915544395791719 0 -0.020289292406248768 -0.0030382673459476268 0 -0.020014769188275848 -0.0030285984512232341 0 -0.0069429358930303406 -0.001791171811717167 0 -0.0032104947302114347 0.0091229406577453889 0 -0.0086825292483187211 0.00063361856913577254 0 -0.008868585634716826 0.00065190081746198858 0 -0.0088224367810744008 0.00073181163880013775 0 -0.0084530865319134164 0.00072087781388078132 0 -0.0085446380708198207 0.00072257919732220198 0 -0.0086407532621642791 0.00036297692505249043 0 -0.0085446380708198207 0.00072257919732220198 0 -0.0086825292483187211 0.00063361856913577254 0 -0.0086407532621642791 0.00036297692505249043 0 -0.0085446380708198207 0.00072257919732220198 0 -0.0086825292483187211 0.00063361856913577254 0 -0.0088224367810744008 0.00073181163880013775 0 -0.014150786003162741 -0.0025654571185251807 0 -0.016829354151535848 -0.0009416350554676639 0 -0.0069429358930303406 -0.001791171811717167 0 -0.014150786003162741 -0.0025654571185251807 0 -0.0086825292483187211 0.00063361856913577254 0 -0.008868585634716826 0.00065190081746198858 0 -0.0086407532621642791 0.00036297692505249043 0 0.0034156837984888853 0.027320827418725154 0 0.0027853804069699647 0.028251357118294226 0 0.0013264340214972398 0.026223286207019945 0 -0.013404793122044839 0.0038731958895283605 0 -0.016829354151535848 -0.0009416350554676639 0 -0.016829354151535848 -0.0009416350554676639 0 -0.015897122195098531 0.00028858256577452934 0 -0.040174430004053692 -0.024056580620393373 0 -0.040084504038463115 -0.024288422734558206 0 -0.040206999858799948 -0.024288913682562308 0 -0.010984056265477399 -0.010300359186163767 0 -0.0038902761382990873 0.0016661593742619417 0 -0.019189889432340252 0.0014262256938372838 0 -0.013404793122044839 0.0038731958895283605 0 -0.015897122195098531 0.00028858256577452934 0 -0.0006719774435002202 0.027054918853563058 0 0.0027853804069699647 0.028251357118294226 0 0.0013264340214972398 0.026223286207019945 0 0.0013264340214972398 0.026223286207019945 0 0.00099230047302268005 0.023281831714385363 0 -4.2832057237843079e-05 0.0253922861953997 0 0.0037950428328428864 0.026917676846556268 0 0.0015643967885710724 0.023227958420401554 0 0.0037910919220974942 0.023242931106053487 0 0.0034156837984888853 0.027320827418725154 0 0.0013264340214972398 0.026223286207019945 0 0.00099230047302268005 0.023281831714385363 0 -0.013404793122044839 0.0038731958895283605 0 -0.004447469642622299 0.017182488486311605 0 0.0015643967885710724 0.023227958420401554 0 0.0037910919220974942 0.023242931106053487 0 0.0027603596923522341 0.021316237113922915 0 0.0037950428328428864 0.026917676846556268 0 0.0037910919220974942 0.023242931106053487 0 0.0061257116681711372 0.023669304803623819 0 -0.013404793122044839 0.0038731958895283605 0 -0.0032104947302114347 0.0091229406577453889 0 -0.0032104947302114347 0.0091229406577453889 0 0.005530656037195947 0.010939657211183829 0 0.0037910919220974942 0.023242931106053487 0 0.0061257116681711372 0.023669304803623819 0 0.004887796969033663 0.021121514996938151 0 -0.0032104947302114347 0.0091229406577453889 0 -0.0014969993907274378 0.012205574976714449 0 0.004887796969033663 0.021121514996938151 0 0.0063144878650503583 0.019006586017874128 0 0.008307232922816498 0.020549614213971487 0 0.0061638282118395907 0.023579062937045193 0 0.004887796969033663 0.021121514996938151 0 0.008307232922816498 0.020549614213971487 0 0.0063144878650503583 0.019006586017874128 0 0.008307232922816498 0.020549614213971487 0 0.007080016058036662 0.016584122541620214 0 0.004887796969033663 0.021121514996938151 0 0.0063144878650503583 0.019006586017874128 0 0.0049596145110653985 0.017815358919651855 0 0.004887796969033663 0.021121514996938151 0 0.0025932958196334382 0.018874860672324835 0 0.0049596145110653985 0.017815358919651855 0 0.0025932958196334382 0.018874860672324835 0 0.0014745395927541751 0.020698615565181915 0 0.0027603596923522341 0.021316237113922915 0 0.0025932958196334382 0.018874860672324835 0 0.0014745395927541751 0.020698615565181915 0 -0.0010316344401534855 0.019347491186194825 0 0.0015643967885710724 0.023227958420401554 0 0.0014745395927541751 0.020698615565181915 0 0.0027603596923522341 0.021316237113922915 0 0.0037910919220974942 0.023242931106053487 0 0.004887796969033663 0.021121514996938151 0 0.0027603596923522341 0.021316237113922915 0 0.004887796969033663 0.021121514996938151 0 0.0025932958196334382 0.018874860672324835 0 0.0027603596923522341 0.021316237113922915 0 0.018027215568131621 0.010668250974523688 0 0.022738481208181009 0.0099258012858233786 0 0.020128679668480164 0.012869997893261723 0 0.019360260711424802 0.0083431929624428296 0 0.021855623107416799 0.0073976129393780463 0 0.022738481208181009 0.0099258012858233786 0 0.023981763834229283 0.0070378348858044721 0 0.021855623107416799 0.0073976129393780463 0 0.022738481208181009 0.0099258012858233786 0 0.022738481208181009 0.0099258012858233786 0 0.025882346788430273 0.011191763669022095 0 0.023107339750993713 0.013795666230967044 0 0.0302129228341479 0.0097891830696468975 0 0.025882346788430273 0.011191763669022095 0 0.027731583769969186 0.013478532600176648 0 0.0302129228341479 0.0097891830696468975 0 0.025882346788430273 0.011191763669022095 0 0.026285772641059146 0.0083710833775538784 0 0.022738481208181009 0.0099258012858233786 0 0.025882346788430273 0.011191763669022095 0 0.026285772641059146 0.0083710833775538784 0 0.023981763834229283 0.0070378348858044721 0 0.022738481208181009 0.0099258012858233786 0 0.026285772641059146 0.0083710833775538784 0 0.027731583769969186 0.013478532600176648 0 0.023107339750993713 0.013795666230967044 0 0.025215093528460009 0.017206601886737057 0 0.025882346788430273 0.011191763669022095 0 0.027731583769969186 0.013478532600176648 0 0.023107339750993713 0.013795666230967044 0 0.005530656037195947 0.010939657211183829 0 0.010118719650855826 0.01279843158848952 0 0.018930710172702342 0.015648538201644527 0 0.023107339750993713 0.013795666230967044 0 0.020128679668480164 0.012869997893261723 0 0.018930710172702342 0.015648538201644527 0 0.023107339750993713 0.013795666230967044 0 0.025215093528460009 0.017206601886737057 0 0.022738481208181009 0.0099258012858233786 0 0.023107339750993713 0.013795666230967044 0 0.020128679668480164 0.012869997893261723 0 0.010403399032441311 0.014950452424686735 0 0.0095375500825496135 0.015303023558598916 0 0.0097878054060099185 0.014872406445103195 0 0.013377895000261717 0.01418224700095775 0 0.010118719650855826 0.01279843158848952 0 0.011010869579042095 0.015207847495674975 0 0.010403399032441311 0.014950452424686735 0 0.0095375500825496135 0.015303023558598916 0 0.0088460678551125927 0.016519865177912929 0 0.0081200455027917711 0.01445507733118212 0 0.0097878054060099185 0.014872406445103195 0 0.008307232922816498 0.020549614213971487 0 0.010410295817211543 0.017534730924925628 0 0.007080016058036662 0.016584122541620214 0 0.0088460678551125927 0.016519865177912929 0 0.0081200455027917711 0.01445507733118212 0 0.0066891581078294387 0.01619373267888944 0 0.010118719650855826 0.01279843158848952 0 0.009865001790154735 0.013266582926602049 0 0.010118719650855826 0.01279843158848952 0 0.0083221456092041641 0.01337395722867293 0 0.006711336185015215 0.012988030792291825 0 0.0095328063198567726 0.013408753666099815 0 0.0081200455027917711 0.01445507733118212 0 0.0095328063198567726 0.013408753666099815 0 0.0081200455027917711 0.01445507733118212 0 0.0097878054060099185 0.014872406445103195 0 0.010711702158492193 0.013414070842948404 0 0.0095328063198567726 0.013408753666099815 0 0.010545984734291521 0.014282643265958289 0 0.0095328063198567726 0.013408753666099815 0 0.0097878054060099185 0.014872406445103195 0 0.010545984734291521 0.014282643265958289 0 0.010403399032441311 0.014950452424686735 0 0.0097878054060099185 0.014872406445103195 0 0.010545984734291521 0.014282643265958289 0 0.0025932958196334382 0.018874860672324835 0 0.0026613150427819542 0.015610192014917236 0 -0.0010316344401534855 0.019347491186194825 0 0.0038971453011867716 0.015660811283278561 0 0.0035375024923769865 0.016978089785054534 0 0.0049596145110653985 0.017815358919651855 0 0.0038971453011867716 0.015660811283278561 0 0.0026613150427819542 0.015610192014917236 0 0.0035375024923769865 0.016978089785054534 0 0.0025932958196334382 0.018874860672324835 0 0.0026613150427819542 0.015610192014917236 0 0.0035375024923769865 0.016978089785054534 0 0.0025932958196334382 0.018874860672324835 0 0.0035375024923769865 0.016978089785054534 0 0.0049596145110653985 0.017815358919651855 0 0.0063144878650503583 0.019006586017874128 0 0.0049596145110653985 0.017815358919651855 0 0.007080016058036662 0.016584122541620214 0 0.0038971453011867716 0.015660811283278561 0 0.0049596145110653985 0.017815358919651855 0 0.007080016058036662 0.016584122541620214 0 0.0073780448989841148 0.013447899631672438 0 0.0083221456092041641 0.01337395722867293 0 0.006711336185015215 0.012988030792291825 0 0.0081200455027917711 0.01445507733118212 0 0.0066891581078294387 0.01619373267888944 0 0.006711336185015215 0.012988030792291825 0 0.0038971453011867716 0.015660811283278561 0 0.0066891581078294387 0.01619373267888944 0 0.006711336185015215 0.012988030792291825 0 0.0038971453011867716 0.015660811283278561 0 0.0026613150427819542 0.015610192014917236 0 -0.011979867840883377 0.037135028056657762 0 -0.015255287463088289 0.037900063156323702 0 -0.02989740288512293 0.061113146518448722 0 -0.030615748922056717 0.061306897999728542 0 -0.030627734020882352 0.061055545554635222 0 -0.030615748922056717 0.061306897999728542 0 -0.030627734020882352 0.061055545554635222 0 -0.030761264564836244 0.061250667002809074 0 -0.030921911347292261 0.060671944707797708 0 -0.030627734020882352 0.061055545554635222 0 -0.030761264564836244 0.061250667002809074 0 -0.031454570629333489 0.05951116560696014 0 -0.031546268303729419 0.05939768977338903 0 -0.031503823538464377 0.059337065813986171 0 -0.031454570629333489 0.05951116560696014 0 -0.031503823538464377 0.059337065813986171 0 -0.031462942267487436 0.059427357631823781 0 -0.031503823538464377 0.059337065813986171 0 -0.031570814514301999 0.059169854811947531 0 -0.031481268595618069 0.059244353287594448 0 -0.031503823538464377 0.059337065813986171 0 -0.031481268595618069 0.059244353287594448 0 -0.031462942267487436 0.059427357631823781 0 -0.015255287463088289 0.037900063156323702 0 -0.01996639502463899 0.038792263955586388 0 -0.031546268303729419 0.05939768977338903 0 -0.031503823538464377 0.059337065813986171 0 -0.031570814514301999 0.059169854811947531 0 -0.030615748922056717 0.061306897999728542 0 -0.030761264564836244 0.061250667002809074 0 -0.030724587791458854 0.061224126569628869 0 0.0026613150427819542 0.015610192014917236 0 -0.0024615326767224634 0.019930611648225693 0 -0.0010316344401534855 0.019347491186194825 0 -0.026990709143231366 0.056219123276676393 0 -0.01996639502463899 0.038792263955586388 0 0.0015643967885710724 0.023227958420401554 0 0.0014745395927541751 0.020698615565181915 0 -0.0010316344401534855 0.019347491186194825 0 0.00099230047302268005 0.023281831714385363 0 -0.0012644823562940521 0.022099632035449124 0 -0.0010316344401534855 0.019347491186194825 0 -0.004447469642622299 0.017182488486311605 0 -0.0030486170852771508 0.019005316312010509 0 -0.01996639502463899 0.038792263955586388 0 -0.015165732680479911 0.030003160274861589 0 -0.0012644823562940521 0.022099632035449124 0 -0.0024615326767224634 0.019930611648225693 0 -0.0034158141775683477 0.023384097284607039 0 -0.0012644823562940521 0.022099632035449124 0 -0.0024615326767224634 0.019930611648225693 0 -0.0010316344401534855 0.019347491186194825 0 -0.031570814514301999 0.059169854811947531 0 -0.031516832475704505 0.0590254557067229 0 -0.031481268595618069 0.059244353287594448 0 -0.01996639502463899 0.038792263955586388 0 -0.025737682195189598 0.032209549575340682 0 -0.003123440127650653 0.020150887681607808 0 -0.0038297512299327024 0.023476145652010744 0 -0.0070758927650053103 0.023989068342347722 0 -0.0044188886157773902 0.026947136567752744 0 -0.0038297512299327024 0.023476145652010744 0 -0.0070758927650053103 0.023989068342347722 0 -0.0031400932036704525 0.025940257909951463 0 -0.0044188886157773902 0.026947136567752744 0 -0.0034158141775683477 0.023384097284607039 0 -0.01389154838219178 0.028310583097102597 0 -0.015165732680479911 0.030003160274861589 0 -0.0031400932036704525 0.025940257909951463 0 -0.0034158141775683477 0.023384097284607039 0 -0.0018195551046174189 0.025035739765186749 0 0.00099230047302268005 0.023281831714385363 0 -0.0018195551046174189 0.025035739765186749 0 -4.2832057237843079e-05 0.0253922861953997 0 0.00099230047302268005 0.023281831714385363 0 -0.0012644823562940521 0.022099632035449124 0 -0.0018195551046174189 0.025035739765186749 0 -0.0012644823562940521 0.022099632035449124 0 -0.0034158141775683477 0.023384097284607039 0 -0.0018195551046174189 0.025035739765186749 0 -0.031462599199606332 0.058890272376750527 0 -0.031415032409860703 0.058997235664888147 0 -0.031516832475704505 0.0590254557067229 0 -0.031415032409860703 0.058997235664888147 0 -0.031516832475704505 0.0590254557067229 0 -0.031431958662273683 0.059142054425962536 0 -0.031516832475704505 0.0590254557067229 0 -0.031431958662273683 0.059142054425962536 0 -0.031481268595618069 0.059244353287594448 0 -0.031431958662273683 0.059142054425962536 0 -0.031433249606870793 0.05934068783152352 0 -0.031405282924009799 0.05924266663355883 0 -0.031431958662273683 0.059142054425962536 0 -0.031481268595618069 0.059244353287594448 0 -0.031433249606870793 0.05934068783152352 0 -0.031481268595618069 0.059244353287594448 0 -0.031462942267487436 0.059427357631823781 0 -0.031433249606870793 0.05934068783152352 0 -0.03144349350941833 0.059459802425183332 0 -0.031462942267487436 0.059427357631823781 0 -0.031433249606870793 0.05934068783152352 0 -0.031417893176317262 0.059507160926375625 0 -0.03144349350941833 0.059459802425183332 0 -0.031433249606870793 0.05934068783152352 0 -0.031417893176317262 0.059507160926375625 0 -0.031433249606870793 0.05934068783152352 0 -0.031388687358888528 0.059344783569096324 0 -0.031388687358888528 0.059344783569096324 0 -0.031405282924009799 0.05924266663355883 0 -0.031362051490814585 0.059136483770478872 0 -0.031433249606870793 0.05934068783152352 0 -0.031388687358888528 0.059344783569096324 0 -0.031405282924009799 0.05924266663355883 0 -0.031388687358888528 0.059344783569096324 0 -0.031313103411306026 0.059219806092991635 0 -0.031362051490814585 0.059136483770478872 0 -0.031388687358888528 0.059344783569096324 0 -0.031352251752039796 0.059440086550338528 0 -0.031313103411306026 0.059219806092991635 0 -0.03137557409543635 0.059522929008041091 0 -0.031388687358888528 0.059344783569096324 0 -0.031352251752039796 0.059440086550338528 0 -0.031852409865894708 0.058490201778072078 0 -0.031945248467864375 0.05821689211475442 0 -0.031352251752039796 0.059440086550338528 0 -0.031207226238004912 0.059217595383007124 0 -0.031313103411306026 0.059219806092991635 0 -0.031384120986967967 0.059594178064735111 0 -0.031352251752039796 0.059440086550338528 0 -0.031363402577131848 0.059337057488074385 0 -0.031207226238004912 0.059217595383007124 0 -0.031255429604729053 0.05903528303391032 0 -0.031169089522587082 0.059057004741466884 0 -0.031207226238004912 0.059217595383007124 0 -0.031313103411306026 0.059219806092991635 0 -0.031255429604729053 0.05903528303391032 0 -0.031313103411306026 0.059219806092991635 0 -0.031255429604729053 0.05903528303391032 0 -0.031362051490814585 0.059136483770478872 0 -0.031255429604729053 0.05903528303391032 0 -0.031343089146780474 0.058991619981591248 0 -0.031304396119944608 0.058898347615252936 0 -0.031415032409860703 0.058997235664888147 0 -0.031343089146780474 0.058991619981591248 0 -0.031362051490814585 0.059136483770478872 0 -0.031431958662273683 0.059142054425962536 0 -0.031405282924009799 0.05924266663355883 0 -0.031362051490814585 0.059136483770478872 0 -0.031415032409860703 0.058997235664888147 0 -0.031431958662273683 0.059142054425962536 0 -0.031362051490814585 0.059136483770478872 0 -0.031255429604729053 0.05903528303391032 0 -0.031343089146780474 0.058991619981591248 0 -0.031362051490814585 0.059136483770478872 0 -0.030561929935182641 0.058775849078652256 0 -0.030909127209080792 0.05891747444059952 0 -0.030509050260744519 0.058603110410032466 0 -0.030561929935182641 0.058775849078652256 0 -0.030534916377672579 0.059076040643350737 0 -0.030909127209080792 0.05891747444059952 0 -0.030802771310979707 0.059358174529199351 0 -0.030532814110919664 0.0594044190559401 0 -0.030534916377672579 0.059076040643350737 0 -0.031207524605931219 0.059440776879528576 0 -0.030802771310979707 0.059358174529199351 0 -0.030909127209080792 0.05891747444059952 0 -0.030802771310979707 0.059358174529199351 0 -0.030534916377672579 0.059076040643350737 0 -0.030909127209080792 0.05891747444059952 0 -0.031207524605931219 0.059440776879528576 0 -0.031363402577131848 0.059337057488074385 0 -0.031249106021035256 0.059183987778648736 0 -0.031207524605931219 0.059440776879528576 0 -0.031076054036622731 0.059248457983193968 0 -0.031249106021035256 0.059183987778648736 0 -0.031076054036622731 0.059248457983193968 0 -0.031249106021035256 0.059183987778648736 0 -0.031096650316161861 0.05898795184315328 0 -0.032635577520088645 0.057995940005809814 0 -0.033115528848990307 0.057287268172546237 0 -0.031945248467864375 0.05821689211475442 0 -0.032346064215395376 0.057337378254002015 0 -0.031255429604729053 0.05903528303391032 0 -0.031169089522587082 0.059057004741466884 0 -0.031192827851155142 0.05894176070694189 0 -0.031255429604729053 0.05903528303391032 0 -0.031192827851155142 0.05894176070694189 0 -0.031234322858850538 0.058885833956460562 0 -0.031192827851155142 0.05894176070694189 0 -0.03118754279948522 0.058924329943527726 0 -0.03121302306637995 0.058889852246836114 0 -0.031192827851155142 0.05894176070694189 0 -0.03121302306637995 0.058889852246836114 0 -0.031206339362285205 0.058885229108279306 0 -0.031169089522587082 0.059057004741466884 0 -0.031192827851155142 0.05894176070694189 0 -0.03118754279948522 0.058924329943527726 0 -0.032346064215395376 0.057337378254002015 0 -0.033327020421223867 0.055471929803435287 0 -0.033115528848990307 0.057287268172546237 0 -0.035049983977220103 0.054738165516625768 0 -0.031076054036622731 0.059248457983193968 0 -0.031096650316161861 0.05898795184315328 0 -0.03088756122963221 0.058954406856757492 0 -0.033327020421223867 0.055471929803435287 0 -0.035392748422828066 0.05165881121094696 0 -0.03118754279948522 0.058924329943527726 0 -0.03121302306637995 0.058889852246836114 0 -0.031270124738309556 0.058841379874391198 0 -0.03121302306637995 0.058889852246836114 0 -0.031270124738309556 0.058841379874391198 0 -0.031259807545647104 0.058880348398163189 0 -0.031096650316161861 0.05898795184315328 0 -0.03088336564123282 0.058750238578284465 0 -0.03088756122963221 0.058954406856757492 0 -0.030680173455833803 0.058552256815057858 0 -0.03088336564123282 0.058750238578284465 0 -0.03088756122963221 0.058954406856757492 0 -0.030536881882316 0.05854768882102946 0 -0.030561929935182641 0.058775849078652256 0 -0.030509050260744519 0.058603110410032466 0 -0.059262918515813015 0.0062394130325643705 0 -0.056905052715939881 0.0022504453659955618 0 -0.055301565516309742 0.0065888676546376731 0 -0.031380122276007193 0.058834896098420991 0 -0.031270124738309556 0.058841379874391198 0 -0.031259807545647104 0.058880348398163189 0 -0.056905052715939881 0.0022504453659955618 0 -0.053342296051277813 0.0049478882963779943 0 -0.052933704161528941 0.0023479911824522896 0 -0.03121302306637995 0.058889852246836114 0 -0.031259807545647104 0.058880348398163189 0 -0.031206339362285205 0.058885229108279306 0 -0.042970384931658584 0.035614367576202254 0 -0.041884869966713499 0.032457672615531223 0 -0.056905052715939881 0.0022504453659955618 0 -0.053342296051277813 0.0049478882963779943 0 -0.055301565516309742 0.0065888676546376731 0 -0.053342296051277813 0.0049478882963779943 0 -0.052933704161528941 0.0023479911824522896 0 -0.049000782274992591 0.002447788730605581 0 -0.031192827851155142 0.05894176070694189 0 -0.031206339362285205 0.058885229108279306 0 -0.031234322858850538 0.058885833956460562 0 -0.041884869966713499 0.032457672615531223 0 -0.040066679254094024 0.030368623449437703 0 -0.053342296051277813 0.0049478882963779943 0 -0.049000782274992591 0.002447788730605581 0 -0.048896143313316723 0.0056072230488093339 0 -0.051752359440628677 0.0070656016663225877 0 -0.048896143313316723 0.0056072230488093339 0 -0.048134762189682712 0.0084697069113511964 0 -0.053342296051277813 0.0049478882963779943 0 -0.051752359440628677 0.0070656016663225877 0 -0.048896143313316723 0.0056072230488093339 0 -0.048134762189682712 0.0084697069113511964 0 -0.047751576628916707 0.010603175688092204 0 -0.050961682965434338 0.011457305838438511 0 -0.051752359440628677 0.0070656016663225877 0 -0.048134762189682712 0.0084697069113511964 0 -0.050961682965434338 0.011457305838438511 0 -0.051752359440628677 0.0070656016663225877 0 -0.053776248733770293 0.0090776302122397116 0 -0.050961682965434338 0.011457305838438511 0 -0.053776248733770293 0.0090776302122397116 0 -0.054776815567584264 0.010431027366857425 0 -0.050961682965434338 0.011457305838438511 0 -0.053342296051277813 0.0049478882963779943 0 -0.051752359440628677 0.0070656016663225877 0 -0.055301565516309742 0.0065888676546376731 0 -0.051752359440628677 0.0070656016663225877 0 -0.055301565516309742 0.0065888676546376731 0 -0.053776248733770293 0.0090776302122397116 0 -0.055301565516309742 0.0065888676546376731 0 -0.053776248733770293 0.0090776302122397116 0 -0.055133638766854134 0.0086105193115619937 0 -0.055301565516309742 0.0065888676546376731 0 -0.055133638766854134 0.0086105193115619937 0 -0.056465618425257671 0.0085463134968771729 0 -0.053776248733770293 0.0090776302122397116 0 -0.054776815567584264 0.010431027366857425 0 -0.055133638766854134 0.0086105193115619937 0 -0.054776815567584264 0.010431027366857425 0 -0.055133638766854134 0.0086105193115619937 0 -0.056465618425257671 0.0085463134968771729 0 -0.054776815567584264 0.010431027366857425 0 -0.056465618425257671 0.0085463134968771729 0 -0.058569765881072711 0.0093906277080552953 0 -0.063184073654863282 -0.0041488895554061154 0 -0.067245324274621474 0.00046206924305814052 0 -0.059262918515813015 0.0062394130325643705 0 -0.055301565516309742 0.0065888676546376731 0 -0.056465618425257671 0.0085463134968771729 0 -0.059262918515813015 0.0062394130325643705 0 -0.056465618425257671 0.0085463134968771729 0 -0.058569765881072711 0.0093906277080552953 0 -0.043067878788623115 0.0048236214265480522 0 -0.03981073065628303 0.0051473288469787524 0 -0.042265867156312968 0.0075684510378616256 0 -0.043067878788623115 0.0048236214265480522 0 -0.03981073065628303 0.0051473288469787524 0 -0.041225741557354124 0.0026394546475753109 0 -0.037362097961293965 0.002739452012283991 0 -0.03981073065628303 0.0051473288469787524 0 -0.041225741557354124 0.0026394546475753109 0 -0.031415032409860703 0.058997235664888147 0 -0.031343089146780474 0.058991619981591248 0 -0.0313789841590984 0.05890397007994156 0 -0.043067878788623115 0.0048236214265480522 0 -0.041225741557354124 0.0026394546475753109 0 -0.045101280303703507 0.0025441105441244309 0 -0.035644639343713307 0.02435749921316778 0 -0.038054076565730371 0.028110409984927566 0 -0.031343089146780474 0.058991619981591248 0 -0.0313789841590984 0.05890397007994156 0 -0.031304396119944608 0.058898347615252936 0 -0.031255429604729053 0.05903528303391032 0 -0.031234322858850538 0.058885833956460562 0 -0.031304396119944608 0.058898347615252936 0 -0.040066679254094024 0.030368623449437703 0 -0.038054076565730371 0.028110409984927566 0 -0.049000782274992591 0.002447788730605581 0 -0.045101280303703507 0.0025441105441244309 0 -0.048896143313316723 0.0056072230488093339 0 -0.045101280303703507 0.0025441105441244309 0 -0.048896143313316723 0.0056072230488093339 0 -0.045487776606968046 0.0064179287749391621 0 -0.043067878788623115 0.0048236214265480522 0 -0.045101280303703507 0.0025441105441244309 0 -0.045487776606968046 0.0064179287749391621 0 -0.048896143313316723 0.0056072230488093339 0 -0.045487776606968046 0.0064179287749391621 0 -0.048134762189682712 0.0084697069113511964 0 -0.048134762189682712 0.0084697069113511964 0 -0.044728041118223323 0.010014368882998986 0 -0.047751576628916707 0.010603175688092204 0 -0.045487776606968046 0.0064179287749391621 0 -0.048134762189682712 0.0084697069113511964 0 -0.044728041118223323 0.010014368882998986 0 -0.045568464690193912 -0.0067743074259966783 0 -0.040407075998762559 -0.0040133877878920279 0 -0.045423415309654873 -0.022572906035439714 0 -0.044033554561504269 -0.023630598785804598 0 -0.044417977959187782 -0.022026353089161298 0 -0.043067878788623115 0.0048236214265480522 0 -0.045487776606968046 0.0064179287749391621 0 -0.042265867156312968 0.0075684510378616256 0 -0.045487776606968046 0.0064179287749391621 0 -0.044728041118223323 0.010014368882998986 0 -0.042265867156312968 0.0075684510378616256 0 -0.042863451261321128 -0.024245772883014594 0 -0.044033554561504269 -0.023630598785804598 0 -0.042828967364241265 -0.023480854885500665 0 -0.035045865119504228 0.001628171169095296 0 -0.040407075998762559 -0.0040133877878920279 0 -0.044033554561504269 -0.023630598785804598 0 -0.043343398393906774 -0.022517761751910476 0 -0.044417977959187782 -0.022026353089161298 0 -0.044033554561504269 -0.023630598785804598 0 -0.042828967364241265 -0.023480854885500665 0 -0.043343398393906774 -0.022517761751910476 0 -0.043343398393906774 -0.022517761751910476 0 -0.043787696127499026 -0.021508596438470192 0 -0.042950545164663401 -0.021052715159410335 0 -0.043343398393906774 -0.022517761751910476 0 -0.043787696127499026 -0.021508596438470192 0 -0.044417977959187782 -0.022026353089161298 0 -0.042122057792236663 -0.022623775677473014 0 -0.042477837269283877 -0.022047743648906565 0 -0.042093563739417597 -0.022405559031194334 0 -0.042950545164663401 -0.021052715159410335 0 -0.04393699427049208 -0.020603109851313865 0 -0.043976385035485711 -0.019143556432301888 0 -0.043123207180891007 -0.021926065804438115 0 -0.044156232515901297 -0.020969885805506142 0 -0.043787696127499026 -0.021508596438470192 0 -0.042950545164663401 -0.021052715159410335 0 -0.04393699427049208 -0.020603109851313865 0 -0.043787696127499026 -0.021508596438470192 0 -0.04393699427049208 -0.020603109851313865 0 -0.044463884303080771 -0.021137493877643569 0 -0.045400725706839638 -0.020106185707647176 0 -0.044486873706736006 -0.020121557919571379 0 -0.044463884303080771 -0.021137493877643569 0 -0.04393699427049208 -0.020603109851313865 0 -0.044486873706736006 -0.020121557919571379 0 -0.044463884303080771 -0.021137493877643569 0 -0.045423415309654873 -0.022572906035439714 0 -0.044417977959187782 -0.022026353089161298 0 -0.045461378621246003 -0.021020278082713981 0 -0.044463884303080771 -0.021137493877643569 0 -0.044417977959187782 -0.022026353089161298 0 -0.045461378621246003 -0.021020278082713981 0 -0.043787696127499026 -0.021508596438470192 0 -0.044463884303080771 -0.021137493877643569 0 -0.044417977959187782 -0.022026353089161298 0 -0.044728041118223323 0.010014368882998986 0 -0.047751576628916707 0.010603175688092204 0 -0.047193154348232902 0.012474897143661798 0 -0.05089086809708214 -0.0098356428632604825 0 -0.049890507343088919 -0.011016741529354107 0 -0.045568464690193912 -0.0067743074259966783 0 -0.05089086809708214 -0.0098356428632604825 0 -0.045423415309654873 -0.022572906035439714 0 -0.046703078666005392 -0.02134869276051355 0 -0.045461378621246003 -0.021020278082713981 0 -0.047751576628916707 0.010603175688092204 0 -0.047193154348232902 0.012474897143661798 0 -0.050961682965434338 0.011457305838438511 0 -0.046932933047849651 -0.021457735679949044 0 -0.046255605769399792 -0.020547840837594082 0 -0.048576557087651996 -0.019834520796228158 0 -0.048216142648725542 -0.017111584003506014 0 -0.05728864156036069 -0.012322000359417405 0 -0.05089086809708214 -0.0098356428632604825 0 -0.05728864156036069 -0.012322000359417405 0 -0.046533781995593756 -0.020757420951277201 0 -0.047469743884826582 -0.020015087739388225 0 -0.048537253254024637 -0.020155726672832511 0 -0.046533781995593756 -0.020757420951277201 0 -0.04649657945723995 -0.019744838989767286 0 -0.047469743884826582 -0.020015087739388225 0 -0.045400725706839638 -0.020106185707647176 0 -0.044463884303080771 -0.021137493877643569 0 -0.046533781995593756 -0.020757420951277201 0 -0.044463884303080771 -0.021137493877643569 0 -0.045461378621246003 -0.021020278082713981 0 -0.046255605769399792 -0.020547840837594082 0 -0.046932933047849651 -0.021457735679949044 0 -0.045461378621246003 -0.021020278082713981 0 -0.046255605769399792 -0.020547840837594082 0 -0.04625234691481226 -0.018205036173433893 0 -0.048216142648725542 -0.017111584003506014 0 -0.045400725706839638 -0.020106185707647176 0 -0.046533781995593756 -0.020757420951277201 0 -0.04649657945723995 -0.019744838989767286 0 -0.045400725706839638 -0.020106185707647176 0 -0.04649657945723995 -0.019744838989767286 0 -0.045760865273660412 -0.019339088375118232 0 -0.04649657945723995 -0.019744838989767286 0 -0.046344326696973075 -0.018957423088362513 0 -0.045760865273660412 -0.019339088375118232 0 -0.04649657945723995 -0.019744838989767286 0 -0.046344326696973075 -0.018957423088362513 0 -0.047298267964540383 -0.019043474968834542 0 -0.046344326696973075 -0.018957423088362513 0 -0.045760865273660412 -0.019339088375118232 0 -0.04581938150653353 -0.018560646847832828 0 -0.048431286124073429 -0.020073885433940682 0 -0.050753605241181526 -0.022235844909843972 0 -0.050437585849160721 -0.018845321246408312 0 -0.05355302841950129 -0.014111726251960428 0 -0.05728864156036069 -0.012322000359417405 0 -0.047469743884826582 -0.020015087739388225 0 -0.047298267964540383 -0.019043474968834542 0 -0.048537253254024637 -0.020155726672832511 0 -0.04649657945723995 -0.019744838989767286 0 -0.047469743884826582 -0.020015087739388225 0 -0.047298267964540383 -0.019043474968834542 0 -0.048598347306343485 -0.017879358450141825 0 -0.0474048902842985 -0.018328678359245714 0 -0.049509054781698238 -0.018612928902398549 0 -0.048431286124073429 -0.020073885433940682 0 -0.0474048902842985 -0.018328678359245714 0 -0.050437585849160721 -0.018845321246408312 0 -0.051734712103447975 -0.014748278319758909 0 -0.053984520779330851 -0.014465600413945606 0 -0.048598347306343485 -0.017879358450141825 0 -0.0474048902842985 -0.018328678359245714 0 -0.047468248040177102 -0.017481129337315927 0 -0.045760865273660412 -0.019339088375118232 0 -0.04581938150653353 -0.018560646847832828 0 -0.045065844493292137 -0.018519802965288698 0 -0.046344326696973075 -0.018957423088362513 0 -0.04581938150653353 -0.018560646847832828 0 -0.046262257008410169 -0.017991842530401373 0 -0.048431286124073429 -0.020073885433940682 0 -0.0474048902842985 -0.018328678359245714 0 -0.046262257008410169 -0.017991842530401373 0 -0.046344326696973075 -0.018957423088362513 0 -0.047298267964540383 -0.019043474968834542 0 -0.046262257008410169 -0.017991842530401373 0 -0.05355302841950129 -0.014111726251960428 0 -0.052131130983674383 -0.01435684405033672 0 -0.0474048902842985 -0.018328678359245714 0 -0.04646695625958628 -0.017411158408536891 0 -0.047468248040177102 -0.017481129337315927 0 -0.0474048902842985 -0.018328678359245714 0 -0.046262257008410169 -0.017991842530401373 0 -0.04646695625958628 -0.017411158408536891 0 -0.046262257008410169 -0.017991842530401373 0 -0.045717645036061245 -0.017918079363109508 0 -0.04646695625958628 -0.017411158408536891 0 -0.04581938150653353 -0.018560646847832828 0 -0.046262257008410169 -0.017991842530401373 0 -0.045717645036061245 -0.017918079363109508 0 -0.044156232515901297 -0.020969885805506142 0 -0.045892188207602103 -0.020145616279538002 0 -0.045717645036061245 -0.017918079363109508 0 -0.045065844493292137 -0.018519802965288698 0 -0.045037388461049502 -0.016960139882624521 0 -0.045065844493292137 -0.018519802965288698 0 -0.043976385035485711 -0.019143556432301888 0 -0.045037388461049502 -0.016960139882624521 0 -0.042477837269283877 -0.022047743648906565 0 -0.042385189496326296 -0.021468712360110317 0 -0.042839145464337605 -0.021371656648672421 0 -0.04581938150653353 -0.018560646847832828 0 -0.045717645036061245 -0.017918079363109508 0 -0.045065844493292137 -0.018519802965288698 0 -0.042208841347391286 -0.021770456129801601 0 -0.042477837269283877 -0.022047743648906565 0 -0.04202573663063508 -0.021997168724215768 0 -0.042208841347391286 -0.021770456129801601 0 -0.042477837269283877 -0.022047743648906565 0 -0.042385189496326296 -0.021468712360110317 0 -0.042208841347391286 -0.021770456129801601 0 -0.042385189496326296 -0.021468712360110317 0 -0.041948495099532447 -0.021565628918418015 0 -0.042477837269283877 -0.022047743648906565 0 -0.04202573663063508 -0.021997168724215768 0 -0.042093563739417597 -0.022405559031194334 0 -0.04393699427049208 -0.020603109851313865 0 -0.044486873706736006 -0.020121557919571379 0 -0.043976385035485711 -0.019143556432301888 0 -0.044486873706736006 -0.020121557919571379 0 -0.043976385035485711 -0.019143556432301888 0 -0.044859408642496698 -0.019404433867621224 0 -0.045400725706839638 -0.020106185707647176 0 -0.045760865273660412 -0.019339088375118232 0 -0.044859408642496698 -0.019404433867621224 0 -0.045400725706839638 -0.020106185707647176 0 -0.044486873706736006 -0.020121557919571379 0 -0.044859408642496698 -0.019404433867621224 0 -0.045760865273660412 -0.019339088375118232 0 -0.045065844493292137 -0.018519802965288698 0 -0.044859408642496698 -0.019404433867621224 0 -0.045065844493292137 -0.018519802965288698 0 -0.043976385035485711 -0.019143556432301888 0 -0.044859408642496698 -0.019404433867621224 0 -0.080847086775124782 -0.0026497127760630622 0 -0.081858435882784089 -0.0013393505637559313 0 -0.082138676307455111 -0.0033835903043750028 0 -0.079325973872866717 -0.0032627934754846325 0 -0.080646234002561254 -0.0039758986623559785 0 -0.080847086775124782 -0.0026497127760630622 0 -0.080646234002561254 -0.0039758986623559785 0 -0.080847086775124782 -0.0026497127760630622 0 -0.082138676307455111 -0.0033835903043750028 0 -0.079159759799913867 -0.00095399458214772749 0 -0.080847086775124782 -0.0026497127760630622 0 -0.081858435882784089 -0.0013393505637559313 0 -0.079159759799913867 -0.00095399458214772749 0 -0.080147475014829106 0.0011881676775251759 0 -0.081858435882784089 -0.0013393505637559313 0 -0.083205519502554059 5.1468991239506901e-05 0 -0.080147475014829106 0.0011881676775251759 0 -0.081858435882784089 -0.0013393505637559313 0 -0.081858435882784089 -0.0013393505637559313 0 -0.083421475586395677 -0.0013873950905328434 0 -0.083597441947957762 -0.0023756456493207304 0 -0.083205519502554059 5.1468991239506901e-05 0 -0.083421475586395677 -0.0013873950905328434 0 -0.084886828302013939 -0.0018963753263031233 0 -0.083205519502554059 5.1468991239506901e-05 0 -0.081858435882784089 -0.0013393505637559313 0 -0.083421475586395677 -0.0013873950905328434 0 -0.081858435882784089 -0.0013393505637559313 0 -0.083597441947957762 -0.0023756456493207304 0 -0.082138676307455111 -0.0033835903043750028 0 -0.083597441947957762 -0.0023756456493207304 0 -0.082138676307455111 -0.0033835903043750028 0 -0.084294688739448717 -0.0045036175129861671 0 -0.069595819796319763 -0.0093808305865854761 0 -0.06806066961028169 -0.010883141758348935 0 -0.084634888582123854 -0.0029502213977551 0 -0.086398697735211832 -0.0034942595639799075 0 -0.084121366025314295 -0.0039920395034805474 0 -0.083597441947957762 -0.0023756456493207304 0 -0.084634888582123854 -0.0029502213977551 0 -0.084121366025314295 -0.0039920395034805474 0 -0.084634888582123854 -0.0029502213977551 0 -0.084886828302013939 -0.0018963753263031233 0 -0.086398697735211832 -0.0034942595639799075 0 -0.083597441947957762 -0.0023756456493207304 0 -0.084634888582123854 -0.0029502213977551 0 -0.084886828302013939 -0.0018963753263031233 0 -0.063184073654863282 -0.0041488895554061154 0 -0.054648438057851696 -0.0045023199970230252 0 -0.060146916558292539 -0.0083360753259516286 0 -0.058803315694023715 -0.0071155144729286336 0 -0.058072826890713525 -0.0077916642767380711 0 -0.063184073654863282 -0.0041488895554061154 0 -0.063815581472984023 -0.0088588819782747345 0 -0.083421475586395677 -0.0013873950905328434 0 -0.083597441947957762 -0.0023756456493207304 0 -0.084886828302013939 -0.0018963753263031233 0 -0.05089086809708214 -0.0098356428632604825 0 -0.054648438057851696 -0.0045023199970230252 0 -0.058803315694023715 -0.0071155144729286336 0 -0.058072826890713525 -0.0077916642767380711 0 -0.057532912084231357 -0.0067880339062385761 0 -0.056007353447359777 -0.0072306431009429122 0 -0.058072826890713525 -0.0077916642767380711 0 -0.057532912084231357 -0.0067880339062385761 0 -0.063815581472984023 -0.0088588819782747345 0 -0.05728864156036069 -0.012322000359417405 0 -0.058803315694023715 -0.0071155144729286336 0 -0.057532912084231357 -0.0067880339062385761 0 -0.057408046160684428 -0.0058262979416878182 0 -0.056007353447359777 -0.0072306431009429122 0 -0.057532912084231357 -0.0067880339062385761 0 -0.057408046160684428 -0.0058262979416878182 0 -0.05728864156036069 -0.012322000359417405 0 -0.061675835093635098 -0.013590439726708599 0 -0.050753605241181526 -0.022235844909843972 0 -0.050437585849160721 -0.018845321246408312 0 -0.053528406975637613 -0.019446496674835369 0 -0.061117858763779377 -0.010798628773321876 0 -0.061758983984750118 -0.010170934123373712 0 -0.061570883260186733 -0.010519084445359591 0 -0.053984520779330851 -0.014465600413945606 0 -0.061675835093635098 -0.013590439726708599 0 -0.049509054781698238 -0.018612928902398549 0 -0.050177420914442446 -0.018444213844940039 0 -0.04995954719291041 -0.018246089559322231 0 -0.048598347306343485 -0.017879358450141825 0 -0.049509054781698238 -0.018612928902398549 0 -0.049860109600585914 -0.017976869319121062 0 -0.049509054781698238 -0.018612928902398549 0 -0.049860109600585914 -0.017976869319121062 0 -0.04995954719291041 -0.018246089559322231 0 -0.049860109600585914 -0.017976869319121062 0 -0.04995954719291041 -0.018246089559322231 0 -0.049797068283172409 -0.018087170411137457 0 -0.04995954719291041 -0.018246089559322231 0 -0.050213796039545219 -0.018385296608895877 0 -0.049797068283172409 -0.018087170411137457 0 -0.062180954810305528 -0.014367265878472714 0 -0.061814460513113817 -0.014742883511840469 0 -0.062326693394153108 -0.014825088572469744 0 -0.062549842038564923 -0.013478728179177144 0 -0.059999594870987612 -0.014943259812374484 0 -0.050177420914442446 -0.018444213844940039 0 -0.04995954719291041 -0.018246089559322231 0 -0.050213796039545219 -0.018385296608895877 0 -0.066735139665348969 -0.012126803679011635 0 -0.066790553012934878 -0.012296421341084452 0 -0.06788542287434586 -0.010970193141189577 0 -0.062549842038564923 -0.013478728179177144 0 -0.063185059580089104 -0.013271646734871672 0 -0.068329186371884301 -0.010170367564629055 0 -0.0630954710503593 -0.015461642358589909 0 -0.060892636495531463 -0.0086719509818579208 0 -0.061675835093635098 -0.013590439726708599 0 -0.063185059580089104 -0.013271646734871672 0 -0.061675835093635098 -0.013590439726708599 0 -0.062549842038564923 -0.013478728179177144 0 -0.063185059580089104 -0.013271646734871672 0 -0.06806066961028169 -0.010883141758348935 0 -0.0618454475233002 -0.010188100542562648 0 -0.061570883260186733 -0.010519084445359591 0 -0.061987313515460545 -0.01061545194090586 0 -0.061117858763779377 -0.010798628773321876 0 -0.061570883260186733 -0.010519084445359591 0 -0.061987313515460545 -0.01061545194090586 0 -0.05728864156036069 -0.012322000359417405 0 -0.06806066961028169 -0.010883141758348935 0 -0.061758983984750118 -0.010170934123373712 0 -0.0618454475233002 -0.010188100542562648 0 -0.061570883260186733 -0.010519084445359591 0 -0.063185059580089104 -0.013271646734871672 0 -0.072589161563891919 -0.010799345895752776 0 -0.06806066961028169 -0.010883141758348935 0 -0.072589161563891919 -0.010799345895752776 0 -0.065954734669176618 -0.011994603408053008 0 -0.066532866015809516 -0.013762872727627848 0 -0.070181194030841373 -0.012839793949625101 0 -0.082138676307455111 -0.0033835903043750028 0 -0.084294688739448717 -0.0045036175129861671 0 -0.081217609809879659 -0.0053679544478338623 0 -0.066790553012934878 -0.012296421341084452 0 -0.06902298634080721 -0.012741583496612512 0 -0.06788542287434586 -0.010970193141189577 0 -0.062549842038564923 -0.013478728179177144 0 -0.065215854550970231 -0.013261180822165356 0 -0.069571911982318768 -0.011230847776747582 0 -0.06902298634080721 -0.012741583496612512 0 -0.06788542287434586 -0.010970193141189577 0 -0.074163574436611382 -0.010635651000287051 0 -0.072589161563891919 -0.010799345895752776 0 -0.080646234002561254 -0.0039758986623559785 0 -0.082138676307455111 -0.0033835903043750028 0 -0.081217609809879659 -0.0053679544478338623 0 -0.079613281934021354 -0.0051807681893464193 0 -0.080646234002561254 -0.0039758986623559785 0 -0.081217609809879659 -0.0053679544478338623 0 -0.069771779173666434 -0.011418062245436069 0 -0.06859759229682183 -0.012171124437828671 0 -0.069136049424665322 -0.012109136578202832 0 -0.06859759229682183 -0.012171124437828671 0 -0.069136049424665322 -0.012109136578202832 0 -0.0681866585030486 -0.012518866236301275 0 -0.069435418936195564 -0.012543234647343719 0 -0.069136049424665322 -0.012109136578202832 0 -0.068410198224306412 -0.012733485354566174 0 -0.069435418936195564 -0.012543234647343719 0 -0.068410198224306412 -0.012733485354566174 0 -0.068160927597326809 -0.013015772132896838 0 -0.068527288813466897 -0.012443238765223399 0 -0.065215854550970231 -0.013261180822165356 0 -0.069136049424665322 -0.012109136578202832 0 -0.068410198224306412 -0.012733485354566174 0 -0.0681866585030486 -0.012518866236301275 0 -0.068410198224306412 -0.012733485354566174 0 -0.067841959533326751 -0.012823244407241599 0 -0.0681866585030486 -0.012518866236301275 0 -0.068410198224306412 -0.012733485354566174 0 -0.068048137756472199 -0.013078809310482617 0 -0.067841959533326751 -0.012823244407241599 0 -0.065368751011471618 -0.013157321800393296 0 -0.065215854550970231 -0.013261180822165356 0 -0.067841959533326751 -0.012823244407241599 0 -0.0681866585030486 -0.012518866236301275 0 -0.067584417366123875 -0.012707128806361248 0 -0.0681866585030486 -0.012518866236301275 0 -0.067571650193172308 -0.012528896085365119 0 -0.067584417366123875 -0.012707128806361248 0 -0.06859759229682183 -0.012171124437828671 0 -0.0681866585030486 -0.012518866236301275 0 -0.067571650193172308 -0.012528896085365119 0 -0.06859759229682183 -0.012171124437828671 0 -0.067571650193172308 -0.012528896085365119 0 -0.067147951775381534 -0.012554089412846832 0 -0.067571650193172308 -0.012528896085365119 0 -0.067584417366123875 -0.012707128806361248 0 -0.067060624120156884 -0.01287360186824202 0 -0.067584417366123875 -0.012707128806361248 0 -0.067340516468412479 -0.012936051082681197 0 -0.067060624120156884 -0.01287360186824202 0 -0.068048137756472199 -0.013078809310482617 0 -0.067841959533326751 -0.012823244407241599 0 -0.067340516468412479 -0.012936051082681197 0 -0.065215854550970231 -0.013261180822165356 0 -0.059999594870987612 -0.014943259812374484 0 -0.067841959533326751 -0.012823244407241599 0 -0.067584417366123875 -0.012707128806361248 0 -0.067340516468412479 -0.012936051082681197 0 -0.049860109600585914 -0.017976869319121062 0 -0.049797068283172409 -0.018087170411137457 0 -0.050203444759816314 -0.018645083376311919 0 -0.052132700630152504 -0.019380462192708607 0 -0.051889096911661527 -0.019350917935602788 0 -0.052020788284333139 -0.019040828886585461 0 -0.059999594870987612 -0.014943259812374484 0 -0.055301680307668334 -0.015557301704347279 0 -0.051889096911661527 -0.019350917935602788 0 -0.052020788284333139 -0.019040828886585461 0 -0.051805386147588769 -0.019147070363816965 0 -0.059999594870987612 -0.014943259812374484 0 -0.059409099330839051 -0.01573855118361233 0 -0.059409099330839051 -0.01573855118361233 0 -0.058632591516046537 -0.01590737152868071 0 -0.052020788284333139 -0.019040828886585461 0 -0.052017318453631792 -0.018683319923981385 0 -0.051747655975283954 -0.018984172566046266 0 -0.067060624120156884 -0.01287360186824202 0 -0.066152683576241114 -0.014445966522363416 0 -0.066573549383136782 -0.013855381611381574 0 -0.066152683576241114 -0.014445966522363416 0 -0.066573549383136782 -0.013855381611381574 0 -0.065919368550161367 -0.014786393070668886 0 -0.066573549383136782 -0.013855381611381574 0 -0.065995521992180339 -0.014625137598018615 0 -0.065919368550161367 -0.014786393070668886 0 -0.067571650193172308 -0.012528896085365119 0 -0.067060624120156884 -0.01287360186824202 0 -0.067147951775381534 -0.012554089412846832 0 -0.067060624120156884 -0.01287360186824202 0 -0.066573549383136782 -0.013855381611381574 0 -0.067147951775381534 -0.012554089412846832 0 -0.06859759229682183 -0.012171124437828671 0 -0.067147951775381534 -0.012554089412846832 0 -0.069218686271177124 -0.011622882804368549 0 -0.067795343471602348 -0.013201353234228167 0 -0.068018208085941292 -0.013270812855423217 0 -0.067147951775381534 -0.012554089412846832 0 -0.069218686271177124 -0.011622882804368549 0 -0.069616050190864517 -0.010912735935603404 0 -0.066573549383136782 -0.013855381611381574 0 -0.067147951775381534 -0.012554089412846832 0 -0.065995521992180339 -0.014625137598018615 0 -0.070004082624860214 -0.011133444055361133 0 -0.069616050190864517 -0.010912735935603404 0 -0.070024214717715846 -0.011464123017283799 0 -0.070004082624860214 -0.011133444055361133 0 -0.069218686271177124 -0.011622882804368549 0 -0.069616050190864517 -0.010912735935603404 0 -0.069771779173666434 -0.011418062245436069 0 -0.06859759229682183 -0.012171124437828671 0 -0.069218686271177124 -0.011622882804368549 0 -0.069771779173666434 -0.011418062245436069 0 -0.070004082624860214 -0.011133444055361133 0 -0.069218686271177124 -0.011622882804368549 0 -0.051268683454518328 -0.019338860030778417 0 -0.051437758658340708 -0.019243529226863555 0 -0.051182509915160969 -0.019212234995068991 0 -0.051268683454518328 -0.019338860030778417 0 -0.051047547754730242 -0.019285975452347552 0 -0.051182509915160969 -0.019212234995068991 0 -0.048416982404623603 -0.019973632226062576 0 -0.04954303680512423 -0.019516048026264426 0 -0.048683003922849667 -0.019878387331070974 0 -0.048416982404623603 -0.019973632226062576 0 -0.047033954968670362 -0.020129084498149357 0 -0.046759988878448913 -0.020031254714186958 0 -0.046872348843002662 -0.020186679558533441 0 -0.046759988878448913 -0.020031254714186958 0 -0.046872348843002662 -0.020186679558533441 0 -0.04674461662684546 -0.020207052356121583 0 -0.046872348843002662 -0.020186679558533441 0 -0.046853595725999432 -0.020329638909421868 0 -0.047001310671902857 -0.020217637828017193 0 -0.04674461662684546 -0.020207052356121583 0 -0.046853595725999432 -0.020329638909421868 0 -0.046640535561988036 -0.020375285764458725 0 -0.045037927679340693 -0.02080797132833738 0 -0.044620322365550406 -0.021378095755900665 0 -0.046872348843002662 -0.020186679558533441 0 -0.04674461662684546 -0.020207052356121583 0 -0.046853595725999432 -0.020329638909421868 0 -0.046853595725999432 -0.020329638909421868 0 -0.047001310671902857 -0.020217637828017193 0 -0.047068678264300882 -0.020282610146455181 0 -0.045037927679340693 -0.02080797132833738 0 -0.045892188207602103 -0.020145616279538002 0 -0.047033954968670362 -0.020129084498149357 0 -0.046872348843002662 -0.020186679558533441 0 -0.047001310671902857 -0.020217637828017193 0 -0.047033954968670362 -0.020129084498149357 0 -0.047001310671902857 -0.020217637828017193 0 -0.04709496371926012 -0.020230974504837226 0 -0.047001310671902857 -0.020217637828017193 0 -0.04709496371926012 -0.020230974504837226 0 -0.047068678264300882 -0.020282610146455181 0 -0.045905307893645921 -0.02013776491969849 0 -0.045892188207602103 -0.020145616279538002 0 -0.045037388461049502 -0.016960139882624521 0 -0.04646695625958628 -0.017411158408536891 0 -0.047087360226547116 -0.016452073267656828 0 -0.04709496371926012 -0.020230974504837226 0 -0.047068977046904728 -0.020281450717165587 0 -0.047313015825696289 -0.02022591090319318 0 -0.047033954968670362 -0.020129084498149357 0 -0.04709496371926012 -0.020230974504837226 0 -0.047313015825696289 -0.02022591090319318 0 -0.048683003922849667 -0.019878387331070974 0 -0.048140204179746203 -0.01962526713277269 0 -0.045892188207602103 -0.020145616279538002 0 -0.048140204179746203 -0.01962526713277269 0 -0.045717645036061245 -0.017918079363109508 0 -0.045037388461049502 -0.016960139882624521 0 -0.04646695625958628 -0.017411158408536891 0 -0.04646695625958628 -0.017411158408536891 0 -0.047087360226547116 -0.016452073267656828 0 -0.047468248040177102 -0.017481129337315927 0 -0.051636851898220371 -0.019261366758318497 0 -0.051624036429922596 -0.019240025252219406 0 -0.051437758658340708 -0.019243529226863555 0 -0.05169663550586142 -0.019211089649470433 0 -0.051636851898220371 -0.019261366758318497 0 -0.051624036429922596 -0.019240025252219406 0 -0.048166950759969851 -0.019620327095956111 0 -0.048140204179746203 -0.01962526713277269 0 -0.051889096911661527 -0.019350917935602788 0 -0.051545425768186125 -0.019220607194189471 0 -0.051676176336661959 -0.01921356620998901 0 -0.049860109600585914 -0.017976869319121062 0 -0.050203444759816314 -0.018645083376311919 0 -0.051545425768186125 -0.019220607194189471 0 -0.049860109600585914 -0.017976869319121062 0 -0.05169663550586142 -0.019211089649470433 0 -0.051545425768186125 -0.019220607194189471 0 -0.048598347306343485 -0.017879358450141825 0 -0.049860109600585914 -0.017976869319121062 0 -0.047087360226547116 -0.016452073267656828 0 -0.049860109600585914 -0.017976869319121062 0 -0.05169663550586142 -0.019211089649470433 0 -0.051870309850144541 -0.019199040893652538 0 -0.055301680307668334 -0.015557301704347279 0 -0.054186753160095899 -0.01580880388844319 0 -0.048747718664819577 -0.019292246437022591 0 -0.048140204179746203 -0.01962526713277269 0 -0.048598347306343485 -0.017879358450141825 0 -0.047087360226547116 -0.016452073267656828 0 -0.047468248040177102 -0.017481129337315927 0 -0.05169663550586142 -0.019211089649470433 0 -0.051624036429922596 -0.019240025252219406 0 -0.051545425768186125 -0.019220607194189471 0 -0.051624036429922596 -0.019240025252219406 0 -0.051545425768186125 -0.019220607194189471 0 -0.051676176336661959 -0.01921356620998901 0 -0.051889096911661527 -0.019350917935602788 0 -0.051676176336661959 -0.01921356620998901 0 -0.051805386147588769 -0.019147070363816965 0 -0.052020788284333139 -0.019040828886585461 0 -0.051805386147588769 -0.019147070363816965 0 -0.051747655975283954 -0.018984172566046266 0 -0.051676176336661959 -0.01921356620998901 0 -0.051805386147588769 -0.019147070363816965 0 -0.051659227015332841 -0.019171352108794667 0 -0.051624036429922596 -0.019240025252219406 0 -0.051676176336661959 -0.01921356620998901 0 -0.051659227015332841 -0.019171352108794667 0 -0.051659227015332841 -0.019171352108794667 0 -0.051584122267934344 -0.019107626467283728 0 -0.051747655975283954 -0.018984172566046266 0 -0.051805386147588769 -0.019147070363816965 0 -0.051659227015332841 -0.019171352108794667 0 -0.051747655975283954 -0.018984172566046266 0 -0.051268683454518328 -0.019338860030778417 0 -0.051636851898220371 -0.019261366758318497 0 -0.051437758658340708 -0.019243529226863555 0 -0.051437758658340708 -0.019243529226863555 0 -0.051584122267934344 -0.019107626467283728 0 -0.051465511574018609 -0.019015510210444439 0 -0.051624036429922596 -0.019240025252219406 0 -0.051659227015332841 -0.019171352108794667 0 -0.051437758658340708 -0.019243529226863555 0 -0.051659227015332841 -0.019171352108794667 0 -0.051437758658340708 -0.019243529226863555 0 -0.051584122267934344 -0.019107626467283728 0 -0.051584122267934344 -0.019107626467283728 0 -0.051465511574018609 -0.019015510210444439 0 -0.051747655975283954 -0.018984172566046266 0 -0.051465511574018609 -0.019015510210444439 0 -0.051747655975283954 -0.018984172566046266 0 -0.051555353729360556 -0.018619976173512867 0 -0.052017318453631792 -0.018683319923981385 0 -0.051747655975283954 -0.018984172566046266 0 -0.051555353729360556 -0.018619976173512867 0 -0.051555353729360556 -0.018619976173512867 0 -0.051024639100951119 -0.018641537084611453 0 -0.050884703648785092 -0.018071396159692815 0 -0.051465511574018609 -0.019015510210444439 0 -0.051555353729360556 -0.018619976173512867 0 -0.051024639100951119 -0.018641537084611453 0 -0.051437758658340708 -0.019243529226863555 0 -0.051465511574018609 -0.019015510210444439 0 -0.051182509915160969 -0.019212234995068991 0 -0.051465511574018609 -0.019015510210444439 0 -0.051024639100951119 -0.018641537084611453 0 -0.051182509915160969 -0.019212234995068991 0 -0.050106182884503629 -0.020040885912545922 0 -0.050370846589206757 -0.018903053489009357 0 -0.04959054898376393 -0.019247272142042478 0 -0.051024639100951119 -0.018641537084611453 0 -0.051182509915160969 -0.019212234995068991 0 -0.050370846589206757 -0.018903053489009357 0 -0.050106182884503629 -0.020040885912545922 0 -0.051182509915160969 -0.019212234995068991 0 -0.050370846589206757 -0.018903053489009357 0 -0.050470243968459762 -0.01841126338953817 0 -0.04947962115377573 -0.018140989166042027 0 -0.050884703648785092 -0.018071396159692815 0 -0.051024639100951119 -0.018641537084611453 0 -0.050470243968459762 -0.01841126338953817 0 -0.050884703648785092 -0.018071396159692815 0 -0.050370846589206757 -0.018903053489009357 0 -0.050470243968459762 -0.01841126338953817 0 -0.04947962115377573 -0.018140989166042027 0 -0.051024639100951119 -0.018641537084611453 0 -0.050370846589206757 -0.018903053489009357 0 -0.050470243968459762 -0.01841126338953817 0 -0.049561669223561332 -0.02053821459563511 0 -0.04849943582345171 -0.020367115825103175 0 -0.04833068078756951 -0.020921654357244933 0 -0.049561669223561332 -0.02053821459563511 0 -0.04849943582345171 -0.020367115825103175 0 -0.049043380818760293 -0.01999054846028895 0 -0.049561669223561332 -0.02053821459563511 0 -0.04833068078756951 -0.020921654357244933 0 -0.048453968138283468 -0.021604291395488268 0 -0.047541709712938411 -0.019623597543527549 0 -0.048744700907663419 -0.018976848619278806 0 -0.04752770455639118 -0.020499880917361105 0 -0.048850312120167029 -0.019329252837907228 0 -0.04702254589037181 -0.020067114254940895 0 -0.04947962115377573 -0.018140989166042027 0 -0.047179550231078532 -0.019096006402523406 0 -0.047780661250612387 -0.019086090209037367 0 -0.046928816639664965 -0.019099226694549415 0 -0.047541709712938411 -0.019623597543527549 0 -0.046710611531248426 -0.020155440781746727 0 -0.046928816639664965 -0.019099226694549415 0 -0.047541709712938411 -0.019623597543527549 0 -0.047780661250612387 -0.019086090209037367 0 -0.04702254589037181 -0.020067114254940895 0 -0.047054857690818762 -0.020047938453805907 0 -0.047541709712938411 -0.019623597543527549 0 -0.047780661250612387 -0.019086090209037367 0 -0.048744700907663419 -0.018976848619278806 0 -0.04959054898376393 -0.019247272142042478 0 -0.048744700907663419 -0.018976848619278806 0 -0.049076407870014604 -0.019827722846998828 0 -0.04947962115377573 -0.018140989166042027 0 -0.047780661250612387 -0.019086090209037367 0 -0.048744700907663419 -0.018976848619278806 0 -0.050370846589206757 -0.018903053489009357 0 -0.04947962115377573 -0.018140989166042027 0 -0.04959054898376393 -0.019247272142042478 0 -0.04947962115377573 -0.018140989166042027 0 -0.04959054898376393 -0.019247272142042478 0 -0.048744700907663419 -0.018976848619278806 0 -0.040496728025619946 -0.021697343237219432 0 -0.04036372224987772 -0.0216663453822717 0 -0.040409649009437672 -0.021648388566225141 0 -0.040452071241655715 -0.021649450797174688 0 -0.040496728025619946 -0.021697343237219432 0 -0.040500374760342878 -0.021641399227951257 0 -0.040452071241655715 -0.021649450797174688 0 -0.040409649009437672 -0.021648388566225141 0 -0.040397532394163695 -0.021608494169930003 0 -0.040452071241655715 -0.021649450797174688 0 -0.040496728025619946 -0.021697343237219432 0 -0.040409649009437672 -0.021648388566225141 0 -0.04849943582345171 -0.020367115825103175 0 -0.047263138709989938 -0.020770176858165078 0 -0.048276432866347321 -0.019476753934153792 0 -0.04849943582345171 -0.020367115825103175 0 -0.04833068078756951 -0.020921654357244933 0 -0.047263138709989938 -0.020770176858165078 0 -0.04833068078756951 -0.020921654357244933 0 -0.047263138709989938 -0.020770176858165078 0 -0.047851524646211188 -0.021322350606559855 0 -0.048453968138283468 -0.021604291395488268 0 -0.047851524646211188 -0.021322350606559855 0 -0.047355892940063385 -0.021856129932983581 0 -0.046676212666489518 -0.018858127719382115 0 -0.044355746243092888 -0.019384257719857717 0 -0.045219144452720808 -0.0202340458058483 0 -0.047263138709989938 -0.020770176858165078 0 -0.047851524646211188 -0.021322350606559855 0 -0.047355892940063385 -0.021856129932983581 0 -0.04702254589037181 -0.020067114254940895 0 -0.045459987301499527 -0.020699043490169561 0 -0.04833068078756951 -0.020921654357244933 0 -0.048453968138283468 -0.021604291395488268 0 -0.047851524646211188 -0.021322350606559855 0 -0.04702254589037181 -0.020067114254940895 0 -0.046737097705483989 -0.020192803884037339 0 -0.043944909557754271 -0.021137658754778202 0 -0.0432653309935154 -0.021466159313163556 0 -0.047263138709989938 -0.020770176858165078 0 -0.047355892940063385 -0.021856129932983581 0 -0.046242964556113153 -0.022101376564142034 0 -0.040496728025619946 -0.021697343237219432 0 -0.040357671777229487 -0.021713556235187413 0 -0.04036372224987772 -0.0216663453822717 0 -0.045459987301499527 -0.020699043490169561 0 -0.0432653309935154 -0.021466159313163556 0 -0.044355746243092888 -0.019384257719857717 0 -0.043109786962256195 -0.020269033166837733 0 -0.042239530213110832 -0.020006150535337261 0 -0.042746996415082394 -0.020924598892619623 0 -0.043109786962256195 -0.020269033166837733 0 -0.0437724743654525 -0.020405435225362301 0 -0.042746996415082394 -0.020924598892619623 0 -0.0437724743654525 -0.020405435225362301 0 -0.043466460172590503 -0.021204501003111553 0 -0.042746996415082394 -0.020924598892619623 0 -0.043109786962256195 -0.020269033166837733 0 -0.042455500934355864 -0.020561724997121139 0 -0.044355746243092888 -0.019384257719857717 0 -0.043109786962256195 -0.020269033166837733 0 -0.0437724743654525 -0.020405435225362301 0 -0.0437724743654525 -0.020405435225362301 0 -0.043466460172590503 -0.021204501003111553 0 -0.044322403355333329 -0.020974543685328972 0 -0.0437724743654525 -0.020405435225362301 0 -0.044322403355333329 -0.020974543685328972 0 -0.045219144452720808 -0.0202340458058483 0 -0.044322403355333329 -0.020974543685328972 0 -0.045219144452720808 -0.0202340458058483 0 -0.045121739875966155 -0.021376824688797563 0 -0.044355746243092888 -0.019384257719857717 0 -0.0437724743654525 -0.020405435225362301 0 -0.045219144452720808 -0.0202340458058483 0 -0.046928816639664965 -0.019099226694549415 0 -0.045219144452720808 -0.0202340458058483 0 -0.046710611531248426 -0.020155440781746727 0 -0.045219144452720808 -0.0202340458058483 0 -0.046382322502945654 -0.021130682596238366 0 -0.046710611531248426 -0.020155440781746727 0 -0.045219144452720808 -0.0202340458058483 0 -0.046382322502945654 -0.021130682596238366 0 -0.045121739875966155 -0.021376824688797563 0 -0.046382322502945654 -0.021130682596238366 0 -0.045562550097710749 -0.022550442288439596 0 -0.045121739875966155 -0.021376824688797563 0 -0.045562550097710749 -0.022550442288439596 0 -0.045121739875966155 -0.021376824688797563 0 -0.044200874986466736 -0.021959041878223375 0 -0.044322403355333329 -0.020974543685328972 0 -0.045121739875966155 -0.021376824688797563 0 -0.044200874986466736 -0.021959041878223375 0 -0.044200874986466736 -0.021959041878223375 0 -0.042304281004304417 -0.023018466524897106 0 -0.042446539482528724 -0.022249535843478805 0 -0.045562550097710749 -0.022550442288439596 0 -0.044200874986466736 -0.021959041878223375 0 -0.042304281004304417 -0.023018466524897106 0 -0.043466460172590503 -0.021204501003111553 0 -0.044322403355333329 -0.020974543685328972 0 -0.044200874986466736 -0.021959041878223375 0 -0.043466460172590503 -0.021204501003111553 0 -0.044200874986466736 -0.021959041878223375 0 -0.043286010752373594 -0.021776311603302703 0 -0.044200874986466736 -0.021959041878223375 0 -0.043286010752373594 -0.021776311603302703 0 -0.042446539482528724 -0.022249535843478805 0 -0.043286010752373594 -0.021776311603302703 0 -0.04256676212345601 -0.021700710185051431 0 -0.042446539482528724 -0.022249535843478805 0 -0.043466460172590503 -0.021204501003111553 0 -0.043286010752373594 -0.021776311603302703 0 -0.04256676212345601 -0.021700710185051431 0 -0.042746996415082394 -0.020924598892619623 0 -0.043466460172590503 -0.021204501003111553 0 -0.04256676212345601 -0.021700710185051431 0 -0.046968963257192922 -0.020256458931482875 0 -0.046617597055489887 -0.020748224224952216 0 -0.048744700907663419 -0.018976848619278806 0 -0.049185983780463828 -0.02070552124482113 0 -0.049076407870014604 -0.019827722846998828 0 -0.046759988878448913 -0.020031254714186958 0 -0.04674461662684546 -0.020207052356121583 0 -0.046597153546949904 -0.020113638400261785 0 -0.048416982404623603 -0.019973632226062576 0 -0.046617597055489887 -0.020748224224952216 0 -0.048416982404623603 -0.019973632226062576 0 -0.048640945019896818 -0.020025373883303894 0 -0.050129249158628472 -0.020214004609842046 0 -0.049185983780463828 -0.02070552124482113 0 -0.049076407870014604 -0.019827722846998828 0 -0.050106182884503629 -0.020040885912545922 0 -0.04959054898376393 -0.019247272142042478 0 -0.049076407870014604 -0.019827722846998828 0 -0.048744700907663419 -0.018976848619278806 0 -0.048938719611578384 -0.021177921794688696 0 -0.04752770455639118 -0.020499880917361105 0 -0.046382322502945654 -0.021130682596238366 0 -0.048938719611578384 -0.021177921794688696 0 -0.04752770455639118 -0.020499880917361105 0 -0.046382322502945654 -0.021130682596238366 0 -0.04752770455639118 -0.020499880917361105 0 -0.046710611531248426 -0.020155440781746727 0 -0.047541709712938411 -0.019623597543527549 0 -0.04752770455639118 -0.020499880917361105 0 -0.046710611531248426 -0.020155440781746727 0 -0.046382322502945654 -0.021130682596238366 0 -0.045562550097710749 -0.022550442288439596 0 -0.048938719611578384 -0.021177921794688696 0 -0.044926728062308026 -0.021873714544133758 0 -0.046617597055489887 -0.020748224224952216 0 -0.044047906655487488 -0.022142636252846685 0 -0.045766027542876259 -0.021279142804280032 0 -0.045092733144008926 -0.022079496072708375 0 -0.045092733144008926 -0.022079496072708375 0 -0.044856316167309243 -0.022444592882354283 0 -0.045998024093437007 -0.022593062791563267 0 -0.044047906655487488 -0.022142636252846685 0 -0.045092733144008926 -0.022079496072708375 0 -0.044856316167309243 -0.022444592882354283 0 -0.046617597055489887 -0.020748224224952216 0 -0.044620322365550406 -0.021378095755900665 0 -0.04674461662684546 -0.020207052356121583 0 -0.046597153546949904 -0.020113638400261785 0 -0.046640535561988036 -0.020375285764458725 0 -0.045766027542876259 -0.021279142804280032 0 -0.045092733144008926 -0.022079496072708375 0 -0.045998024093437007 -0.022593062791563267 0 -0.042208841347391286 -0.021770456129801601 0 -0.041948495099532447 -0.021565628918418015 0 -0.04202573663063508 -0.021997168724215768 0 -0.041974881786752918 -0.0217377621265986 0 -0.04202916779240997 -0.022100284779145298 0 -0.041694282661816705 -0.02199762003719501 0 -0.044620322365550406 -0.021378095755900665 0 -0.043999208653220954 -0.021641429633999329 0 -0.043999208653220954 -0.021641429633999329 0 -0.04381636782883136 -0.021777206545346834 0 -0.04202916779240997 -0.022100284779145298 0 -0.041851133751808781 -0.022344062596853183 0 -0.042093563739417597 -0.022405559031194334 0 -0.04202916779240997 -0.022100284779145298 0 -0.041795036435834099 -0.022176607771529418 0 -0.041851133751808781 -0.022344062596853183 0 -0.04202916779240997 -0.022100284779145298 0 -0.041795036435834099 -0.022176607771529418 0 -0.041694282661816705 -0.02199762003719501 0 -0.041594657872590902 -0.022263931222999751 0 -0.041421218386581922 -0.022164093416614135 0 -0.041352333235215893 -0.022379544770715576 0 -0.041795036435834099 -0.022176607771529418 0 -0.041851133751808781 -0.022344062596853183 0 -0.041594657872590902 -0.022263931222999751 0 -0.041795036435834099 -0.022176607771529418 0 -0.041594657872590902 -0.022263931222999751 0 -0.041694282661816705 -0.02199762003719501 0 -0.041594657872590902 -0.022263931222999751 0 -0.041421218386581922 -0.022164093416614135 0 -0.041694282661816705 -0.02199762003719501 0 -0.044620322365550406 -0.021378095755900665 0 -0.042944463085368284 -0.022080369059911894 0 -0.041421218386581922 -0.022164093416614135 0 -0.041694282661816705 -0.02199762003719501 0 -0.041357609115951009 -0.021874915928648112 0 -0.041974881786752918 -0.0217377621265986 0 -0.041694282661816705 -0.02199762003719501 0 -0.041357609115951009 -0.021874915928648112 0 -0.044856316167309243 -0.022444592882354283 0 -0.045998024093437007 -0.022593062791563267 0 -0.044283002706149592 -0.022960320531302009 0 -0.044047906655487488 -0.022142636252846685 0 -0.044856316167309243 -0.022444592882354283 0 -0.044283002706149592 -0.022960320531302009 0 -0.042944463085368284 -0.022080369059911894 0 -0.04192566866748948 -0.022436073135667204 0 -0.044047906655487488 -0.022142636252846685 0 -0.044283002706149592 -0.022960320531302009 0 -0.043291628684758041 -0.022866787335738731 0 -0.044283002706149592 -0.022960320531302009 0 -0.043291628684758041 -0.022866787335738731 0 -0.042529808576486396 -0.02335035379860663 0 -0.044047906655487488 -0.022142636252846685 0 -0.043291628684758041 -0.022866787335738731 0 -0.042304281004304417 -0.023018466524897106 0 -0.041357609115951009 -0.021874915928648112 0 -0.040675840026734918 -0.022167937837313238 0 -0.040888792116169602 -0.022234995809236539 0 -0.044926728062308026 -0.021873714544133758 0 -0.043774326000363559 -0.022459500931092106 0 -0.043291628684758041 -0.022866787335738731 0 -0.042529808576486396 -0.02335035379860663 0 -0.042304281004304417 -0.023018466524897106 0 -0.04077386757001434 -0.022429707692533395 0 -0.041109611095992857 -0.02229475287198519 0 -0.041167096443836412 -0.022601326361961892 0 -0.040888792116169602 -0.022234995809236539 0 -0.04077386757001434 -0.022429707692533395 0 -0.040601847054508901 -0.022370766477876777 0 -0.040675840026734918 -0.022167937837313238 0 -0.040888792116169602 -0.022234995809236539 0 -0.040601847054508901 -0.022370766477876777 0 -0.040888792116169602 -0.022234995809236539 0 -0.04077386757001434 -0.022429707692533395 0 -0.041109611095992857 -0.02229475287198519 0 -0.041357609115951009 -0.021874915928648112 0 -0.040888792116169602 -0.022234995809236539 0 -0.041109611095992857 -0.02229475287198519 0 -0.041421218386581922 -0.022164093416614135 0 -0.041357609115951009 -0.021874915928648112 0 -0.041109611095992857 -0.02229475287198519 0 -0.041421218386581922 -0.022164093416614135 0 -0.041109611095992857 -0.02229475287198519 0 -0.041352333235215893 -0.022379544770715576 0 -0.041352333235215893 -0.022379544770715576 0 -0.041167096443836412 -0.022601326361961892 0 -0.041617944128205936 -0.022582177249949893 0 -0.041109611095992857 -0.02229475287198519 0 -0.041352333235215893 -0.022379544770715576 0 -0.041167096443836412 -0.022601326361961892 0 -0.041167096443836412 -0.022601326361961892 0 -0.041485883140797292 -0.022867912997385987 0 -0.041617944128205936 -0.022582177249949893 0 -0.04077386757001434 -0.022429707692533395 0 -0.041167096443836412 -0.022601326361961892 0 -0.040703476843906961 -0.022713800306049057 0 -0.041017726261543076 -0.023030214652397397 0 -0.041167096443836412 -0.022601326361961892 0 -0.040703476843906961 -0.022713800306049057 0 -0.041017726261543076 -0.023030214652397397 0 -0.040703476843906961 -0.022713800306049057 0 -0.040550873050487025 -0.023047401106531969 0 -0.041017726261543076 -0.023030214652397397 0 -0.041167096443836412 -0.022601326361961892 0 -0.041485883140797292 -0.022867912997385987 0 -0.042075843741869991 -0.022969756259472143 0 -0.041485883140797292 -0.022867912997385987 0 -0.041617944128205936 -0.022582177249949893 0 -0.042075843741869991 -0.022969756259472143 0 -0.043343398393906774 -0.022517761751910476 0 -0.042950545164663401 -0.021052715159410335 0 -0.042075843741869991 -0.022969756259472143 0 -0.042122057792236663 -0.022623775677473014 0 -0.041944163911052525 -0.022608066412573936 0 -0.042075843741869991 -0.022969756259472143 0 -0.041944163911052525 -0.022608066412573936 0 -0.041617944128205936 -0.022582177249949893 0 -0.042705681423370882 -0.02247383771507433 0 -0.043123207180891007 -0.021926065804438115 0 -0.042122057792236663 -0.022623775677473014 0 -0.041944163911052525 -0.022608066412573936 0 -0.042093563739417597 -0.022405559031194334 0 -0.041851133751808781 -0.022344062596853183 0 -0.041944163911052525 -0.022608066412573936 0 -0.042093563739417597 -0.022405559031194334 0 -0.041851133751808781 -0.022344062596853183 0 -0.041944163911052525 -0.022608066412573936 0 -0.041617944128205936 -0.022582177249949893 0 -0.041851133751808781 -0.022344062596853183 0 -0.041594657872590902 -0.022263931222999751 0 -0.041617944128205936 -0.022582177249949893 0 -0.041594657872590902 -0.022263931222999751 0 -0.041352333235215893 -0.022379544770715576 0 -0.041617944128205936 -0.022582177249949893 0 -0.040066712649816268 -0.022655375187624126 0 -0.040234567025144184 -0.022623971036888062 0 -0.040176441873430793 -0.022608311260003615 0 -0.040066712649816268 -0.022655375187624126 0 -0.040176441873430793 -0.022608311260003615 0 -0.039924380754420973 -0.022594234108841291 0 -0.040066712649816268 -0.022655375187624126 0 -0.040003200920510712 -0.022603397611452386 0 -0.040234567025144184 -0.022623971036888062 0 -0.040066712649816268 -0.022655375187624126 0 -0.039979485976370105 -0.022674905168571478 0 -0.039924380754420973 -0.022594234108841291 0 -0.039763366614838071 -0.022678801281084255 0 -0.039979485976370105 -0.022674905168571478 0 -0.039924380754420973 -0.022594234108841291 0 -0.040066712649816268 -0.022655375187624126 0 -0.039979485976370105 -0.022674905168571478 0 -0.039984296686431012 -0.022646498506998829 0 -0.039763366614838071 -0.022678801281084255 0 -0.040144578152907527 -0.022621000888577769 0 -0.039979485976370105 -0.022674905168571478 0 -0.040144578152907527 -0.022621000888577769 0 -0.039979485976370105 -0.022674905168571478 0 -0.039984296686431012 -0.022646498506998829 0 -0.039774898392062989 -0.022446046862762487 0 -0.039984296686431012 -0.022646498506998829 0 -0.040003200920510712 -0.022603397611452386 0 -0.040066712649816268 -0.022655375187624126 0 -0.039984296686431012 -0.022646498506998829 0 -0.040003200920510712 -0.022603397611452386 0 -0.040003200920510712 -0.022603397611452386 0 -0.040148911663607234 -0.022627010919155279 0 -0.040234567025144184 -0.022623971036888062 0 -0.031684216548466704 -0.019843938675135175 0 -0.035162267751314244 -0.021289849099769973 0 -0.03993393332845567 -0.022519067386603905 0 -0.040003200920510712 -0.022603397611452386 0 -0.040148911663607234 -0.022627010919155279 0 -0.040075704346255007 -0.023313494913929464 0 -0.0403358880308161 -0.022799161858138527 0 -0.040550873050487025 -0.023047401106531969 0 -0.040703476843906961 -0.022713800306049057 0 -0.0403358880308161 -0.022799161858138527 0 -0.040550873050487025 -0.023047401106531969 0 -0.035162267751314244 -0.021289849099769973 0 -0.036208912526765495 -0.021552589454627555 0 -0.04077386757001434 -0.022429707692533395 0 -0.040703476843906961 -0.022713800306049057 0 -0.040490139962628048 -0.022506525154650337 0 -0.040703476843906961 -0.022713800306049057 0 -0.0403358880308161 -0.022799161858138527 0 -0.040490139962628048 -0.022506525154650337 0 -0.040148911663607234 -0.022627010919155279 0 -0.040234567025144184 -0.022623971036888062 0 -0.040490139962628048 -0.022506525154650337 0 -0.040234567025144184 -0.022623971036888062 0 -0.040513455237396682 -0.022708789396537133 0 -0.040176441873430793 -0.022608311260003615 0 -0.040234567025144184 -0.022623971036888062 0 -0.040513455237396682 -0.022708789396537133 0 -0.040490139962628048 -0.022506525154650337 0 -0.040513455237396682 -0.022708789396537133 0 -0.040490139962628048 -0.022506525154650337 0 -0.040601847054508901 -0.022370766477876777 0 -0.040675840026734918 -0.022167937837313238 0 -0.040513455237396682 -0.022708789396537133 0 -0.040601847054508901 -0.022370766477876777 0 -0.04077386757001434 -0.022429707692533395 0 -0.040490139962628048 -0.022506525154650337 0 -0.040601847054508901 -0.022370766477876777 0 -0.042529808576486396 -0.02335035379860663 0 -0.040513455237396682 -0.022708789396537133 0 -0.041639774827632432 -0.022795226065019322 0 -0.04192566866748948 -0.022436073135667204 0 -0.041460674884164578 -0.022550415310444227 0 -0.042529808576486396 -0.02335035379860663 0 -0.042304281004304417 -0.023018466524897106 0 -0.041639774827632432 -0.022795226065019322 0 -0.041639774827632432 -0.022795226065019322 0 -0.041816169433834122 -0.022500191146784362 0 -0.041110558216350887 -0.022385717070036532 0 -0.042304281004304417 -0.023018466524897106 0 -0.041639774827632432 -0.022795226065019322 0 -0.041816169433834122 -0.022500191146784362 0 -0.042304281004304417 -0.023018466524897106 0 -0.041816169433834122 -0.022500191146784362 0 -0.042446539482528724 -0.022249535843478805 0 -0.040513455237396682 -0.022708789396537133 0 -0.041110558216350887 -0.022385717070036532 0 -0.040454353260376899 -0.022213352487175271 0 -0.040513455237396682 -0.022708789396537133 0 -0.040454353260376899 -0.022213352487175271 0 -0.040230005865483046 -0.022438700797445078 0 -0.040513455237396682 -0.022708789396537133 0 -0.041639774827632432 -0.022795226065019322 0 -0.041110558216350887 -0.022385717070036532 0 -0.040454353260376899 -0.022213352487175271 0 -0.040230005865483046 -0.022438700797445078 0 -0.040052811186582923 -0.022147388066861909 0 -0.040230005865483046 -0.022438700797445078 0 -0.039965262713725171 -0.0224345596819246 0 -0.040052811186582923 -0.022147388066861909 0 -0.040513455237396682 -0.022708789396537133 0 -0.040230005865483046 -0.022438700797445078 0 -0.040176441873430793 -0.022608311260003615 0 -0.040230005865483046 -0.022438700797445078 0 -0.040176441873430793 -0.022608311260003615 0 -0.039965262713725171 -0.0224345596819246 0 -0.040176441873430793 -0.022608311260003615 0 -0.039924380754420973 -0.022594234108841291 0 -0.039965262713725171 -0.0224345596819246 0 -0.039924380754420973 -0.022594234108841291 0 -0.039788622304736565 -0.022428654392789484 0 -0.039965262713725171 -0.0224345596819246 0 -0.039711299701181646 -0.022507215977712228 0 -0.039924380754420973 -0.022594234108841291 0 -0.039788622304736565 -0.022428654392789484 0 -0.039788622304736565 -0.022428654392789484 0 -0.039965262713725171 -0.0224345596819246 0 -0.039775118453583579 -0.022261182648094218 0 -0.039775118453583579 -0.022261182648094218 0 -0.039803865492252649 -0.022062411197079888 0 -0.040052811186582923 -0.022147388066861909 0 -0.039965262713725171 -0.0224345596819246 0 -0.039775118453583579 -0.022261182648094218 0 -0.040052811186582923 -0.022147388066861909 0 -0.039803865492252649 -0.022062411197079888 0 -0.040052811186582923 -0.022147388066861909 0 -0.040015468501363158 -0.021636171684519652 0 -0.039803865492252649 -0.022062411197079888 0 -0.040015468501363158 -0.021636171684519652 0 -0.039743381394597058 -0.021807559944010731 0 -0.040454353260376899 -0.022213352487175271 0 -0.040015468501363158 -0.021636171684519652 0 -0.040849079761505952 -0.021722475385057585 0 -0.040454353260376899 -0.022213352487175271 0 -0.040052811186582923 -0.022147388066861909 0 -0.040015468501363158 -0.021636171684519652 0 -0.041026935641252198 -0.021676100363897693 0 -0.041534982320190615 -0.021619388137544004 0 -0.040015468501363158 -0.021636171684519652 0 -0.040202685729810159 -0.021705815762082619 0 -0.040118312392017068 -0.021609359480441303 0 -0.040015468501363158 -0.021636171684519652 0 -0.039982770439816545 -0.021575339223856661 0 -0.040118312392017068 -0.021609359480441303 0 -0.040015468501363158 -0.021636171684519652 0 -0.039826577761657635 -0.021615214299797354 0 -0.039982770439816545 -0.021575339223856661 0 -0.039826577761657635 -0.021615214299797354 0 -0.039664419954813596 -0.021693788342266457 0 -0.039743381394597058 -0.021807559944010731 0 -0.039616872809109263 -0.021565893703617792 0 -0.039826577761657635 -0.021615214299797354 0 -0.039664419954813596 -0.021693788342266457 0 -0.040015468501363158 -0.021636171684519652 0 -0.039826577761657635 -0.021615214299797354 0 -0.039743381394597058 -0.021807559944010731 0 -0.042746996415082394 -0.020924598892619623 0 -0.042049542819238117 -0.02137207878779486 0 -0.04256676212345601 -0.021700710185051431 0 -0.042049542819238117 -0.02137207878779486 0 -0.04256676212345601 -0.021700710185051431 0 -0.041625909881776717 -0.021916501573751464 0 -0.041816169433834122 -0.022500191146784362 0 -0.042446539482528724 -0.022249535843478805 0 -0.041625909881776717 -0.021916501573751464 0 -0.04256676212345601 -0.021700710185051431 0 -0.042446539482528724 -0.022249535843478805 0 -0.041625909881776717 -0.021916501573751464 0 -0.041816169433834122 -0.022500191146784362 0 -0.041110558216350887 -0.022385717070036532 0 -0.041625909881776717 -0.021916501573751464 0 -0.042049542819238117 -0.02137207878779486 0 -0.041625909881776717 -0.021916501573751464 0 -0.041549014596258239 -0.021294047271022652 0 -0.041625909881776717 -0.021916501573751464 0 -0.040849079761505952 -0.021722475385057585 0 -0.041549014596258239 -0.021294047271022652 0 -0.041110558216350887 -0.022385717070036532 0 -0.041625909881776717 -0.021916501573751464 0 -0.040849079761505952 -0.021722475385057585 0 -0.041110558216350887 -0.022385717070036532 0 -0.040454353260376899 -0.022213352487175271 0 -0.040849079761505952 -0.021722475385057585 0 -0.040015468501363158 -0.021636171684519652 0 -0.040849079761505952 -0.021722475385057585 0 -0.040852861639903086 -0.020955775510922866 0 -0.040849079761505952 -0.021722475385057585 0 -0.040852861639903086 -0.020955775510922866 0 -0.041549014596258239 -0.021294047271022652 0 -0.041534982320190615 -0.021619388137544004 0 -0.0432653309935154 -0.021466159313163556 0 -0.040852861639903086 -0.020955775510922866 0 -0.041923321130245501 -0.020638313303283976 0 -0.042154778379867516 -0.020262303979799171 0 -0.040852861639903086 -0.020955775510922866 0 -0.041549014596258239 -0.021294047271022652 0 -0.041923321130245501 -0.020638313303283976 0 -0.040202685729810159 -0.021705815762082619 0 -0.040357671777229487 -0.021713556235187413 0 -0.040298090441920731 -0.021677588343467714 0 -0.041549014596258239 -0.021294047271022652 0 -0.041923321130245501 -0.020638313303283976 0 -0.042158078048259377 -0.020960650019890632 0 -0.043109786962256195 -0.020269033166837733 0 -0.042239530213110832 -0.020006150535337261 0 -0.042455500934355864 -0.020561724997121139 0 -0.04325241686283457 -0.021447313875742922 0 -0.0432653309935154 -0.021466159313163556 0 -0.041923321130245501 -0.020638313303283976 0 -0.042239530213110832 -0.020006150535337261 0 -0.042455500934355864 -0.020561724997121139 0 -0.042746996415082394 -0.020924598892619623 0 -0.042455500934355864 -0.020561724997121139 0 -0.042158078048259377 -0.020960650019890632 0 -0.041923321130245501 -0.020638313303283976 0 -0.042455500934355864 -0.020561724997121139 0 -0.042158078048259377 -0.020960650019890632 0 -0.042049542819238117 -0.02137207878779486 0 -0.041549014596258239 -0.021294047271022652 0 -0.042158078048259377 -0.020960650019890632 0 -0.042746996415082394 -0.020924598892619623 0 -0.042049542819238117 -0.02137207878779486 0 -0.042158078048259377 -0.020960650019890632 0 -0.040357671777229487 -0.021713556235187413 0 -0.04036372224987772 -0.0216663453822717 0 -0.040298090441920731 -0.021677588343467714 0 -0.04036372224987772 -0.0216663453822717 0 -0.040298090441920731 -0.021677588343467714 0 -0.040260092876970771 -0.021637329790515688 0 -0.04036372224987772 -0.0216663453822717 0 -0.040260092876970771 -0.021637329790515688 0 -0.040315160099759349 -0.021615578312719427 0 -0.040260092876970771 -0.021637329790515688 0 -0.040188533930715378 -0.02156194234380375 0 -0.040315160099759349 -0.021615578312719427 0 -0.040202685729810159 -0.021705815762082619 0 -0.040298090441920731 -0.021677588343467714 0 -0.040260092876970771 -0.021637329790515688 0 -0.040202685729810159 -0.021705815762082619 0 -0.040260092876970771 -0.021637329790515688 0 -0.040118312392017068 -0.021609359480441303 0 -0.040260092876970771 -0.021637329790515688 0 -0.040188533930715378 -0.02156194234380375 0 -0.040118312392017068 -0.021609359480441303 0 -0.040188533930715378 -0.02156194234380375 0 -0.040285545320938004 -0.021570307753090098 0 -0.040157438561797841 -0.021511320957002065 0 -0.040188533930715378 -0.02156194234380375 0 -0.040285545320938004 -0.021570307753090098 0 -0.040315160099759349 -0.021615578312719427 0 -0.040285545320938004 -0.021570307753090098 0 -0.040315160099759349 -0.021615578312719427 0 -0.040397532394163695 -0.021608494169930003 0 -0.040315160099759349 -0.021615578312719427 0 -0.040409649009437672 -0.021648388566225141 0 -0.040397532394163695 -0.021608494169930003 0 -0.04036372224987772 -0.0216663453822717 0 -0.040315160099759349 -0.021615578312719427 0 -0.040409649009437672 -0.021648388566225141 0 -0.039861037359631285 -0.021479681421254768 0 -0.039707743440046177 -0.021414536288873982 0 -0.039870007743361004 -0.021322103493990597 0 -0.039861037359631285 -0.021479681421254768 0 -0.040030803015097968 -0.021484572976059546 0 -0.039870007743361004 -0.021322103493990597 0 -0.039861037359631285 -0.021479681421254768 0 -0.039707743440046177 -0.021414536288873982 0 -0.039755005306887171 -0.021516842971526395 0 -0.039616872809109263 -0.021565893703617792 0 -0.039707743440046177 -0.021414536288873982 0 -0.039755005306887171 -0.021516842971526395 0 -0.039616872809109263 -0.021565893703617792 0 -0.039826577761657635 -0.021615214299797354 0 -0.039755005306887171 -0.021516842971526395 0 -0.039826577761657635 -0.021615214299797354 0 -0.039861037359631285 -0.021479681421254768 0 -0.039755005306887171 -0.021516842971526395 0 -0.039826577761657635 -0.021615214299797354 0 -0.039861037359631285 -0.021479681421254768 0 -0.039982770439816545 -0.021575339223856661 0 -0.039982770439816545 -0.021575339223856661 0 -0.040118312392017068 -0.021609359480441303 0 -0.040030803015097968 -0.021484572976059546 0 -0.040188533930715378 -0.02156194234380375 0 -0.040118312392017068 -0.021609359480441303 0 -0.040030803015097968 -0.021484572976059546 0 -0.039861037359631285 -0.021479681421254768 0 -0.039982770439816545 -0.021575339223856661 0 -0.040030803015097968 -0.021484572976059546 0 -0.034479198112397504 -0.023826292342528945 0 -0.032621303913003039 -0.026449942610946818 0 -0.017617848622330807 -0.041611191990796256 0 -0.017863371462368126 -0.038534342121825854 0 -0.021446385582444483 -0.039709377577248288 0 -0.040188533930715378 -0.02156194234380375 0 -0.040030803015097968 -0.021484572976059546 0 -0.040157438561797841 -0.021511320957002065 0 -0.027506718573609226 -0.02835314145623076 0 -0.032621303913003039 -0.026449942610946818 0 -0.040030803015097968 -0.021484572976059546 0 -0.039870007743361004 -0.021322103493990597 0 -0.040128165040437896 -0.021218628796265498 0 -0.01409047475756833 -0.041264547164611663 0 -0.017617848622330807 -0.041611191990796256 0 -0.014753380757664742 -0.039531854897516462 0 -0.01409047475756833 -0.041264547164611663 0 -0.01448048327902907 -0.042577053344865043 0 -0.017617848622330807 -0.041611191990796256 0 -0.02235086472090626 -0.029139380676520651 0 -0.027506718573609226 -0.02835314145623076 0 -0.013835181167343728 -0.043341978407569391 0 -0.01448048327902907 -0.042577053344865043 0 -0.017617848622330807 -0.041611191990796256 0 -0.017617848622330807 -0.041611191990796256 0 -0.017863371462368126 -0.038534342121825854 0 -0.014753380757664742 -0.039531854897516462 0 -0.039558467121148237 -0.021291899483547167 0 -0.039707743440046177 -0.021414536288873982 0 -0.039870007743361004 -0.021322103493990597 0 -0.017863371462368126 -0.038534342121825854 0 -0.014753380757664742 -0.039531854897516462 0 -0.012568724582985998 -0.037094099168810547 0 -0.017863371462368126 -0.038534342121825854 0 -0.018273847511531573 -0.035435874325054656 0 -0.012568724582985998 -0.037094099168810547 0 -0.021446385582444483 -0.039709377577248288 0 -0.020456736365553063 -0.036456603717252935 0 -0.023722587995552089 -0.035012233169525384 0 -0.017863371462368126 -0.038534342121825854 0 -0.021446385582444483 -0.039709377577248288 0 -0.020456736365553063 -0.036456603717252935 0 -0.017863371462368126 -0.038534342121825854 0 -0.020456736365553063 -0.036456603717252935 0 -0.018273847511531573 -0.035435874325054656 0 -0.020456736365553063 -0.036456603717252935 0 -0.020930898197297879 -0.033633696987790271 0 -0.018273847511531573 -0.035435874325054656 0 -0.020456736365553063 -0.036456603717252935 0 -0.020930898197297879 -0.033633696987790271 0 -0.023722587995552089 -0.035012233169525384 0 -0.018273847511531573 -0.035435874325054656 0 -0.016467707537227642 -0.032122660869325026 0 -0.012568724582985998 -0.037094099168810547 0 -0.020930898197297879 -0.033633696987790271 0 -0.018273847511531573 -0.035435874325054656 0 -0.016467707537227642 -0.032122660869325026 0 -0.040397532394163695 -0.021608494169930003 0 -0.040372110991028332 -0.021545680057117291 0 -0.040500374760342878 -0.021641399227951257 0 -0.040285545320938004 -0.021570307753090098 0 -0.040397532394163695 -0.021608494169930003 0 -0.040372110991028332 -0.021545680057117291 0 -0.036527438854594058 -0.023821793976189123 0 -0.038736302142199891 -0.022666372924683362 0 -0.037482703495573186 -0.021742628169939892 0 -0.032621303913003039 -0.026449942610946818 0 -0.031555077442492099 -0.027522262053586287 0 -0.040285545320938004 -0.021570307753090098 0 -0.040157438561797841 -0.021511320957002065 0 -0.040372110991028332 -0.021545680057117291 0 -0.032621303913003039 -0.026449942610946818 0 -0.038411406983500949 -0.023038888916083355 0 -0.020930898197297879 -0.033633696987790271 0 -0.023722587995552089 -0.035012233169525384 0 -0.022795050708652783 -0.031912289395504716 0 -0.038736302142199891 -0.022666372924683362 0 -0.037482703495573186 -0.021742628169939892 0 -0.038780697722635898 -0.021768126355344419 0 -0.037482703495573186 -0.021742628169939892 0 -0.038780697722635898 -0.021768126355344419 0 -0.038016271009139457 -0.021004592672446063 0 -0.038780697722635898 -0.021768126355344419 0 -0.039510002375344293 -0.020950162590029141 0 -0.040100648738589387 -0.021742378394541087 0 -0.038736302142199891 -0.022666372924683362 0 -0.038780697722635898 -0.021768126355344419 0 -0.040100648738589387 -0.021742378394541087 0 -0.038016271009139457 -0.021004592672446063 0 -0.037636691442582193 -0.021147674001354519 0 -0.035236855576984291 -0.021907862649204163 0 -0.038016271009139457 -0.021004592672446063 0 -0.040328498070246376 -0.017310232650175696 0 -0.040110519777547461 -0.019549648933941739 0 -0.039510002375344293 -0.020950162590029141 0 -0.038016271009139457 -0.021004592672446063 0 -0.040110519777547461 -0.019549648933941739 0 -0.038780697722635898 -0.021768126355344419 0 -0.039510002375344293 -0.020950162590029141 0 -0.038016271009139457 -0.021004592672446063 0 -0.031555077442492099 -0.027522262053586287 0 -0.032065943123406826 -0.025686203762516208 0 -0.037482703495573186 -0.021742628169939892 0 -0.038016271009139457 -0.021004592672446063 0 -0.037636691442582193 -0.021147674001354519 0 -0.023722587995552089 -0.035012233169525384 0 -0.02611754269893013 -0.03061912182568172 0 -0.022795050708652783 -0.031912289395504716 0 -0.02611754269893013 -0.03061912182568172 0 -0.022795050708652783 -0.031912289395504716 0 -0.023033724370206152 -0.029731154130448814 0 -0.023033724370206152 -0.029731154130448814 0 -0.024096175350861705 -0.027320709364735386 0 -0.025030733710569703 -0.029156476996897326 0 -0.023033724370206152 -0.029731154130448814 0 -0.024096175350861705 -0.027320709364735386 0 -0.020551767710243637 -0.027664186479373271 0 -0.024096175350861705 -0.027320709364735386 0 -0.025030733710569703 -0.029156476996897326 0 -0.026334331385834648 -0.027695854634531964 0 -0.02611754269893013 -0.03061912182568172 0 -0.025030733710569703 -0.029156476996897326 0 -0.026334331385834648 -0.027695854634531964 0 -0.02611754269893013 -0.03061912182568172 0 -0.023033724370206152 -0.029731154130448814 0 -0.025030733710569703 -0.029156476996897326 0 -0.037636691442582193 -0.021147674001354519 0 -0.035243632021452274 -0.022194195840368178 0 -0.035236855576984291 -0.021907862649204163 0 -0.037770798453242174 -0.020694115907799022 0 -0.038098879316635421 -0.019907415692715834 0 -0.032065943123406826 -0.025686203762516208 0 -0.032716118740519461 -0.02376006535704004 0 -0.02611754269893013 -0.03061912182568172 0 -0.026334331385834648 -0.027695854634531964 0 -0.029013557287502857 -0.026523962243900953 0 -0.016467707537227642 -0.032122660869325026 0 -0.017126364748811677 -0.028295761243267114 0 -0.012127797918809245 -0.030006122109889916 0 -0.016467707537227642 -0.032122660869325026 0 -0.020046128347321227 -0.030523766058489023 0 -0.017126364748811677 -0.028295761243267114 0 -0.020930898197297879 -0.033633696987790271 0 -0.016467707537227642 -0.032122660869325026 0 -0.020046128347321227 -0.030523766058489023 0 -0.020930898197297879 -0.033633696987790271 0 -0.022795050708652783 -0.031912289395504716 0 -0.020046128347321227 -0.030523766058489023 0 -0.022795050708652783 -0.031912289395504716 0 -0.023033724370206152 -0.029731154130448814 0 -0.020046128347321227 -0.030523766058489023 0 -0.020551767710243637 -0.027664186479373271 0 -0.017126364748811677 -0.028295761243267114 0 -0.018918617483989198 -0.024625374197088819 0 -0.020046128347321227 -0.030523766058489023 0 -0.020551767710243637 -0.027664186479373271 0 -0.017126364748811677 -0.028295761243267114 0 -0.023033724370206152 -0.029731154130448814 0 -0.020046128347321227 -0.030523766058489023 0 -0.020551767710243637 -0.027664186479373271 0 -0.017126364748811677 -0.028295761243267114 0 -0.018918617483989198 -0.024625374197088819 0 -0.014516629073613034 -0.024989572680814781 0 -0.016278756351157792 -0.021968130777935899 0 -0.018918617483989198 -0.024625374197088819 0 -0.014516629073613034 -0.024989572680814781 0 -0.016278756351157792 -0.021968130777935899 0 -0.015415007483449452 -0.01902340158800387 0 -0.020068894454898734 -0.019904078119549418 0 -0.016278756351157792 -0.021968130777935899 0 -0.018918617483989198 -0.024625374197088819 0 -0.020068894454898734 -0.019904078119549418 0 -0.018918617483989198 -0.024625374197088819 0 -0.022854903961479916 -0.024362416886805977 0 -0.020068894454898734 -0.019904078119549418 0 -0.022854903961479916 -0.024362416886805977 0 -0.024361717679271089 -0.021698345909155071 0 -0.020068894454898734 -0.019904078119549418 0 -0.020551767710243637 -0.027664186479373271 0 -0.018918617483989198 -0.024625374197088819 0 -0.022854903961479916 -0.024362416886805977 0 -0.024096175350861705 -0.027320709364735386 0 -0.020551767710243637 -0.027664186479373271 0 -0.022854903961479916 -0.024362416886805977 0 -0.024096175350861705 -0.027320709364735386 0 -0.025933443718425007 -0.025708745047519219 0 -0.022854903961479916 -0.024362416886805977 0 -0.024096175350861705 -0.027320709364735386 0 -0.026334331385834648 -0.027695854634531964 0 -0.025933443718425007 -0.025708745047519219 0 -0.025933443718425007 -0.025708745047519219 0 -0.022854903961479916 -0.024362416886805977 0 -0.026122703502041839 -0.02344978700621396 0 -0.026334331385834648 -0.027695854634531964 0 -0.025933443718425007 -0.025708745047519219 0 -0.027273701715205663 -0.026185399841243396 0 -0.026334331385834648 -0.027695854634531964 0 -0.029013557287502857 -0.026523962243900953 0 -0.027273701715205663 -0.026185399841243396 0 -0.029013557287502857 -0.026523962243900953 0 -0.027273701715205663 -0.026185399841243396 0 -0.027800255951174371 -0.024754623845588915 0 -0.025933443718425007 -0.025708745047519219 0 -0.027273701715205663 -0.026185399841243396 0 -0.027800255951174371 -0.024754623845588915 0 -0.025933443718425007 -0.025708745047519219 0 -0.027800255951174371 -0.024754623845588915 0 -0.026122703502041839 -0.02344978700621396 0 -0.029013557287502857 -0.026523962243900953 0 -0.027800255951174371 -0.024754623845588915 0 -0.029864546689202014 -0.02344649427447449 0 -0.029013557287502857 -0.026523962243900953 0 -0.029864546689202014 -0.02344649427447449 0 -0.033200956699325074 -0.021729386076095446 0 -0.029864546689202014 -0.02344649427447449 0 -0.028577375804930364 -0.022734482090820452 0 -0.03017387464689698 -0.02115357707726187 0 -0.027800255951174371 -0.024754623845588915 0 -0.028577375804930364 -0.022734482090820452 0 -0.026122703502041839 -0.02344978700621396 0 -0.028577375804930364 -0.022734482090820452 0 -0.02741588611611857 -0.021229195807173681 0 -0.026122703502041839 -0.02344978700621396 0 -0.027800255951174371 -0.024754623845588915 0 -0.029864546689202014 -0.02344649427447449 0 -0.028577375804930364 -0.022734482090820452 0 -0.028577375804930364 -0.022734482090820452 0 -0.02741588611611857 -0.021229195807173681 0 -0.03017387464689698 -0.02115357707726187 0 -0.02741588611611857 -0.021229195807173681 0 -0.03017387464689698 -0.02115357707726187 0 -0.029585607290247812 -0.019039991665295498 0 -0.029864546689202014 -0.02344649427447449 0 -0.03017387464689698 -0.02115357707726187 0 -0.033200956699325074 -0.021729386076095446 0 -0.024361717679271089 -0.021698345909155071 0 -0.025686219550616025 -0.019059910925732247 0 -0.020068894454898734 -0.019904078119549418 0 -0.022854903961479916 -0.024362416886805977 0 -0.026122703502041839 -0.02344978700621396 0 -0.024361717679271089 -0.021698345909155071 0 -0.02741588611611857 -0.021229195807173681 0 -0.026122703502041839 -0.02344978700621396 0 -0.024361717679271089 -0.021698345909155071 0 -0.02741588611611857 -0.021229195807173681 0 -0.024361717679271089 -0.021698345909155071 0 -0.025686219550616025 -0.019059910925732247 0 -0.023305574272846106 -0.016638786222193957 0 -0.025686219550616025 -0.019059910925732247 0 -0.029434289853706174 -0.015064395367382631 0 -0.023305574272846106 -0.016638786222193957 0 -0.025686219550616025 -0.019059910925732247 0 -0.020068894454898734 -0.019904078119549418 0 -0.025686219550616025 -0.019059910925732247 0 -0.029585607290247812 -0.019039991665295498 0 -0.029434289853706174 -0.015064395367382631 0 -0.029585607290247812 -0.019039991665295498 0 -0.029434289853706174 -0.015064395367382631 0 -0.033811186585908704 -0.017802927223660801 0 -0.03017387464689698 -0.02115357707726187 0 -0.029585607290247812 -0.019039991665295498 0 -0.0323747143885404 -0.02006035909210397 0 -0.02741588611611857 -0.021229195807173681 0 -0.025686219550616025 -0.019059910925732247 0 -0.029585607290247812 -0.019039991665295498 0 -0.023305574272846106 -0.016638786222193957 0 -0.020396028170592828 -0.014078345946675988 0 -0.025068627412693358 -0.011149430156188302 0 -0.023305574272846106 -0.016638786222193957 0 -0.029434289853706174 -0.015064395367382631 0 -0.025068627412693358 -0.011149430156188302 0 -0.020396028170592828 -0.014078345946675988 0 -0.015735267891845792 -0.015461950889791761 0 -0.020068894454898734 -0.019904078119549418 0 -0.020396028170592828 -0.014078345946675988 0 -0.015735267891845792 -0.015461950889791761 0 -0.01988132853310812 -0.0084954031375269815 0 -0.015735267891845792 -0.015461950889791761 0 -0.015415007483449452 -0.01902340158800387 0 -0.020068894454898734 -0.019904078119549418 0 -0.023305574272846106 -0.016638786222193957 0 -0.020396028170592828 -0.014078345946675988 0 -0.020068894454898734 -0.019904078119549418 0 -0.045403997853707023 -0.01378022788263226 0 -0.045723604420087452 -0.012793514485620569 0 -0.044183163317166957 -0.012679736825665261 0 -0.046650759550370416 -0.013683271079698014 0 -0.046801609847927993 -0.012731704001253945 0 -0.045723604420087452 -0.012793514485620569 0 -0.045403997853707023 -0.01378022788263226 0 -0.046650759550370416 -0.013683271079698014 0 -0.045723604420087452 -0.012793514485620569 0 -0.045403997853707023 -0.01378022788263226 0 -0.046650759550370416 -0.013683271079698014 0 -0.046685938240793971 -0.014920227255848706 0 -0.046650759550370416 -0.013683271079698014 0 -0.047824419723992553 -0.013986022648808983 0 -0.046685938240793971 -0.014920227255848706 0 -0.046650759550370416 -0.013683271079698014 0 -0.047824419723992553 -0.013986022648808983 0 -0.047824140508681279 -0.013141664867032362 0 -0.047824419723992553 -0.013986022648808983 0 -0.047824140508681279 -0.013141664867032362 0 -0.048897984510388903 -0.013294447002402787 0 -0.046650759550370416 -0.013683271079698014 0 -0.047824140508681279 -0.013141664867032362 0 -0.046801609847927993 -0.012731704001253945 0 -0.047824140508681279 -0.013141664867032362 0 -0.046801609847927993 -0.012731704001253945 0 -0.047594881274962829 -0.01213231292960491 0 -0.046801609847927993 -0.012731704001253945 0 -0.047594881274962829 -0.01213231292960491 0 -0.046516070009495786 -0.012004871305138139 0 -0.047824140508681279 -0.013141664867032362 0 -0.047594881274962829 -0.01213231292960491 0 -0.048484215483021287 -0.012495525002423541 0 -0.047594881274962829 -0.01213231292960491 0 -0.047956908400324988 -0.011280353454218276 0 -0.04716821193276325 -0.011407479626236809 0 -0.047594881274962829 -0.01213231292960491 0 -0.048362748542074001 -0.01185845592481634 0 -0.047956908400324988 -0.011280353454218276 0 -0.047594881274962829 -0.01213231292960491 0 -0.048362748542074001 -0.01185845592481634 0 -0.048484215483021287 -0.012495525002423541 0 -0.047594881274962829 -0.01213231292960491 0 -0.046516070009495786 -0.012004871305138139 0 -0.04716821193276325 -0.011407479626236809 0 -0.045577678739482548 -0.011795355430606435 0 -0.045723604420087452 -0.012793514485620569 0 -0.044183163317166957 -0.012679736825665261 0 -0.046516070009495786 -0.012004871305138139 0 -0.045577678739482548 -0.011795355430606435 0 -0.046243965495722322 -0.010950652571895352 0 -0.045577678739482548 -0.011795355430606435 0 -0.044183163317166957 -0.012679736825665261 0 -0.044495804106601811 -0.010135531138220926 0 -0.046516070009495786 -0.012004871305138139 0 -0.045577678739482548 -0.011795355430606435 0 -0.045723604420087452 -0.012793514485620569 0 -0.046801609847927993 -0.012731704001253945 0 -0.046516070009495786 -0.012004871305138139 0 -0.045723604420087452 -0.012793514485620569 0 -0.038617785476694144 -0.016743537919596218 0 -0.035412468917544182 -0.014000927552766673 0 -0.038896234559583541 -0.011616320256429872 0 -0.04129175908783804 -0.014285492946763241 0 -0.042656879665236451 -0.011865753857566786 0 -0.038617785476694144 -0.016743537919596218 0 -0.035412468917544182 -0.014000927552766673 0 -0.033811186585908704 -0.017802927223660801 0 -0.029434289853706174 -0.015064395367382631 0 -0.035412468917544182 -0.014000927552766673 0 -0.033940192097734953 -0.01060414875839169 0 -0.029434289853706174 -0.015064395367382631 0 -0.035412468917544182 -0.014000927552766673 0 -0.033811186585908704 -0.017802927223660801 0 -0.038617785476694144 -0.016743537919596218 0 -0.033811186585908704 -0.017802927223660801 0 -0.034129383049056369 -0.022211954336252369 0 -0.033811186585908704 -0.017802927223660801 0 -0.0323747143885404 -0.02006035909210397 0 -0.034129383049056369 -0.022211954336252369 0 -0.029585607290247812 -0.019039991665295498 0 -0.033811186585908704 -0.017802927223660801 0 -0.0323747143885404 -0.02006035909210397 0 -0.04129175908783804 -0.014285492946763241 0 -0.039225388705228369 -0.017841385590460963 0 -0.044183163317166957 -0.012679736825665261 0 -0.044107016034840962 -0.014302361370616763 0 -0.042651971731992977 -0.014635010033685241 0 -0.045403997853707023 -0.01378022788263226 0 -0.044183163317166957 -0.012679736825665261 0 -0.044107016034840962 -0.014302361370616763 0 -0.045403997853707023 -0.01378022788263226 0 -0.044107016034840962 -0.014302361370616763 0 -0.044709131697964241 -0.015268624002291693 0 -0.044107016034840962 -0.014302361370616763 0 -0.043560390739877268 -0.01537890654118019 0 -0.042651971731992977 -0.014635010033685241 0 -0.044107016034840962 -0.014302361370616763 0 -0.043560390739877268 -0.01537890654118019 0 -0.044709131697964241 -0.015268624002291693 0 -0.035243632021452274 -0.022194195840368178 0 -0.033200956699325074 -0.021729386076095446 0 -0.034129383049056369 -0.022211954336252369 0 -0.0323747143885404 -0.02006035909210397 0 -0.033200956699325074 -0.021729386076095446 0 -0.034129383049056369 -0.022211954336252369 0 -0.03017387464689698 -0.02115357707726187 0 -0.0323747143885404 -0.02006035909210397 0 -0.033200956699325074 -0.021729386076095446 0 -0.035243632021452274 -0.022194195840368178 0 -0.034129383049056369 -0.022211954336252369 0 -0.035236855576984291 -0.021907862649204163 0 -0.032716118740519461 -0.02376006535704004 0 -0.033146202176503013 -0.022623257680959848 0 -0.042651971731992977 -0.014635010033685241 0 -0.042616802229136226 -0.016425535193936792 0 -0.040328498070246376 -0.017310232650175696 0 -0.039225388705228369 -0.017841385590460963 0 -0.038098879316635421 -0.019907415692715834 0 -0.043560390739877268 -0.01537890654118019 0 -0.042651971731992977 -0.014635010033685241 0 -0.042616802229136226 -0.016425535193936792 0 -0.044709131697964241 -0.015268624002291693 0 -0.04391022497626066 -0.016333053120998389 0 -0.044836360929730756 -0.0164350573886047 0 -0.043560390739877268 -0.01537890654118019 0 -0.044709131697964241 -0.015268624002291693 0 -0.04391022497626066 -0.016333053120998389 0 -0.043560390739877268 -0.01537890654118019 0 -0.042616802229136226 -0.016425535193936792 0 -0.04391022497626066 -0.016333053120998389 0 -0.042616802229136226 -0.016425535193936792 0 -0.04391022497626066 -0.016333053120998389 0 -0.043258314150056168 -0.017402010491704995 0 -0.04391022497626066 -0.016333053120998389 0 -0.044627640710882995 -0.017226676086149386 0 -0.043258314150056168 -0.017402010491704995 0 -0.04391022497626066 -0.016333053120998389 0 -0.044836360929730756 -0.0164350573886047 0 -0.044627640710882995 -0.017226676086149386 0 -0.044836360929730756 -0.0164350573886047 0 -0.045701560953823238 -0.016113369470537445 0 -0.045673005421338064 -0.017061132757057208 0 -0.044836360929730756 -0.0164350573886047 0 -0.045673005421338064 -0.017061132757057208 0 -0.044627640710882995 -0.017226676086149386 0 -0.045701560953823238 -0.016113369470537445 0 -0.046771742319142579 -0.015986208386860521 0 -0.04673750432327916 -0.016835575889969954 0 -0.045701560953823238 -0.016113369470537445 0 -0.04673750432327916 -0.016835575889969954 0 -0.045673005421338064 -0.017061132757057208 0 -0.045701560953823238 -0.016113369470537445 0 -0.046685938240793971 -0.014920227255848706 0 -0.046771742319142579 -0.015986208386860521 0 -0.044709131697964241 -0.015268624002291693 0 -0.044836360929730756 -0.0164350573886047 0 -0.045701560953823238 -0.016113369470537445 0 -0.045403997853707023 -0.01378022788263226 0 -0.044709131697964241 -0.015268624002291693 0 -0.046685938240793971 -0.014920227255848706 0 -0.044709131697964241 -0.015268624002291693 0 -0.045701560953823238 -0.016113369470537445 0 -0.046685938240793971 -0.014920227255848706 0 -0.046685938240793971 -0.014920227255848706 0 -0.047879142742696501 -0.01583501381262761 0 -0.048340277997204563 -0.014828078421999685 0 -0.047824419723992553 -0.013986022648808983 0 -0.046685938240793971 -0.014920227255848706 0 -0.048340277997204563 -0.014828078421999685 0 -0.046685938240793971 -0.014920227255848706 0 -0.047879142742696501 -0.01583501381262761 0 -0.046771742319142579 -0.015986208386860521 0 -0.047879142742696501 -0.01583501381262761 0 -0.046771742319142579 -0.015986208386860521 0 -0.04673750432327916 -0.016835575889969954 0 -0.047879142742696501 -0.01583501381262761 0 -0.04673750432327916 -0.016835575889969954 0 -0.047787998440141574 -0.017072166095215204 0 -0.047879142742696501 -0.01583501381262761 0 -0.047787998440141574 -0.017072166095215204 0 -0.048700643610094844 -0.016811037299583199 0 -0.047787998440141574 -0.017072166095215204 0 -0.048536871417581617 -0.017791084795792795 0 -0.047065375882522471 -0.017777690822740666 0 -0.047787998440141574 -0.017072166095215204 0 -0.048536871417581617 -0.017791084795792795 0 -0.048700643610094844 -0.016811037299583199 0 -0.048536871417581617 -0.017791084795792795 0 -0.047065375882522471 -0.017777690822740666 0 -0.046578920328278275 -0.018922455041188065 0 -0.04673750432327916 -0.016835575889969954 0 -0.047787998440141574 -0.017072166095215204 0 -0.047065375882522471 -0.017777690822740666 0 -0.04673750432327916 -0.016835575889969954 0 -0.045673005421338064 -0.017061132757057208 0 -0.045813736483633266 -0.018080021862430656 0 -0.04673750432327916 -0.016835575889969954 0 -0.047065375882522471 -0.017777690822740666 0 -0.045813736483633266 -0.018080021862430656 0 -0.044627640710882995 -0.017226676086149386 0 -0.045813736483633266 -0.018080021862430656 0 -0.044069949805296139 -0.018447311141922617 0 -0.045673005421338064 -0.017061132757057208 0 -0.044627640710882995 -0.017226676086149386 0 -0.045813736483633266 -0.018080021862430656 0 -0.045813736483633266 -0.018080021862430656 0 -0.044989405778836776 -0.019575611980227586 0 -0.044069949805296139 -0.018447311141922617 0 -0.045813736483633266 -0.018080021862430656 0 -0.046578920328278275 -0.018922455041188065 0 -0.044989405778836776 -0.019575611980227586 0 -0.047065375882522471 -0.017777690822740666 0 -0.045813736483633266 -0.018080021862430656 0 -0.046578920328278275 -0.018922455041188065 0 -0.046578920328278275 -0.018922455041188065 0 -0.044989405778836776 -0.019575611980227586 0 -0.04676170759920454 -0.020758252872863842 0 -0.044989405778836776 -0.019575611980227586 0 -0.04676170759920454 -0.020758252872863842 0 -0.043739066199748995 -0.021404165233036676 0 -0.046260941466539571 -0.019389492875599809 0 -0.043155800283277784 -0.020400704998371363 0 -0.048536871417581617 -0.017791084795792795 0 -0.046578920328278275 -0.018922455041188065 0 -0.04676170759920454 -0.020758252872863842 0 -0.049266848468646006 -0.018237209589617227 0 -0.049998258549844521 -0.0187384724541113 0 -0.050237556326377365 -0.018129610804617051 0 -0.048536871417581617 -0.017791084795792795 0 -0.047526433977582494 -0.019276057090012681 0 -0.048974299405541717 -0.019026176227236579 0 -0.046260941466539571 -0.019389492875599809 0 -0.048360344893197314 -0.018950632427721041 0 -0.046939477998659419 -0.018767480859556717 0 -0.046260941466539571 -0.019389492875599809 0 -0.040328498070246376 -0.017310232650175696 0 -0.041217120984596435 -0.018511550845276344 0 -0.040110519777547461 -0.019549648933941739 0 -0.041217120984596435 -0.018511550845276344 0 -0.041257638084230788 -0.019386699708093556 0 -0.040110519777547461 -0.019549648933941739 0 -0.040328498070246376 -0.017310232650175696 0 -0.041898515188755654 -0.017642264139856013 0 -0.041217120984596435 -0.018511550845276344 0 -0.042616802229136226 -0.016425535193936792 0 -0.040328498070246376 -0.017310232650175696 0 -0.041898515188755654 -0.017642264139856013 0 -0.041217120984596435 -0.018511550845276344 0 -0.042409039754599261 -0.018751267960201507 0 -0.041257638084230788 -0.019386699708093556 0 -0.041898515188755654 -0.017642264139856013 0 -0.041217120984596435 -0.018511550845276344 0 -0.042409039754599261 -0.018751267960201507 0 -0.042409039754599261 -0.018751267960201507 0 -0.044069949805296139 -0.018447311141922617 0 -0.043261216739521595 -0.019777261566157084 0 -0.042409039754599261 -0.018751267960201507 0 -0.043258314150056168 -0.017402010491704995 0 -0.044069949805296139 -0.018447311141922617 0 -0.042616802229136226 -0.016425535193936792 0 -0.041898515188755654 -0.017642264139856013 0 -0.043258314150056168 -0.017402010491704995 0 -0.041898515188755654 -0.017642264139856013 0 -0.042409039754599261 -0.018751267960201507 0 -0.043258314150056168 -0.017402010491704995 0 -0.044627640710882995 -0.017226676086149386 0 -0.043258314150056168 -0.017402010491704995 0 -0.044069949805296139 -0.018447311141922617 0 -0.044989405778836776 -0.019575611980227586 0 -0.044069949805296139 -0.018447311141922617 0 -0.043261216739521595 -0.019777261566157084 0 -0.044989405778836776 -0.019575611980227586 0 -0.043261216739521595 -0.019777261566157084 0 -0.043739066199748995 -0.021404165233036676 0 -0.043261216739521595 -0.019777261566157084 0 -0.041523808100554602 -0.020383077697227477 0 -0.043739066199748995 -0.021404165233036676 0 -0.042409039754599261 -0.018751267960201507 0 -0.043261216739521595 -0.019777261566157084 0 -0.041523808100554602 -0.020383077697227477 0 -0.041523808100554602 -0.020383077697227477 0 -0.040100648738589387 -0.021742378394541087 0 -0.043739066199748995 -0.021404165233036676 0 -0.042409039754599261 -0.018751267960201507 0 -0.041257638084230788 -0.019386699708093556 0 -0.041523808100554602 -0.020383077697227477 0 -0.041257638084230788 -0.019386699708093556 0 -0.041523808100554602 -0.020383077697227477 0 -0.040502926020684463 -0.020422355019428792 0 -0.039510002375344293 -0.020950162590029141 0 -0.040502926020684463 -0.020422355019428792 0 -0.040100648738589387 -0.021742378394541087 0 -0.041523808100554602 -0.020383077697227477 0 -0.040502926020684463 -0.020422355019428792 0 -0.040100648738589387 -0.021742378394541087 0 -0.039510002375344293 -0.020950162590029141 0 -0.040502926020684463 -0.020422355019428792 0 -0.040110519777547461 -0.019549648933941739 0 -0.041257638084230788 -0.019386699708093556 0 -0.040502926020684463 -0.020422355019428792 0 -0.040110519777547461 -0.019549648933941739 0 -0.042022193452772832 -0.02073441894623557 0 -0.043155800283277784 -0.020400704998371363 0 -0.038411406983500949 -0.023038888916083355 0 -0.039612473567139837 -0.022322172712845402 0 -0.038736302142199891 -0.022666372924683362 0 -0.040100648738589387 -0.021742378394541087 0 -0.04052784999356572 -0.021647176692568944 0 -0.040100648738589387 -0.021742378394541087 0 -0.04052784999356572 -0.021647176692568944 0 -0.040903957509079186 -0.021418625374653652 0 -0.040372110991028332 -0.021545680057117291 0 -0.04052784999356572 -0.021647176692568944 0 -0.040493949803816522 -0.021617223401434911 0 -0.04052784999356572 -0.021647176692568944 0 -0.040493949803816522 -0.021617223401434911 0 -0.040618574689041627 -0.021644041960017731 0 -0.040618574689041627 -0.021644041960017731 0 -0.040903957509079186 -0.021418625374653652 0 -0.0408190466486789 -0.021687601731301558 0 -0.04052784999356572 -0.021647176692568944 0 -0.040618574689041627 -0.021644041960017731 0 -0.040903957509079186 -0.021418625374653652 0 -0.040618574689041627 -0.021644041960017731 0 -0.0408190466486789 -0.021687601731301558 0 -0.040500374760342878 -0.021641399227951257 0 -0.040496728025619946 -0.021697343237219432 0 -0.0408190466486789 -0.021687601731301558 0 -0.040500374760342878 -0.021641399227951257 0 -0.043944909557754271 -0.021137658754778202 0 -0.044822690517844613 -0.020520768813568183 0 -0.040372110991028332 -0.021545680057117291 0 -0.040493949803816522 -0.021617223401434911 0 -0.040500374760342878 -0.021641399227951257 0 -0.040493949803816522 -0.021617223401434911 0 -0.040618574689041627 -0.021644041960017731 0 -0.040500374760342878 -0.021641399227951257 0 -0.040452071241655715 -0.021649450797174688 0 -0.040397532394163695 -0.021608494169930003 0 -0.040500374760342878 -0.021641399227951257 0 -0.049266848468646006 -0.018237209589617227 0 -0.049998258549844521 -0.0187384724541113 0 -0.049460077946301244 -0.019374805102666953 0 -0.049998258549844521 -0.0187384724541113 0 -0.049460077946301244 -0.019374805102666953 0 -0.050621510474681754 -0.019490286863932602 0 -0.049266848468646006 -0.018237209589617227 0 -0.048276432866347321 -0.019476753934153792 0 -0.049460077946301244 -0.019374805102666953 0 -0.046260941466539571 -0.019389492875599809 0 -0.044822690517844613 -0.020520768813568183 0 -0.04119507707513112 -0.021364405543625242 0 -0.040903957509079186 -0.021418625374653652 0 -0.0408190466486789 -0.021687601731301558 0 -0.04849943582345171 -0.020367115825103175 0 -0.048276432866347321 -0.019476753934153792 0 -0.049043380818760293 -0.01999054846028895 0 -0.048276432866347321 -0.019476753934153792 0 -0.049043380818760293 -0.01999054846028895 0 -0.049460077946301244 -0.019374805102666953 0 -0.049561669223561332 -0.02053821459563511 0 -0.049043380818760293 -0.01999054846028895 0 -0.049460077946301244 -0.019374805102666953 0 -0.049561669223561332 -0.02053821459563511 0 -0.049460077946301244 -0.019374805102666953 0 -0.050621510474681754 -0.019490286863932602 0 -0.048850312120167029 -0.019329252837907228 0 -0.050076823183563123 -0.018759227435413559 0 -0.049998258549844521 -0.0187384724541113 0 -0.050621510474681754 -0.019490286863932602 0 -0.050678353178217748 -0.018533650341766145 0 -0.049998258549844521 -0.0187384724541113 0 -0.050678353178217748 -0.018533650341766145 0 -0.050237556326377365 -0.018129610804617051 0 -0.050884703648785092 -0.018071396159692815 0 -0.051565545462496309 -0.018342118849222006 0 -0.051673254891877587 -0.018379005729896557 0 -0.050621510474681754 -0.019490286863932602 0 -0.050678353178217748 -0.018533650341766145 0 -0.051565545462496309 -0.018342118849222006 0 -0.050076823183563123 -0.018759227435413559 0 -0.050588004172162374 -0.018484116138910822 0 -0.051555353729360556 -0.018619976173512867 0 -0.050884703648785092 -0.018071396159692815 0 -0.051673254891877587 -0.018379005729896557 0 -0.052017318453631792 -0.018683319923981385 0 -0.051555353729360556 -0.018619976173512867 0 -0.051673254891877587 -0.018379005729896557 0 -0.052017318453631792 -0.018683319923981385 0 -0.051673254891877587 -0.018379005729896557 0 -0.052081724645637095 -0.018325242783078847 0 -0.058632591516046537 -0.01590737152868071 0 -0.057579559431311086 -0.015498187244000382 0 -0.051565545462496309 -0.018342118849222006 0 -0.051673254891877587 -0.018379005729896557 0 -0.052081724645637095 -0.018325242783078847 0 -0.051565545462496309 -0.018342118849222006 0 -0.05256833491581131 -0.017747386778763006 0 -0.051749377268107584 -0.017622468063955305 0 -0.051565545462496309 -0.018342118849222006 0 -0.052081724645637095 -0.018325242783078847 0 -0.05256833491581131 -0.017747386778763006 0 -0.057579559431311086 -0.015498187244000382 0 -0.056297013506787022 -0.014146275010719972 0 -0.063624692872542854 -0.015055138870396579 0 -0.05981671222215227 -0.013369983254296664 0 -0.063090883362211497 -0.013718037799243854 0 -0.05981671222215227 -0.013369983254296664 0 -0.059492597796618467 -0.011444682795864695 0 -0.063090883362211497 -0.013718037799243854 0 -0.056297013506787022 -0.014146275010719972 0 -0.055093082556453475 -0.012151531131499593 0 -0.05981671222215227 -0.013369983254296664 0 -0.059492597796618467 -0.011444682795864695 0 -0.056059818418694805 -0.0099100945602144507 0 -0.05256833491581131 -0.017747386778763006 0 -0.052335889124192153 -0.016596088436232385 0 -0.051749377268107584 -0.017622468063955305 0 -0.05256833491581131 -0.017747386778763006 0 -0.052335889124192153 -0.016596088436232385 0 -0.053340465266958438 -0.015386092779211083 0 -0.052335889124192153 -0.016596088436232385 0 -0.051749377268107584 -0.017622468063955305 0 -0.051342233191887125 -0.016595317863567265 0 -0.051749377268107584 -0.017622468063955305 0 -0.051074093584498735 -0.017531241214499321 0 -0.051342233191887125 -0.016595317863567265 0 -0.051074093584498735 -0.017531241214499321 0 -0.051342233191887125 -0.016595317863567265 0 -0.050171372363896058 -0.017523254082697066 0 -0.051074093584498735 -0.017531241214499321 0 -0.050171372363896058 -0.017523254082697066 0 -0.051013249128416295 -0.018188393313658031 0 -0.051342233191887125 -0.016595317863567265 0 -0.050155268009813299 -0.016525522642318373 0 -0.050171372363896058 -0.017523254082697066 0 -0.050155268009813299 -0.016525522642318373 0 -0.049312491399962841 -0.01742143742522817 0 -0.050171372363896058 -0.017523254082697066 0 -0.048536871417581617 -0.017791084795792795 0 -0.049312491399962841 -0.01742143742522817 0 -0.048700643610094844 -0.016811037299583199 0 -0.050155268009813299 -0.016525522642318373 0 -0.049312491399962841 -0.01742143742522817 0 -0.048700643610094844 -0.016811037299583199 0 -0.048536871417581617 -0.017791084795792795 0 -0.049312491399962841 -0.01742143742522817 0 -0.049443921812377029 -0.018127583108046859 0 -0.049312491399962841 -0.01742143742522817 0 -0.050171372363896058 -0.017523254082697066 0 -0.049443921812377029 -0.018127583108046859 0 -0.048360344893197314 -0.018950632427721041 0 -0.049089023984241975 -0.018796013597031667 0 -0.049443921812377029 -0.018127583108046859 0 -0.048974299405541717 -0.019026176227236579 0 -0.051013249128416295 -0.018188393313658031 0 -0.050678353178217748 -0.018533650341766145 0 -0.050237556326377365 -0.018129610804617051 0 -0.051013249128416295 -0.018188393313658031 0 -0.050171372363896058 -0.017523254082697066 0 -0.049443921812377029 -0.018127583108046859 0 -0.051013249128416295 -0.018188393313658031 0 -0.048536871417581617 -0.017791084795792795 0 -0.049443921812377029 -0.018127583108046859 0 -0.048974299405541717 -0.019026176227236579 0 -0.050678353178217748 -0.018533650341766145 0 -0.051565545462496309 -0.018342118849222006 0 -0.051013249128416295 -0.018188393313658031 0 -0.051565545462496309 -0.018342118849222006 0 -0.051749377268107584 -0.017622468063955305 0 -0.051013249128416295 -0.018188393313658031 0 -0.051749377268107584 -0.017622468063955305 0 -0.051074093584498735 -0.017531241214499321 0 -0.051013249128416295 -0.018188393313658031 0 -0.066960590649595961 -0.015035332483399323 0 -0.065995521992180339 -0.014625137598018615 0 -0.066183745466724175 -0.014826750129637072 0 -0.068385330238003403 -0.013550287638344347 0 -0.068018208085941292 -0.013270812855423217 0 -0.07054243738392664 -0.012531885703276431 0 -0.069616050190864517 -0.010912735935603404 0 -0.070024214717715846 -0.011464123017283799 0 -0.065995521992180339 -0.014625137598018615 0 -0.066183745466724175 -0.014826750129637072 0 -0.065919368550161367 -0.014786393070668886 0 -0.066960590649595961 -0.015035332483399323 0 -0.066183745466724175 -0.014826750129637072 0 -0.066390256120829827 -0.014527767846144908 0 -0.066183745466724175 -0.014826750129637072 0 -0.065919368550161367 -0.014786393070668886 0 -0.065458877470384952 -0.014445185882625966 0 -0.065919368550161367 -0.014786393070668886 0 -0.064847222423179682 -0.014863241486550558 0 -0.065458877470384952 -0.014445185882625966 0 -0.066152683576241114 -0.014445966522363416 0 -0.065919368550161367 -0.014786393070668886 0 -0.064847222423179682 -0.014863241486550558 0 -0.066152683576241114 -0.014445966522363416 0 -0.063624692872542854 -0.015055138870396579 0 -0.064847222423179682 -0.014863241486550558 0 -0.063624692872542854 -0.015055138870396579 0 -0.064847222423179682 -0.014863241486550558 0 -0.063090883362211497 -0.013718037799243854 0 -0.064847222423179682 -0.014863241486550558 0 -0.063090883362211497 -0.013718037799243854 0 -0.065458877470384952 -0.014445185882625966 0 -0.063090883362211497 -0.013718037799243854 0 -0.063146801868670763 -0.011561856423360316 0 -0.065152191776589666 -0.012620616478592521 0 -0.059492597796618467 -0.011444682795864695 0 -0.063090883362211497 -0.013718037799243854 0 -0.063146801868670763 -0.011561856423360316 0 -0.062094337340119557 -0.013668906803212123 0 -0.061062106720615024 -0.013826435756106399 0 -0.063146801868670763 -0.011561856423360316 0 -0.065152191776589666 -0.012620616478592521 0 -0.065120423451287074 -0.010153300778271942 0 -0.065489475793079108 -0.013942505321950842 0 -0.06655814402459384 -0.013482428662805959 0 -0.065473053531294095 -0.01317831502393518 0 -0.065489475793079108 -0.013942505321950842 0 -0.065458877470384952 -0.014445185882625966 0 -0.066390256120829827 -0.014527767846144908 0 -0.062094337340119557 -0.013668906803212123 0 -0.062424167218194 -0.01385327117788796 0 -0.063090883362211497 -0.013718037799243854 0 -0.065152191776589666 -0.012620616478592521 0 -0.065458877470384952 -0.014445185882625966 0 -0.066183745466724175 -0.014826750129637072 0 -0.065458877470384952 -0.014445185882625966 0 -0.066390256120829827 -0.014527767846144908 0 -0.066390256120829827 -0.014527767846144908 0 -0.06655814402459384 -0.013482428662805959 0 -0.067454640334971824 -0.014636364986732235 0 -0.065489475793079108 -0.013942505321950842 0 -0.066390256120829827 -0.014527767846144908 0 -0.06655814402459384 -0.013482428662805959 0 -0.064028281635185813 -0.015135679580148135 0 -0.065673320348208011 -0.015730486356037771 0 -0.062389451594147417 -0.018859953674665482 0 -0.065564682251392989 -0.018780172521782549 0 -0.065447464228480939 -0.017671601958108286 0 -0.06655814402459384 -0.013482428662805959 0 -0.067454640334971824 -0.014636364986732235 0 -0.068406904924354028 -0.014152772559589574 0 -0.066960590649595961 -0.015035332483399323 0 -0.066390256120829827 -0.014527767846144908 0 -0.067454640334971824 -0.014636364986732235 0 -0.063053019049692544 -0.016347316609705089 0 -0.064171887141652798 -0.01711795698604756 0 -0.064994998198845369 -0.016232625361716543 0 -0.063053019049692544 -0.016347316609705089 0 -0.064171887141652798 -0.01711795698604756 0 -0.061579323069284639 -0.017117790610509831 0 -0.062389451594147417 -0.018859953674665482 0 -0.064171887141652798 -0.01711795698604756 0 -0.065447464228480939 -0.017671601958108286 0 -0.062389451594147417 -0.018859953674665482 0 -0.064171887141652798 -0.01711795698604756 0 -0.061579323069284639 -0.017117790610509831 0 -0.062389451594147417 -0.018859953674665482 0 -0.061579323069284639 -0.017117790610509831 0 -0.060141977116513382 -0.018443455767367608 0 -0.064028281635185813 -0.015135679580148135 0 -0.061062106720615024 -0.013826435756106399 0 -0.061579323069284639 -0.017117790610509831 0 -0.059885937183072641 -0.016477866293905814 0 -0.060141977116513382 -0.018443455767367608 0 -0.058455672727766722 -0.013343264508978162 0 -0.061062106720615024 -0.013826435756106399 0 -0.053039725524908585 -0.010691107289496467 0 -0.052932787785980623 -0.0089695584851804643 0 -0.054046797724317655 -0.009216709122811419 0 -0.059492597796618467 -0.011444682795864695 0 -0.063146801868670763 -0.011561856423360316 0 -0.061843647922282051 -0.0094092268585184539 0 -0.061062106720615024 -0.013826435756106399 0 -0.058840421485061731 -0.012249519528352775 0 -0.063146801868670763 -0.011561856423360316 0 -0.065120423451287074 -0.010153300778271942 0 -0.061843647922282051 -0.0094092268585184539 0 -0.053039725524908585 -0.010691107289496467 0 -0.054046797724317655 -0.009216709122811419 0 -0.054309789612970359 -0.010430368081915362 0 -0.053039725524908585 -0.010691107289496467 0 -0.054309789612970359 -0.010430368081915362 0 -0.053829851267063245 -0.011060561500321036 0 -0.053039725524908585 -0.010691107289496467 0 -0.053197785191565553 -0.011470324558394878 0 -0.053829851267063245 -0.011060561500321036 0 -0.053197785191565553 -0.011470324558394878 0 -0.053829851267063245 -0.011060561500321036 0 -0.053230316098084908 -0.011497247594455079 0 -0.058455672727766722 -0.013343264508978162 0 -0.057004494955097976 -0.012806028677249899 0 -0.059885937183072641 -0.016477866293905814 0 -0.058963296859469286 -0.015170756589212834 0 -0.061111514047972604 -0.015495690201691297 0 -0.063053019049692544 -0.016347316609705089 0 -0.061579323069284639 -0.017117790610509831 0 -0.061111514047972604 -0.015495690201691297 0 -0.061579323069284639 -0.017117790610509831 0 -0.059885937183072641 -0.016477866293905814 0 -0.061111514047972604 -0.015495690201691297 0 -0.058963296859469286 -0.015170756589212834 0 -0.061111514047972604 -0.015495690201691297 0 -0.059349504327827117 -0.0142000733984996 0 -0.061111514047972604 -0.015495690201691297 0 -0.061742412080822116 -0.014521998687845462 0 -0.063631138967924231 -0.015339313082709661 0 -0.063053019049692544 -0.016347316609705089 0 -0.061111514047972604 -0.015495690201691297 0 -0.063631138967924231 -0.015339313082709661 0 -0.052583087598223784 -0.013886658812174916 0 -0.050765984284911983 -0.013370938179840103 0 -0.053854673774933082 -0.011359397117975104 0 -0.052583087598223784 -0.013886658812174916 0 -0.050765984284911983 -0.013370938179840103 0 -0.052132339709214298 -0.015297811558510519 0 -0.047879142742696501 -0.01583501381262761 0 -0.048340277997204563 -0.014828078421999685 0 -0.049601941054945288 -0.015123712472228221 0 -0.048340277997204563 -0.014828078421999685 0 -0.049601941054945288 -0.015123712472228221 0 -0.049309935626464602 -0.013983288905374761 0 -0.050155268009813299 -0.016525522642318373 0 -0.048700643610094844 -0.016811037299583199 0 -0.050765984284911983 -0.013370938179840103 0 -0.047879142742696501 -0.01583501381262761 0 -0.048700643610094844 -0.016811037299583199 0 -0.049601941054945288 -0.015123712472228221 0 -0.049764728758131371 -0.015430584157814295 0 -0.050514099779889639 -0.014283945011913469 0 -0.050155268009813299 -0.016525522642318373 0 -0.050765984284911983 -0.013370938179840103 0 -0.051124030892671368 -0.015495191213234829 0 -0.051342233191887125 -0.016595317863567265 0 -0.050155268009813299 -0.016525522642318373 0 -0.051124030892671368 -0.015495191213234829 0 -0.051342233191887125 -0.016595317863567265 0 -0.051124030892671368 -0.015495191213234829 0 -0.052132339709214298 -0.015297811558510519 0 -0.050765984284911983 -0.013370938179840103 0 -0.051124030892671368 -0.015495191213234829 0 -0.052132339709214298 -0.015297811558510519 0 -0.052335889124192153 -0.016596088436232385 0 -0.051342233191887125 -0.016595317863567265 0 -0.052132339709214298 -0.015297811558510519 0 -0.052335889124192153 -0.016596088436232385 0 -0.052132339709214298 -0.015297811558510519 0 -0.053340465266958438 -0.015386092779211083 0 -0.052583087598223784 -0.013886658812174916 0 -0.052132339709214298 -0.015297811558510519 0 -0.053340465266958438 -0.015386092779211083 0 -0.054046797724317655 -0.009216709122811419 0 -0.056413777900390046 -0.0096197260729430703 0 -0.054309789612970359 -0.010430368081915362 0 -0.059492597796618467 -0.011444682795864695 0 -0.061843647922282051 -0.0094092268585184539 0 -0.056413777900390046 -0.0096197260729430703 0 -0.058840421485061731 -0.012249519528352775 0 -0.058153168650123564 -0.011796942235452574 0 -0.059492597796618467 -0.011444682795864695 0 -0.056059818418694805 -0.0099100945602144507 0 -0.056413777900390046 -0.0096197260729430703 0 -0.054309789612970359 -0.010430368081915362 0 -0.054938507548810647 -0.010652616886007443 0 -0.053829851267063245 -0.011060561500321036 0 -0.056413777900390046 -0.0096197260729430703 0 -0.054309789612970359 -0.010430368081915362 0 -0.054938507548810647 -0.010652616886007443 0 -0.052583087598223784 -0.013886658812174916 0 -0.053340465266958438 -0.015386092779211083 0 -0.053854673774933082 -0.011359397117975104 0 -0.056059818418694805 -0.0099100945602144507 0 -0.054938507548810647 -0.010652616886007443 0 -0.053854673774933082 -0.011359397117975104 0 -0.056059818418694805 -0.0099100945602144507 0 -0.056413777900390046 -0.0096197260729430703 0 -0.054938507548810647 -0.010652616886007443 0 -0.055093082556453475 -0.012151531131499593 0 -0.05457465709628647 -0.01119164035531838 0 -0.054938507548810647 -0.010652616886007443 0 -0.053964734152164878 -0.010973010579826921 0 -0.053854673774933082 -0.011359397117975104 0 -0.053964734152164878 -0.010973010579826921 0 -0.053819751649976856 -0.01059979280962352 0 -0.053854673774933082 -0.011359397117975104 0 -0.054938507548810647 -0.010652616886007443 0 -0.053964734152164878 -0.010973010579826921 0 -0.053829851267063245 -0.011060561500321036 0 -0.053964734152164878 -0.010973010579826921 0 -0.05272492603050509 -0.011402429565390759 0 -0.053230316098084908 -0.011497247594455079 0 -0.053964734152164878 -0.010973010579826921 0 -0.053829851267063245 -0.011060561500321036 0 -0.053230316098084908 -0.011497247594455079 0 -0.053964734152164878 -0.010973010579826921 0 -0.053819751649976856 -0.01059979280962352 0 -0.05272492603050509 -0.011402429565390759 0 -0.051024041320608948 -0.013341648350860148 0 -0.05121452534002937 -0.011658122334699848 0 -0.05272492603050509 -0.011402429565390759 0 -0.051774735007827824 -0.012469009901706815 0 -0.052294889617476768 -0.01171306469247113 0 -0.050579182372001492 -0.012615496158947685 0 -0.051024041320608948 -0.013341648350860148 0 -0.05121452534002937 -0.011658122334699848 0 -0.050068764060038261 -0.012289341626182745 0 -0.050579182372001492 -0.012615496158947685 0 -0.05121452534002937 -0.011658122334699848 0 -0.050068764060038261 -0.012289341626182745 0 -0.049817405673783434 -0.011492905364941443 0 -0.05121452534002937 -0.011658122334699848 0 -0.050579182372001492 -0.012615496158947685 0 -0.051024041320608948 -0.013341648350860148 0 -0.050014332538629261 -0.013166356366756794 0 -0.050068764060038261 -0.012289341626182745 0 -0.050579182372001492 -0.012615496158947685 0 -0.050014332538629261 -0.013166356366756794 0 -0.050514099779889639 -0.014283945011913469 0 -0.051774735007827824 -0.012469009901706815 0 -0.051024041320608948 -0.013341648350860148 0 -0.050014332538629261 -0.013166356366756794 0 -0.049309935626464602 -0.013983288905374761 0 -0.049601941054945288 -0.015123712472228221 0 -0.051024041320608948 -0.013341648350860148 0 -0.049309935626464602 -0.013983288905374761 0 -0.050765984284911983 -0.013370938179840103 0 -0.053819751649976856 -0.01059979280962352 0 -0.053854673774933082 -0.011359397117975104 0 -0.047824419723992553 -0.013986022648808983 0 -0.049309935626464602 -0.013983288905374761 0 -0.048897984510388903 -0.013294447002402787 0 -0.047824419723992553 -0.013986022648808983 0 -0.048340277997204563 -0.014828078421999685 0 -0.049309935626464602 -0.013983288905374761 0 -0.050014332538629261 -0.013166356366756794 0 -0.049309935626464602 -0.013983288905374761 0 -0.048897984510388903 -0.013294447002402787 0 -0.050014332538629261 -0.013166356366756794 0 -0.048897984510388903 -0.013294447002402787 0 -0.049389555086260167 -0.012687544577545951 0 -0.047824140508681279 -0.013141664867032362 0 -0.048897984510388903 -0.013294447002402787 0 -0.048484215483021287 -0.012495525002423541 0 -0.048897984510388903 -0.013294447002402787 0 -0.048484215483021287 -0.012495525002423541 0 -0.049389555086260167 -0.012687544577545951 0 -0.048484215483021287 -0.012495525002423541 0 -0.049389555086260167 -0.012687544577545951 0 -0.049202750759616512 -0.012067987576369095 0 -0.050068764060038261 -0.012289341626182745 0 -0.050014332538629261 -0.013166356366756794 0 -0.049389555086260167 -0.012687544577545951 0 -0.050068764060038261 -0.012289341626182745 0 -0.049202750759616512 -0.012067987576369095 0 -0.049817405673783434 -0.011492905364941443 0 -0.050068764060038261 -0.012289341626182745 0 -0.049389555086260167 -0.012687544577545951 0 -0.049202750759616512 -0.012067987576369095 0 -0.048362748542074001 -0.01185845592481634 0 -0.048484215483021287 -0.012495525002423541 0 -0.049202750759616512 -0.012067987576369095 0 -0.048362748542074001 -0.01185845592481634 0 -0.049202750759616512 -0.012067987576369095 0 -0.048871393638481163 -0.011384956282970364 0 -0.048871393638481163 -0.011384956282970364 0 -0.048614340995808039 -0.010808225311362754 0 -0.047956908400324988 -0.011280353454218276 0 -0.048871393638481163 -0.011384956282970364 0 -0.049315652042330509 -0.010911004764012718 0 -0.048614340995808039 -0.010808225311362754 0 -0.048871393638481163 -0.011384956282970364 0 -0.049817405673783434 -0.011492905364941443 0 -0.049315652042330509 -0.010911004764012718 0 -0.049202750759616512 -0.012067987576369095 0 -0.048871393638481163 -0.011384956282970364 0 -0.049817405673783434 -0.011492905364941443 0 -0.049315652042330509 -0.010911004764012718 0 -0.048975082166535393 -0.010139020077301039 0 -0.050186147354009107 -0.010732409189425911 0 -0.049817405673783434 -0.011492905364941443 0 -0.049315652042330509 -0.010911004764012718 0 -0.050186147354009107 -0.010732409189425911 0 -0.049315652042330509 -0.010911004764012718 0 -0.048614340995808039 -0.010808225311362754 0 -0.048975082166535393 -0.010139020077301039 0 -0.048975082166535393 -0.010139020077301039 0 -0.050127858443259413 -0.0096404129285233738 0 -0.048773344483522531 -0.0093743314027465614 0 -0.048975082166535393 -0.010139020077301039 0 -0.050186147354009107 -0.010732409189425911 0 -0.050127858443259413 -0.0096404129285233738 0 -0.050186147354009107 -0.010732409189425911 0 -0.051444926519527319 -0.010656749774167426 0 -0.050127858443259413 -0.0096404129285233738 0 -0.051444926519527319 -0.010656749774167426 0 -0.051203061143026238 -0.010208237031503866 0 -0.050127858443259413 -0.0096404129285233738 0 -0.050186147354009107 -0.010732409189425911 0 -0.05121452534002937 -0.011658122334699848 0 -0.051444926519527319 -0.010656749774167426 0 -0.049817405673783434 -0.011492905364941443 0 -0.050186147354009107 -0.010732409189425911 0 -0.05121452534002937 -0.011658122334699848 0 -0.05121452534002937 -0.011658122334699848 0 -0.05272492603050509 -0.011402429565390759 0 -0.051444926519527319 -0.010656749774167426 0 -0.05272492603050509 -0.011402429565390759 0 -0.053230316098084908 -0.011497247594455079 0 -0.052535553036085751 -0.011127548100817978 0 -0.05272492603050509 -0.011402429565390759 0 -0.052535553036085751 -0.011127548100817978 0 -0.051444926519527319 -0.010656749774167426 0 -0.052535553036085751 -0.011127548100817978 0 -0.051444926519527319 -0.010656749774167426 0 -0.051203061143026238 -0.010208237031503866 0 -0.051203061143026238 -0.010208237031503866 0 -0.051384633380638693 -0.010253521310963619 0 -0.050398110369207626 -0.0095048035518762522 0 -0.052535553036085751 -0.011127548100817978 0 -0.051203061143026238 -0.010208237031503866 0 -0.051384633380638693 -0.010253521310963619 0 -0.052535553036085751 -0.011127548100817978 0 -0.051384633380638693 -0.010253521310963619 0 -0.051808201664038933 -0.010421258753244693 0 -0.051384633380638693 -0.010253521310963619 0 -0.051808201664038933 -0.010421258753244693 0 -0.050537541329271171 -0.0096848141691318456 0 -0.051384633380638693 -0.010253521310963619 0 -0.050398110369207626 -0.0095048035518762522 0 -0.050537541329271171 -0.0096848141691318456 0 -0.050398110369207626 -0.0095048035518762522 0 -0.050340907731983839 -0.0094388315343967698 0 -0.050537541329271171 -0.0096848141691318456 0 -0.050398110369207626 -0.0095048035518762522 0 -0.050092805987603281 -0.0092521635155791496 0 -0.050340907731983839 -0.0094388315343967698 0 -0.050398110369207626 -0.0095048035518762522 0 -0.050092805987603281 -0.0092521635155791496 0 -0.049446671790989681 -0.0088426192102771372 0 -0.050127858443259413 -0.0096404129285233738 0 -0.049446671790989681 -0.0088426192102771372 0 -0.048773344483522531 -0.0093743314027465614 0 -0.050398110369207626 -0.0095048035518762522 0 -0.050127858443259413 -0.0096404129285233738 0 -0.049446671790989681 -0.0088426192102771372 0 -0.051203061143026238 -0.010208237031503866 0 -0.050398110369207626 -0.0095048035518762522 0 -0.050127858443259413 -0.0096404129285233738 0 -0.061047168965144068 -0.013723918270734041 0 -0.059349504327827117 -0.0142000733984996 0 -0.058368790727627344 -0.013134862416216345 0 -0.061047168965144068 -0.013723918270734041 0 -0.061742412080822116 -0.014521998687845462 0 -0.059349504327827117 -0.0142000733984996 0 -0.061111514047972604 -0.015495690201691297 0 -0.061742412080822116 -0.014521998687845462 0 -0.059349504327827117 -0.0142000733984996 0 -0.059349504327827117 -0.0142000733984996 0 -0.057117541583709928 -0.014036810138708201 0 -0.058368790727627344 -0.013134862416216345 0 -0.056115872912519682 -0.012044599585397848 0 -0.055749020615187862 -0.011494913760368947 0 -0.058963296859469286 -0.015170756589212834 0 -0.059349504327827117 -0.0142000733984996 0 -0.057117541583709928 -0.014036810138708201 0 -0.057004494955097976 -0.012806028677249899 0 -0.056115872912519682 -0.012044599585397848 0 -0.053197785191565553 -0.011470324558394878 0 -0.053230316098084908 -0.011497247594455079 0 -0.05342519589516271 -0.011531563984209554 0 -0.052535553036085751 -0.011127548100817978 0 -0.05342519589516271 -0.011531563984209554 0 -0.054126489132451334 -0.011702900695377737 0 -0.053230316098084908 -0.011497247594455079 0 -0.052535553036085751 -0.011127548100817978 0 -0.05342519589516271 -0.011531563984209554 0 -0.052535553036085751 -0.011127548100817978 0 -0.051808201664038933 -0.010421258753244693 0 -0.054126489132451334 -0.011702900695377737 0 -0.051808201664038933 -0.010421258753244693 0 -0.054126489132451334 -0.011702900695377737 0 -0.053275124709668116 -0.010715580848418758 0 -0.054126489132451334 -0.011702900695377737 0 -0.057068065182446663 -0.01179994667553678 0 -0.053275124709668116 -0.010715580848418758 0 -0.057117541583709928 -0.014036810138708201 0 -0.054126489132451334 -0.011702900695377737 0 -0.058368790727627344 -0.013134862416216345 0 -0.054126489132451334 -0.011702900695377737 0 -0.058368790727627344 -0.013134862416216345 0 -0.057068065182446663 -0.01179994667553678 0 -0.057068065182446663 -0.01179994667553678 0 -0.054996169471844138 -0.010701141005982014 0 -0.053275124709668116 -0.010715580848418758 0 -0.057068065182446663 -0.01179994667553678 0 -0.058692352903836079 -0.011574383081667071 0 -0.056617047171314168 -0.010814671426683405 0 -0.057068065182446663 -0.01179994667553678 0 -0.058692352903836079 -0.011574383081667071 0 -0.05981205466507112 -0.012818875093606288 0 -0.058368790727627344 -0.013134862416216345 0 -0.057068065182446663 -0.01179994667553678 0 -0.05981205466507112 -0.012818875093606288 0 -0.061047168965144068 -0.013723918270734041 0 -0.058368790727627344 -0.013134862416216345 0 -0.05981205466507112 -0.012818875093606288 0 -0.057568132631166731 -0.0086827697872617089 0 -0.057338932048187033 -0.010082146837792738 0 -0.056231410399296231 -0.007098262239302734 0 -0.050092244585687104 -0.012862673129994076 0 -0.048065972706389494 -0.015411533477750951 0 -0.057568132631166731 -0.0086827697872617089 0 -0.057338932048187033 -0.010082146837792738 0 -0.058966151857676438 -0.010268436380641378 0 -0.058692352903836079 -0.011574383081667071 0 -0.057338932048187033 -0.010082146837792738 0 -0.058966151857676438 -0.010268436380641378 0 -0.058692352903836079 -0.011574383081667071 0 -0.056617047171314168 -0.010814671426683405 0 -0.057338932048187033 -0.010082146837792738 0 -0.057068065182446663 -0.01179994667553678 0 -0.056617047171314168 -0.010814671426683405 0 -0.054996169471844138 -0.010701141005982014 0 -0.056617047171314168 -0.010814671426683405 0 -0.057338932048187033 -0.010082146837792738 0 -0.054409064626412852 -0.0098966057271229896 0 -0.056617047171314168 -0.010814671426683405 0 -0.054996169471844138 -0.010701141005982014 0 -0.054409064626412852 -0.0098966057271229896 0 -0.057338932048187033 -0.010082146837792738 0 -0.054409064626412852 -0.0098966057271229896 0 -0.054594179393533171 -0.0084573542462965529 0 -0.054996169471844138 -0.010701141005982014 0 -0.054409064626412852 -0.0098966057271229896 0 -0.052116246692081598 -0.010023419059916652 0 -0.054409064626412852 -0.0098966057271229896 0 -0.052116246692081598 -0.010023419059916652 0 -0.051032038538485973 -0.0093893704452684239 0 -0.054996169471844138 -0.010701141005982014 0 -0.052116246692081598 -0.010023419059916652 0 -0.053275124709668116 -0.010715580848418758 0 -0.051808201664038933 -0.010421258753244693 0 -0.053275124709668116 -0.010715580848418758 0 -0.050663600941895523 -0.0099578306009197055 0 -0.052116246692081598 -0.010023419059916652 0 -0.053275124709668116 -0.010715580848418758 0 -0.050663600941895523 -0.0099578306009197055 0 -0.052116246692081598 -0.010023419059916652 0 -0.050663600941895523 -0.0099578306009197055 0 -0.048916058319941884 -0.0097407069162978588 0 -0.052116246692081598 -0.010023419059916652 0 -0.051032038538485973 -0.0093893704452684239 0 -0.048916058319941884 -0.0097407069162978588 0 -0.045571350316608888 -0.0095351990938704299 0 -0.051032038538485973 -0.0093893704452684239 0 -0.048916058319941884 -0.0097407069162978588 0 -0.044431658879433532 -0.014160493477836945 0 -0.042814880427201357 -0.016033308288462937 0 -0.045571350316608888 -0.0095351990938704299 0 -0.051032038538485973 -0.0093893704452684239 0 -0.051415350694527247 -0.0062595799664577571 0 -0.054409064626412852 -0.0098966057271229896 0 -0.051032038538485973 -0.0093893704452684239 0 -0.054594179393533171 -0.0084573542462965529 0 -0.048065972706389494 -0.015411533477750951 0 -0.042814880427201357 -0.016033308288462937 0 -0.045920184550390167 -0.016989019233289486 0 -0.044883776389265245 -0.014068127493188309 0 -0.043799904091279429 -0.014381046950463218 0 -0.048065972706389494 -0.015411533477750951 0 -0.040703094047746406 -0.018626113885293092 0 -0.049922962789939511 -0.02186973157717222 0 -0.049593470310399672 -0.022623910416348668 0 -0.0503132600376235 -0.023061391417137141 0 -0.051032038538485973 -0.0093893704452684239 0 -0.054594179393533171 -0.0084573542462965529 0 -0.051415350694527247 -0.0062595799664577571 0 -0.049593470310399672 -0.022623910416348668 0 -0.048856937393830083 -0.022176535728399185 0 -0.049218544008747277 -0.023421677981101952 0 -0.049922962789939511 -0.02186973157717222 0 -0.049593470310399672 -0.022623910416348668 0 -0.048856937393830083 -0.022176535728399185 0 -0.049382272904489544 -0.021168846929450622 0 -0.049922962789939511 -0.02186973157717222 0 -0.048856937393830083 -0.022176535728399185 0 -0.051744475151141126 -0.015315327239572261 0 -0.048065972706389494 -0.015411533477750951 0 -0.050402802239203973 -0.009630201629467686 0 -0.051575932331958771 -0.010399357935079869 0 -0.050785193610461819 -0.0095586884469130041 0 -0.050092805987603281 -0.0092521635155791496 0 -0.050340907731983839 -0.0094388315343967698 0 -0.050785193610461819 -0.0095586884469130041 0 -0.050402802239203973 -0.009630201629467686 0 -0.050340907731983839 -0.0094388315343967698 0 -0.050785193610461819 -0.0095586884469130041 0 -0.050402802239203973 -0.009630201629467686 0 -0.050340907731983839 -0.0094388315343967698 0 -0.050537541329271171 -0.0096848141691318456 0 -0.051808201664038933 -0.010421258753244693 0 -0.050663600941895523 -0.0099578306009197055 0 -0.050537541329271171 -0.0096848141691318456 0 -0.050663600941895523 -0.0099578306009197055 0 -0.050537541329271171 -0.0096848141691318456 0 -0.049875658099487796 -0.009704274902480773 0 -0.050663600941895523 -0.0099578306009197055 0 -0.049875658099487796 -0.009704274902480773 0 -0.048916058319941884 -0.0097407069162978588 0 -0.050402802239203973 -0.009630201629467686 0 -0.049875658099487796 -0.009704274902480773 0 -0.049327519235134003 -0.010032098667937634 0 -0.050402802239203973 -0.009630201629467686 0 -0.050537541329271171 -0.0096848141691318456 0 -0.049875658099487796 -0.009704274902480773 0 -0.049875658099487796 -0.009704274902480773 0 -0.049327519235134003 -0.010032098667937634 0 -0.048916058319941884 -0.0097407069162978588 0 -0.049327519235134003 -0.010032098667937634 0 -0.048916058319941884 -0.0097407069162978588 0 -0.047816652660419692 -0.010341229165416506 0 -0.045571350316608888 -0.0095351990938704299 0 -0.048916058319941884 -0.0097407069162978588 0 -0.047816652660419692 -0.010341229165416506 0 -0.045571350316608888 -0.0095351990938704299 0 -0.047816652660419692 -0.010341229165416506 0 -0.046634544685260723 -0.012971729787422503 0 -0.049327519235134003 -0.010032098667937634 0 -0.048898774181897982 -0.012135146877300612 0 -0.050844645178764948 -0.011258414654754944 0 -0.047816652660419692 -0.010341229165416506 0 -0.048898774181897982 -0.012135146877300612 0 -0.046634544685260723 -0.012971729787422503 0 -0.049327519235134003 -0.010032098667937634 0 -0.047816652660419692 -0.010341229165416506 0 -0.048898774181897982 -0.012135146877300612 0 -0.048898774181897982 -0.012135146877300612 0 -0.050438859348734343 -0.012988551406598584 0 -0.050844645178764948 -0.011258414654754944 0 -0.050438859348734343 -0.012988551406598584 0 -0.050844645178764948 -0.011258414654754944 0 -0.051964287782615672 -0.01288251621522804 0 -0.050402802239203973 -0.009630201629467686 0 -0.049327519235134003 -0.010032098667937634 0 -0.050844645178764948 -0.011258414654754944 0 -0.050402802239203973 -0.009630201629467686 0 -0.050844645178764948 -0.011258414654754944 0 -0.051575932331958771 -0.010399357935079869 0 -0.046141332949916007 -0.017881760395447279 0 -0.049846331752462551 -0.019016537885940422 0 -0.050844645178764948 -0.011258414654754944 0 -0.051575932331958771 -0.010399357935079869 0 -0.052369838343285499 -0.012770971222171554 0 -0.050844645178764948 -0.011258414654754944 0 -0.051964287782615672 -0.01288251621522804 0 -0.052369838343285499 -0.012770971222171554 0 -0.037869759281899749 -0.024126693843555144 0 -0.037479608594384262 -0.02372776330579909 0 -0.038169818434706168 -0.023247019746283643 0 -0.037479608594384262 -0.02372776330579909 0 -0.037544020950676035 -0.023237019674747273 0 -0.038169818434706168 -0.023247019746283643 0 -0.037479608594384262 -0.02372776330579909 0 -0.036932618257382685 -0.023240403917304774 0 -0.037544020950676035 -0.023237019674747273 0 -0.037479608594384262 -0.02372776330579909 0 -0.036937930507044213 -0.023952629025662038 0 -0.036932618257382685 -0.023240403917304774 0 -0.036937930507044213 -0.023952629025662038 0 -0.037252524633651342 -0.024387295122162807 0 -0.036679649976954554 -0.024419907962816984 0 -0.037479608594384262 -0.02372776330579909 0 -0.036937930507044213 -0.023952629025662038 0 -0.037252524633651342 -0.024387295122162807 0 -0.037869759281899749 -0.024126693843555144 0 -0.037479608594384262 -0.02372776330579909 0 -0.037252524633651342 -0.024387295122162807 0 -0.037252524633651342 -0.024387295122162807 0 -0.036931186611438127 -0.025112545416984669 0 -0.037587158341000973 -0.024996291879804983 0 -0.037869759281899749 -0.024126693843555144 0 -0.037252524633651342 -0.024387295122162807 0 -0.037587158341000973 -0.024996291879804983 0 -0.046141332949916007 -0.017881760395447279 0 -0.043524063274131768 -0.016273911431297521 0 -0.036931186611438127 -0.025112545416984669 0 -0.036355211573041571 -0.024749944894109706 0 -0.036419180303042746 -0.024089825722870408 0 -0.031827960097813295 -0.028519130670018149 0 -0.031210047742479603 -0.03023758131749732 0 -0.037252524633651342 -0.024387295122162807 0 -0.036931186611438127 -0.025112545416984669 0 -0.036679649976954554 -0.024419907962816984 0 -0.036931186611438127 -0.025112545416984669 0 -0.036244675989802362 -0.02537603537782759 0 -0.037313091545866685 -0.026039642858480264 0 -0.043524063274131768 -0.016273911431297521 0 -0.041336775926543314 -0.011202565498848092 0 -0.036931186611438127 -0.025112545416984669 0 -0.037587158341000973 -0.024996291879804983 0 -0.037313091545866685 -0.026039642858480264 0 -0.035236955163075873 -0.013429972892553464 0 -0.027665984411320909 -0.019446835702606052 0 -0.033262902362148079 0.0075922301965598354 0 -0.040616824255839054 0.0079771484549629838 0 -0.033421566245706469 0.013179171543708977 0 -0.036244675989802362 -0.02537603537782759 0 -0.035820478440753888 -0.024411006933645493 0 -0.036355211573041571 -0.024749944894109706 0 -0.036931186611438127 -0.025112545416984669 0 -0.036244675989802362 -0.02537603537782759 0 -0.036355211573041571 -0.024749944894109706 0 -0.036244675989802362 -0.02537603537782759 0 -0.035820478440753888 -0.024411006933645493 0 -0.035008719202071568 -0.024544150617448635 0 -0.035820478440753888 -0.024411006933645493 0 -0.036355211573041571 -0.024749944894109706 0 -0.036419180303042746 -0.024089825722870408 0 -0.035820478440753888 -0.024411006933645493 0 -0.036419180303042746 -0.024089825722870408 0 -0.035572708165587483 -0.023614801311640926 0 -0.035820478440753888 -0.024411006933645493 0 -0.035008719202071568 -0.024544150617448635 0 -0.035572708165587483 -0.023614801311640926 0 -0.027665984411320909 -0.019446835702606052 0 -0.028968959919192194 -0.020088065808530321 0 -0.034681999636006294 -0.024977223456448816 0 -0.035039024377115979 -0.02362589520188494 0 -0.034018460233563814 -0.024496778875118891 0 -0.023054040597420743 -0.036500163135123637 0 -0.022238308069093229 -0.027212079691749179 0 -0.034681999636006294 -0.024977223456448816 0 -0.035039024377115979 -0.02362589520188494 0 -0.035572708165587483 -0.023614801311640926 0 0.00055096293355074409 -0.061945725907267851 0 -0.0049329401253182126 -0.061161102665446748 0 -0.0074890153801114622 -0.054322174487480064 0 -0.035039024377115979 -0.02362589520188494 0 -0.035572708165587483 -0.023614801311640926 0 -0.035909412703248648 -0.022953341339872375 0 0.00055096293355074409 -0.061945725907267851 0 0.0080824635233695315 -0.069058007122215978 0 0.00034071057736976369 -0.069436054617573503 0 -0.023054040597420743 -0.036500163135123637 0 -0.030638618559115875 -0.039420983373611745 0 0.00055096293355074409 -0.061945725907267851 0 -0.0030957358248581727 -0.066407831073066484 0 -0.0049329401253182126 -0.061161102665446748 0 0.00055096293355074409 -0.061945725907267851 0 -0.0030957358248581727 -0.066407831073066484 0 0.00034071057736976369 -0.069436054617573503 0 -0.036937930507044213 -0.023952629025662038 0 -0.036679649976954554 -0.024419907962816984 0 -0.036372911621657483 -0.02375182740364349 0 -0.036419180303042746 -0.024089825722870408 0 -0.035572708165587483 -0.023614801311640926 0 -0.035909412703248648 -0.022953341339872375 0 -0.031210047742479603 -0.03023758131749732 0 -0.030638618559115875 -0.039420983373611745 0 -0.030638618559115875 -0.039420983373611745 0 -0.045541381962260152 -0.030394207762575589 0 -0.032255003916949701 -0.040087877616216162 0 -0.031690728932094812 -0.038898176857162736 0 -0.033532572809068691 -0.038942805904604749 0 -0.036937930507044213 -0.023952629025662038 0 -0.036372911621657483 -0.02375182740364349 0 -0.036932618257382685 -0.023240403917304774 0 -0.030638618559115875 -0.039420983373611745 0 -0.029364871808154263 -0.045838285259917746 0 -0.0029720750685494498 -0.070345018381595445 0 0.00034071057736976369 -0.069436054617573503 0 -0.0021357568944949047 -0.073761004455575485 0 -0.0030957358248581727 -0.066407831073066484 0 -0.0029720750685494498 -0.070345018381595445 0 -0.00579673296591074 -0.069284671162874234 0 -0.0030957358248581727 -0.066407831073066484 0 -0.0029720750685494498 -0.070345018381595445 0 0.00034071057736976369 -0.069436054617573503 0 0.0080824635233695315 -0.069058007122215978 0 0.00034071057736976369 -0.069436054617573503 0 0.0017909416669883722 -0.073244508506503742 0 0.0017909416669883722 -0.073244508506503742 0 -0.00042311564999723177 -0.075711565009139212 0 0.0036905414480512396 -0.078102482042600424 0 0.0080824635233695315 -0.069058007122215978 0 0.0017909416669883722 -0.073244508506503742 0 0.0036905414480512396 -0.078102482042600424 0 -0.00042311564999723177 -0.075711565009139212 0 -0.0034721135379956179 -0.075837240603732495 0 -0.0014414615123666938 -0.07815953154932942 0 0.00034071057736976369 -0.069436054617573503 0 0.0017909416669883722 -0.073244508506503742 0 -0.0021357568944949047 -0.073761004455575485 0 0.0017909416669883722 -0.073244508506503742 0 -0.00042311564999723177 -0.075711565009139212 0 -0.0021357568944949047 -0.073761004455575485 0 -0.0029720750685494498 -0.070345018381595445 0 -0.0021357568944949047 -0.073761004455575485 0 -0.0042480979464054359 -0.072722071693925333 0 -0.0021357568944949047 -0.073761004455575485 0 -0.0038960170289055341 -0.074494742868761413 0 -0.0042480979464054359 -0.072722071693925333 0 -0.0021357568944949047 -0.073761004455575485 0 -0.0038960170289055341 -0.074494742868761413 0 -0.0034721135379956179 -0.075837240603732495 0 -0.00042311564999723177 -0.075711565009139212 0 -0.0021357568944949047 -0.073761004455575485 0 -0.0034721135379956179 -0.075837240603732495 0 -0.0057006030988237732 -0.075603320180040526 0 -0.0042480979464054359 -0.072722071693925333 0 -0.00579673296591074 -0.069284671162874234 0 -0.0057006030988237732 -0.075603320180040526 0 -0.0080769671760830258 -0.075066456906908566 0 -0.0072931144125117286 -0.071829393525893376 0 -0.0057006030988237732 -0.075603320180040526 0 -0.00579673296591074 -0.069284671162874234 0 -0.010309862783879142 -0.065076019292141449 0 -0.0032917233994322471 -0.063663894903034923 0 -0.0041381889408534846 -0.059127997328727928 0 -0.0034721135379956179 -0.075837240603732495 0 -0.0057006030988237732 -0.075603320180040526 0 -0.0054608154229305482 -0.07771754524827057 0 -0.0038960170289055341 -0.074494742868761413 0 -0.0034721135379956179 -0.075837240603732495 0 -0.0057006030988237732 -0.075603320180040526 0 -0.0038960170289055341 -0.074494742868761413 0 -0.0057006030988237732 -0.075603320180040526 0 -0.0042480979464054359 -0.072722071693925333 0 -0.0029720750685494498 -0.070345018381595445 0 -0.0042480979464054359 -0.072722071693925333 0 -0.00579673296591074 -0.069284671162874234 0 -0.0080769671760830258 -0.075066456906908566 0 -0.010478472633178301 -0.073887468357052163 0 -0.0072931144125117286 -0.071829393525893376 0 -0.0057006030988237732 -0.075603320180040526 0 -0.0080769671760830258 -0.075066456906908566 0 -0.0073204941446398048 -0.076914637024650165 0 -0.0080769671760830258 -0.075066456906908566 0 -0.0094688860467820168 -0.077140626450825964 0 -0.0073204941446398048 -0.076914637024650165 0 -0.010478472633178301 -0.073887468357052163 0 -0.01507017544768941 -0.072012143172216936 0 -0.01227962155194212 -0.076802949386406708 0 -0.010478472633178301 -0.073887468357052163 0 -0.01227962155194212 -0.076802949386406708 0 -0.0094688860467820168 -0.077140626450825964 0 -0.0080769671760830258 -0.075066456906908566 0 -0.010478472633178301 -0.073887468357052163 0 -0.0094688860467820168 -0.077140626450825964 0 -0.010737343721666152 -0.070608348599261447 0 -0.01507017544768941 -0.072012143172216936 0 -0.010631042244045421 -0.066529790022710991 0 -0.010478472633178301 -0.073887468357052163 0 -0.010737343721666152 -0.070608348599261447 0 -0.01507017544768941 -0.072012143172216936 0 -0.010737343721666152 -0.070608348599261447 0 -0.0072931144125117286 -0.071829393525893376 0 -0.0088765732109362273 -0.067739393122456054 0 -0.010478472633178301 -0.073887468357052163 0 -0.010737343721666152 -0.070608348599261447 0 -0.0072931144125117286 -0.071829393525893376 0 -0.0041381889408534846 -0.059127997328727928 0 -0.0061628201606670043 -0.046108081669655285 0 -0.0049329401253182126 -0.061161102665446748 0 -0.010309862783879142 -0.065076019292141449 0 -0.014408828021644978 -0.054606245810505889 0 -0.0051458713393764659 -0.048534669825058822 0 -0.0061628201606670043 -0.046108081669655285 0 -0.0030957358248581727 -0.066407831073066484 0 -0.0049329401253182126 -0.061161102665446748 0 -0.0062091620541385797 -0.065390899060693827 0 -0.0049329401253182126 -0.061161102665446748 0 -0.0062091620541385797 -0.065390899060693827 0 -0.010309862783879142 -0.065076019292141449 0 -0.0030957358248581727 -0.066407831073066484 0 -0.00579673296591074 -0.069284671162874234 0 -0.0062091620541385797 -0.065390899060693827 0 -0.00579673296591074 -0.069284671162874234 0 -0.0062091620541385797 -0.065390899060693827 0 -0.010309862783879142 -0.065076019292141449 0 0.040113219635922272 -0.055976452942920904 0 0.039302923534215765 -0.055814840714540376 0 0.039059595722255792 -0.057547240536950067 0 -0.01507017544768941 -0.072012143172216936 0 -0.015528612293054826 -0.07929914401956295 0 -0.019652700840897829 -0.077736176335616816 0 0.039302923534215765 -0.055814840714540376 0 0.039059595722255792 -0.057547240536950067 0 0.038690335746339552 -0.056583352456371631 0 0.0069743627716507368 -0.061352780870098947 0 0.012934906281021719 -0.082004093205169812 0 -0.01507017544768941 -0.072012143172216936 0 -0.015528612293054826 -0.07929914401956295 0 -0.01227962155194212 -0.076802949386406708 0 0.0069743627716507368 -0.061352780870098947 0 -0.0065934643111970155 -0.042933244788560414 0 0.039302923534215765 -0.055814840714540376 0 0.039635384375084966 -0.054930116977694531 0 0.039226669867953437 -0.054872550874573989 0 0.040113219635922272 -0.055976452942920904 0 0.039302923534215765 -0.055814840714540376 0 0.039635384375084966 -0.054930116977694531 0 0.039635384375084966 -0.054930116977694531 0 0.039507214497812762 -0.054342550351954011 0 0.039226669867953437 -0.054872550874573989 0 0.039635384375084966 -0.054930116977694531 0 0.039766283933313891 -0.054522999571443229 0 0.040129754112841656 -0.054724972561257648 0 0.039635384375084966 -0.054930116977694531 0 0.039766283933313891 -0.054522999571443229 0 0.039507214497812762 -0.054342550351954011 0 0.040113219635922272 -0.055976452942920904 0 0.040129754112841656 -0.054724972561257648 0 0.040815420257533756 -0.054768011070276804 0 0.040113219635922272 -0.055976452942920904 0 0.039635384375084966 -0.054930116977694531 0 0.040129754112841656 -0.054724972561257648 0 0.040129754112841656 -0.054724972561257648 0 0.039821096161870566 -0.054142566460814431 0 0.040815420257533756 -0.054768011070276804 0 -0.015595028297092367 -0.0073551449940757602 0 -0.017195767496258813 -0.0071553426756920668 0 -0.015986143061886747 -0.0083359518647880531 0 -0.01312808034560083 -0.026623298881887816 0 -0.018650512054610411 -0.017668745021054026 0 0.006440869001078561 -0.037328278727764459 0 -0.0065934643111970155 -0.042933244788560414 0 0.039766283933313891 -0.054522999571443229 0 0.040129754112841656 -0.054724972561257648 0 0.039821096161870566 -0.054142566460814431 0 0.039821096161870566 -0.054142566460814431 0 0.039507214497812762 -0.054342550351954011 0 0.03940280841434881 -0.053695425279603956 0 0.039766283933313891 -0.054522999571443229 0 0.039821096161870566 -0.054142566460814431 0 0.039507214497812762 -0.054342550351954011 0 -0.022238308069093229 -0.027212079691749179 0 -0.010553073674619601 -0.031685455216073105 0 -0.01742956973263466 -0.010308386228507287 0 -0.017483112569677585 -0.010211948355846516 0 -0.017440691195144079 -0.010202915132280601 0 -0.0074890153801114622 -0.054322174487480064 0 -0.014723034010390691 -0.0543194255342455 0 -0.015852011093698624 -0.04663294935594349 0 -0.017378480287498846 -0.010254224143168107 0 -0.01742956973263466 -0.010308386228507287 0 -0.017440691195144079 -0.010202915132280601 0 -0.0049329401253182126 -0.061161102665446748 0 -0.0074890153801114622 -0.054322174487480064 0 -0.014723034010390691 -0.0543194255342455 0 -0.027665984411320909 -0.019446835702606052 0 -0.022238308069093229 -0.027212079691749179 0 -0.010737343721666152 -0.070608348599261447 0 -0.0088765732109362273 -0.067739393122456054 0 -0.010631042244045421 -0.066529790022710991 0 -0.0061628201606670043 -0.046108081669655285 0 -0.0065934643111970155 -0.042933244788560414 0 -0.014723034010390691 -0.0543194255342455 0 -0.017117227928823177 -0.048187264721127367 0 -0.015852011093698624 -0.04663294935594349 0 -0.017127828949240594 -0.0065542362969967646 0 -0.017335252360280388 -0.0068047122271994217 0 -0.017195767496258813 -0.0071553426756920668 0 -0.0061628201606670043 -0.046108081669655285 0 -0.0092233137356248322 -0.03513540457135398 0 -0.015068168058567089 -0.040372442012406598 0 -0.0068340313355095116 -0.04601360445433246 0 -0.010874941740119331 -0.050971376729498072 0 -0.0065934643111970155 -0.042933244788560414 0 -0.0092233137356248322 -0.03513540457135398 0 -0.0092233137356248322 -0.03513540457135398 0 -0.010553073674619601 -0.031685455216073105 0 -0.01312808034560083 -0.026623298881887816 0 -0.016890249137216734 -0.014380856740362517 0 -0.017445321186746347 -0.010158338552904014 0 -0.017435531336507083 -0.010132797015947931 0 -0.017456253928884169 -0.01017056571584744 0 -0.017435531336507083 -0.010132797015947931 0 -0.01743914415984173 -0.010133584751428211 0 -0.017456253928884169 -0.01017056571584744 0 -0.010553073674619601 -0.031685455216073105 0 -0.010441755827348851 -0.031340327322845557 0 -0.015595028297092367 -0.0073551449940757602 0 -0.017127828949240594 -0.0065542362969967646 0 -0.017195767496258813 -0.0071553426756920668 0 -0.017435531336507083 -0.010132797015947931 0 -0.01743914415984173 -0.010133584751428211 0 -0.017368632133189649 -0.010142436281322574 0 -0.0083052515243537545 -0.022960909906306073 0 -0.01204976709368729 -0.027556716028923546 0 -0.0034053844469789044 -0.035360669869103183 0 -0.0092233137356248322 -0.03513540457135398 0 -0.01312808034560083 -0.026623298881887816 0 -0.010553073674619601 -0.031685455216073105 0 -0.01312808034560083 -0.026623298881887816 0 -0.027665984411320909 -0.019446835702606052 0 -0.026633612030107601 -0.0078688125539655828 0 -0.017440691195144079 -0.010202915132280601 0 -0.017456253928884169 -0.01017056571584744 0 -0.017477427093843898 -0.010112380324187629 0 -0.017378480287498846 -0.010254224143168107 0 -0.017440691195144079 -0.010202915132280601 0 -0.017477427093843898 -0.010112380324187629 0 -0.033262902362148079 0.0075922301965598354 0 -0.033421566245706469 0.013179171543708977 0 -0.028669791835268511 0.0057832145266586083 0 -0.01743914415984173 -0.010133584751428211 0 -0.017456253928884169 -0.01017056571584744 0 -0.017477427093843898 -0.010112380324187629 0 -0.017483112569677585 -0.010211948355846516 0 -0.017440691195144079 -0.010202915132280601 0 -0.017456253928884169 -0.01017056571584744 0 -0.031720788695221727 0.0033306978276344532 0 -0.028669791835268511 0.0057832145266586083 0 -0.029240412401770974 0.00011191594401930881 0 -0.033262902362148079 0.0075922301965598354 0 -0.031720788695221727 0.0033306978276344532 0 -0.028669791835268511 0.0057832145266586083 0 -0.017368632133189649 -0.010142436281322574 0 -0.017235422082529258 -0.010152835198486584 0 -0.017348077205296054 -0.010543508809191856 0 -0.01743914415984173 -0.010133584751428211 0 -0.017477427093843898 -0.010112380324187629 0 -0.017368632133189649 -0.010142436281322574 0 -0.017477427093843898 -0.010112380324187629 0 -0.017368632133189649 -0.010142436281322574 0 -0.017348077205296054 -0.010543508809191856 0 -0.017435531336507083 -0.010132797015947931 0 -0.017368632133189649 -0.010142436281322574 0 -0.017235422082529258 -0.010152835198486584 0 -0.026633612030107601 -0.0078688125539655828 0 -0.022814985418388362 -0.0081229039439443436 0 -0.024119180370521708 -0.0015819526453064075 0 -0.029240412401770974 0.00011191594401930881 0 -0.02734145831436828 -0.0035797610095971758 0 -0.028669791835268511 0.0057832145266586083 0 -0.024119180370521708 -0.0015819526453064075 0 -0.029240412401770974 0.00011191594401930881 0 -0.029240412401770974 0.00011191594401930881 0 -0.0307574743379882 -0.0036998080451651903 0 -0.02734145831436828 -0.0035797610095971758 0 -0.029240412401770974 0.00011191594401930881 0 -0.0307574743379882 -0.0036998080451651903 0 -0.033847218530964937 -0.00045384076757176077 0 -0.031720788695221727 0.0033306978276344532 0 -0.029240412401770974 0.00011191594401930881 0 -0.033847218530964937 -0.00045384076757176077 0 -0.015986143061886747 -0.0083359518647880531 0 -0.014887868356899737 -0.0097200561471184888 0 -0.013080424313532391 -0.0083182916755477846 0 0.006440869001078561 -0.037328278727764459 0 0.011336643186337916 -0.033942287338102034 0 -0.015595028297092367 -0.0073551449940757602 0 -0.015986143061886747 -0.0083359518647880531 0 -0.013080424313532391 -0.0083182916755477846 0 -0.017944984593987027 -0.0067121023784122748 0 -0.017163090408943486 -0.0086345371753427311 0 -0.015986143061886747 -0.0083359518647880531 0 -0.017163090408943486 -0.0086345371753427311 0 -0.015986143061886747 -0.0083359518647880531 0 -0.016123198711222513 -0.0094466862341494977 0 -0.016890249137216734 -0.014380856740362517 0 -0.017312312961252633 -0.012512604072993884 0 -0.017235422082529258 -0.010152835198486584 0 -0.017348077205296054 -0.010543508809191856 0 -0.016551494468729465 -0.010922271705274237 0 -0.017163090408943486 -0.0086345371753427311 0 -0.016123198711222513 -0.0094466862341494977 0 -0.016551494468729465 -0.010922271705274237 0 -0.016123198711222513 -0.0094466862341494977 0 -0.014887868356899737 -0.0097200561471184888 0 -0.016551494468729465 -0.010922271705274237 0 -0.015986143061886747 -0.0083359518647880531 0 -0.016123198711222513 -0.0094466862341494977 0 -0.014887868356899737 -0.0097200561471184888 0 -0.014887868356899737 -0.0097200561471184888 0 -0.01537180757984744 -0.011556034802776506 0 -0.013878532450160731 -0.010836984183779579 0 -0.014887868356899737 -0.0097200561471184888 0 -0.01537180757984744 -0.011556034802776506 0 -0.016551494468729465 -0.010922271705274237 0 -0.01537180757984744 -0.011556034802776506 0 -0.014424952649211622 -0.013158037674380242 0 -0.013878532450160731 -0.010836984183779579 0 -0.01537180757984744 -0.011556034802776506 0 -0.016563833474824659 -0.012516522693448362 0 -0.014424952649211622 -0.013158037674380242 0 -0.022814985418388362 -0.0081229039439443436 0 -0.019523715386617662 -0.011079786868063232 0 -0.01537180757984744 -0.011556034802776506 0 -0.016551494468729465 -0.010922271705274237 0 -0.016563833474824659 -0.012516522693448362 0 -0.017348077205296054 -0.010543508809191856 0 -0.016551494468729465 -0.010922271705274237 0 -0.016563833474824659 -0.012516522693448362 0 -0.020396028170592828 -0.014078345946675988 0 -0.01988132853310812 -0.0084954031375269815 0 -0.025068627412693358 -0.011149430156188302 0 -0.017846775221172156 -0.013212722535199221 0 -0.019523715386617662 -0.011079786868063232 0 -0.015735267891845792 -0.015461950889791761 0 -0.016563833474824659 -0.012516522693448362 0 -0.014424952649211622 -0.013158037674380242 0 -0.027817451029523259 -0.007396092110927773 0 -0.031985317323092795 -0.0074597619773112793 0 -0.0307574743379882 -0.0036998080451651903 0 -0.027817451029523259 -0.007396092110927773 0 -0.0307574743379882 -0.0036998080451651903 0 -0.02734145831436828 -0.0035797610095971758 0 -0.024119180370521708 -0.0015819526453064075 0 -0.01988132853310812 -0.0084954031375269815 0 -0.024835072831136382 -0.0064698813364144538 0 -0.024119180370521708 -0.0015819526453064075 0 -0.02734145831436828 -0.0035797610095971758 0 -0.024835072831136382 -0.0064698813364144538 0 -0.027817451029523259 -0.007396092110927773 0 -0.02734145831436828 -0.0035797610095971758 0 -0.024835072831136382 -0.0064698813364144538 0 -0.027817451029523259 -0.007396092110927773 0 -0.024835072831136382 -0.0064698813364144538 0 -0.025068627412693358 -0.011149430156188302 0 -0.01988132853310812 -0.0084954031375269815 0 -0.024835072831136382 -0.0064698813364144538 0 -0.025068627412693358 -0.011149430156188302 0 -0.029434289853706174 -0.015064395367382631 0 -0.025068627412693358 -0.011149430156188302 0 -0.02962914327802799 -0.010379030655790593 0 -0.029434289853706174 -0.015064395367382631 0 -0.02962914327802799 -0.010379030655790593 0 -0.033940192097734953 -0.01060414875839169 0 -0.027817451029523259 -0.007396092110927773 0 -0.025068627412693358 -0.011149430156188302 0 -0.02962914327802799 -0.010379030655790593 0 -0.027817451029523259 -0.007396092110927773 0 -0.031985317323092795 -0.0074597619773112793 0 -0.02962914327802799 -0.010379030655790593 0 -0.031985317323092795 -0.0074597619773112793 0 -0.02962914327802799 -0.010379030655790593 0 -0.033940192097734953 -0.01060414875839169 0 -0.035412468917544182 -0.014000927552766673 0 -0.033940192097734953 -0.01060414875839169 0 -0.03683697539130313 -0.00981435068172983 0 -0.033940192097734953 -0.01060414875839169 0 -0.03683697539130313 -0.00981435068172983 0 -0.035457513813896356 -0.0075079791722689176 0 -0.031985317323092795 -0.0074597619773112793 0 -0.033940192097734953 -0.01060414875839169 0 -0.035457513813896356 -0.0075079791722689176 0 -0.031985317323092795 -0.0074597619773112793 0 -0.035457513813896356 -0.0075079791722689176 0 -0.034306742251578121 -0.0045077007239994644 0 -0.035457513813896356 -0.0075079791722689176 0 -0.036688152296241484 -0.0054689046573044107 0 -0.038864098892304147 -0.006859758206663325 0 -0.03683697539130313 -0.00981435068172983 0 -0.035457513813896356 -0.0075079791722689176 0 -0.038864098892304147 -0.006859758206663325 0 -0.035457513813896356 -0.0075079791722689176 0 -0.036688152296241484 -0.0054689046573044107 0 -0.034306742251578121 -0.0045077007239994644 0 -0.036688152296241484 -0.0054689046573044107 0 -0.034306742251578121 -0.0045077007239994644 0 -0.037946835054239896 -0.0032202924692307146 0 -0.031985317323092795 -0.0074597619773112793 0 -0.0307574743379882 -0.0036998080451651903 0 -0.034306742251578121 -0.0045077007239994644 0 -0.040690325894760578 -0.0052939711023738149 0 -0.043332373775012124 -0.0061338641903899704 0 -0.042095303434853154 -0.0029000281264155731 0 -0.040690325894760578 -0.0052939711023738149 0 -0.037946835054239896 -0.0032202924692307146 0 -0.042095303434853154 -0.0029000281264155731 0 -0.036688152296241484 -0.0054689046573044107 0 -0.038864098892304147 -0.006859758206663325 0 -0.037946835054239896 -0.0032202924692307146 0 -0.040690325894760578 -0.0052939711023738149 0 -0.038864098892304147 -0.006859758206663325 0 -0.037946835054239896 -0.0032202924692307146 0 -0.038864098892304147 -0.006859758206663325 0 -0.041374442264962806 -0.007414187704430265 0 -0.040601597233692541 -0.0091028261495544101 0 -0.040690325894760578 -0.0052939711023738149 0 -0.038864098892304147 -0.006859758206663325 0 -0.041374442264962806 -0.007414187704430265 0 -0.041374442264962806 -0.007414187704430265 0 -0.04303305661377043 -0.0084082989956288465 0 -0.043332373775012124 -0.0061338641903899704 0 -0.040690325894760578 -0.0052939711023738149 0 -0.041374442264962806 -0.007414187704430265 0 -0.043332373775012124 -0.0061338641903899704 0 -0.041374442264962806 -0.007414187704430265 0 -0.040601597233692541 -0.0091028261495544101 0 -0.04303305661377043 -0.0084082989956288465 0 -0.040601597233692541 -0.0091028261495544101 0 -0.044495804106601811 -0.010135531138220926 0 -0.04303305661377043 -0.0084082989956288465 0 -0.040601597233692541 -0.0091028261495544101 0 -0.038896234559583541 -0.011616320256429872 0 -0.044495804106601811 -0.010135531138220926 0 -0.038617785476694144 -0.016743537919596218 0 -0.038896234559583541 -0.011616320256429872 0 -0.044495804106601811 -0.010135531138220926 0 -0.03683697539130313 -0.00981435068172983 0 -0.040601597233692541 -0.0091028261495544101 0 -0.038896234559583541 -0.011616320256429872 0 -0.03683697539130313 -0.00981435068172983 0 -0.038864098892304147 -0.006859758206663325 0 -0.040601597233692541 -0.0091028261495544101 0 -0.035412468917544182 -0.014000927552766673 0 -0.03683697539130313 -0.00981435068172983 0 -0.038896234559583541 -0.011616320256429872 0 -0.045577678739482548 -0.011795355430606435 0 -0.046243965495722322 -0.010950652571895352 0 -0.044495804106601811 -0.010135531138220926 0 -0.046243965495722322 -0.010950652571895352 0 -0.045890188128905683 -0.0099528713285394199 0 -0.044495804106601811 -0.010135531138220926 0 -0.046243965495722322 -0.010950652571895352 0 -0.046534569473638793 -0.010262113608628822 0 -0.045890188128905683 -0.0099528713285394199 0 -0.046534569473638793 -0.010262113608628822 0 -0.045890188128905683 -0.0099528713285394199 0 -0.046530571593013541 -0.0094009881435204445 0 -0.045890188128905683 -0.0099528713285394199 0 -0.044495804106601811 -0.010135531138220926 0 -0.045315907133101511 -0.008993264990344807 0 -0.044495804106601811 -0.010135531138220926 0 -0.04303305661377043 -0.0084082989956288465 0 -0.045315907133101511 -0.008993264990344807 0 -0.047956908400324988 -0.011280353454218276 0 -0.047127954775266177 -0.010762739597117172 0 -0.047892901484804011 -0.010410021580474776 0 -0.048362748542074001 -0.01185845592481634 0 -0.048871393638481163 -0.011384956282970364 0 -0.047956908400324988 -0.011280353454218276 0 -0.046516070009495786 -0.012004871305138139 0 -0.046243965495722322 -0.010950652571895352 0 -0.04716821193276325 -0.011407479626236809 0 -0.047956908400324988 -0.011280353454218276 0 -0.04716821193276325 -0.011407479626236809 0 -0.047127954775266177 -0.010762739597117172 0 -0.046243965495722322 -0.010950652571895352 0 -0.04716821193276325 -0.011407479626236809 0 -0.047127954775266177 -0.010762739597117172 0 -0.04713731987677916 -0.010068435115557913 0 -0.047892901484804011 -0.010410021580474776 0 -0.047658828318164648 -0.009599365474276313 0 -0.046534569473638793 -0.010262113608628822 0 -0.047127954775266177 -0.010762739597117172 0 -0.04713731987677916 -0.010068435115557913 0 -0.046243965495722322 -0.010950652571895352 0 -0.046534569473638793 -0.010262113608628822 0 -0.047127954775266177 -0.010762739597117172 0 -0.046534569473638793 -0.010262113608628822 0 -0.04713731987677916 -0.010068435115557913 0 -0.046530571593013541 -0.0094009881435204445 0 -0.047127954775266177 -0.010762739597117172 0 -0.04713731987677916 -0.010068435115557913 0 -0.047892901484804011 -0.010410021580474776 0 -0.048614340995808039 -0.010808225311362754 0 -0.048975082166535393 -0.010139020077301039 0 -0.047892901484804011 -0.010410021580474776 0 -0.048614340995808039 -0.010808225311362754 0 -0.047956908400324988 -0.011280353454218276 0 -0.047892901484804011 -0.010410021580474776 0 -0.047658828318164648 -0.009599365474276313 0 -0.048773344483522531 -0.0093743314027465614 0 -0.046893808653766314 -0.0087518324698730669 0 -0.048975082166535393 -0.010139020077301039 0 -0.047892901484804011 -0.010410021580474776 0 -0.047658828318164648 -0.009599365474276313 0 -0.048975082166535393 -0.010139020077301039 0 -0.047658828318164648 -0.009599365474276313 0 -0.048773344483522531 -0.0093743314027465614 0 -0.04713731987677916 -0.010068435115557913 0 -0.047658828318164648 -0.009599365474276313 0 -0.046530571593013541 -0.0094009881435204445 0 -0.047658828318164648 -0.009599365474276313 0 -0.046530571593013541 -0.0094009881435204445 0 -0.046893808653766314 -0.0087518324698730669 0 -0.043491030624653981 -0.0081529333721571569 0 -0.043210572232000394 -0.0081585451225360608 0 -0.045315907133101511 -0.008993264990344807 0 -0.046530571593013541 -0.0094009881435204445 0 -0.046893808653766314 -0.0087518324698730669 0 -0.045315907133101511 -0.008993264990344807 0 -0.043332373775012124 -0.0061338641903899704 0 -0.046537254846863434 -0.0026801160393250477 0 -0.04303305661377043 -0.0084082989956288465 0 -0.045315907133101511 -0.008993264990344807 0 -0.043332373775012124 -0.0061338641903899704 0 -0.045890188128905683 -0.0099528713285394199 0 -0.045315907133101511 -0.008993264990344807 0 -0.046530571593013541 -0.0094009881435204445 0 -0.043332373775012124 -0.0061338641903899704 0 -0.046537254846863434 -0.0026801160393250477 0 -0.042095303434853154 -0.0029000281264155731 0 -0.043210572232000394 -0.0081585451225360608 0 -0.041336775926543314 -0.011202565498848092 0 -0.046537254846863434 -0.0026801160393250477 0 -0.043208067732831333 0.001249483117943435 0 -0.042095303434853154 -0.0029000281264155731 0 -0.046537254846863434 -0.0026801160393250477 0 -0.043208067732831333 0.001249483117943435 0 -0.047981481467214766 0.0026996911058404321 0 -0.049446671790989681 -0.0088426192102771372 0 -0.046893808653766314 -0.0087518324698730669 0 -0.04758481343761279 -0.0071428481815477788 0 -0.049446671790989681 -0.0088426192102771372 0 -0.048773344483522531 -0.0093743314027465614 0 -0.046893808653766314 -0.0087518324698730669 0 -0.043345731908123457 -0.011668870784827775 0 -0.041336775926543314 -0.011202565498848092 0 -0.050092805987603281 -0.0092521635155791496 0 -0.049446671790989681 -0.0088426192102771372 0 -0.050362260236482853 -0.0091395254854892017 0 -0.050092805987603281 -0.0092521635155791496 0 -0.050785193610461819 -0.0095586884469130041 0 -0.050362260236482853 -0.0091395254854892017 0 -0.040616824255839054 0.0079771484549629838 0 -0.043208067732831333 0.001249483117943435 0 -0.047981481467214766 0.0026996911058404321 0 -0.035236955163075873 -0.013429972892553464 0 -0.041336775926543314 -0.011202565498848092 0 -0.040616824255839054 0.0079771484549629838 0 -0.035131393095269456 0.0040069808579139086 0 -0.038844411341629873 0.0010093157353021471 0 -0.040616824255839054 0.0079771484549629838 0 -0.043208067732831333 0.001249483117943435 0 -0.038844411341629873 0.0010093157353021471 0 -0.033262902362148079 0.0075922301965598354 0 -0.040616824255839054 0.0079771484549629838 0 -0.035131393095269456 0.0040069808579139086 0 -0.033262902362148079 0.0075922301965598354 0 -0.031720788695221727 0.0033306978276344532 0 -0.035131393095269456 0.0040069808579139086 0 -0.031720788695221727 0.0033306978276344532 0 -0.035131393095269456 0.0040069808579139086 0 -0.033847218530964937 -0.00045384076757176077 0 -0.035131393095269456 0.0040069808579139086 0 -0.033847218530964937 -0.00045384076757176077 0 -0.038844411341629873 0.0010093157353021471 0 -0.0307574743379882 -0.0036998080451651903 0 -0.034306742251578121 -0.0045077007239994644 0 -0.033847218530964937 -0.00045384076757176077 0 -0.034306742251578121 -0.0045077007239994644 0 -0.033847218530964937 -0.00045384076757176077 0 -0.037946835054239896 -0.0032202924692307146 0 -0.033847218530964937 -0.00045384076757176077 0 -0.037946835054239896 -0.0032202924692307146 0 -0.038844411341629873 0.0010093157353021471 0 -0.037946835054239896 -0.0032202924692307146 0 -0.042095303434853154 -0.0029000281264155731 0 -0.038844411341629873 0.0010093157353021471 0 -0.043208067732831333 0.001249483117943435 0 -0.042095303434853154 -0.0029000281264155731 0 -0.038844411341629873 0.0010093157353021471 0 -0.075326233921884173 -0.015512775914574966 0 -0.075226367470725614 -0.016975643017242838 0 -0.075067730102814909 -0.016804929069094015 0 -0.075326233921884173 -0.015512775914574966 0 -0.075067730102814909 -0.016804929069094015 0 -0.075033133830631302 -0.015644615239080818 0 -0.075326233921884173 -0.015512775914574966 0 -0.074997608435200272 -0.01617153781173743 0 -0.075000355609983832 -0.011750416509741683 0 -0.075326233921884173 -0.015512775914574966 0 -0.074997608435200272 -0.01617153781173743 0 -0.075226367470725614 -0.016975643017242838 0 -0.074997608435200272 -0.01617153781173743 0 -0.075221940943483279 -0.018369859824373603 0 -0.075226367470725614 -0.016975643017242838 0 -0.075221940943483279 -0.018369859824373603 0 -0.075226367470725614 -0.016975643017242838 0 -0.07494360738141119 -0.017774413529221676 0 -0.074997608435200272 -0.01617153781173743 0 -0.075221940943483279 -0.018369859824373603 0 -0.074999383353582513 -0.020606758438065038 0 -0.075226367470725614 -0.016975643017242838 0 -0.075067730102814909 -0.016804929069094015 0 -0.07494360738141119 -0.017774413529221676 0 -0.075067730102814909 -0.016804929069094015 0 -0.074960637828929269 -0.017756870547528895 0 -0.07494360738141119 -0.017774413529221676 0 -0.075067730102814909 -0.016804929069094015 0 -0.07501168267009882 -0.017515145183959309 0 -0.074852131788678222 -0.016109735452725472 0 -0.075067730102814909 -0.016804929069094015 0 -0.07501168267009882 -0.017515145183959309 0 -0.074960637828929269 -0.017756870547528895 0 -0.07501168267009882 -0.017515145183959309 0 -0.074852131788678222 -0.016109735452725472 0 -0.075206316324444272 -0.017823282131975017 0 -0.074852131788678222 -0.016109735452725472 0 -0.075033133830631302 -0.015644615239080818 0 -0.074699444291042014 -0.015235410499783301 0 -0.075067730102814909 -0.016804929069094015 0 -0.074852131788678222 -0.016109735452725472 0 -0.075033133830631302 -0.015644615239080818 0 -0.074699444291042014 -0.015235410499783301 0 -0.074805273107776377 -0.014987290215276162 0 -0.07514740871945047 -0.014365638307447538 0 -0.075033133830631302 -0.015644615239080818 0 -0.074699444291042014 -0.015235410499783301 0 -0.07514740871945047 -0.014365638307447538 0 -0.074699444291042014 -0.015235410499783301 0 -0.073934003709304072 -0.015507063768711783 0 -0.074231738948467185 -0.015439787058973574 0 -0.074852131788678222 -0.016109735452725472 0 -0.074699444291042014 -0.015235410499783301 0 -0.073934003709304072 -0.015507063768711783 0 -0.074852131788678222 -0.016109735452725472 0 -0.073934003709304072 -0.015507063768711783 0 -0.072949055683314792 -0.015110445261569625 0 -0.074231738948467185 -0.015439787058973574 0 -0.073759455643337149 -0.015950961179092178 0 -0.073383244548698379 -0.015696858291907364 0 -0.073934003709304072 -0.015507063768711783 0 -0.074231738948467185 -0.015439787058973574 0 -0.073383244548698379 -0.015696858291907364 0 -0.074231738948467185 -0.015439787058973574 0 -0.074805273107776377 -0.014987290215276162 0 -0.074434562783359734 -0.015649043397539 0 -0.074699444291042014 -0.015235410499783301 0 -0.074231738948467185 -0.015439787058973574 0 -0.074805273107776377 -0.014987290215276162 0 -0.074805273107776377 -0.014987290215276162 0 -0.07514740871945047 -0.014365638307447538 0 -0.07523222722821428 -0.014772645831420513 0 -0.074805273107776377 -0.014987290215276162 0 -0.07523222722821428 -0.014772645831420513 0 -0.074434562783359734 -0.015649043397539 0 -0.075326233921884173 -0.015512775914574966 0 -0.075033133830631302 -0.015644615239080818 0 -0.07514740871945047 -0.014365638307447538 0 -0.075326233921884173 -0.015512775914574966 0 -0.07514740871945047 -0.014365638307447538 0 -0.075000355609983832 -0.011750416509741683 0 -0.074999969750939366 -0.011740128330688744 0 -0.075000029904559048 -0.0073750440180760128 0 -0.077512030514645766 -0.0092360575859967466 0 -0.07514740871945047 -0.014365638307447538 0 -0.075000355609983832 -0.011750416509741683 0 -0.07523222722821428 -0.014772645831420513 0 -0.075000032918258186 -0.011739856338861798 0 -0.075414350249404738 -0.011064233572314801 0 -0.075000029904559048 -0.0073750440180760128 0 -0.077512030514645766 -0.0092360575859967466 0 -0.077522385342388506 -0.0056938418698527418 0 -0.07523222722821428 -0.014772645831420513 0 -0.07472492687236125 -0.016298384909066994 0 -0.074434562783359734 -0.015649043397539 0 -0.075414350249404738 -0.011064233572314801 0 -0.076020415814972875 -0.0093656459025262019 0 -0.077512030514645766 -0.0092360575859967466 0 -0.077522385342388506 -0.0056938418698527418 0 -0.080086018917052318 -0.0067160067295742813 0 -0.077522385342388506 -0.0056938418698527418 0 -0.079656564256622278 -0.0043481022228549701 0 -0.080086018917052318 -0.0067160067295742813 0 -0.075000029904559048 -0.0073750440180760128 0 -0.077522385342388506 -0.0056938418698527418 0 -0.074999664929457505 -0.0030096649155761596 0 -0.077522385342388506 -0.0056938418698527418 0 -0.074999664929457505 -0.0030096649155761596 0 -0.077742898595996229 -0.0030226897028718101 0 -0.077522385342388506 -0.0056938418698527418 0 -0.079656564256622278 -0.0043481022228549701 0 -0.077742898595996229 -0.0030226897028718101 0 -0.079656564256622278 -0.0043481022228549701 0 -0.077742898595996229 -0.0030226897028718101 0 -0.080177190341195359 -0.0021139993776076705 0 -0.077742898595996229 -0.0030226897028718101 0 -0.077232318778111944 0.00012934566622717263 0 -0.080177190341195359 -0.0021139993776076705 0 -0.076952249712243556 -0.0030267740725241458 0 -0.07727412135869012 -0.003893521994939554 0 -0.077845955021972418 7.828216524821353e-05 0 -0.077232318778111944 0.00012934566622717263 0 -0.078435161594908487 -0.00063466918151018528 0 -0.076733620330731347 0.00086489036464271923 0 -0.077845955021972418 7.828216524821353e-05 0 -0.077232318778111944 0.00012934566622717263 0 -0.074999664929457505 -0.0030096649155761596 0 -0.077742898595996229 -0.0030226897028718101 0 -0.077232318778111944 0.00012934566622717263 0 -0.074999484478977974 0.0013569993364127824 0 -0.076733620330731347 0.00086489036464271923 0 -0.074999664929457505 -0.0030096649155761596 0 -0.076733620330731347 0.00086489036464271923 0 -0.074999664929457505 -0.0030096649155761596 0 -0.077232318778111944 0.00012934566622717263 0 -0.079698276217257571 0.00012556270940169314 0 -0.078768739075018065 0.00032315054806770035 0 -0.079151546559724839 -0.00034029917000086317 0 -0.079698276217257571 0.00012556270940169314 0 -0.079151546559724839 -0.00034029917000086317 0 -0.079599144381993309 -0.00063957836902786048 0 -0.078768739075018065 0.00032315054806770035 0 -0.079151546559724839 -0.00034029917000086317 0 -0.078435161594908487 -0.00063466918151018528 0 -0.078768739075018065 0.00032315054806770035 0 -0.077845955021972418 7.828216524821353e-05 0 -0.078435161594908487 -0.00063466918151018528 0 -0.079151546559724839 -0.00034029917000086317 0 -0.078435161594908487 -0.00063466918151018528 0 -0.079204532017025348 -0.0011107245468775962 0 -0.079656564256622278 -0.0043481022228549701 0 -0.080177190341195359 -0.0021139993776076705 0 -0.082754456454952607 -0.0041191750970557377 0 -0.07727412135869012 -0.003893521994939554 0 -0.076891325353602311 -0.0057233451908928852 0 -0.079151546559724839 -0.00034029917000086317 0 -0.079204532017025348 -0.0011107245468775962 0 -0.079599144381993309 -0.00063957836902786048 0 -0.079240823262821933 -0.00099036372865678808 0 -0.079599144381993309 -0.00063957836902786048 0 -0.079678125979197129 -0.0013183424500691631 0 -0.076891325353602311 -0.0057233451908928852 0 -0.07783636665515202 -0.0045966065551611519 0 -0.073923196577824035 -0.017264350873661016 0 -0.0738934934797571 -0.016401487094127008 0 -0.073272430963642901 -0.016844085761274268 0 -0.076891325353602311 -0.0057233451908928852 0 -0.076765619943283958 -0.0081315827551365349 0 -0.0738934934797571 -0.016401487094127008 0 -0.073270145470607784 -0.016368555253117832 0 -0.073272430963642901 -0.016844085761274268 0 -0.079656564256622278 -0.0043481022228549701 0 -0.082754456454952607 -0.0041191750970557377 0 -0.080086018917052318 -0.0067160067295742813 0 -0.073923196577824035 -0.017264350873661016 0 -0.0738934934797571 -0.016401487094127008 0 -0.07472492687236125 -0.016298384909066994 0 -0.076891325353602311 -0.0057233451908928852 0 -0.076020415814972875 -0.0093656459025262019 0 -0.0738934934797571 -0.016401487094127008 0 -0.07472492687236125 -0.016298384909066994 0 -0.074434562783359734 -0.015649043397539 0 -0.0738934934797571 -0.016401487094127008 0 -0.073759455643337149 -0.015950961179092178 0 -0.073270145470607784 -0.016368555253117832 0 -0.0738934934797571 -0.016401487094127008 0 -0.074434562783359734 -0.015649043397539 0 -0.073759455643337149 -0.015950961179092178 0 -0.074231738948467185 -0.015439787058973574 0 -0.074434562783359734 -0.015649043397539 0 -0.073759455643337149 -0.015950961179092178 0 -0.073759455643337149 -0.015950961179092178 0 -0.073251143962025506 -0.016026380764060485 0 -0.073383244548698379 -0.015696858291907364 0 -0.073759455643337149 -0.015950961179092178 0 -0.073251143962025506 -0.016026380764060485 0 -0.073270145470607784 -0.016368555253117832 0 -0.073251143962025506 -0.016026380764060485 0 -0.07274064768730043 -0.016243056563738222 0 -0.072365450266234088 -0.015780394402776201 0 -0.07274064768730043 -0.016243056563738222 0 -0.07258118294851007 -0.016487838675102132 0 -0.073270145470607784 -0.016368555253117832 0 -0.076160846630578899 -0.010714711332507525 0 -0.076519970436567136 -0.010186150282325066 0 -0.073251143962025506 -0.016026380764060485 0 -0.07274064768730043 -0.016243056563738222 0 -0.073270145470607784 -0.016368555253117832 0 -0.069945415063281974 -0.015165385198754459 0 -0.071107306862698935 -0.015830975506993056 0 -0.070721671943987333 -0.014858091620193621 0 -0.071107306862698935 -0.015830975506993056 0 -0.071254803411319595 -0.015579125330258884 0 -0.071583086988310299 -0.015830414496753025 0 -0.07274064768730043 -0.016243056563738222 0 -0.071107306862698935 -0.015830975506993056 0 -0.072365450266234088 -0.015780394402776201 0 -0.076519970436567136 -0.010186150282325066 0 -0.076080874764849205 -0.010446068166688763 0 -0.07274064768730043 -0.016243056563738222 0 -0.072246218527348596 -0.016886600079604436 0 -0.071107306862698935 -0.015830975506993056 0 -0.071107306862698935 -0.015830975506993056 0 -0.070721671943987333 -0.014858091620193621 0 -0.071254803411319595 -0.015579125330258884 0 -0.069945415063281974 -0.015165385198754459 0 -0.069917694314977144 -0.013727590680806789 0 -0.070721671943987333 -0.014858091620193621 0 -0.080111375865487153 -0.0016560774277314132 0 -0.080072965377481473 -0.0012380796764037648 0 -0.080513025874182007 -0.0010535777116780396 0 -0.076519970436567136 -0.010186150282325066 0 -0.075770982782152232 -0.0075658829580574991 0 -0.07258118294851007 -0.016487838675102132 0 -0.073270145470607784 -0.016368555253117832 0 -0.073272430963642901 -0.016844085761274268 0 -0.076519970436567136 -0.010186150282325066 0 -0.076765619943283958 -0.0081315827551365349 0 -0.080111375865487153 -0.0016560774277314132 0 -0.080072965377481473 -0.0012380796764037648 0 -0.079678125979197129 -0.0013183424500691631 0 -0.080072965377481473 -0.0012380796764037648 0 -0.079678125979197129 -0.0013183424500691631 0 -0.079986723642003835 -0.00092598045217211612 0 -0.079599144381993309 -0.00063957836902786048 0 -0.079986723642003835 -0.00092598045217211612 0 -0.080214487513418059 -0.00048142420768831548 0 -0.079599144381993309 -0.00063957836902786048 0 -0.079678125979197129 -0.0013183424500691631 0 -0.079986723642003835 -0.00092598045217211612 0 -0.080513025874182007 -0.0010535777116780396 0 -0.080214487513418059 -0.00048142420768831548 0 -0.080883397977932397 -0.00046751852369709257 0 -0.079986723642003835 -0.00092598045217211612 0 -0.080513025874182007 -0.0010535777116780396 0 -0.080214487513418059 -0.00048142420768831548 0 -0.080072965377481473 -0.0012380796764037648 0 -0.079986723642003835 -0.00092598045217211612 0 -0.080513025874182007 -0.0010535777116780396 0 -0.080489024271900231 7.1002388179173249e-05 0 -0.080214487513418059 -0.00048142420768831548 0 -0.080883397977932397 -0.00046751852369709257 0 -0.079698276217257571 0.00012556270940169314 0 -0.079599144381993309 -0.00063957836902786048 0 -0.080214487513418059 -0.00048142420768831548 0 -0.079698276217257571 0.00012556270940169314 0 -0.080489024271900231 7.1002388179173249e-05 0 -0.080214487513418059 -0.00048142420768831548 0 -0.069853110718755634 -0.009059043285766866 0 -0.069569656881216232 -0.011682919618686186 0 -0.071160559374079335 -0.010365137659577663 0 -0.069569656881216232 -0.011682919618686186 0 -0.071139144548807348 -0.012983726793228621 0 -0.071160559374079335 -0.010365137659577663 0 -0.074081894204495555 -0.0030172127142872188 0 -0.075017426141118532 -0.0053625898247774582 0 -0.08123554261722675 6.9576927343038188e-05 0 -0.080489024271900231 7.1002388179173249e-05 0 -0.080883397977932397 -0.00046751852369709257 0 -0.075770982782152232 -0.0075658829580574991 0 -0.075017426141118532 -0.0053625898247774582 0 -0.069917694314977144 -0.013727590680806789 0 -0.069569656881216232 -0.011682919618686186 0 -0.07049189770982181 -0.013540636187456455 0 -0.069569656881216232 -0.011682919618686186 0 -0.07049189770982181 -0.013540636187456455 0 -0.071139144548807348 -0.012983726793228621 0 -0.071139144548807348 -0.012983726793228621 0 -0.071093112561475644 -0.014866963047165361 0 -0.071961083411809096 -0.014982532858080117 0 -0.07049189770982181 -0.013540636187456455 0 -0.071139144548807348 -0.012983726793228621 0 -0.071093112561475644 -0.014866963047165361 0 -0.069917694314977144 -0.013727590680806789 0 -0.07049189770982181 -0.013540636187456455 0 -0.070721671943987333 -0.014858091620193621 0 -0.07049189770982181 -0.013540636187456455 0 -0.071093112561475644 -0.014866963047165361 0 -0.070721671943987333 -0.014858091620193621 0 -0.071093112561475644 -0.014866963047165361 0 -0.071254803411319595 -0.015579125330258884 0 -0.071687099553434663 -0.01588585665547227 0 -0.071093112561475644 -0.014866963047165361 0 -0.070721671943987333 -0.014858091620193621 0 -0.071254803411319595 -0.015579125330258884 0 -0.071093112561475644 -0.014866963047165361 0 -0.071687099553434663 -0.01588585665547227 0 -0.071961083411809096 -0.014982532858080117 0 -0.071687099553434663 -0.01588585665547227 0 -0.072754283202692713 -0.016201027767254204 0 -0.071961083411809096 -0.014982532858080117 0 -0.071687099553434663 -0.01588585665547227 0 -0.072854467089797675 -0.016955036294195699 0 -0.072754283202692713 -0.016201027767254204 0 -0.074301930805161925 -0.017758342077973065 0 -0.073715314117794986 -0.017462936138415007 0 -0.072854467089797675 -0.016955036294195699 0 -0.071687099553434663 -0.01588585665547227 0 -0.071704388746243145 -0.015988692985397339 0 -0.072854467089797675 -0.016955036294195699 0 -0.073490546281619648 -0.016615660628772476 0 -0.073445046727810118 -0.016668964121753213 0 -0.071687099553434663 -0.01588585665547227 0 -0.071704388746243145 -0.015988692985397339 0 -0.071583086988310299 -0.015830414496753025 0 -0.071254803411319595 -0.015579125330258884 0 -0.071687099553434663 -0.01588585665547227 0 -0.071583086988310299 -0.015830414496753025 0 -0.071107306862698935 -0.015830975506993056 0 -0.071583086988310299 -0.015830414496753025 0 -0.072365450266234088 -0.015780394402776201 0 -0.071583086988310299 -0.015830414496753025 0 -0.072493994970000919 -0.015643598529913594 0 -0.072365450266234088 -0.015780394402776201 0 -0.073934003709304072 -0.015507063768711783 0 -0.072493994970000919 -0.015643598529913594 0 -0.073383244548698379 -0.015696858291907364 0 -0.073251143962025506 -0.016026380764060485 0 -0.073383244548698379 -0.015696858291907364 0 -0.072365450266234088 -0.015780394402776201 0 -0.072493994970000919 -0.015643598529913594 0 -0.073383244548698379 -0.015696858291907364 0 -0.072365450266234088 -0.015780394402776201 0 -0.073934003709304072 -0.015507063768711783 0 -0.072493994970000919 -0.015643598529913594 0 -0.072949055683314792 -0.015110445261569625 0 -0.071704388746243145 -0.015988692985397339 0 -0.071583086988310299 -0.015830414496753025 0 -0.072493994970000919 -0.015643598529913594 0 -0.073490546281619648 -0.016615660628772476 0 -0.073699288521438561 -0.016476328313718161 0 -0.071704388746243145 -0.015988692985397339 0 -0.072493994970000919 -0.015643598529913594 0 -0.072949055683314792 -0.015110445261569625 0 -0.074301930805161925 -0.017758342077973065 0 -0.075021593415127333 -0.017340480455099529 0 -0.074612568532302498 -0.017751270328536312 0 -0.074852131788678222 -0.016109735452725472 0 -0.075021593415127333 -0.017340480455099529 0 -0.075206316324444272 -0.017823282131975017 0 -0.073858851194396641 -0.016409790520226241 0 -0.073699288521438561 -0.016476328313718161 0 -0.075021593415127333 -0.017340480455099529 0 -0.075206316324444272 -0.017823282131975017 0 -0.074612568532302498 -0.017751270328536312 0 -0.074612568532302498 -0.017751270328536312 0 -0.074042574829294341 -0.017803272791595208 0 -0.074541082190142716 -0.018446779511961688 0 -0.074042574829294341 -0.017803272791595208 0 -0.073715314117794986 -0.017462936138415007 0 -0.073412292137776558 -0.01740059103009162 0 -0.074612568532302498 -0.017751270328536312 0 -0.074042574829294341 -0.017803272791595208 0 -0.073715314117794986 -0.017462936138415007 0 -0.073715314117794986 -0.017462936138415007 0 -0.073412292137776558 -0.01740059103009162 0 -0.072854467089797675 -0.016955036294195699 0 -0.074301930805161925 -0.017758342077973065 0 -0.074612568532302498 -0.017751270328536312 0 -0.073715314117794986 -0.017462936138415007 0 -0.073412292137776558 -0.01740059103009162 0 -0.0731016539464453 -0.017136581144982548 0 -0.072996469491172375 -0.016828988722216019 0 -0.073412292137776558 -0.01740059103009162 0 -0.072996469491172375 -0.016828988722216019 0 -0.072854467089797675 -0.016955036294195699 0 -0.074042574829294341 -0.017803272791595208 0 -0.073412292137776558 -0.01740059103009162 0 -0.073781754770559635 -0.01793353650716642 0 -0.073412292137776558 -0.01740059103009162 0 -0.0731016539464453 -0.017136581144982548 0 -0.073781754770559635 -0.01793353650716642 0 -0.0731016539464453 -0.017136581144982548 0 -0.071804183186426021 -0.016279880140682119 0 -0.07287900258512757 -0.017042667500171846 0 -0.0731016539464453 -0.017136581144982548 0 -0.072561965884778937 -0.016689435543801451 0 -0.071804183186426021 -0.016279880140682119 0 -0.072561965884778937 -0.016689435543801451 0 -0.07214607587198256 -0.016538533529547851 0 -0.071804183186426021 -0.016279880140682119 0 -0.0731016539464453 -0.017136581144982548 0 -0.072561965884778937 -0.016689435543801451 0 -0.072996469491172375 -0.016828988722216019 0 -0.07214607587198256 -0.016538533529547851 0 -0.072824749178072176 -0.016404862876936228 0 -0.072996469491172375 -0.016828988722216019 0 -0.072561965884778937 -0.016689435543801451 0 -0.07214607587198256 -0.016538533529547851 0 -0.072996469491172375 -0.016828988722216019 0 -0.07214607587198256 -0.016538533529547851 0 -0.072375277632626411 -0.016275988328852842 0 -0.070884695600883951 -0.016559390428170853 0 -0.07214607587198256 -0.016538533529547851 0 -0.072375277632626411 -0.016275988328852842 0 -0.072824749178072176 -0.016404862876936228 0 -0.072375277632626411 -0.016275988328852842 0 -0.072824749178072176 -0.016404862876936228 0 -0.073081062463223892 -0.015876297964620912 0 -0.072824749178072176 -0.016404862876936228 0 -0.072754283202692713 -0.016201027767254204 0 -0.073081062463223892 -0.015876297964620912 0 -0.072824749178072176 -0.016404862876936228 0 -0.072996469491172375 -0.016828988722216019 0 -0.072754283202692713 -0.016201027767254204 0 -0.072996469491172375 -0.016828988722216019 0 -0.072854467089797675 -0.016955036294195699 0 -0.072754283202692713 -0.016201027767254204 0 -0.072754283202692713 -0.016201027767254204 0 -0.072922218889624316 -0.015243916842426644 0 -0.071961083411809096 -0.014982532858080117 0 -0.072754283202692713 -0.016201027767254204 0 -0.072922218889624316 -0.015243916842426644 0 -0.073081062463223892 -0.015876297964620912 0 -0.072922218889624316 -0.015243916842426644 0 -0.072786894162965673 -0.012826122652937925 0 -0.073750052816143941 -0.015052563117310952 0 -0.072922218889624316 -0.015243916842426644 0 -0.073750052816143941 -0.015052563117310952 0 -0.073081062463223892 -0.015876297964620912 0 -0.072922218889624316 -0.015243916842426644 0 -0.071961083411809096 -0.014982532858080117 0 -0.072786894162965673 -0.012826122652937925 0 -0.071139144548807348 -0.012983726793228621 0 -0.072786894162965673 -0.012826122652937925 0 -0.071160559374079335 -0.010365137659577663 0 -0.071139144548807348 -0.012983726793228621 0 -0.071961083411809096 -0.014982532858080117 0 -0.072786894162965673 -0.012826122652937925 0 -0.072786894162965673 -0.012826122652937925 0 -0.074793271555786092 -0.012792340654800886 0 -0.073750052816143941 -0.015052563117310952 0 -0.072786894162965673 -0.012826122652937925 0 -0.07430277039191531 -0.010668433612946787 0 -0.074793271555786092 -0.012792340654800886 0 -0.072786894162965673 -0.012826122652937925 0 -0.07430277039191531 -0.010668433612946787 0 -0.073271193973728471 -0.0096673053686051665 0 -0.074556548334549805 -0.0066301386700372252 0 -0.07430277039191531 -0.010668433612946787 0 -0.073271193973728471 -0.0096673053686051665 0 -0.072786894162965673 -0.012826122652937925 0 -0.073271193973728471 -0.0096673053686051665 0 -0.071160559374079335 -0.010365137659577663 0 -0.07247791401346948 -0.0065889171373125595 0 -0.073271193973728471 -0.0096673053686051665 0 -0.071160559374079335 -0.010365137659577663 0 -0.072387957425066943 -0.011179403462571231 0 -0.071298318156743076 -0.012879932582766042 0 -0.069361261202524643 -0.011557350570717963 0 -0.068682981192380033 -0.011753778428827287 0 -0.069430849498886379 -0.012038987884526483 0 -0.069059442709501095 -0.011154742139726458 0 -0.069361261202524643 -0.011557350570717963 0 -0.068682981192380033 -0.011753778428827287 0 -0.072492813830769096 -0.011203391885743855 0 -0.072387957425066943 -0.011179403462571231 0 -0.074556548334549805 -0.0066301386700372252 0 -0.07430277039191531 -0.010668433612946787 0 -0.076372590696321546 -0.0098526139867815016 0 -0.07430277039191531 -0.010668433612946787 0 -0.076372590696321546 -0.0098526139867815016 0 -0.074793271555786092 -0.012792340654800886 0 -0.076372590696321546 -0.0098526139867815016 0 -0.077083199427826474 -0.010615483582500614 0 -0.074793271555786092 -0.012792340654800886 0 -0.077083199427826474 -0.010615483582500614 0 -0.074519474081565035 -0.015033652743224582 0 -0.074793271555786092 -0.012792340654800886 0 -0.072387957425066943 -0.011179403462571231 0 -0.072660354549688361 -0.012052122725595473 0 -0.074519474081565035 -0.015033652743224582 0 -0.074793271555786092 -0.012792340654800886 0 -0.073750052816143941 -0.015052563117310952 0 -0.074582675750110169 -0.017364791938884371 0 -0.074519474081565035 -0.015033652743224582 0 -0.07187065371991061 -0.016748874768674631 0 -0.074519474081565035 -0.015033652743224582 0 -0.071623053311570511 -0.016186912239531333 0 -0.07187065371991061 -0.016748874768674631 0 -0.074519474081565035 -0.015033652743224582 0 -0.072923484594303811 -0.015802026481060338 0 -0.071623053311570511 -0.016186912239531333 0 -0.074519474081565035 -0.015033652743224582 0 -0.072923484594303811 -0.015802026481060338 0 -0.073750052816143941 -0.015052563117310952 0 -0.072923484594303811 -0.015802026481060338 0 -0.073750052816143941 -0.015052563117310952 0 -0.073081062463223892 -0.015876297964620912 0 -0.072375277632626411 -0.016275988328852842 0 -0.072923484594303811 -0.015802026481060338 0 -0.073081062463223892 -0.015876297964620912 0 -0.072375277632626411 -0.016275988328852842 0 -0.072923484594303811 -0.015802026481060338 0 -0.071279447209129487 -0.016322550318929159 0 -0.071279447209129487 -0.016322550318929159 0 -0.070059641507210474 -0.016455528906435948 0 -0.071623053311570511 -0.016186912239531333 0 -0.071279447209129487 -0.016322550318929159 0 -0.070059641507210474 -0.016455528906435948 0 -0.069315786631511195 -0.01683159800987322 0 -0.070059641507210474 -0.016455528906435948 0 -0.068891760243065397 -0.016463781648022216 0 -0.069315786631511195 -0.01683159800987322 0 -0.070059641507210474 -0.016455528906435948 0 -0.06982682268823813 -0.016802564744146171 0 -0.071623053311570511 -0.016186912239531333 0 -0.070059641507210474 -0.016455528906435948 0 -0.06982682268823813 -0.016802564744146171 0 -0.068891760243065397 -0.016463781648022216 0 -0.072923484594303811 -0.015802026481060338 0 -0.071279447209129487 -0.016322550318929159 0 -0.071623053311570511 -0.016186912239531333 0 -0.06982682268823813 -0.016802564744146171 0 -0.071623053311570511 -0.016186912239531333 0 -0.07187065371991061 -0.016748874768674631 0 -0.070639874433457428 -0.013737072284294093 0 -0.071298318156743076 -0.012879932582766042 0 -0.069206849543078888 -0.012655056219529743 0 -0.069430849498886379 -0.012038987884526483 0 -0.069787295166167829 -0.011682003980753999 0 -0.069206849543078888 -0.012655056219529743 0 -0.069787295166167829 -0.011682003980753999 0 -0.069538509443692789 -0.012307402383112257 0 -0.069765449079427888 -0.010904469970359088 0 -0.069361261202524643 -0.011557350570717963 0 -0.069787295166167829 -0.011682003980753999 0 -0.069361261202524643 -0.011557350570717963 0 -0.069430849498886379 -0.012038987884526483 0 -0.069787295166167829 -0.011682003980753999 0 -0.070024214717715846 -0.011464123017283799 0 -0.07008058747825896 -0.011276973510947119 0 -0.069538509443692789 -0.012307402383112257 0 -0.069787295166167829 -0.011682003980753999 0 -0.07008058747825896 -0.011276973510947119 0 -0.069538509443692789 -0.012307402383112257 0 -0.07054243738392664 -0.012531885703276431 0 -0.070024214717715846 -0.011464123017283799 0 -0.069538509443692789 -0.012307402383112257 0 -0.07054243738392664 -0.012531885703276431 0 -0.069538509443692789 -0.012307402383112257 0 -0.069050675017088156 -0.014823867135071195 0 -0.066960590649595961 -0.015035332483399323 0 -0.067454640334971824 -0.014636364986732235 0 -0.06883112918146965 -0.015020088537319379 0 -0.068385330238003403 -0.013550287638344347 0 -0.068491261053926916 -0.013835715448700684 0 -0.07054243738392664 -0.012531885703276431 0 -0.069050675017088156 -0.014823867135071195 0 -0.06883112918146965 -0.015020088537319379 0 -0.070639874433457428 -0.013737072284294093 0 -0.070514455867469364 -0.014060649794412091 0 -0.069206849543078888 -0.012655056219529743 0 -0.069538509443692789 -0.012307402383112257 0 -0.069050675017088156 -0.014823867135071195 0 -0.06982682268823813 -0.016802564744146171 0 -0.069050675017088156 -0.014823867135071195 0 -0.068891760243065397 -0.016463781648022216 0 -0.068891760243065397 -0.016463781648022216 0 -0.067574899830534885 -0.01724507397606773 0 -0.069315786631511195 -0.01683159800987322 0 -0.069050675017088156 -0.014823867135071195 0 -0.068891760243065397 -0.016463781648022216 0 -0.06883112918146965 -0.015020088537319379 0 -0.068891760243065397 -0.016463781648022216 0 -0.065564682251392989 -0.018780172521782549 0 -0.067574899830534885 -0.01724507397606773 0 -0.068891760243065397 -0.016463781648022216 0 -0.06883112918146965 -0.015020088537319379 0 -0.068406904924354028 -0.014152772559589574 0 -0.067454640334971824 -0.014636364986732235 0 -0.06883112918146965 -0.015020088537319379 0 -0.068406904924354028 -0.014152772559589574 0 -0.066311775222755012 -0.015905889717573254 0 -0.065673320348208011 -0.015730486356037771 0 -0.064171887141652798 -0.01711795698604756 0 -0.065447464228480939 -0.017671601958108286 0 -0.067181985075652359 -0.016821622114807346 0 -0.065447464228480939 -0.017671601958108286 0 -0.067181985075652359 -0.016821622114807346 0 -0.067574899830534885 -0.01724507397606773 0 -0.065564682251392989 -0.018780172521782549 0 -0.065447464228480939 -0.017671601958108286 0 -0.067574899830534885 -0.01724507397606773 0 -0.064171887141652798 -0.01711795698604756 0 -0.067181985075652359 -0.016821622114807346 0 -0.064994998198845369 -0.016232625361716543 0 -0.067181985075652359 -0.016821622114807346 0 -0.067574899830534885 -0.01724507397606773 0 -0.069315786631511195 -0.01683159800987322 0 -0.067181985075652359 -0.016821622114807346 0 -0.069315786631511195 -0.01683159800987322 0 -0.070284028098865067 -0.016560912890468963 0 -0.069315786631511195 -0.01683159800987322 0 -0.070884695600883951 -0.016559390428170853 0 -0.070284028098865067 -0.016560912890468963 0 -0.071279447209129487 -0.016322550318929159 0 -0.069315786631511195 -0.01683159800987322 0 -0.070884695600883951 -0.016559390428170853 0 -0.072375277632626411 -0.016275988328852842 0 -0.071279447209129487 -0.016322550318929159 0 -0.070884695600883951 -0.016559390428170853 0 -0.07214607587198256 -0.016538533529547851 0 -0.070284028098865067 -0.016560912890468963 0 -0.071804183186426021 -0.016279880140682119 0 -0.07214607587198256 -0.016538533529547851 0 -0.070884695600883951 -0.016559390428170853 0 -0.070284028098865067 -0.016560912890468963 0 -0.067181985075652359 -0.016821622114807346 0 -0.070284028098865067 -0.016560912890468963 0 -0.067038166388678266 -0.01550961869959909 0 -0.070284028098865067 -0.016560912890468963 0 -0.071804183186426021 -0.016279880140682119 0 -0.067038166388678266 -0.01550961869959909 0 -0.071804183186426021 -0.016279880140682119 0 -0.067038166388678266 -0.01550961869959909 0 -0.071064791860833462 -0.01575370384896272 0 -0.066800754680082813 -0.016535715860954127 0 -0.067093366882057887 -0.016224094636061125 0 -0.063631138967924231 -0.015339313082709661 0 -0.067038166388678266 -0.01550961869959909 0 -0.06352298296989288 -0.014041641278050212 0 -0.061742412080822116 -0.014521998687845462 0 -0.063631138967924231 -0.015339313082709661 0 -0.06352298296989288 -0.014041641278050212 0 -0.063053019049692544 -0.016347316609705089 0 -0.063631138967924231 -0.015339313082709661 0 -0.064994998198845369 -0.016232625361716543 0 -0.063631138967924231 -0.015339313082709661 0 -0.064994998198845369 -0.016232625361716543 0 -0.067038166388678266 -0.01550961869959909 0 -0.067181985075652359 -0.016821622114807346 0 -0.064994998198845369 -0.016232625361716543 0 -0.067038166388678266 -0.01550961869959909 0 -0.06352298296989288 -0.014041641278050212 0 -0.063071297051710065 -0.013347903994671876 0 -0.061970352214076985 -0.013281211638319102 0 -0.061047168965144068 -0.013723918270734041 0 -0.06352298296989288 -0.014041641278050212 0 -0.061970352214076985 -0.013281211638319102 0 -0.061047168965144068 -0.013723918270734041 0 -0.061742412080822116 -0.014521998687845462 0 -0.06352298296989288 -0.014041641278050212 0 -0.067038166388678266 -0.01550961869959909 0 -0.06352298296989288 -0.014041641278050212 0 -0.06413196618582058 -0.013920698306474492 0 -0.071804183186426021 -0.016279880140682119 0 -0.071064791860833462 -0.01575370384896272 0 -0.07287900258512757 -0.017042667500171846 0 -0.071064791860833462 -0.01575370384896272 0 -0.073149827571133433 -0.01742086739905601 0 -0.07287900258512757 -0.017042667500171846 0 -0.067093366882057887 -0.016224094636061125 0 -0.067241653764047948 -0.016494240169023702 0 -0.06413196618582058 -0.013920698306474492 0 -0.063071297051710065 -0.013347903994671876 0 -0.062666493052970854 -0.012922695138117918 0 -0.06352298296989288 -0.014041641278050212 0 -0.06413196618582058 -0.013920698306474492 0 -0.063071297051710065 -0.013347903994671876 0 -0.063071297051710065 -0.013347903994671876 0 -0.062686351342442229 -0.013293078342235958 0 -0.062666493052970854 -0.012922695138117918 0 -0.063071297051710065 -0.013347903994671876 0 -0.062686351342442229 -0.013293078342235958 0 -0.062229492944739472 -0.013027278597836067 0 -0.062686351342442229 -0.013293078342235958 0 -0.062666493052970854 -0.012922695138117918 0 -0.062455423264185593 -0.013660098877341448 0 -0.062666493052970854 -0.012922695138117918 0 -0.062455423264185593 -0.013660098877341448 0 -0.061575354101083425 -0.014932751109230331 0 -0.062455423264185593 -0.013660098877341448 0 -0.06206037149454284 -0.014060249434919127 0 -0.062092301878280701 -0.013454861572756053 0 -0.062455423264185593 -0.013660098877341448 0 -0.06206037149454284 -0.014060249434919127 0 -0.061575354101083425 -0.014932751109230331 0 -0.062686351342442229 -0.013293078342235958 0 -0.062353066923203422 -0.013233651257754206 0 -0.062229492944739472 -0.013027278597836067 0 -0.062686351342442229 -0.013293078342235958 0 -0.062455423264185593 -0.013660098877341448 0 -0.062353066923203422 -0.013233651257754206 0 -0.062455423264185593 -0.013660098877341448 0 -0.062353066923203422 -0.013233651257754206 0 -0.062092301878280701 -0.013454861572756053 0 -0.062353066923203422 -0.013233651257754206 0 -0.061944954221230253 -0.012744265901849431 0 -0.062092301878280701 -0.013454861572756053 0 -0.0617566687988906 -0.012594851908631941 0 -0.062229492944739472 -0.013027278597836067 0 -0.061944954221230253 -0.012744265901849431 0 -0.062353066923203422 -0.013233651257754206 0 -0.062229492944739472 -0.013027278597836067 0 -0.061944954221230253 -0.012744265901849431 0 -0.0617566687988906 -0.012594851908631941 0 -0.062229492944739472 -0.013027278597836067 0 -0.061081907289873748 -0.012651857891077593 0 -0.062229492944739472 -0.013027278597836067 0 -0.061970352214076985 -0.013281211638319102 0 -0.061081907289873748 -0.012651857891077593 0 -0.063071297051710065 -0.013347903994671876 0 -0.062229492944739472 -0.013027278597836067 0 -0.061970352214076985 -0.013281211638319102 0 -0.05981205466507112 -0.012818875093606288 0 -0.061970352214076985 -0.013281211638319102 0 -0.061081907289873748 -0.012651857891077593 0 -0.061047168965144068 -0.013723918270734041 0 -0.05981205466507112 -0.012818875093606288 0 -0.061970352214076985 -0.013281211638319102 0 -0.058692352903836079 -0.011574383081667071 0 -0.05981205466507112 -0.012818875093606288 0 -0.061081907289873748 -0.012651857891077593 0 -0.058692352903836079 -0.011574383081667071 0 -0.061081907289873748 -0.012651857891077593 0 -0.061613194922577767 -0.011988113821787303 0 -0.0617566687988906 -0.012594851908631941 0 -0.061081907289873748 -0.012651857891077593 0 -0.061613194922577767 -0.011988113821787303 0 -0.058692352903836079 -0.011574383081667071 0 -0.061613194922577767 -0.011988113821787303 0 -0.060551895160850071 -0.010521921490883473 0 -0.055767591536551905 -0.013203080334069164 0 -0.054373372424826136 -0.014658643397512435 0 -0.061613194922577767 -0.011988113821787303 0 -0.062061177657805666 -0.012600047750218293 0 -0.06173519576696835 -0.012662436350846238 0 -0.054889318222480506 -0.01474046846942657 0 -0.054373372424826136 -0.014658643397512435 0 -0.061613194922577767 -0.011988113821787303 0 -0.061944954221230253 -0.012744265901849431 0 -0.06173519576696835 -0.012662436350846238 0 -0.0617566687988906 -0.012594851908631941 0 -0.061613194922577767 -0.011988113821787303 0 -0.061944954221230253 -0.012744265901849431 0 -0.061944954221230253 -0.012744265901849431 0 -0.06173519576696835 -0.012662436350846238 0 -0.061800800575751519 -0.013018816224931094 0 -0.06173519576696835 -0.012662436350846238 0 -0.061771661271186447 -0.013067010960974165 0 -0.061800800575751519 -0.013018816224931094 0 -0.061771661271186447 -0.013067010960974165 0 -0.061800800575751519 -0.013018816224931094 0 -0.061834028753763974 -0.013135346352334419 0 -0.049382272904489544 -0.021168846929450622 0 -0.048830615137454424 -0.020459994323796367 0 -0.048182773195211415 -0.021278308568598161 0 -0.054373372424826136 -0.014658643397512435 0 -0.055148751588145056 -0.017518870231533572 0 -0.062061177657805666 -0.012600047750218293 0 -0.06173519576696835 -0.012662436350846238 0 -0.061771661271186447 -0.013067010960974165 0 -0.051744475151141126 -0.015315327239572261 0 -0.054373372424826136 -0.014658643397512435 0 -0.049382272904489544 -0.021168846929450622 0 -0.048182773195211415 -0.021278308568598161 0 -0.048856937393830083 -0.022176535728399185 0 -0.048182773195211415 -0.021278308568598161 0 -0.048856937393830083 -0.022176535728399185 0 -0.047540960442099371 -0.022099113741638129 0 -0.061771661271186447 -0.013067010960974165 0 -0.061817901730361606 -0.013033110907141871 0 -0.061834028753763974 -0.013135346352334419 0 -0.055148751588145056 -0.017518870231533572 0 -0.055784336119833716 -0.02077493631908248 0 -0.048856937393830083 -0.022176535728399185 0 -0.047540960442099371 -0.022099113741638129 0 -0.048256812109067487 -0.022898403952323593 0 -0.047540960442099371 -0.022099113741638129 0 -0.047568075500267926 -0.02332272709451013 0 -0.048256812109067487 -0.022898403952323593 0 -0.048856937393830083 -0.022176535728399185 0 -0.048256812109067487 -0.022898403952323593 0 -0.049218544008747277 -0.023421677981101952 0 -0.057912107430200616 -0.022615840845642072 0 -0.055088157016098697 -0.027486312477156254 0 -0.059873798910216429 -0.03365609905027938 0 -0.06253329923714189 -0.029689804099964599 0 -0.058546674290290493 -0.031372456706508171 0 -0.059873798910216429 -0.03365609905027938 0 -0.06253329923714189 -0.029689804099964599 0 -0.062757885681344536 -0.034240389574061766 0 -0.061817901730361606 -0.013033110907141871 0 -0.061979192403351112 -0.013042843444419066 0 -0.061904366632044051 -0.012957418109248817 0 -0.055784336119833716 -0.02077493631908248 0 -0.055088157016098697 -0.027486312477156254 0 -0.047540960442099371 -0.022099113741638129 0 -0.047568075500267926 -0.02332272709451013 0 -0.046898413972724373 -0.022923224451323047 0 -0.061817901730361606 -0.013033110907141871 0 -0.061979192403351112 -0.013042843444419066 0 -0.061834028753763974 -0.013135346352334419 0 -0.057912107430200616 -0.022615840845642072 0 -0.059162335462229439 -0.019401144184756827 0 -0.06253329923714189 -0.029689804099964599 0 -0.063084833579953231 -0.023895135341003893 0 -0.059356580994654448 -0.027503272200290287 0 -0.062176814046135523 -0.013368823077872023 0 -0.061834028753763974 -0.013135346352334419 0 -0.061912014800720304 -0.013405582524416411 0 -0.061979192403351112 -0.013042843444419066 0 -0.062176814046135523 -0.013368823077872023 0 -0.061834028753763974 -0.013135346352334419 0 -0.061800800575751519 -0.013018816224931094 0 -0.061834028753763974 -0.013135346352334419 0 -0.061912014800720304 -0.013405582524416411 0 -0.061800800575751519 -0.013018816224931094 0 -0.061912014800720304 -0.013405582524416411 0 -0.062092301878280701 -0.013454861572756053 0 -0.061912014800720304 -0.013405582524416411 0 -0.062092301878280701 -0.013454861572756053 0 -0.06195233665515304 -0.013922198426629544 0 -0.061944954221230253 -0.012744265901849431 0 -0.061800800575751519 -0.013018816224931094 0 -0.062092301878280701 -0.013454861572756053 0 -0.059162335462229439 -0.019401144184756827 0 -0.059367857329220536 -0.017783460028896317 0 -0.062176814046135523 -0.013368823077872023 0 -0.06195233665515304 -0.013922198426629544 0 -0.061575354101083425 -0.014932751109230331 0 -0.062176814046135523 -0.013368823077872023 0 -0.061912014800720304 -0.013405582524416411 0 -0.06195233665515304 -0.013922198426629544 0 -0.06206037149454284 -0.014060249434919127 0 -0.062092301878280701 -0.013454861572756053 0 -0.06195233665515304 -0.013922198426629544 0 -0.06206037149454284 -0.014060249434919127 0 -0.06195233665515304 -0.013922198426629544 0 -0.061575354101083425 -0.014932751109230331 0 -0.059905352273569586 -0.02118171956997494 0 -0.061575354101083425 -0.014932751109230331 0 -0.059618680234025584 -0.014904367361099406 0 -0.063084833579953231 -0.023895135341003893 0 -0.059905352273569586 -0.02118171956997494 0 -0.061575354101083425 -0.014932751109230331 0 -0.059905352273569586 -0.02118171956997494 0 -0.054644375331664552 -0.026130751517103756 0 -0.059618680234025584 -0.014904367361099406 0 -0.065385620248051626 -0.021942106621580651 0 -0.066585811421319238 -0.018434252723841353 0 -0.073639324844246956 -0.01975252792851866 0 -0.073665444879792027 -0.020397440569575872 0 -0.073953483635833914 -0.019210791120213566 0 -0.063084833579953231 -0.023895135341003893 0 -0.059905352273569586 -0.02118171956997494 0 -0.059356580994654448 -0.027503272200290287 0 -0.059905352273569586 -0.02118171956997494 0 -0.054644375331664552 -0.026130751517103756 0 -0.059356580994654448 -0.027503272200290287 0 -0.059356580994654448 -0.027503272200290287 0 -0.056986746943336219 -0.029756905041482217 0 -0.058546674290290493 -0.031372456706508171 0 -0.06253329923714189 -0.029689804099964599 0 -0.059356580994654448 -0.027503272200290287 0 -0.058546674290290493 -0.031372456706508171 0 -0.054644375331664552 -0.026130751517103756 0 -0.059356580994654448 -0.027503272200290287 0 -0.056986746943336219 -0.029756905041482217 0 -0.054644375331664552 -0.026130751517103756 0 -0.056378680390750412 -0.030143315240869301 0 -0.056986746943336219 -0.029756905041482217 0 -0.054644375331664552 -0.026130751517103756 0 -0.056378680390750412 -0.030143315240869301 0 -0.057947555074826372 -0.031839528613052413 0 -0.056378680390750412 -0.030143315240869301 0 -0.056986746943336219 -0.029756905041482217 0 -0.055609127020113586 -0.031895907212102947 0 -0.056378680390750412 -0.030143315240869301 0 -0.055609127020113586 -0.031895907212102947 0 -0.057947555074826372 -0.031839528613052413 0 -0.059873798910216429 -0.03365609905027938 0 -0.058546674290290493 -0.031372456706508171 0 -0.057247342191542532 -0.0350668120456675 0 -0.055609127020113586 -0.031895907212102947 0 -0.058546674290290493 -0.031372456706508171 0 -0.057247342191542532 -0.0350668120456675 0 -0.056986746943336219 -0.029756905041482217 0 -0.055609127020113586 -0.031895907212102947 0 -0.058546674290290493 -0.031372456706508171 0 -0.071418221619544225 -0.023394928071421402 0 -0.071164196157999474 -0.024004314076472921 0 -0.069189822440730839 -0.022631520670057911 0 -0.071650679134492828 -0.020754848171615249 0 -0.064826888897059884 -0.02242975632111022 0 -0.066899722003141912 -0.02400913768645142 0 -0.069189822440730839 -0.022631520670057911 0 -0.064826888897059884 -0.02242975632111022 0 -0.066899722003141912 -0.02400913768645142 0 -0.064826888897059884 -0.02242975632111022 0 -0.06486958638780535 -0.02481765695860999 0 -0.069189822440730839 -0.022631520670057911 0 -0.072209480992861633 -0.021321163885086789 0 -0.064326231601850289 -0.026586040899932859 0 -0.055609127020113586 -0.031895907212102947 0 -0.057947555074826372 -0.031839528613052413 0 -0.062158799375010912 -0.026815404499871517 0 -0.069189822440730839 -0.022631520670057911 0 -0.072209480992861633 -0.021321163885086789 0 -0.071650679134492828 -0.020754848171615249 0 -0.073665444879792027 -0.020397440569575872 0 -0.072209480992861633 -0.021321163885086789 0 -0.072826780784023354 -0.020600940609402398 0 -0.072209480992861633 -0.021321163885086789 0 -0.071650679134492828 -0.020754848171615249 0 -0.072826780784023354 -0.020600940609402398 0 -0.065385620248051626 -0.021942106621580651 0 -0.065031395884389803 -0.024190283637807179 0 -0.071650679134492828 -0.020754848171615249 0 -0.073309780261928761 -0.020724737705295548 0 -0.074139771325354167 -0.019407030437118139 0 -0.071650679134492828 -0.020754848171615249 0 -0.073309780261928761 -0.020724737705295548 0 -0.072826780784023354 -0.020600940609402398 0 -0.073309780261928761 -0.020724737705295548 0 -0.073817208866736386 -0.020939990535106975 0 -0.074588541496382554 -0.02112280475638029 0 -0.073309780261928761 -0.020724737705295548 0 -0.073817208866736386 -0.020939990535106975 0 -0.072826780784023354 -0.020600940609402398 0 -0.073817208866736386 -0.020939990535106975 0 -0.072826780784023354 -0.020600940609402398 0 -0.073460085760203672 -0.020351945034980799 0 -0.073665444879792027 -0.020397440569575872 0 -0.072826780784023354 -0.020600940609402398 0 -0.073460085760203672 -0.020351945034980799 0 -0.073639324844246956 -0.01975252792851866 0 -0.073460085760203672 -0.020351945034980799 0 -0.073853473986303445 -0.019835905091798466 0 -0.073639324844246956 -0.01975252792851866 0 -0.073665444879792027 -0.020397440569575872 0 -0.073460085760203672 -0.020351945034980799 0 -0.073817208866736386 -0.020939990535106975 0 -0.073460085760203672 -0.020351945034980799 0 -0.074231621617198054 -0.02063702218773654 0 -0.073817208866736386 -0.020939990535106975 0 -0.074231621617198054 -0.02063702218773654 0 -0.075002665693807091 -0.021547460862456638 0 -0.073460085760203672 -0.020351945034980799 0 -0.074231621617198054 -0.02063702218773654 0 -0.073853473986303445 -0.019835905091798466 0 -0.074231621617198054 -0.02063702218773654 0 -0.074317978319058481 -0.019750420072170882 0 -0.073853473986303445 -0.019835905091798466 0 -0.074317978319058481 -0.019750420072170882 0 -0.073779370853636173 -0.019060777446473259 0 -0.073853473986303445 -0.019835905091798466 0 -0.074317978319058481 -0.019750420072170882 0 -0.073779370853636173 -0.019060777446473259 0 -0.073791516204915739 -0.018441588389665014 0 -0.074317978319058481 -0.019750420072170882 0 -0.073791516204915739 -0.018441588389665014 0 -0.074405175102214449 -0.01893644075969015 0 -0.073779370853636173 -0.019060777446473259 0 -0.073480377437783267 -0.018202365997931562 0 -0.073791516204915739 -0.018441588389665014 0 -0.073779370853636173 -0.019060777446473259 0 -0.073853473986303445 -0.019835905091798466 0 -0.07362508705904415 -0.01911304089521736 0 -0.073639324844246956 -0.01975252792851866 0 -0.073853473986303445 -0.019835905091798466 0 -0.07362508705904415 -0.01911304089521736 0 -0.07362508705904415 -0.01911304089521736 0 -0.073953483635833914 -0.019210791120213566 0 -0.073453802279051031 -0.018215589944448194 0 -0.073639324844246956 -0.01975252792851866 0 -0.07362508705904415 -0.01911304089521736 0 -0.073953483635833914 -0.019210791120213566 0 -0.067241653764047948 -0.016494240169023702 0 -0.066585811421319238 -0.018434252723841353 0 -0.062666493052970854 -0.012922695138117918 0 -0.061575354101083425 -0.014932751109230331 0 -0.059618680234025584 -0.014904367361099406 0 -0.073149827571133433 -0.01742086739905601 0 -0.073953483635833914 -0.019210791120213566 0 -0.073453802279051031 -0.018215589944448194 0 -0.07362508705904415 -0.01911304089521736 0 -0.073453802279051031 -0.018215589944448194 0 -0.073480377437783267 -0.018202365997931562 0 -0.073779370853636173 -0.019060777446473259 0 -0.07362508705904415 -0.01911304089521736 0 -0.073480377437783267 -0.018202365997931562 0 -0.073453802279051031 -0.018215589944448194 0 -0.073480377437783267 -0.018202365997931562 0 -0.07287900258512757 -0.017042667500171846 0 -0.073480377437783267 -0.018202365997931562 0 -0.07287900258512757 -0.017042667500171846 0 -0.073397923789591299 -0.017685844833897416 0 -0.073149827571133433 -0.01742086739905601 0 -0.073453802279051031 -0.018215589944448194 0 -0.07287900258512757 -0.017042667500171846 0 -0.0731016539464453 -0.017136581144982548 0 -0.07287900258512757 -0.017042667500171846 0 -0.073397923789591299 -0.017685844833897416 0 -0.0731016539464453 -0.017136581144982548 0 -0.073397923789591299 -0.017685844833897416 0 -0.073781754770559635 -0.01793353650716642 0 -0.073781754770559635 -0.01793353650716642 0 -0.073791516204915739 -0.018441588389665014 0 -0.074405175102214449 -0.01893644075969015 0 -0.073397923789591299 -0.017685844833897416 0 -0.073781754770559635 -0.01793353650716642 0 -0.073791516204915739 -0.018441588389665014 0 -0.073480377437783267 -0.018202365997931562 0 -0.073397923789591299 -0.017685844833897416 0 -0.073791516204915739 -0.018441588389665014 0 -0.075132002825172309 -0.019382764611257857 0 -0.074541082190142716 -0.018446779511961688 0 -0.07508118535570843 -0.018677007376930219 0 -0.075132002825172309 -0.019382764611257857 0 -0.074405175102214449 -0.01893644075969015 0 -0.074541082190142716 -0.018446779511961688 0 -0.073781754770559635 -0.01793353650716642 0 -0.074405175102214449 -0.01893644075969015 0 -0.074541082190142716 -0.018446779511961688 0 -0.074042574829294341 -0.017803272791595208 0 -0.073781754770559635 -0.01793353650716642 0 -0.074541082190142716 -0.018446779511961688 0 -0.074612568532302498 -0.017751270328536312 0 -0.074541082190142716 -0.018446779511961688 0 -0.07508118535570843 -0.018677007376930219 0 -0.075206316324444272 -0.017823282131975017 0 -0.07508118535570843 -0.018677007376930219 0 -0.075343758428504382 -0.01887237446994813 0 -0.075206316324444272 -0.017823282131975017 0 -0.074612568532302498 -0.017751270328536312 0 -0.07508118535570843 -0.018677007376930219 0 -0.075206316324444272 -0.017823282131975017 0 -0.075343758428504382 -0.01887237446994813 0 -0.075182067110740741 -0.018348250214233482 0 -0.075343758428504382 -0.01887237446994813 0 -0.075736637436277163 -0.020439701663073306 0 -0.075240857673343764 -0.019261729256825736 0 -0.075343758428504382 -0.01887237446994813 0 -0.075458215855504121 -0.019627050751373169 0 -0.075736637436277163 -0.020439701663073306 0 -0.075343758428504382 -0.01887237446994813 0 -0.075240857673343764 -0.019261729256825736 0 -0.075182067110740741 -0.018348250214233482 0 -0.07508118535570843 -0.018677007376930219 0 -0.075343758428504382 -0.01887237446994813 0 -0.075458215855504121 -0.019627050751373169 0 -0.075132002825172309 -0.019382764611257857 0 -0.07508118535570843 -0.018677007376930219 0 -0.075458215855504121 -0.019627050751373169 0 -0.075458215855504121 -0.019627050751373169 0 -0.075746793015280867 -0.020688257910117122 0 -0.075736637436277163 -0.020439701663073306 0 -0.075132002825172309 -0.019382764611257857 0 -0.075458215855504121 -0.019627050751373169 0 -0.075746793015280867 -0.020688257910117122 0 -0.075736637436277163 -0.020439701663073306 0 -0.075998614046898241 -0.022120006422617307 0 -0.075491498245010696 -0.02053584985504547 0 -0.075736637436277163 -0.020439701663073306 0 -0.076248676301839485 -0.022056604328341226 0 -0.075998614046898241 -0.022120006422617307 0 -0.075746793015280867 -0.020688257910117122 0 -0.075736637436277163 -0.020439701663073306 0 -0.076248676301839485 -0.022056604328341226 0 -0.075746793015280867 -0.020688257910117122 0 -0.076248676301839485 -0.022056604328341226 0 -0.075780243561905533 -0.021376337061892004 0 -0.075746793015280867 -0.020688257910117122 0 -0.075780243561905533 -0.021376337061892004 0 -0.075126130846977709 -0.020184890809761467 0 -0.075780243561905533 -0.021376337061892004 0 -0.075126130846977709 -0.020184890809761467 0 -0.075094122582326603 -0.020969036486976223 0 -0.075132002825172309 -0.019382764611257857 0 -0.075746793015280867 -0.020688257910117122 0 -0.075126130846977709 -0.020184890809761467 0 -0.075132002825172309 -0.019382764611257857 0 -0.074405175102214449 -0.01893644075969015 0 -0.075126130846977709 -0.020184890809761467 0 -0.074317978319058481 -0.019750420072170882 0 -0.074405175102214449 -0.01893644075969015 0 -0.075126130846977709 -0.020184890809761467 0 -0.074317978319058481 -0.019750420072170882 0 -0.075126130846977709 -0.020184890809761467 0 -0.075094122582326603 -0.020969036486976223 0 -0.074231621617198054 -0.02063702218773654 0 -0.074317978319058481 -0.019750420072170882 0 -0.075094122582326603 -0.020969036486976223 0 -0.075094122582326603 -0.020969036486976223 0 -0.075002665693807091 -0.021547460862456638 0 -0.075791498474557434 -0.021893425384255205 0 -0.074231621617198054 -0.02063702218773654 0 -0.075094122582326603 -0.020969036486976223 0 -0.075002665693807091 -0.021547460862456638 0 -0.075791498474557434 -0.021893425384255205 0 -0.076355614303729391 -0.022434306484887083 0 -0.07645047571808665 -0.022766389531143693 0 -0.075780243561905533 -0.021376337061892004 0 -0.075791498474557434 -0.021893425384255205 0 -0.07645047571808665 -0.022766389531143693 0 -0.075780243561905533 -0.021376337061892004 0 -0.075094122582326603 -0.020969036486976223 0 -0.075791498474557434 -0.021893425384255205 0 -0.075002665693807091 -0.021547460862456638 0 -0.075791498474557434 -0.021893425384255205 0 -0.076355614303729391 -0.022434306484887083 0 -0.073817208866736386 -0.020939990535106975 0 -0.075002665693807091 -0.021547460862456638 0 -0.074588541496382554 -0.02112280475638029 0 -0.075002665693807091 -0.021547460862456638 0 -0.076355614303729391 -0.022434306484887083 0 -0.074588541496382554 -0.02112280475638029 0 -0.073309780261928761 -0.020724737705295548 0 -0.074588541496382554 -0.02112280475638029 0 -0.074139771325354167 -0.019407030437118139 0 -0.074588541496382554 -0.02112280475638029 0 -0.075837757496972261 -0.020404746557308954 0 -0.074139771325354167 -0.019407030437118139 0 -0.076355614303729391 -0.022434306484887083 0 -0.074588541496382554 -0.02112280475638029 0 -0.075837757496972261 -0.020404746557308954 0 -0.076355614303729391 -0.022434306484887083 0 -0.075837757496972261 -0.020404746557308954 0 -0.077702778473739395 -0.020298956170055383 0 -0.076916164140539034 -0.024713084864938388 0 -0.076706413998450809 -0.025436366352158801 0 -0.075837757496972261 -0.020404746557308954 0 -0.076494024135623742 -0.018841943930669527 0 -0.077702778473739395 -0.020298956170055383 0 -0.071790887249763749 -0.025812806884063736 0 -0.071164196157999474 -0.024004314076472921 0 -0.075837757496972261 -0.020404746557308954 0 -0.076494024135623742 -0.018841943930669527 0 -0.074139771325354167 -0.019407030437118139 0 -0.063437778313822052 -0.023758185222300405 0 -0.064826888897059884 -0.02242975632111022 0 -0.06407486767265784 -0.024634340205247105 0 -0.064826888897059884 -0.02242975632111022 0 -0.06486958638780535 -0.02481765695860999 0 -0.06407486767265784 -0.024634340205247105 0 -0.074554480780520224 -0.029491052247837296 0 -0.07642796308794729 -0.029987825690691586 0 -0.081655753283511226 -0.034336126626799184 0 -0.084940687834181294 -0.033375405958070314 0 -0.078101949899440734 -0.028344993016653851 0 -0.077167300406693451 -0.025688201092706937 0 -0.077230337892714135 -0.026309281197042216 0 -0.078101949899440734 -0.028344993016653851 0 -0.075645128254133942 -0.029483382004579218 0 -0.074554480780520224 -0.029491052247837296 0 -0.071790887249763749 -0.025812806884063736 0 -0.074554480780520224 -0.029491052247837296 0 -0.077167300406693451 -0.025688201092706937 0 -0.077080212649688062 -0.025526240569965095 0 -0.077230337892714135 -0.026309281197042216 0 -0.074554480780520224 -0.029491052247837296 0 -0.076706413998450809 -0.025436366352158801 0 -0.076494024135623742 -0.018841943930669527 0 -0.07903230176083105 -0.0184759916590445 0 -0.077702778473739395 -0.020298956170055383 0 -0.076355614303729391 -0.022434306484887083 0 -0.077080212649688062 -0.025526240569965095 0 -0.076879942059932566 -0.02447240889673467 0 -0.077080212649688062 -0.025526240569965095 0 -0.077230337892714135 -0.026309281197042216 0 -0.076879942059932566 -0.02447240889673467 0 -0.077230337892714135 -0.026309281197042216 0 -0.077214144575446689 -0.026026387022417535 0 -0.078101949899440734 -0.028344993016653851 0 -0.077230337892714135 -0.026309281197042216 0 -0.077214144575446689 -0.026026387022417535 0 -0.076879942059932566 -0.02447240889673467 0 -0.077214144575446689 -0.026026387022417535 0 -0.076700967442262097 -0.024019174822728095 0 -0.076835572835304233 -0.026126725744054537 0 -0.077214144575446689 -0.026026387022417535 0 -0.076879942059932566 -0.02447240889673467 0 -0.076700967442262097 -0.024019174822728095 0 -0.076879942059932566 -0.02447240889673467 0 -0.07645047571808665 -0.022766389531143693 0 -0.076700967442262097 -0.024019174822728095 0 -0.076355614303729391 -0.022434306484887083 0 -0.076879942059932566 -0.02447240889673467 0 -0.07645047571808665 -0.022766389531143693 0 -0.076248676301839485 -0.022056604328341226 0 -0.07645047571808665 -0.022766389531143693 0 -0.076700967442262097 -0.024019174822728095 0 -0.076248676301839485 -0.022056604328341226 0 -0.075780243561905533 -0.021376337061892004 0 -0.07645047571808665 -0.022766389531143693 0 -0.076248676301839485 -0.022056604328341226 0 -0.076700967442262097 -0.024019174822728095 0 -0.075998614046898241 -0.022120006422617307 0 -0.076700967442262097 -0.024019174822728095 0 -0.075808076209814987 -0.024355820585935037 0 -0.076835572835304233 -0.026126725744054537 0 -0.076700967442262097 -0.024019174822728095 0 -0.075808076209814987 -0.024355820585935037 0 -0.075998614046898241 -0.022120006422617307 0 -0.075808076209814987 -0.024355820585935037 0 -0.075847545548484441 -0.027679763573478278 0 -0.073366622684662278 -0.024698724634459164 0 -0.075808076209814987 -0.024355820585935037 0 -0.073366622684662278 -0.024698724634459164 0 -0.074720295343571483 -0.023048488480766332 0 -0.075847545548484441 -0.027679763573478278 0 -0.076835572835304233 -0.026126725744054537 0 -0.078101949899440734 -0.028344993016653851 0 -0.075808076209814987 -0.024355820585935037 0 -0.075847545548484441 -0.027679763573478278 0 -0.076835572835304233 -0.026126725744054537 0 -0.077214144575446689 -0.026026387022417535 0 -0.076835572835304233 -0.026126725744054537 0 -0.078101949899440734 -0.028344993016653851 0 -0.078101949899440734 -0.028344993016653851 0 -0.075917294431405394 -0.030644818645311152 0 -0.076805640324545246 -0.032747346272510573 0 -0.075847545548484441 -0.027679763573478278 0 -0.075917294431405394 -0.030644818645311152 0 -0.074642250826454024 -0.030394495123502247 0 -0.075847545548484441 -0.027679763573478278 0 -0.078101949899440734 -0.028344993016653851 0 -0.075917294431405394 -0.030644818645311152 0 -0.076805640324545246 -0.032747346272510573 0 -0.075185271829661379 -0.033262671043510869 0 -0.075821814991972256 -0.03548570865835525 0 -0.075917294431405394 -0.030644818645311152 0 -0.076805640324545246 -0.032747346272510573 0 -0.075185271829661379 -0.033262671043510869 0 -0.076805640324545246 -0.032747346272510573 0 -0.075821814991972256 -0.03548570865835525 0 -0.076900869000002606 -0.035750646843724088 0 -0.076805640324545246 -0.032747346272510573 0 -0.078133760054929155 -0.035084009783701312 0 -0.076900869000002606 -0.035750646843724088 0 -0.078101949899440734 -0.028344993016653851 0 -0.076805640324545246 -0.032747346272510573 0 -0.078695904593690427 -0.033309747927447453 0 -0.081655753283511226 -0.034336126626799184 0 -0.078101949899440734 -0.028344993016653851 0 -0.078695904593690427 -0.033309747927447453 0 -0.076805640324545246 -0.032747346272510573 0 -0.078695904593690427 -0.033309747927447453 0 -0.078133760054929155 -0.035084009783701312 0 -0.07518038891973633 -0.036251978736252882 0 -0.075185271829661379 -0.033262671043510869 0 -0.074992537870447643 -0.035024590239923034 0 -0.07518038891973633 -0.036251978736252882 0 -0.074992537870447643 -0.035024590239923034 0 -0.075000593371690072 -0.037772838247919389 0 -0.07518038891973633 -0.036251978736252882 0 -0.075185271829661379 -0.033262671043510869 0 -0.075821814991972256 -0.03548570865835525 0 -0.075185271829661379 -0.033262671043510869 0 -0.074642250826454024 -0.030394495123502247 0 -0.074992537870447643 -0.035024590239923034 0 -0.075917294431405394 -0.030644818645311152 0 -0.075185271829661379 -0.033262671043510869 0 -0.074642250826454024 -0.030394495123502247 0 -0.075000009048029018 -0.035029253549446956 0 -0.076641864353835742 -0.031913187851140772 0 -0.07499997854262544 -0.0325543242043781 0 -0.074999724075575785 -0.035022867260899648 0 -0.075706583113831938 -0.030574097231465553 0 -0.074642250826454024 -0.030394495123502247 0 -0.074992537870447643 -0.035024590239923034 0 -0.073114800126339904 -0.029265062934082327 0 -0.076641864353835742 -0.031913187851140772 0 -0.07499997854262544 -0.0325543242043781 0 -0.07500001024517787 -0.030079517686507677 0 -0.075847545548484441 -0.027679763573478278 0 -0.074642250826454024 -0.030394495123502247 0 -0.073366622684662278 -0.024698724634459164 0 -0.074642250826454024 -0.030394495123502247 0 -0.073114800126339904 -0.029265062934082327 0 -0.073366622684662278 -0.024698724634459164 0 -0.075706583113831938 -0.030574097231465553 0 -0.076140341744862325 -0.027164808576025903 0 -0.076641864353835742 -0.031913187851140772 0 -0.07500001024517787 -0.030079517686507677 0 -0.076394875276405566 -0.028964841023166502 0 -0.076641864353835742 -0.031913187851140772 0 -0.078241213699733303 -0.02883683538530692 0 -0.076394875276405566 -0.028964841023166502 0 -0.074999200817890493 -0.030095448862588838 0 -0.076149836752768318 -0.027537210104399312 0 -0.07500001024517787 -0.030079517686507677 0 -0.076394875276405566 -0.028964841023166502 0 -0.075215355010602766 -0.027642157892597392 0 -0.078241213699733303 -0.02883683538530692 0 -0.076394875276405566 -0.028964841023166502 0 -0.077099349907277528 -0.027210435205594675 0 -0.075215355010602766 -0.027642157892597392 0 -0.077099349907277528 -0.027210435205594675 0 -0.07542005610069788 -0.025223002737025896 0 -0.076149836752768318 -0.027537210104399312 0 -0.075126006121853869 -0.024825291120660887 0 -0.074792430956174341 -0.027588392194726166 0 -0.074999799102480613 -0.025041428513327628 0 -0.075394604128317347 -0.025097766825130336 0 -0.076394875276405566 -0.028964841023166502 0 -0.075215355010602766 -0.027642157892597392 0 -0.077099349907277528 -0.027210435205594675 0 -0.077099349907277528 -0.027210435205594675 0 -0.07542005610069788 -0.025223002737025896 0 -0.077628380781394807 -0.025522192421977775 0 -0.074028433652000111 -0.019530543892393316 0 -0.074394518485183941 -0.019218729468853359 0 -0.074266825001782139 -0.018716289141916483 0 -0.075126006121853869 -0.024825291120660887 0 -0.07521152293855754 -0.021705556165792415 0 -0.075000399758767974 -0.025041959481174138 0 -0.075415019931942051 -0.025097744934458707 0 -0.075739520817963243 -0.021935939485283707 0 -0.075001395623685296 -0.025037507643126639 0 -0.075126006121853869 -0.024825291120660887 0 -0.075126006121853869 -0.024825291120660887 0 -0.075713867602842322 -0.0246376189488881 0 -0.074028433652000111 -0.019530543892393316 0 -0.074394518485183941 -0.019218729468853359 0 -0.074447965310903516 -0.019605145076158993 0 -0.074521656307497797 -0.019594134329591555 0 -0.074574328089160036 -0.019487802170990179 0 -0.074554137128686401 -0.019135450239958104 0 -0.074394518485183941 -0.019218729468853359 0 -0.074521656307497797 -0.019594134329591555 0 -0.074554137128686401 -0.019135450239958104 0 -0.074394518485183941 -0.019218729468853359 0 -0.074521656307497797 -0.019594134329591555 0 -0.074447965310903516 -0.019605145076158993 0 -0.075713867602842322 -0.0246376189488881 0 -0.076203896048635214 -0.024845110268585099 0 -0.074521656307497797 -0.019594134329591555 0 -0.074447965310903516 -0.019605145076158993 0 -0.074528928558152435 -0.019767128002902808 0 -0.077099349907277528 -0.027210435205594675 0 -0.077628380781394807 -0.025522192421977775 0 -0.07983285519269287 -0.025817223045889171 0 -0.078241213699733303 -0.02883683538530692 0 -0.077099349907277528 -0.027210435205594675 0 -0.07983285519269287 -0.025817223045889171 0 -0.076140341744862325 -0.027164808576025903 0 -0.076203896048635214 -0.024845110268585099 0 -0.075808076209814987 -0.024355820585935037 0 -0.074720295343571483 -0.023048488480766332 0 -0.075238592084456185 -0.021405105900924377 0 -0.073366622684662278 -0.024698724634459164 0 -0.074720295343571483 -0.023048488480766332 0 -0.074049680302392631 -0.021636002187875432 0 -0.074720295343571483 -0.023048488480766332 0 -0.075238592084456185 -0.021405105900924377 0 -0.074049680302392631 -0.021636002187875432 0 -0.075833958307594124 -0.024508329347501842 0 -0.076203896048635214 -0.024845110268585099 0 -0.075808076209814987 -0.024355820585935037 0 -0.075998614046898241 -0.022120006422617307 0 -0.075238592084456185 -0.021405105900924377 0 -0.075998614046898241 -0.022120006422617307 0 -0.075238592084456185 -0.021405105900924377 0 -0.075491498245010696 -0.02053584985504547 0 -0.075238592084456185 -0.021405105900924377 0 -0.075491498245010696 -0.02053584985504547 0 -0.075095257240754693 -0.019829253020435242 0 -0.075491498245010696 -0.02053584985504547 0 -0.075095257240754693 -0.019829253020435242 0 -0.075240857673343764 -0.019261729256825736 0 -0.075736637436277163 -0.020439701663073306 0 -0.075491498245010696 -0.02053584985504547 0 -0.075240857673343764 -0.019261729256825736 0 -0.074521656307497797 -0.019594134329591555 0 -0.074465007558694132 -0.019975155060296856 0 -0.074528928558152435 -0.019767128002902808 0 -0.076259164105864946 -0.024581326206484025 0 -0.076203896048635214 -0.024845110268585099 0 -0.075238592084456185 -0.021405105900924377 0 -0.074465007558694132 -0.019975155060296856 0 -0.07409977818560029 -0.020652339142377862 0 -0.075238592084456185 -0.021405105900924377 0 -0.075095257240754693 -0.019829253020435242 0 -0.074465007558694132 -0.019975155060296856 0 -0.075095257240754693 -0.019829253020435242 0 -0.074465007558694132 -0.019975155060296856 0 -0.074743348553754071 -0.019606737331667817 0 -0.074521656307497797 -0.019594134329591555 0 -0.074465007558694132 -0.019975155060296856 0 -0.074574328089160036 -0.019487802170990179 0 -0.074465007558694132 -0.019975155060296856 0 -0.074743348553754071 -0.019606737331667817 0 -0.074574328089160036 -0.019487802170990179 0 -0.074757139026495389 -0.01905028349899212 0 -0.075240857673343764 -0.019261729256825736 0 -0.074971838267352153 -0.018321061482040074 0 -0.074743348553754071 -0.019606737331667817 0 -0.074574328089160036 -0.019487802170990179 0 -0.074757139026495389 -0.01905028349899212 0 -0.074574328089160036 -0.019487802170990179 0 -0.074757139026495389 -0.01905028349899212 0 -0.074554137128686401 -0.019135450239958104 0 -0.075095257240754693 -0.019829253020435242 0 -0.074743348553754071 -0.019606737331667817 0 -0.074757139026495389 -0.01905028349899212 0 -0.074757139026495389 -0.01905028349899212 0 -0.074971838267352153 -0.018321061482040074 0 -0.074811720522785369 -0.018315613071588997 0 -0.075095257240754693 -0.019829253020435242 0 -0.074757139026495389 -0.01905028349899212 0 -0.075240857673343764 -0.019261729256825736 0 -0.075240857673343764 -0.019261729256825736 0 -0.075182067110740741 -0.018348250214233482 0 -0.074971838267352153 -0.018321061482040074 0 -0.07501168267009882 -0.017515145183959309 0 -0.075206316324444272 -0.017823282131975017 0 -0.075182067110740741 -0.018348250214233482 0 -0.07501168267009882 -0.017515145183959309 0 -0.075182067110740741 -0.018348250214233482 0 -0.074971838267352153 -0.018321061482040074 0 -0.074971838267352153 -0.018321061482040074 0 -0.074960637828929269 -0.017756870547528895 0 -0.074811720522785369 -0.018315613071588997 0 -0.07501168267009882 -0.017515145183959309 0 -0.074971838267352153 -0.018321061482040074 0 -0.074960637828929269 -0.017756870547528895 0 -0.074960637828929269 -0.017756870547528895 0 -0.07494360738141119 -0.017774413529221676 0 -0.074811720522785369 -0.018315613071588997 0 -0.07494360738141119 -0.017774413529221676 0 -0.074811720522785369 -0.018315613071588997 0 -0.074712155625681953 -0.018380469801428451 0 -0.074811720522785369 -0.018315613071588997 0 -0.074712155625681953 -0.018380469801428451 0 -0.074656256130975734 -0.018670441927768719 0 -0.075221940943483279 -0.018369859824373603 0 -0.074712155625681953 -0.018380469801428451 0 -0.074266825001782139 -0.018716289141916483 0 -0.075253234212384237 -0.020650989235315526 0 -0.07521152293855754 -0.021705556165792415 0 -0.075221940943483279 -0.018369859824373603 0 -0.07494360738141119 -0.017774413529221676 0 -0.074712155625681953 -0.018380469801428451 0 -0.075221940943483279 -0.018369859824373603 0 -0.074999383353582513 -0.020606758438065038 0 -0.075739520817963243 -0.021935939485283707 0 -0.074712155625681953 -0.018380469801428451 0 -0.074266825001782139 -0.018716289141916483 0 -0.074526630280950745 -0.018812515535323347 0 -0.075000399758767974 -0.025041959481174138 0 -0.074999383353582513 -0.020606758438065038 0 -0.075739520817963243 -0.021935939485283707 0 -0.074394518485183941 -0.019218729468853359 0 -0.074266825001782139 -0.018716289141916483 0 -0.074526630280950745 -0.018812515535323347 0 -0.074394518485183941 -0.019218729468853359 0 -0.074554137128686401 -0.019135450239958104 0 -0.074526630280950745 -0.018812515535323347 0 -0.074757139026495389 -0.01905028349899212 0 -0.074554137128686401 -0.019135450239958104 0 -0.074656256130975734 -0.018670441927768719 0 -0.074757139026495389 -0.01905028349899212 0 -0.074811720522785369 -0.018315613071588997 0 -0.074656256130975734 -0.018670441927768719 0 -0.074712155625681953 -0.018380469801428451 0 -0.074656256130975734 -0.018670441927768719 0 -0.074526630280950745 -0.018812515535323347 0 -0.074554137128686401 -0.019135450239958104 0 -0.074656256130975734 -0.018670441927768719 0 -0.074526630280950745 -0.018812515535323347 0 -0.077796162718676815 -0.054135484040820671 0 -0.079889798126795947 -0.05222653877807442 0 -0.077399543076952557 -0.050779573660023614 0 -0.077796162718676815 -0.054135484040820671 0 -0.074999673959231572 -0.053776479840902378 0 -0.077399543076952557 -0.050779573660023614 0 -0.074999673959231572 -0.053776479840902378 0 -0.077606314537580337 -0.057020987577422376 0 -0.074999980987679807 -0.058196143687203945 0 -0.077796162718676815 -0.054135484040820671 0 -0.074999673959231572 -0.053776479840902378 0 -0.077606314537580337 -0.057020987577422376 0 -0.077796162718676815 -0.054135484040820671 0 -0.080027555380033408 -0.056493473421152761 0 -0.077606314537580337 -0.057020987577422376 0 -0.080027555380033408 -0.056493473421152761 0 -0.080740144370639227 -0.055675236415226342 0 -0.081332370215110888 -0.056982413447059926 0 -0.077796162718676815 -0.054135484040820671 0 -0.080027555380033408 -0.056493473421152761 0 -0.079889798126795947 -0.05222653877807442 0 -0.080027555380033408 -0.056493473421152761 0 -0.080740144370639227 -0.055675236415226342 0 -0.079851631090837455 -0.055673872931118917 0 -0.079744702639098039 -0.054567066016703858 0 -0.07947312188162764 -0.053360978717700958 0 -0.079851631090837455 -0.055673872931118917 0 -0.080265167819237801 -0.05503312606007657 0 -0.079535033628635843 -0.054581649511130051 0 -0.080740144370639227 -0.055675236415226342 0 -0.079851631090837455 -0.055673872931118917 0 -0.080265167819237801 -0.05503312606007657 0 -0.07947312188162764 -0.053360978717700958 0 -0.07877623199678678 -0.050751226993005868 0 -0.080740144370639227 -0.055675236415226342 0 -0.080265167819237801 -0.05503312606007657 0 -0.08089892067979261 -0.0547063907626694 0 -0.080740144370639227 -0.055675236415226342 0 -0.08089892067979261 -0.0547063907626694 0 -0.08138030818263102 -0.055247434508772841 0 -0.078242485497350966 -0.045679613338915202 0 -0.076405857808059544 -0.043956263266753025 0 -0.080265167819237801 -0.05503312606007657 0 -0.08089892067979261 -0.0547063907626694 0 -0.080469897203362103 -0.054024124450500741 0 -0.08089892067979261 -0.0547063907626694 0 -0.080469897203362103 -0.054024124450500741 0 -0.081638045160873168 -0.054593470414935633 0 -0.080265167819237801 -0.05503312606007657 0 -0.079535033628635843 -0.054581649511130051 0 -0.080469897203362103 -0.054024124450500741 0 -0.079229178774007161 -0.048441400865516154 0 -0.077399543076952557 -0.050779573660023614 0 -0.076781744742502267 -0.047086533688501943 0 -0.079889798126795947 -0.05222653877807442 0 -0.079229178774007161 -0.048441400865516154 0 -0.077399543076952557 -0.050779573660023614 0 -0.074999673959231572 -0.053776479840902378 0 -0.077399543076952557 -0.050779573660023614 0 -0.074999928672756566 -0.04935604048240004 0 -0.074999928672756566 -0.04935604048240004 0 -0.076781744742502267 -0.047086533688501943 0 -0.074999887928331149 -0.044935777930395354 0 -0.077399543076952557 -0.050779573660023614 0 -0.074999928672756566 -0.04935604048240004 0 -0.076781744742502267 -0.047086533688501943 0 -0.076781744742502267 -0.047086533688501943 0 -0.076656216632930263 -0.045194874450039071 0 -0.074999887928331149 -0.044935777930395354 0 -0.076781744742502267 -0.047086533688501943 0 -0.076656216632930263 -0.045194874450039071 0 -0.07848485147596794 -0.044815622315776467 0 -0.076656216632930263 -0.045194874450039071 0 -0.074999887928331149 -0.044935777930395354 0 -0.07569125648971245 -0.043369534386294921 0 -0.07877623199678678 -0.050751226993005868 0 -0.077356572835926493 -0.045937718698239025 0 -0.079229178774007161 -0.048441400865516154 0 -0.076781744742502267 -0.047086533688501943 0 -0.07848485147596794 -0.044815622315776467 0 -0.079158684743152311 -0.044702277360203851 0 -0.078490455874447071 -0.041804072273650426 0 -0.07569125648971245 -0.043369534386294921 0 -0.078703136128201803 -0.039997936613865567 0 -0.078258697834619695 -0.040734820010584413 0 -0.077890546746833267 -0.039841316924177812 0 -0.078703136128201803 -0.039997936613865567 0 -0.078258697834619695 -0.040734820010584413 0 -0.078490455874447071 -0.041804072273650426 0 -0.077356572835926493 -0.045937718698239025 0 -0.077285341237254002 -0.044801649290127997 0 -0.078258697834619695 -0.040734820010584413 0 -0.078490455874447071 -0.041804072273650426 0 -0.078629532107561059 -0.041440910700014287 0 -0.078490455874447071 -0.041804072273650426 0 -0.07569125648971245 -0.043369534386294921 0 -0.075000431612991691 -0.040514935507206938 0 -0.074999887928331149 -0.044935777930395354 0 -0.07569125648971245 -0.043369534386294921 0 -0.075000431612991691 -0.040514935507206938 0 -0.076656216632930263 -0.045194874450039071 0 -0.07848485147596794 -0.044815622315776467 0 -0.07569125648971245 -0.043369534386294921 0 -0.077356572835926493 -0.045937718698239025 0 -0.076788037284256649 -0.045386495099923381 0 -0.078490455874447071 -0.041804072273650426 0 -0.075000431612991691 -0.040514935507206938 0 -0.078629532107561059 -0.041440910700014287 0 -0.074997865960863719 -0.040510527821453757 0 -0.075437263044147052 -0.038907266910511107 0 -0.07520890095733615 -0.038500445856353774 0 -0.074997865960863719 -0.040510527821453757 0 -0.075536924975961803 -0.039039268108202019 0 -0.075437263044147052 -0.038907266910511107 0 -0.075001538577743679 -0.040515538855061206 0 -0.076359842970621289 -0.04064686543595962 0 -0.075536924975961803 -0.039039268108202019 0 -0.07565673697713543 -0.038760534379293998 0 -0.075437263044147052 -0.038907266910511107 0 -0.075536924975961803 -0.039039268108202019 0 -0.07565673697713543 -0.038760534379293998 0 -0.076370564498308299 -0.039013972913021895 0 -0.075836097842590863 -0.03825945897546152 0 -0.07565673697713543 -0.038760534379293998 0 -0.076370564498308299 -0.039013972913021895 0 -0.075836097842590863 -0.03825945897546152 0 -0.075437263044147052 -0.038907266910511107 0 -0.075528349741085493 -0.037498219411829348 0 -0.075836097842590863 -0.03825945897546152 0 -0.07565673697713543 -0.038760534379293998 0 -0.075437263044147052 -0.038907266910511107 0 -0.07518038891973633 -0.036251978736252882 0 -0.075528349741085493 -0.037498219411829348 0 -0.075821814991972256 -0.03548570865835525 0 -0.075836097842590863 -0.03825945897546152 0 -0.075528349741085493 -0.037498219411829348 0 -0.076280615317159059 -0.03716675688064789 0 -0.075528349741085493 -0.037498219411829348 0 -0.075821814991972256 -0.03548570865835525 0 -0.076280615317159059 -0.03716675688064789 0 -0.074997865960863719 -0.040510527821453757 0 -0.075000593371690072 -0.037772838247919389 0 -0.07520890095733615 -0.038500445856353774 0 -0.07518038891973633 -0.036251978736252882 0 -0.075528349741085493 -0.037498219411829348 0 -0.07520890095733615 -0.038500445856353774 0 -0.07518038891973633 -0.036251978736252882 0 -0.075000593371690072 -0.037772838247919389 0 -0.07520890095733615 -0.038500445856353774 0 -0.075437263044147052 -0.038907266910511107 0 -0.075528349741085493 -0.037498219411829348 0 -0.07520890095733615 -0.038500445856353774 0 -0.077731246830096704 -0.037577233541808697 0 -0.079712155066856888 -0.035653018029477963 0 -0.080966636268765019 -0.037266216275514741 0 -0.081655753283511226 -0.034336126626799184 0 -0.078695904593690427 -0.033309747927447453 0 -0.079712155066856888 -0.035653018029477963 0 -0.078695904593690427 -0.033309747927447453 0 -0.079712155066856888 -0.035653018029477963 0 -0.078133760054929155 -0.035084009783701312 0 -0.077731246830096704 -0.037577233541808697 0 -0.079712155066856888 -0.035653018029477963 0 -0.078133760054929155 -0.035084009783701312 0 -0.077731246830096704 -0.037577233541808697 0 -0.078133760054929155 -0.035084009783701312 0 -0.076900869000002606 -0.035750646843724088 0 -0.075821814991972256 -0.03548570865835525 0 -0.076900869000002606 -0.035750646843724088 0 -0.076280615317159059 -0.03716675688064789 0 -0.077731246830096704 -0.037577233541808697 0 -0.076900869000002606 -0.035750646843724088 0 -0.076280615317159059 -0.03716675688064789 0 -0.077731246830096704 -0.037577233541808697 0 -0.076655950797061473 -0.038551085913117573 0 -0.077258175361492598 -0.039354785250027252 0 -0.077731246830096704 -0.037577233541808697 0 -0.076280615317159059 -0.03716675688064789 0 -0.076655950797061473 -0.038551085913117573 0 -0.075836097842590863 -0.03825945897546152 0 -0.076655950797061473 -0.038551085913117573 0 -0.076370564498308299 -0.039013972913021895 0 -0.075836097842590863 -0.03825945897546152 0 -0.076280615317159059 -0.03716675688064789 0 -0.076655950797061473 -0.038551085913117573 0 -0.076655950797061473 -0.038551085913117573 0 -0.076370564498308299 -0.039013972913021895 0 -0.077258175361492598 -0.039354785250027252 0 -0.076370564498308299 -0.039013972913021895 0 -0.077258175361492598 -0.039354785250027252 0 -0.07752015581837858 -0.040229472714280436 0 -0.074863364937144211 -0.035807433074704638 0 -0.074751845034018077 -0.034544466390594608 0 -0.077731246830096704 -0.037577233541808697 0 -0.077975523321250517 -0.040164720903851467 0 -0.080966636268765019 -0.037266216275514741 0 -0.077731246830096704 -0.037577233541808697 0 -0.077258175361492598 -0.039354785250027252 0 -0.077975523321250517 -0.040164720903851467 0 -0.077975523321250517 -0.040164720903851467 0 -0.077302191242770685 -0.039777735893053535 0 -0.076055948393843983 -0.040466509123044829 0 -0.077258175361492598 -0.039354785250027252 0 -0.077975523321250517 -0.040164720903851467 0 -0.07752015581837858 -0.040229472714280436 0 -0.077975523321250517 -0.040164720903851467 0 -0.077302191242770685 -0.039777735893053535 0 -0.07752015581837858 -0.040229472714280436 0 -0.077302191242770685 -0.039777735893053535 0 -0.07752015581837858 -0.040229472714280436 0 -0.077487081388180445 -0.039573013419530886 0 -0.075536924975961803 -0.039039268108202019 0 -0.076370564498308299 -0.039013972913021895 0 -0.07752015581837858 -0.040229472714280436 0 -0.078258697834619695 -0.040734820010584413 0 -0.078629532107561059 -0.041440910700014287 0 -0.07752015581837858 -0.040229472714280436 0 -0.076359842970621289 -0.04064686543595962 0 -0.076964911843084571 -0.040733986794985536 0 -0.07752015581837858 -0.040229472714280436 0 -0.077890546746833267 -0.039841316924177812 0 -0.077487081388180445 -0.039573013419530886 0 -0.078258697834619695 -0.040734820010584413 0 -0.07752015581837858 -0.040229472714280436 0 -0.077890546746833267 -0.039841316924177812 0 -0.078703136128201803 -0.039997936613865567 0 -0.077890546746833267 -0.039841316924177812 0 -0.077636916352240931 -0.038659808463237542 0 -0.077356572835926493 -0.045937718698239025 0 -0.078242485497350966 -0.045679613338915202 0 -0.079535033628635843 -0.054581649511130051 0 -0.079260264700235922 -0.053415446387119335 0 -0.080469897203362103 -0.054024124450500741 0 -0.077890546746833267 -0.039841316924177812 0 -0.077487081388180445 -0.039573013419530886 0 -0.077636916352240931 -0.038659808463237542 0 -0.077062904621079134 -0.039155104884186394 0 -0.077636916352240931 -0.038659808463237542 0 -0.076423724954178346 -0.038359386188239801 0 -0.077302191242770685 -0.039777735893053535 0 -0.077062904621079134 -0.039155104884186394 0 -0.076186620608584527 -0.039283406788840618 0 -0.077302191242770685 -0.039777735893053535 0 -0.077062904621079134 -0.039155104884186394 0 -0.077487081388180445 -0.039573013419530886 0 -0.077062904621079134 -0.039155104884186394 0 -0.077487081388180445 -0.039573013419530886 0 -0.077636916352240931 -0.038659808463237542 0 -0.076423724954178346 -0.038359386188239801 0 -0.076186620608584527 -0.039283406788840618 0 -0.075050786748959875 -0.03830277332234916 0 -0.076186620608584527 -0.039283406788840618 0 -0.075050786748959875 -0.03830277332234916 0 -0.07478645781908394 -0.039634557027672178 0 -0.077062904621079134 -0.039155104884186394 0 -0.076423724954178346 -0.038359386188239801 0 -0.076186620608584527 -0.039283406788840618 0 -0.075050786748959875 -0.03830277332234916 0 -0.073383264066890316 -0.039274520988555418 0 -0.072251545453075244 -0.035923472246250213 0 -0.075050786748959875 -0.03830277332234916 0 -0.073383264066890316 -0.039274520988555418 0 -0.07478645781908394 -0.039634557027672178 0 -0.073383264066890316 -0.039274520988555418 0 -0.073655938209512314 -0.040049633954198867 0 -0.07478645781908394 -0.039634557027672178 0 -0.073655938209512314 -0.040049633954198867 0 -0.07478645781908394 -0.039634557027672178 0 -0.074465442841132212 -0.04059942294885515 0 -0.07478645781908394 -0.039634557027672178 0 -0.074465442841132212 -0.04059942294885515 0 -0.076055948393843983 -0.040466509123044829 0 -0.073655938209512314 -0.040049633954198867 0 -0.074465442841132212 -0.04059942294885515 0 -0.073300685882732669 -0.0408811484021692 0 -0.076186620608584527 -0.039283406788840618 0 -0.07478645781908394 -0.039634557027672178 0 -0.076055948393843983 -0.040466509123044829 0 -0.077302191242770685 -0.039777735893053535 0 -0.076186620608584527 -0.039283406788840618 0 -0.076055948393843983 -0.040466509123044829 0 -0.076055948393843983 -0.040466509123044829 0 -0.07473124688775136 -0.041705381146140356 0 -0.076518549657346599 -0.042376067820510017 0 -0.077975523321250517 -0.040164720903851467 0 -0.076055948393843983 -0.040466509123044829 0 -0.076518549657346599 -0.042376067820510017 0 -0.07473124688775136 -0.041705381146140356 0 -0.073157109837389572 -0.042310072048355157 0 -0.073300685882732669 -0.0408811484021692 0 -0.074465442841132212 -0.04059942294885515 0 -0.076055948393843983 -0.040466509123044829 0 -0.07473124688775136 -0.041705381146140356 0 -0.074465442841132212 -0.04059942294885515 0 -0.07473124688775136 -0.041705381146140356 0 -0.073300685882732669 -0.0408811484021692 0 -0.075215157023523785 -0.044034860664674706 0 -0.075067795574191923 -0.04320467361676749 0 -0.073157109837389572 -0.042310072048355157 0 -0.07473124688775136 -0.041705381146140356 0 -0.075067795574191923 -0.04320467361676749 0 -0.073157109837389572 -0.042310072048355157 0 -0.074554480780520224 -0.029491052247837296 0 -0.069020769897869483 -0.033083381458288021 0 -0.063437778313822052 -0.023758185222300405 0 -0.061779169482996742 -0.024066302644333466 0 -0.063600204195022186 -0.025444946180549429 0 -0.081655753283511226 -0.034336126626799184 0 -0.083916450901919529 -0.03370557933039571 0 -0.080966636268765019 -0.037266216275514741 0 -0.075215157023523785 -0.044034860664674706 0 -0.075067795574191923 -0.04320467361676749 0 -0.076518549657346599 -0.042376067820510017 0 -0.074554480780520224 -0.029491052247837296 0 -0.074751845034018077 -0.034544466390594608 0 -0.07473124688775136 -0.041705381146140356 0 -0.075067795574191923 -0.04320467361676749 0 -0.076518549657346599 -0.042376067820510017 0 -0.081655753283511226 -0.034336126626799184 0 -0.079712155066856888 -0.035653018029477963 0 -0.080966636268765019 -0.037266216275514741 0 -0.064955431299419192 -0.02557743139177766 0 -0.06407486767265784 -0.024634340205247105 0 -0.063600204195022186 -0.025444946180549429 0 -0.064955431299419192 -0.02557743139177766 0 -0.06486958638780535 -0.02481765695860999 0 -0.065159491149045248 -0.025417358503154682 0 -0.064955431299419192 -0.02557743139177766 0 -0.06486958638780535 -0.02481765695860999 0 -0.06407486767265784 -0.024634340205247105 0 -0.063437778313822052 -0.023758185222300405 0 -0.06407486767265784 -0.024634340205247105 0 -0.063600204195022186 -0.025444946180549429 0 -0.073157109837389572 -0.042310072048355157 0 -0.073300685882732669 -0.0408811484021692 0 -0.071453974107483095 -0.040857678637854444 0 -0.064955431299419192 -0.02557743139177766 0 -0.065786496081759058 -0.025123211851193948 0 -0.064326231601850289 -0.026586040899932859 0 -0.069020769897869483 -0.033083381458288021 0 -0.064775949414594289 -0.036588516509660649 0 -0.064955431299419192 -0.02557743139177766 0 -0.063600204195022186 -0.025444946180549429 0 -0.065786496081759058 -0.025123211851193948 0 -0.065477826134070174 -0.046870790185681577 0 -0.069659207596484959 -0.043229019259352588 0 -0.065330176367467352 -0.04125506523046002 0 -0.064775949414594289 -0.036588516509660649 0 -0.067111890451758249 -0.037454921462774578 0 -0.073300685882732669 -0.0408811484021692 0 -0.071453974107483095 -0.040857678637854444 0 -0.072643013777369592 -0.039950188517991432 0 -0.073655938209512314 -0.040049633954198867 0 -0.073300685882732669 -0.0408811484021692 0 -0.072643013777369592 -0.039950188517991432 0 -0.073383264066890316 -0.039274520988555418 0 -0.073655938209512314 -0.040049633954198867 0 -0.072643013777369592 -0.039950188517991432 0 -0.073383264066890316 -0.039274520988555418 0 -0.069288214908497944 -0.038906778141699419 0 -0.072251545453075244 -0.035923472246250213 0 -0.068221133060334879 -0.037375185321553622 0 -0.067111890451758249 -0.037454921462774578 0 -0.073383264066890316 -0.039274520988555418 0 -0.069659207596484959 -0.043229019259352588 0 -0.069288214908497944 -0.038906778141699419 0 -0.069288214908497944 -0.038906778141699419 0 -0.065330176367467352 -0.04125506523046002 0 -0.065330178947266046 -0.035888029401225388 0 -0.069659207596484959 -0.043229019259352588 0 -0.069288214908497944 -0.038906778141699419 0 -0.065330176367467352 -0.04125506523046002 0 -0.06308996727920535 -0.036640967716706441 0 -0.065068251215960868 -0.034032490403708933 0 -0.068148278851805841 -0.03606352413492999 0 -0.06308996727920535 -0.036640967716706441 0 -0.065068251215960868 -0.034032490403708933 0 -0.060327845932613505 -0.03297514778185285 0 -0.065068251215960868 -0.034032490403708933 0 -0.064205441719058176 -0.031161851835645488 0 -0.060327845932613505 -0.03297514778185285 0 -0.065068251215960868 -0.034032490403708933 0 -0.064205441719058176 -0.031161851835645488 0 -0.068713044183719846 -0.033255611405794153 0 -0.073802714063597799 -0.044513419836277178 0 -0.075391147698586278 -0.044315610741889506 0 -0.083754486976153245 -0.055758576333221795 0 -0.082695397128800821 -0.055184709100017923 0 -0.082548070437790097 -0.055925980792055088 0 -0.065299355387937366 -0.039127110181400311 0 -0.070451328712874517 -0.040488194291532081 0 -0.065068251215960868 -0.034032490403708933 0 -0.068713044183719846 -0.033255611405794153 0 -0.068148278851805841 -0.03606352413492999 0 -0.069288214908497944 -0.038906778141699419 0 -0.065330178947266046 -0.035888029401225388 0 -0.072251545453075244 -0.035923472246250213 0 -0.070451328712874517 -0.040488194291532081 0 -0.076405857808059544 -0.043956263266753025 0 -0.075050786748959875 -0.03830277332234916 0 -0.072251545453075244 -0.035923472246250213 0 -0.075817134696039554 -0.036592977221814163 0 -0.068713044183719846 -0.033255611405794153 0 -0.068148278851805841 -0.03606352413492999 0 -0.07328239942048638 -0.035433294995680271 0 -0.075391147698586278 -0.044315610741889506 0 -0.076405857808059544 -0.043956263266753025 0 -0.077608945867571499 -0.044896165388915381 0 -0.076405857808059544 -0.043956263266753025 0 -0.077636916352240931 -0.038659808463237542 0 -0.076423724954178346 -0.038359386188239801 0 -0.075817134696039554 -0.036592977221814163 0 -0.08089892067979261 -0.0547063907626694 0 -0.081665859653362732 -0.054634090737581201 0 -0.08138030818263102 -0.055247434508772841 0 -0.076423724954178346 -0.038359386188239801 0 -0.075050786748959875 -0.03830277332234916 0 -0.075817134696039554 -0.036592977221814163 0 -0.080740144370639227 -0.055675236415226342 0 -0.08138030818263102 -0.055247434508772841 0 -0.081707553785626927 -0.055933825415160746 0 -0.081665859653362732 -0.054634090737581201 0 -0.08138030818263102 -0.055247434508772841 0 -0.081969617760580038 -0.055357641904538506 0 -0.08138030818263102 -0.055247434508772841 0 -0.081969617760580038 -0.055357641904538506 0 -0.081707553785626927 -0.055933825415160746 0 -0.082695397128800821 -0.055184709100017923 0 -0.081665859653362732 -0.054634090737581201 0 -0.081969617760580038 -0.055357641904538506 0 -0.082695397128800821 -0.055184709100017923 0 -0.081969617760580038 -0.055357641904538506 0 -0.082548070437790097 -0.055925980792055088 0 -0.081969617760580038 -0.055357641904538506 0 -0.082548070437790097 -0.055925980792055088 0 -0.081707553785626927 -0.055933825415160746 0 -0.082548070437790097 -0.055925980792055088 0 -0.081707553785626927 -0.055933825415160746 0 -0.082235539832947291 -0.056793940973636076 0 -0.082548070437790097 -0.055925980792055088 0 -0.082235539832947291 -0.056793940973636076 0 -0.083003177502281061 -0.056506923112832973 0 -0.080740144370639227 -0.055675236415226342 0 -0.081707553785626927 -0.055933825415160746 0 -0.081332370215110888 -0.056982413447059926 0 -0.081707553785626927 -0.055933825415160746 0 -0.081332370215110888 -0.056982413447059926 0 -0.082235539832947291 -0.056793940973636076 0 -0.081332370215110888 -0.056982413447059926 0 -0.082235539832947291 -0.056793940973636076 0 -0.082366537821692842 -0.058013907523661562 0 -0.082235539832947291 -0.056793940973636076 0 -0.083238110655311781 -0.057459557163131753 0 -0.082366537821692842 -0.058013907523661562 0 -0.083238110655311781 -0.057459557163131753 0 -0.08391758430664753 -0.056744214356848344 0 -0.083003177502281061 -0.056506923112832973 0 -0.082235539832947291 -0.056793940973636076 0 -0.083238110655311781 -0.057459557163131753 0 -0.083003177502281061 -0.056506923112832973 0 -0.083238110655311781 -0.057459557163131753 0 -0.08391758430664753 -0.056744214356848344 0 -0.084588343279489386 -0.057605507202374652 0 -0.083754486976153245 -0.055758576333221795 0 -0.08391758430664753 -0.056744214356848344 0 -0.083003177502281061 -0.056506923112832973 0 -0.083754486976153245 -0.055758576333221795 0 -0.08391758430664753 -0.056744214356848344 0 -0.084889857449611167 -0.056375304817651219 0 -0.083754486976153245 -0.055758576333221795 0 -0.082548070437790097 -0.055925980792055088 0 -0.083003177502281061 -0.056506923112832973 0 -0.072603307848013082 -0.045426044491930245 0 -0.073910187930620694 -0.048736187333231644 0 -0.057615788246585149 -0.029594468039832691 0 -0.059927660177543737 -0.029166893946316698 0 -0.055990884051199209 -0.026951155690412846 0 -0.057615788246585149 -0.029594468039832691 0 -0.056252270010945862 -0.029307441919906915 0 -0.055990884051199209 -0.026951155690412846 0 -0.057615788246585149 -0.029594468039832691 0 -0.056252270010945862 -0.029307441919906915 0 -0.056318513739613746 -0.031195307487119371 0 -0.057615788246585149 -0.029594468039832691 0 -0.059927660177543737 -0.029166893946316698 0 -0.060327845932613505 -0.03297514778185285 0 -0.073802714063597799 -0.044513419836277178 0 -0.072603307848013082 -0.045426044491930245 0 -0.08391758430664753 -0.056744214356848344 0 -0.084889857449611167 -0.056375304817651219 0 -0.084588343279489386 -0.057605507202374652 0 -0.084889857449611167 -0.056375304817651219 0 -0.084588343279489386 -0.057605507202374652 0 -0.085295682861375358 -0.057014515483954961 0 -0.084588343279489386 -0.057605507202374652 0 -0.0853734786680833 -0.057559044906058586 0 -0.085295682861375358 -0.057014515483954961 0 -0.084889857449611167 -0.056375304817651219 0 -0.085295682861375358 -0.057014515483954961 0 -0.086053090780447081 -0.057066408193309659 0 -0.0853734786680833 -0.057559044906058586 0 -0.085295682861375358 -0.057014515483954961 0 -0.085809939565682641 -0.057368069573857233 0 -0.085295682861375358 -0.057014515483954961 0 -0.085809939565682641 -0.057368069573857233 0 -0.086053090780447081 -0.057066408193309659 0 -0.085809939565682641 -0.057368069573857233 0 -0.086053090780447081 -0.057066408193309659 0 -0.086019158712317495 -0.057240464181244975 0 -0.0853734786680833 -0.057559044906058586 0 -0.085809939565682641 -0.057368069573857233 0 -0.085794583753889972 -0.057736047143371057 0 -0.085794583753889972 -0.057736047143371057 0 -0.085998979783315124 -0.057614888534863622 0 -0.086065150192367407 -0.057855796998527019 0 -0.085809939565682641 -0.057368069573857233 0 -0.085794583753889972 -0.057736047143371057 0 -0.085998979783315124 -0.057614888534863622 0 -0.054499573810228491 -0.027066200987698678 0 -0.055990884051199209 -0.026951155690412846 0 -0.052589918083367028 -0.02614906467049137 0 -0.085998979783315124 -0.057614888534863622 0 -0.086082500003698617 -0.057426405331073758 0 -0.0862362913795722 -0.057688748855488303 0 -0.085998979783315124 -0.057614888534863622 0 -0.0862362913795722 -0.057688748855488303 0 -0.086065150192367407 -0.057855796998527019 0 -0.073910187930620694 -0.048736187333231644 0 -0.065670158901944761 -0.049241840710714031 0 -0.08633229891648049 -0.057357780735015823 0 -0.086053090780447081 -0.057066408193309659 0 -0.087135087880080495 -0.05773305874337066 0 -0.08633229891648049 -0.057357780735015823 0 -0.086486968294640906 -0.057484302506856447 0 -0.087135087880080495 -0.05773305874337066 0 -0.073910187930620694 -0.048736187333231644 0 -0.082081249311069818 -0.053216643695869113 0 -0.055990884051199209 -0.026951155690412846 0 -0.05045360672572486 -0.024423080751776433 0 -0.052589918083367028 -0.02614906467049137 0 -0.085809939565682641 -0.057368069573857233 0 -0.086082500003698617 -0.057426405331073758 0 -0.086019158712317495 -0.057240464181244975 0 -0.085809939565682641 -0.057368069573857233 0 -0.085998979783315124 -0.057614888534863622 0 -0.086082500003698617 -0.057426405331073758 0 -0.086082500003698617 -0.057426405331073758 0 -0.086019158712317495 -0.057240464181244975 0 -0.086159716347523244 -0.057314519180422602 0 -0.086082500003698617 -0.057426405331073758 0 -0.086283259315535751 -0.057488334376068199 0 -0.086159716347523244 -0.057314519180422602 0 -0.086082500003698617 -0.057426405331073758 0 -0.086283259315535751 -0.057488334376068199 0 -0.0862362913795722 -0.057688748855488303 0 -0.08633229891648049 -0.057357780735015823 0 -0.086283259315535751 -0.057488334376068199 0 -0.086159716347523244 -0.057314519180422602 0 -0.086283259315535751 -0.057488334376068199 0 -0.0862362913795722 -0.057688748855488303 0 -0.086436339667160245 -0.057616533614604865 0 -0.086436339667160245 -0.057616533614604865 0 -0.086673339764163734 -0.057636496435104656 0 -0.086494773865317898 -0.057787126865775924 0 -0.0862362913795722 -0.057688748855488303 0 -0.086436339667160245 -0.057616533614604865 0 -0.086494773865317898 -0.057787126865775924 0 -0.086436339667160245 -0.057616533614604865 0 -0.086673339764163734 -0.057636496435104656 0 -0.086486968294640906 -0.057484302506856447 0 -0.086673339764163734 -0.057636496435104656 0 -0.086747767233041465 -0.057822316114942388 0 -0.086494773865317898 -0.057787126865775924 0 -0.086283259315535751 -0.057488334376068199 0 -0.086436339667160245 -0.057616533614604865 0 -0.086486968294640906 -0.057484302506856447 0 -0.08633229891648049 -0.057357780735015823 0 -0.086283259315535751 -0.057488334376068199 0 -0.086486968294640906 -0.057484302506856447 0 -0.053632200359639177 -0.026947789037929513 0 -0.054499573810228491 -0.027066200987698678 0 -0.052589918083367028 -0.02614906467049137 0 -0.053173386042375467 -0.026840199336630295 0 -0.053632200359639177 -0.026947789037929513 0 -0.052589918083367028 -0.02614906467049137 0 -0.053173386042375467 -0.026840199336630295 0 -0.052605432748079536 -0.027149895863666028 0 -0.053467982921150403 -0.02760809932408069 0 -0.053632200359639177 -0.026947789037929513 0 -0.054285716201844192 -0.027548178899936292 0 -0.053467982921150403 -0.02760809932408069 0 -0.053173386042375467 -0.026840199336630295 0 -0.053632200359639177 -0.026947789037929513 0 -0.053467982921150403 -0.02760809932408069 0 -0.053632200359639177 -0.026947789037929513 0 -0.054499573810228491 -0.027066200987698678 0 -0.054285716201844192 -0.027548178899936292 0 -0.054499573810228491 -0.027066200987698678 0 -0.055023504186545343 -0.02740452639192377 0 -0.054285716201844192 -0.027548178899936292 0 -0.054499573810228491 -0.027066200987698678 0 -0.055023504186545343 -0.02740452639192377 0 -0.055990884051199209 -0.026951155690412846 0 -0.055023504186545343 -0.02740452639192377 0 -0.055990884051199209 -0.026951155690412846 0 -0.055235832754213725 -0.027815085608410575 0 -0.086053090780447081 -0.057066408193309659 0 -0.086019158712317495 -0.057240464181244975 0 -0.086159716347523244 -0.057314519180422602 0 -0.08633229891648049 -0.057357780735015823 0 -0.086053090780447081 -0.057066408193309659 0 -0.086159716347523244 -0.057314519180422602 0 -0.084075426893795116 -0.056097909008951057 0 -0.087135087880080495 -0.05773305874337066 0 -0.087418260105148443 -0.057348023460676988 0 -0.05045360672572486 -0.024423080751776433 0 -0.050013115403029593 -0.025420095354897029 0 -0.048975099852411878 -0.025272200766365598 0 -0.087397987094504997 -0.057758565901837755 0 -0.087418260105148443 -0.057348023460676988 0 -0.087697051001232124 -0.057859420569563252 0 -0.087397987094504997 -0.057758565901837755 0 -0.087135087880080495 -0.05773305874337066 0 -0.087418260105148443 -0.057348023460676988 0 -0.05045360672572486 -0.024423080751776433 0 -0.051211054023760638 -0.025419946298296692 0 -0.050663719142016395 -0.02550284214935614 0 -0.05045360672572486 -0.024423080751776433 0 -0.050663719142016395 -0.02550284214935614 0 -0.050013115403029593 -0.025420095354897029 0 -0.086673339764163734 -0.057636496435104656 0 -0.086486968294640906 -0.057484302506856447 0 -0.087135087880080495 -0.05773305874337066 0 -0.086673339764163734 -0.057636496435104656 0 -0.087135087880080495 -0.05773305874337066 0 -0.086893467194733634 -0.057789244047376585 0 -0.086673339764163734 -0.057636496435104656 0 -0.086747767233041465 -0.057822316114942388 0 -0.086893467194733634 -0.057789244047376585 0 -0.05045360672572486 -0.024423080751776433 0 -0.052589918083367028 -0.02614906467049137 0 -0.051211054023760638 -0.025419946298296692 0 -0.052589918083367028 -0.02614906467049137 0 -0.052605432748079536 -0.027149895863666028 0 -0.051852443090685756 -0.026744335710343427 0 -0.053173386042375467 -0.026840199336630295 0 -0.052589918083367028 -0.02614906467049137 0 -0.052605432748079536 -0.027149895863666028 0 -0.051852443090685756 -0.026744335710343427 0 -0.051288674157605574 -0.026162683819848626 0 -0.05093598486417069 -0.027075854458081014 0 -0.052589918083367028 -0.02614906467049137 0 -0.051852443090685756 -0.026744335710343427 0 -0.051288674157605574 -0.026162683819848626 0 -0.052589918083367028 -0.02614906467049137 0 -0.051288674157605574 -0.026162683819848626 0 -0.051211054023760638 -0.025419946298296692 0 -0.051288674157605574 -0.026162683819848626 0 -0.051211054023760638 -0.025419946298296692 0 -0.050663719142016395 -0.02550284214935614 0 -0.050663719142016395 -0.02550284214935614 0 -0.050408471376128687 -0.02609656302531357 0 -0.050013115403029593 -0.025420095354897029 0 -0.051288674157605574 -0.026162683819848626 0 -0.050663719142016395 -0.02550284214935614 0 -0.050408471376128687 -0.02609656302531357 0 -0.051288674157605574 -0.026162683819848626 0 -0.050408471376128687 -0.02609656302531357 0 -0.05093598486417069 -0.027075854458081014 0 -0.050408471376128687 -0.02609656302531357 0 -0.05093598486417069 -0.027075854458081014 0 -0.04954621683500484 -0.027175450443433901 0 -0.050408471376128687 -0.02609656302531357 0 -0.04947495587846968 -0.026054887751219575 0 -0.04954621683500484 -0.027175450443433901 0 -0.04947495587846968 -0.026054887751219575 0 -0.050013115403029593 -0.025420095354897029 0 -0.048975099852411878 -0.025272200766365598 0 -0.050408471376128687 -0.02609656302531357 0 -0.04947495587846968 -0.026054887751219575 0 -0.050013115403029593 -0.025420095354897029 0 -0.04954621683500484 -0.027175450443433901 0 -0.050547351631035534 -0.02814284620594602 0 -0.049255188206582708 -0.029091790597394505 0 -0.050547351631035534 -0.02814284620594602 0 -0.051102535249943716 -0.029451671645116355 0 -0.049255188206582708 -0.029091790597394505 0 -0.05093598486417069 -0.027075854458081014 0 -0.04954621683500484 -0.027175450443433901 0 -0.050547351631035534 -0.02814284620594602 0 -0.05093598486417069 -0.027075854458081014 0 -0.050547351631035534 -0.02814284620594602 0 -0.051702717061436781 -0.027837659509539439 0 -0.050547351631035534 -0.02814284620594602 0 -0.051702717061436781 -0.027837659509539439 0 -0.051102535249943716 -0.029451671645116355 0 -0.051702717061436781 -0.027837659509539439 0 -0.052508418657627953 -0.029341790266697851 0 -0.051102535249943716 -0.029451671645116355 0 -0.052605432748079536 -0.027149895863666028 0 -0.051852443090685756 -0.026744335710343427 0 -0.051702717061436781 -0.027837659509539439 0 -0.051852443090685756 -0.026744335710343427 0 -0.05093598486417069 -0.027075854458081014 0 -0.051702717061436781 -0.027837659509539439 0 -0.052605432748079536 -0.027149895863666028 0 -0.051702717061436781 -0.027837659509539439 0 -0.052743923766682022 -0.028028833791304927 0 -0.052605432748079536 -0.027149895863666028 0 -0.052743923766682022 -0.028028833791304927 0 -0.053467982921150403 -0.02760809932408069 0 -0.052743923766682022 -0.028028833791304927 0 -0.052508418657627953 -0.029341790266697851 0 -0.053579513882793132 -0.028623303487426442 0 -0.051702717061436781 -0.027837659509539439 0 -0.052743923766682022 -0.028028833791304927 0 -0.052508418657627953 -0.029341790266697851 0 -0.052508418657627953 -0.029341790266697851 0 -0.053218066517545758 -0.030631861146928181 0 -0.052079524297439408 -0.031137580517932553 0 -0.052508418657627953 -0.029341790266697851 0 -0.051102535249943716 -0.029451671645116355 0 -0.052079524297439408 -0.031137580517932553 0 -0.051102535249943716 -0.029451671645116355 0 -0.050391256101782571 -0.030628773402545363 0 -0.049255188206582708 -0.029091790597394505 0 -0.051102535249943716 -0.029451671645116355 0 -0.050391256101782571 -0.030628773402545363 0 -0.052079524297439408 -0.031137580517932553 0 -0.056252270010945862 -0.029307441919906915 0 -0.055990884051199209 -0.026951155690412846 0 -0.055522128914192281 -0.028392817537885782 0 -0.054632793985093429 -0.028906417276987496 0 -0.055522128914192281 -0.028392817537885782 0 -0.054816983468930082 -0.028104040477611277 0 -0.055362157184965073 -0.029159739821374781 0 -0.054632793985093429 -0.028906417276987496 0 -0.055522128914192281 -0.028392817537885782 0 -0.056252270010945862 -0.029307441919906915 0 -0.055362157184965073 -0.029159739821374781 0 -0.055522128914192281 -0.028392817537885782 0 -0.055990884051199209 -0.026951155690412846 0 -0.055522128914192281 -0.028392817537885782 0 -0.055235832754213725 -0.027815085608410575 0 -0.055522128914192281 -0.028392817537885782 0 -0.055235832754213725 -0.027815085608410575 0 -0.054816983468930082 -0.028104040477611277 0 -0.055023504186545343 -0.02740452639192377 0 -0.055235832754213725 -0.027815085608410575 0 -0.054816983468930082 -0.028104040477611277 0 -0.055023504186545343 -0.02740452639192377 0 -0.054816983468930082 -0.028104040477611277 0 -0.054285716201844192 -0.027548178899936292 0 -0.054285716201844192 -0.027548178899936292 0 -0.054182465216227264 -0.028119715474649028 0 -0.053467982921150403 -0.02760809932408069 0 -0.054816983468930082 -0.028104040477611277 0 -0.054285716201844192 -0.027548178899936292 0 -0.054182465216227264 -0.028119715474649028 0 -0.052743923766682022 -0.028028833791304927 0 -0.053467982921150403 -0.02760809932408069 0 -0.053579513882793132 -0.028623303487426442 0 -0.054182465216227264 -0.028119715474649028 0 -0.053467982921150403 -0.02760809932408069 0 -0.053579513882793132 -0.028623303487426442 0 -0.054632793985093429 -0.028906417276987496 0 -0.054182465216227264 -0.028119715474649028 0 -0.053579513882793132 -0.028623303487426442 0 -0.054632793985093429 -0.028906417276987496 0 -0.053579513882793132 -0.028623303487426442 0 -0.053900870709357694 -0.029719209109569607 0 -0.054632793985093429 -0.028906417276987496 0 -0.054816983468930082 -0.028104040477611277 0 -0.054182465216227264 -0.028119715474649028 0 -0.054632793985093429 -0.028906417276987496 0 -0.053900870709357694 -0.029719209109569607 0 -0.055172241550739062 -0.030062372498982852 0 -0.052508418657627953 -0.029341790266697851 0 -0.053900870709357694 -0.029719209109569607 0 -0.053218066517545758 -0.030631861146928181 0 -0.052508418657627953 -0.029341790266697851 0 -0.053579513882793132 -0.028623303487426442 0 -0.053900870709357694 -0.029719209109569607 0 -0.053900870709357694 -0.029719209109569607 0 -0.053218066517545758 -0.030631861146928181 0 -0.054261941247805687 -0.030743174599879415 0 -0.053900870709357694 -0.029719209109569607 0 -0.054261941247805687 -0.030743174599879415 0 -0.055172241550739062 -0.030062372498982852 0 -0.054261941247805687 -0.030743174599879415 0 -0.055172241550739062 -0.030062372498982852 0 -0.054982298282421405 -0.031668400643532796 0 -0.056252270010945862 -0.029307441919906915 0 -0.055172241550739062 -0.030062372498982852 0 -0.056318513739613746 -0.031195307487119371 0 -0.055362157184965073 -0.029159739821374781 0 -0.054632793985093429 -0.028906417276987496 0 -0.055172241550739062 -0.030062372498982852 0 -0.056252270010945862 -0.029307441919906915 0 -0.055362157184965073 -0.029159739821374781 0 -0.055172241550739062 -0.030062372498982852 0 -0.054982298282421405 -0.031668400643532796 0 -0.05595081448516654 -0.033239247884327597 0 -0.056318513739613746 -0.031195307487119371 0 -0.055172241550739062 -0.030062372498982852 0 -0.054982298282421405 -0.031668400643532796 0 -0.056318513739613746 -0.031195307487119371 0 -0.054261941247805687 -0.030743174599879415 0 -0.054982298282421405 -0.031668400643532796 0 -0.053586951300460442 -0.031921016236907199 0 -0.053218066517545758 -0.030631861146928181 0 -0.054261941247805687 -0.030743174599879415 0 -0.053586951300460442 -0.031921016236907199 0 -0.054982298282421405 -0.031668400643532796 0 -0.053586951300460442 -0.031921016236907199 0 -0.054297417851045311 -0.033372104338689902 0 -0.053586951300460442 -0.031921016236907199 0 -0.054297417851045311 -0.033372104338689902 0 -0.052686421289558971 -0.033007478173042261 0 -0.054297417851045311 -0.033372104338689902 0 -0.052686421289558971 -0.033007478173042261 0 -0.053428049941121651 -0.035064217778204759 0 -0.054982298282421405 -0.031668400643532796 0 -0.054297417851045311 -0.033372104338689902 0 -0.05595081448516654 -0.033239247884327597 0 -0.054297417851045311 -0.033372104338689902 0 -0.05595081448516654 -0.033239247884327597 0 -0.055153811743514601 -0.034755381110408039 0 -0.050391256101782571 -0.030628773402545363 0 -0.05096566883159008 -0.032325109249574518 0 -0.04843585392904718 -0.031297302655512928 0 -0.050391256101782571 -0.030628773402545363 0 -0.05096566883159008 -0.032325109249574518 0 -0.052079524297439408 -0.031137580517932553 0 -0.053586951300460442 -0.031921016236907199 0 -0.052079524297439408 -0.031137580517932553 0 -0.052686421289558971 -0.033007478173042261 0 -0.05096566883159008 -0.032325109249574518 0 -0.052079524297439408 -0.031137580517932553 0 -0.052686421289558971 -0.033007478173042261 0 -0.053218066517545758 -0.030631861146928181 0 -0.053586951300460442 -0.031921016236907199 0 -0.052079524297439408 -0.031137580517932553 0 -0.05096566883159008 -0.032325109249574518 0 -0.052686421289558971 -0.033007478173042261 0 -0.051600301355522564 -0.034075681552204133 0 -0.052686421289558971 -0.033007478173042261 0 -0.051600301355522564 -0.034075681552204133 0 -0.053428049941121651 -0.035064217778204759 0 -0.05096566883159008 -0.032325109249574518 0 -0.051600301355522564 -0.034075681552204133 0 -0.049418382470390709 -0.034478653039739737 0 -0.051671196492508398 -0.03579600915416687 0 -0.05044616695860718 -0.037302521057850063 0 -0.049418382470390709 -0.034478653039739737 0 -0.051600301355522564 -0.034075681552204133 0 -0.051671196492508398 -0.03579600915416687 0 -0.049418382470390709 -0.034478653039739737 0 -0.051671196492508398 -0.03579600915416687 0 -0.053279444968163996 -0.037083571091084212 0 -0.053428049941121651 -0.035064217778204759 0 -0.051600301355522564 -0.034075681552204133 0 -0.051671196492508398 -0.03579600915416687 0 -0.053428049941121651 -0.035064217778204759 0 -0.051671196492508398 -0.03579600915416687 0 -0.053279444968163996 -0.037083571091084212 0 -0.05044616695860718 -0.037302521057850063 0 -0.055153811743514601 -0.034755381110408039 0 -0.053428049941121651 -0.035064217778204759 0 -0.05484001386211429 -0.036521150473971892 0 -0.055153811743514601 -0.034755381110408039 0 -0.05484001386211429 -0.036521150473971892 0 -0.056685979510683444 -0.035233662391372031 0 -0.054297417851045311 -0.033372104338689902 0 -0.055153811743514601 -0.034755381110408039 0 -0.053428049941121651 -0.035064217778204759 0 -0.053279444968163996 -0.037083571091084212 0 -0.05484001386211429 -0.036521150473971892 0 -0.054960218032333093 -0.038590018673979654 0 -0.053279444968163996 -0.037083571091084212 0 -0.053428049941121651 -0.035064217778204759 0 -0.05484001386211429 -0.036521150473971892 0 -0.05484001386211429 -0.036521150473971892 0 -0.055924508186009275 -0.037366013880347181 0 -0.056685979510683444 -0.035233662391372031 0 -0.055924508186009275 -0.037366013880347181 0 -0.057824633898172557 -0.037052029908200626 0 -0.056685979510683444 -0.035233662391372031 0 -0.056685979510683444 -0.035233662391372031 0 -0.057610526784390916 -0.032916500631508749 0 -0.059035416610507249 -0.034938670463146061 0 -0.057824633898172557 -0.037052029908200626 0 -0.056685979510683444 -0.035233662391372031 0 -0.059035416610507249 -0.034938670463146061 0 -0.05595081448516654 -0.033239247884327597 0 -0.055153811743514601 -0.034755381110408039 0 -0.056685979510683444 -0.035233662391372031 0 -0.057615788246585149 -0.029594468039832691 0 -0.057610526784390916 -0.032916500631508749 0 -0.060327845932613505 -0.03297514778185285 0 -0.05595081448516654 -0.033239247884327597 0 -0.056685979510683444 -0.035233662391372031 0 -0.057610526784390916 -0.032916500631508749 0 -0.057615788246585149 -0.029594468039832691 0 -0.057610526784390916 -0.032916500631508749 0 -0.056318513739613746 -0.031195307487119371 0 -0.05595081448516654 -0.033239247884327597 0 -0.057610526784390916 -0.032916500631508749 0 -0.056318513739613746 -0.031195307487119371 0 -0.064205441719058176 -0.031161851835645488 0 -0.059927660177543737 -0.029166893946316698 0 -0.060327845932613505 -0.03297514778185285 0 -0.057610526784390916 -0.032916500631508749 0 -0.060327845932613505 -0.03297514778185285 0 -0.059035416610507249 -0.034938670463146061 0 -0.06308996727920535 -0.036640967716706441 0 -0.060327845932613505 -0.03297514778185285 0 -0.059035416610507249 -0.034938670463146061 0 -0.06308996727920535 -0.036640967716706441 0 -0.057824633898172557 -0.037052029908200626 0 -0.059035416610507249 -0.034938670463146061 0 -0.065299355387937366 -0.039127110181400311 0 -0.062490090461138452 -0.038895357357545984 0 -0.065330178947266046 -0.035888029401225388 0 -0.057824633898172557 -0.037052029908200626 0 -0.061051040142603243 -0.039266259020718744 0 -0.065330176367467352 -0.04125506523046002 0 -0.065330178947266046 -0.035888029401225388 0 -0.061051040142603243 -0.039266259020718744 0 -0.061051040142603243 -0.039266259020718744 0 -0.055945687576555714 -0.039510153284032692 0 -0.060948237290933481 -0.043409771078092074 0 -0.065330176367467352 -0.04125506523046002 0 -0.061051040142603243 -0.039266259020718744 0 -0.060948237290933481 -0.043409771078092074 0 -0.055924508186009275 -0.037366013880347181 0 -0.055945687576555714 -0.039510153284032692 0 -0.054960218032333093 -0.038590018673979654 0 -0.055924508186009275 -0.037366013880347181 0 -0.057824633898172557 -0.037052029908200626 0 -0.055945687576555714 -0.039510153284032692 0 -0.057824633898172557 -0.037052029908200626 0 -0.061051040142603243 -0.039266259020718744 0 -0.055945687576555714 -0.039510153284032692 0 -0.060154845574353993 -0.036946871677700791 0 -0.061428583825020935 -0.037058998044001479 0 -0.055945687576555714 -0.039510153284032692 0 -0.05509652186327061 -0.039590918216391699 0 -0.054552056995022663 -0.039485422243341922 0 -0.055945687576555714 -0.039510153284032692 0 -0.05509652186327061 -0.039590918216391699 0 -0.054960218032333093 -0.038590018673979654 0 -0.05509652186327061 -0.039590918216391699 0 -0.054552056995022663 -0.039485422243341922 0 -0.054758975728917011 -0.039692409308839015 0 -0.055945687576555714 -0.039510153284032692 0 -0.054552056995022663 -0.039485422243341922 0 -0.053304141939124493 -0.039598231422543984 0 -0.054552056995022663 -0.039485422243341922 0 -0.053304141939124493 -0.039598231422543984 0 -0.053500917124689885 -0.038737893136278831 0 -0.054552056995022663 -0.039485422243341922 0 -0.053500917124689885 -0.038737893136278831 0 -0.054486631192409887 -0.03926347478312732 0 -0.054552056995022663 -0.039485422243341922 0 -0.054486631192409887 -0.03926347478312732 0 -0.054758975728917011 -0.039692409308839015 0 -0.0520954224252861 -0.038831441402165941 0 -0.053304141939124493 -0.039598231422543984 0 -0.053500917124689885 -0.038737893136278831 0 -0.065477826134070174 -0.046870790185681577 0 -0.065330176367467352 -0.04125506523046002 0 -0.060948237290933481 -0.043409771078092074 0 -0.064775949414594289 -0.036588516509660649 0 -0.061428583825020935 -0.037058998044001479 0 -0.0520954224252861 -0.038831441402165941 0 -0.053500917124689885 -0.038737893136278831 0 -0.052707459173251148 -0.037178152943838749 0 -0.064775949414594289 -0.036588516509660649 0 -0.060270746098221438 -0.034676264799371984 0 -0.065786496081759058 -0.025123211851193948 0 -0.062158799375010912 -0.026815404499871517 0 -0.064326231601850289 -0.026586040899932859 0 -0.053500917124689885 -0.038737893136278831 0 -0.053837017420963793 -0.038093111353364545 0 -0.052707459173251148 -0.037178152943838749 0 -0.053500917124689885 -0.038737893136278831 0 -0.053837017420963793 -0.038093111353364545 0 -0.054486631192409887 -0.03926347478312732 0 -0.058908893187214935 -0.03410155966494588 0 -0.060270746098221438 -0.034676264799371984 0 -0.053837017420963793 -0.038093111353364545 0 -0.052707459173251148 -0.037178152943838749 0 -0.05489507434150185 -0.036746595629045219 0 -0.057947555074826372 -0.031839528613052413 0 -0.062158799375010912 -0.026815404499871517 0 -0.064326231601850289 -0.026586040899932859 0 -0.065031395884389803 -0.024190283637807179 0 -0.064940045730475279 -0.024811995920692751 0 -0.066899722003141912 -0.02400913768645142 0 -0.069189822440730839 -0.022631520670057911 0 -0.064326231601850289 -0.026586040899932859 0 -0.066899722003141912 -0.02400913768645142 0 -0.065159491149045248 -0.025417358503154682 0 -0.064326231601850289 -0.026586040899932859 0 -0.066899722003141912 -0.02400913768645142 0 -0.06486958638780535 -0.02481765695860999 0 -0.065159491149045248 -0.025417358503154682 0 -0.064955431299419192 -0.02557743139177766 0 -0.065159491149045248 -0.025417358503154682 0 -0.064326231601850289 -0.026586040899932859 0 -0.059873798910216429 -0.03365609905027938 0 -0.057247342191542532 -0.0350668120456675 0 -0.058189490200230252 -0.03775847263246384 0 -0.057247342191542532 -0.0350668120456675 0 -0.05489507434150185 -0.036746595629045219 0 -0.056287499969559562 -0.037618301998679035 0 -0.057247342191542532 -0.0350668120456675 0 -0.056287499969559562 -0.037618301998679035 0 -0.058189490200230252 -0.03775847263246384 0 -0.055609127020113586 -0.031895907212102947 0 -0.057247342191542532 -0.0350668120456675 0 -0.05489507434150185 -0.036746595629045219 0 -0.055609127020113586 -0.031895907212102947 0 -0.052707459173251148 -0.037178152943838749 0 -0.05489507434150185 -0.036746595629045219 0 -0.05489507434150185 -0.036746595629045219 0 -0.05458325548891544 -0.038406017232618779 0 -0.055022766702925281 -0.039075214999181172 0 -0.05489507434150185 -0.036746595629045219 0 -0.055022766702925281 -0.039075214999181172 0 -0.056287499969559562 -0.037618301998679035 0 -0.053837017420963793 -0.038093111353364545 0 -0.05489507434150185 -0.036746595629045219 0 -0.05458325548891544 -0.038406017232618779 0 -0.053837017420963793 -0.038093111353364545 0 -0.05458325548891544 -0.038406017232618779 0 -0.054486631192409887 -0.03926347478312732 0 -0.05458325548891544 -0.038406017232618779 0 -0.054486631192409887 -0.03926347478312732 0 -0.055022766702925281 -0.039075214999181172 0 -0.054486631192409887 -0.03926347478312732 0 -0.055022766702925281 -0.039075214999181172 0 -0.054671436532614151 -0.040054667940499195 0 -0.055022766702925281 -0.039075214999181172 0 -0.056287499969559562 -0.037618301998679035 0 -0.054700099989742811 -0.041634238860030842 0 -0.055022766702925281 -0.039075214999181172 0 -0.054700099989742811 -0.041634238860030842 0 -0.054671436532614151 -0.040054667940499195 0 -0.056287499969559562 -0.037618301998679035 0 -0.054700099989742811 -0.041634238860030842 0 -0.058189490200230252 -0.03775847263246384 0 -0.054700099989742811 -0.041634238860030842 0 -0.054082921920198167 -0.04015860287299669 0 -0.050799901099606318 -0.039852298200751216 0 -0.054700099989742811 -0.041634238860030842 0 -0.054082921920198167 -0.04015860287299669 0 -0.054671436532614151 -0.040054667940499195 0 -0.054486631192409887 -0.03926347478312732 0 -0.054671436532614151 -0.040054667940499195 0 -0.054758975728917011 -0.039692409308839015 0 -0.054082921920198167 -0.04015860287299669 0 -0.054671436532614151 -0.040054667940499195 0 -0.054611819124204784 -0.039668230693843558 0 -0.05509652186327061 -0.039590918216391699 0 -0.054611819124204784 -0.039668230693843558 0 -0.054758975728917011 -0.039692409308839015 0 -0.054671436532614151 -0.040054667940499195 0 -0.054611819124204784 -0.039668230693843558 0 -0.054758975728917011 -0.039692409308839015 0 -0.05509652186327061 -0.039590918216391699 0 -0.054611819124204784 -0.039668230693843558 0 -0.054960218032333093 -0.038590018673979654 0 -0.054611819124204784 -0.039668230693843558 0 -0.054960218032333093 -0.038590018673979654 0 -0.053368342404755902 -0.03872129702314675 0 -0.054082921920198167 -0.04015860287299669 0 -0.054611819124204784 -0.039668230693843558 0 -0.053368342404755902 -0.03872129702314675 0 -0.053279444968163996 -0.037083571091084212 0 -0.054960218032333093 -0.038590018673979654 0 -0.053368342404755902 -0.03872129702314675 0 -0.05484001386211429 -0.036521150473971892 0 -0.055924508186009275 -0.037366013880347181 0 -0.054960218032333093 -0.038590018673979654 0 -0.053368342404755902 -0.03872129702314675 0 -0.050799901099606318 -0.039852298200751216 0 -0.05044616695860718 -0.037302521057850063 0 -0.054082921920198167 -0.04015860287299669 0 -0.053368342404755902 -0.03872129702314675 0 -0.050799901099606318 -0.039852298200751216 0 -0.053279444968163996 -0.037083571091084212 0 -0.053368342404755902 -0.03872129702314675 0 -0.05044616695860718 -0.037302521057850063 0 -0.047961513554153609 -0.038425841583329373 0 -0.050799901099606318 -0.039852298200751216 0 -0.05044616695860718 -0.037302521057850063 0 -0.047961513554153609 -0.038425841583329373 0 -0.044507941206704475 -0.040027687790427306 0 -0.050799901099606318 -0.039852298200751216 0 -0.047961513554153609 -0.038425841583329373 0 -0.044507941206704475 -0.040027687790427306 0 -0.045935773680955291 -0.036616840998152149 0 -0.044507941206704475 -0.040027687790427306 0 -0.050799901099606318 -0.039852298200751216 0 -0.046962888236041077 -0.045012163679627994 0 -0.038566656447047966 -0.046720859884537502 0 -0.039056368817145352 -0.051966004185154513 0 -0.034948233266740215 -0.049857034375222195 0 -0.044683816531123063 -0.039781425764134459 0 -0.047559297033883931 -0.036108892536740801 0 -0.054700099989742811 -0.041634238860030842 0 -0.050799901099606318 -0.039852298200751216 0 -0.046962888236041077 -0.045012163679627994 0 -0.054700099989742811 -0.041634238860030842 0 -0.058189490200230252 -0.03775847263246384 0 -0.064997817379698911 -0.03982085642718225 0 -0.05163345022087145 -0.03686533317513855 0 -0.047559297033883931 -0.036108892536740801 0 -0.047559297033883931 -0.036108892536740801 0 -0.055088157016098697 -0.027486312477156254 0 -0.047181623924992575 -0.024052983866669531 0 -0.047568075500267926 -0.02332272709451013 0 -0.046898413972724373 -0.022923224451323047 0 -0.058189490200230252 -0.03775847263246384 0 -0.064997817379698911 -0.03982085642718225 0 -0.062905457776323379 -0.031830512062339097 0 -0.055187396107932614 -0.029844357741857924 0 -0.055088157016098697 -0.027486312477156254 0 -0.059873798910216429 -0.03365609905027938 0 -0.058189490200230252 -0.03775847263246384 0 -0.062757885681344536 -0.034240389574061766 0 -0.048256812109067487 -0.022898403952323593 0 -0.048231882057419725 -0.02372152117241107 0 -0.049218544008747277 -0.023421677981101952 0 -0.041593676003328743 -0.033188508935778301 0 -0.0388299613319361 -0.027658100475866781 0 -0.047568075500267926 -0.02332272709451013 0 -0.048256812109067487 -0.022898403952323593 0 -0.048231882057419725 -0.02372152117241107 0 -0.039056368817145352 -0.051966004185154513 0 -0.034267002151128184 -0.052964526835965538 0 -0.034948233266740215 -0.049857034375222195 0 -0.047181623924992575 -0.024052983866669531 0 -0.047568075500267926 -0.02332272709451013 0 -0.048231882057419725 -0.02372152117241107 0 -0.047559297033883931 -0.036108892536740801 0 -0.041593676003328743 -0.033188508935778301 0 -0.034267002151128184 -0.052964526835965538 0 -0.03100509715984847 -0.049890552545536024 0 -0.029875125938244946 -0.05364675804869689 0 -0.034267002151128184 -0.052964526835965538 0 -0.03100509715984847 -0.049890552545536024 0 -0.034948233266740215 -0.049857034375222195 0 -0.03100509715984847 -0.049890552545536024 0 -0.034948233266740215 -0.049857034375222195 0 -0.032024158600024485 -0.046904305653829123 0 -0.03100509715984847 -0.049890552545536024 0 -0.032024158600024485 -0.046904305653829123 0 -0.028843576739369749 -0.045727349540753658 0 -0.038566656447047966 -0.046720859884537502 0 -0.034948233266740215 -0.049857034375222195 0 -0.032024158600024485 -0.046904305653829123 0 -0.038566656447047966 -0.046720859884537502 0 -0.032024158600024485 -0.046904305653829123 0 -0.029587784680515313 -0.042463605024216325 0 -0.032024158600024485 -0.046904305653829123 0 -0.029587784680515313 -0.042463605024216325 0 -0.028843576739369749 -0.045727349540753658 0 -0.029587784680515313 -0.042463605024216325 0 -0.027743940606999539 -0.04553712310796873 0 -0.028548273820743857 -0.044315204440088178 0 -0.029587784680515313 -0.042463605024216325 0 -0.026246684181318626 -0.046379995833289195 0 -0.022651949662319915 -0.0473749832813984 0 -0.034927506374140153 -0.044601370155202734 0 -0.036539788156068294 -0.044336048635063359 0 -0.029587784680515313 -0.042463605024216325 0 -0.026246684181318626 -0.046379995833289195 0 -0.027743940606999539 -0.04553712310796873 0 -0.026246684181318626 -0.046379995833289195 0 -0.022651949662319915 -0.0473749832813984 0 -0.024460146744641812 -0.048832852411024599 0 -0.026246684181318626 -0.046379995833289195 0 -0.026286874588576328 -0.048246454305746325 0 -0.027743940606999539 -0.04553712310796873 0 -0.026246684181318626 -0.046379995833289195 0 -0.026286874588576328 -0.048246454305746325 0 -0.024460146744641812 -0.048832852411024599 0 -0.029587784680515313 -0.042463605024216325 0 -0.035197904096480277 -0.031565615200199723 0 -0.039191180903278874 -0.036898636571659885 0 -0.035197904096480277 -0.031565615200199723 0 -0.039191180903278874 -0.036898636571659885 0 -0.041028737925169957 -0.031546920215647735 0 -0.044683816531123063 -0.039781425764134459 0 -0.043043357814242289 -0.037753965654833473 0 -0.038566656447047966 -0.046720859884537502 0 -0.029587784680515313 -0.042463605024216325 0 -0.039191180903278874 -0.036898636571659885 0 -0.039191180903278874 -0.036898636571659885 0 -0.045935773680955291 -0.036616840998152149 0 -0.043418461949384479 -0.034088690900402834 0 -0.044507941206704475 -0.040027687790427306 0 -0.039191180903278874 -0.036898636571659885 0 -0.045935773680955291 -0.036616840998152149 0 -0.045935773680955291 -0.036616840998152149 0 -0.05044616695860718 -0.037302521057850063 0 -0.049418382470390709 -0.034478653039739737 0 -0.047961513554153609 -0.038425841583329373 0 -0.045935773680955291 -0.036616840998152149 0 -0.05044616695860718 -0.037302521057850063 0 -0.049418382470390709 -0.034478653039739737 0 -0.046107697027735199 -0.033230011435747817 0 -0.04843585392904718 -0.031297302655512928 0 -0.045935773680955291 -0.036616840998152149 0 -0.049418382470390709 -0.034478653039739737 0 -0.046107697027735199 -0.033230011435747817 0 -0.046107697027735199 -0.033230011435747817 0 -0.046371862224321908 -0.031024600108706741 0 -0.04843585392904718 -0.031297302655512928 0 -0.05096566883159008 -0.032325109249574518 0 -0.049418382470390709 -0.034478653039739737 0 -0.04843585392904718 -0.031297302655512928 0 -0.039191180903278874 -0.036898636571659885 0 -0.043418461949384479 -0.034088690900402834 0 -0.041028737925169957 -0.031546920215647735 0 -0.045935773680955291 -0.036616840998152149 0 -0.046107697027735199 -0.033230011435747817 0 -0.043418461949384479 -0.034088690900402834 0 -0.046107697027735199 -0.033230011435747817 0 -0.043418461949384479 -0.034088690900402834 0 -0.044430970976828993 -0.030566931290550589 0 -0.046107697027735199 -0.033230011435747817 0 -0.046371862224321908 -0.031024600108706741 0 -0.044430970976828993 -0.030566931290550589 0 -0.043418461949384479 -0.034088690900402834 0 -0.041028737925169957 -0.031546920215647735 0 -0.044430970976828993 -0.030566931290550589 0 -0.041028737925169957 -0.031546920215647735 0 -0.042704486238424419 -0.028868186088670925 0 -0.044430970976828993 -0.030566931290550589 0 -0.041028737925169957 -0.031546920215647735 0 -0.042704486238424419 -0.028868186088670925 0 -0.040350807144884759 -0.028000739098062201 0 -0.044430970976828993 -0.030566931290550589 0 -0.044653316473722643 -0.028135559977676194 0 -0.046801808824194747 -0.029236176563037695 0 -0.042704486238424419 -0.028868186088670925 0 -0.044430970976828993 -0.030566931290550589 0 -0.044653316473722643 -0.028135559977676194 0 -0.042704486238424419 -0.028868186088670925 0 -0.044653316473722643 -0.028135559977676194 0 -0.042984057857086068 -0.027015826703851432 0 -0.044653316473722643 -0.028135559977676194 0 -0.046295879141807265 -0.027041556964672444 0 -0.044652608812379445 -0.026251690217926338 0 -0.044653316473722643 -0.028135559977676194 0 -0.042984057857086068 -0.027015826703851432 0 -0.044652608812379445 -0.026251690217926338 0 -0.042704486238424419 -0.028868186088670925 0 -0.042984057857086068 -0.027015826703851432 0 -0.040350807144884759 -0.028000739098062201 0 -0.042984057857086068 -0.027015826703851432 0 -0.041720009586470867 -0.025949855362897234 0 -0.040350807144884759 -0.028000739098062201 0 -0.050391256101782571 -0.030628773402545363 0 -0.04843585392904718 -0.031297302655512928 0 -0.049255188206582708 -0.029091790597394505 0 -0.04843585392904718 -0.031297302655512928 0 -0.049255188206582708 -0.029091790597394505 0 -0.046801808824194747 -0.029236176563037695 0 -0.046371862224321908 -0.031024600108706741 0 -0.044430970976828993 -0.030566931290550589 0 -0.046801808824194747 -0.029236176563037695 0 -0.046371862224321908 -0.031024600108706741 0 -0.04843585392904718 -0.031297302655512928 0 -0.046801808824194747 -0.029236176563037695 0 -0.046801808824194747 -0.029236176563037695 0 -0.046295879141807265 -0.027041556964672444 0 -0.047939280427337062 -0.027439062137486876 0 -0.044653316473722643 -0.028135559977676194 0 -0.046801808824194747 -0.029236176563037695 0 -0.046295879141807265 -0.027041556964672444 0 -0.049255188206582708 -0.029091790597394505 0 -0.046801808824194747 -0.029236176563037695 0 -0.047939280427337062 -0.027439062137486876 0 -0.04954621683500484 -0.027175450443433901 0 -0.049255188206582708 -0.029091790597394505 0 -0.047939280427337062 -0.027439062137486876 0 -0.065670158901944761 -0.049241840710714031 0 -0.054667625806607785 -0.054846730648220252 0 -0.05045360672572486 -0.024423080751776433 0 -0.0461679776588566 -0.023840888889470269 0 -0.047696720882658881 -0.024625563317881825 0 -0.087418260105148443 -0.057348023460676988 0 -0.088829428172183159 -0.057954900943380759 0 -0.087697051001232124 -0.057859420569563252 0 -0.05045360672572486 -0.024423080751776433 0 -0.0461679776588566 -0.023840888889470269 0 -0.043711554367319355 -0.021978127746027039 0 -0.048975099852411878 -0.025272200766365598 0 -0.048505246693175789 -0.026229866973415492 0 -0.047846054621436734 -0.025393233667975253 0 -0.04947495587846968 -0.026054887751219575 0 -0.048975099852411878 -0.025272200766365598 0 -0.048505246693175789 -0.026229866973415492 0 -0.04947495587846968 -0.026054887751219575 0 -0.04954621683500484 -0.027175450443433901 0 -0.048505246693175789 -0.026229866973415492 0 -0.04954621683500484 -0.027175450443433901 0 -0.047939280427337062 -0.027439062137486876 0 -0.048505246693175789 -0.026229866973415492 0 -0.047939280427337062 -0.027439062137486876 0 -0.048505246693175789 -0.026229866973415492 0 -0.047218610530130593 -0.026022895765156567 0 -0.048975099852411878 -0.025272200766365598 0 -0.047846054621436734 -0.025393233667975253 0 -0.047696720882658881 -0.024625563317881825 0 -0.048505246693175789 -0.026229866973415492 0 -0.047846054621436734 -0.025393233667975253 0 -0.047218610530130593 -0.026022895765156567 0 -0.047846054621436734 -0.025393233667975253 0 -0.047066681052348687 -0.025165904558883775 0 -0.047696720882658881 -0.024625563317881825 0 -0.047066681052348687 -0.025165904558883775 0 -0.047218610530130593 -0.026022895765156567 0 -0.046071588384919433 -0.025207553220211735 0 -0.047066681052348687 -0.025165904558883775 0 -0.046071588384919433 -0.025207553220211735 0 -0.04649198935754522 -0.024580886897853343 0 -0.047846054621436734 -0.025393233667975253 0 -0.047066681052348687 -0.025165904558883775 0 -0.047218610530130593 -0.026022895765156567 0 -0.046295879141807265 -0.027041556964672444 0 -0.047939280427337062 -0.027439062137486876 0 -0.047218610530130593 -0.026022895765156567 0 -0.046295879141807265 -0.027041556964672444 0 -0.047218610530130593 -0.026022895765156567 0 -0.046071588384919433 -0.025207553220211735 0 -0.046295879141807265 -0.027041556964672444 0 -0.046071588384919433 -0.025207553220211735 0 -0.044652608812379445 -0.026251690217926338 0 -0.045657010109490935 -0.024400097283113282 0 -0.0461679776588566 -0.023840888889470269 0 -0.045014294705036345 -0.023996778548562234 0 -0.046071588384919433 -0.025207553220211735 0 -0.045657010109490935 -0.024400097283113282 0 -0.044578598130981965 -0.024669935259920492 0 -0.046071588384919433 -0.025207553220211735 0 -0.045657010109490935 -0.024400097283113282 0 -0.04649198935754522 -0.024580886897853343 0 -0.045657010109490935 -0.024400097283113282 0 -0.0461679776588566 -0.023840888889470269 0 -0.04649198935754522 -0.024580886897853343 0 -0.0461679776588566 -0.023840888889470269 0 -0.04649198935754522 -0.024580886897853343 0 -0.047696720882658881 -0.024625563317881825 0 -0.047066681052348687 -0.025165904558883775 0 -0.04649198935754522 -0.024580886897853343 0 -0.047696720882658881 -0.024625563317881825 0 -0.05045360672572486 -0.024423080751776433 0 -0.048975099852411878 -0.025272200766365598 0 -0.047696720882658881 -0.024625563317881825 0 -0.041949752889967967 -0.024368803726949283 0 -0.039897857075713125 -0.026118854365165318 0 -0.041874520148012753 -0.02152945478794584 0 -0.041720009586470867 -0.025949855362897234 0 -0.041949752889967967 -0.024368803726949283 0 -0.039897857075713125 -0.026118854365165318 0 -0.043306857915337289 -0.025384034849674674 0 -0.043443912638960913 -0.024175178708793675 0 -0.041949752889967967 -0.024368803726949283 0 -0.041720009586470867 -0.025949855362897234 0 -0.043306857915337289 -0.025384034849674674 0 -0.041949752889967967 -0.024368803726949283 0 -0.042984057857086068 -0.027015826703851432 0 -0.041720009586470867 -0.025949855362897234 0 -0.043306857915337289 -0.025384034849674674 0 -0.042984057857086068 -0.027015826703851432 0 -0.044652608812379445 -0.026251690217926338 0 -0.043306857915337289 -0.025384034849674674 0 -0.046071588384919433 -0.025207553220211735 0 -0.044652608812379445 -0.026251690217926338 0 -0.044578598130981965 -0.024669935259920492 0 -0.044652608812379445 -0.026251690217926338 0 -0.043306857915337289 -0.025384034849674674 0 -0.044578598130981965 -0.024669935259920492 0 -0.043306857915337289 -0.025384034849674674 0 -0.043443912638960913 -0.024175178708793675 0 -0.044578598130981965 -0.024669935259920492 0 -0.043443912638960913 -0.024175178708793675 0 -0.044226433504060851 -0.023923382953626518 0 -0.044578598130981965 -0.024669935259920492 0 -0.0461679776588566 -0.023840888889470269 0 -0.044397983453551615 -0.023214441816262352 0 -0.043711554367319355 -0.021978127746027039 0 -0.043443912638960913 -0.024175178708793675 0 -0.044226433504060851 -0.023923382953626518 0 -0.043635314337070477 -0.023363389887441535 0 -0.045657010109490935 -0.024400097283113282 0 -0.044578598130981965 -0.024669935259920492 0 -0.045014294705036345 -0.023996778548562234 0 -0.044226433504060851 -0.023923382953626518 0 -0.044578598130981965 -0.024669935259920492 0 -0.045014294705036345 -0.023996778548562234 0 -0.0461679776588566 -0.023840888889470269 0 -0.045014294705036345 -0.023996778548562234 0 -0.044397983453551615 -0.023214441816262352 0 -0.044226433504060851 -0.023923382953626518 0 -0.045014294705036345 -0.023996778548562234 0 -0.044397983453551615 -0.023214441816262352 0 -0.043443912638960913 -0.024175178708793675 0 -0.043635314337070477 -0.023363389887441535 0 -0.042920856098343806 -0.023099527284030474 0 -0.044397983453551615 -0.023214441816262352 0 -0.043635314337070477 -0.023363389887441535 0 -0.043711554367319355 -0.021978127746027039 0 -0.043635314337070477 -0.023363389887441535 0 -0.042920856098343806 -0.023099527284030474 0 -0.043711554367319355 -0.021978127746027039 0 -0.044226433504060851 -0.023923382953626518 0 -0.044397983453551615 -0.023214441816262352 0 -0.043635314337070477 -0.023363389887441535 0 -0.042920856098343806 -0.023099527284030474 0 -0.041949752889967967 -0.024368803726949283 0 -0.041874520148012753 -0.02152945478794584 0 -0.043443912638960913 -0.024175178708793675 0 -0.042920856098343806 -0.023099527284030474 0 -0.041949752889967967 -0.024368803726949283 0 -0.041353740113956448 -0.04619849527859498 0 -0.048495281203848849 -0.054006997844531952 0 -0.019905978584207628 -0.052698200929739772 0 -0.022911536735824668 -0.055497281862553968 0 -0.022712939478080067 -0.050830943076484267 0 -0.041353740113956448 -0.04619849527859498 0 -0.040645499495547313 -0.055434395020816159 0 -0.019905978584207628 -0.052698200929739772 0 -0.022911536735824668 -0.055497281862553968 0 -0.02281805620825305 -0.059779412865507663 0 -0.022712939478080067 -0.050830943076484267 0 -0.022055094427293507 -0.057545424039856213 0 -0.024005724473053845 -0.0551628325655883 0 -0.022911536735824668 -0.055497281862553968 0 -0.022712939478080067 -0.050830943076484267 0 -0.026208680628527714 -0.058776250749240831 0 -0.022712939478080067 -0.050830943076484267 0 -0.024005724473053845 -0.0551628325655883 0 -0.024895029130543062 -0.052783400810374768 0 -0.02340210729218023 -0.05565474349820293 0 -0.024478296322273618 -0.059345261580025212 0 -0.022712939478080067 -0.050830943076484267 0 -0.024981308172162632 -0.050297627783292775 0 -0.024895029130543062 -0.052783400810374768 0 -0.026286874588576328 -0.048246454305746325 0 -0.024981308172162632 -0.050297627783292775 0 -0.024460146744641812 -0.048832852411024599 0 -0.022651949662319915 -0.0473749832813984 0 -0.022712939478080067 -0.050830943076484267 0 -0.024460146744641812 -0.048832852411024599 0 -0.022712939478080067 -0.050830943076484267 0 -0.024981308172162632 -0.050297627783292775 0 -0.024460146744641812 -0.048832852411024599 0 -0.036539788156068294 -0.044336048635063359 0 -0.041353740113956448 -0.04619849527859498 0 -0.022651949662319915 -0.0473749832813984 0 -0.019905978584207628 -0.052698200929739772 0 -0.022712939478080067 -0.050830943076484267 0 -0.035197904096480277 -0.031565615200199723 0 -0.039260266029831951 -0.024943393514189702 0 -0.040350807144884759 -0.028000739098062201 0 -0.035197904096480277 -0.031565615200199723 0 -0.041028737925169957 -0.031546920215647735 0 -0.040350807144884759 -0.028000739098062201 0 -0.041720009586470867 -0.025949855362897234 0 -0.039897857075713125 -0.026118854365165318 0 -0.040350807144884759 -0.028000739098062201 0 -0.041353740113956448 -0.04619849527859498 0 -0.040649994856943102 -0.043826390210268858 0 -0.049449897943127916 -0.060431519461516002 0 -0.04956053762738568 -0.060153673351678094 0 -0.049722063583396162 -0.060595474143217976 0 -0.049449897943127916 -0.060431519461516002 0 -0.04954447201678544 -0.060622266956663055 0 -0.049722063583396162 -0.060595474143217976 0 -0.049449897943127916 -0.060431519461516002 0 -0.04956053762738568 -0.060153673351678094 0 -0.049415103946970476 -0.060262074912783764 0 -0.049449897943127916 -0.060431519461516002 0 -0.049415103946970476 -0.060262074912783764 0 -0.049307541582645754 -0.060338850229693895 0 -0.049449897943127916 -0.060431519461516002 0 -0.049292175045051415 -0.060502492723290044 0 -0.049359190085727471 -0.060619971231221592 0 -0.049449897943127916 -0.060431519461516002 0 -0.04954447201678544 -0.060622266956663055 0 -0.049359190085727471 -0.060619971231221592 0 -0.049449897943127916 -0.060431519461516002 0 -0.049307541582645754 -0.060338850229693895 0 -0.049292175045051415 -0.060502492723290044 0 -0.026280145139383811 -0.060611633777820084 0 -0.026208680628527714 -0.058776250749240831 0 -0.02904596434359704 -0.066382018341130014 0 -0.040645499495547313 -0.055434395020816159 0 -0.040960481460074402 -0.063945831904978406 0 -0.026280145139383811 -0.060611633777820084 0 -0.025958108151457396 -0.066039088399423906 0 -0.02904596434359704 -0.066382018341130014 0 -0.026280145139383811 -0.060611633777820084 0 -0.023272939708768352 -0.059727835536561913 0 -0.025958108151457396 -0.066039088399423906 0 -0.024478296322273618 -0.059345261580025212 0 -0.026384412506784364 -0.065619024766288975 0 -0.026280145139383811 -0.060611633777820084 0 -0.026208680628527714 -0.058776250749240831 0 -0.02281805620825305 -0.059779412865507663 0 -0.03807227167153017 -0.055172001912307964 0 -0.040645499495547313 -0.055434395020816159 0 -0.022055094427293507 -0.057545424039856213 0 -0.024005724473053845 -0.0551628325655883 0 -0.024320063838716099 -0.057678375846799274 0 -0.022911536735824668 -0.055497281862553968 0 -0.026208680628527714 -0.058776250749240831 0 -0.02281805620825305 -0.059779412865507663 0 -0.041675486810644563 -0.051845766245162794 0 -0.043098588908554912 -0.055500861595587099 0 -0.040517226279000236 -0.054743759851522411 0 -0.04956053762738568 -0.060153673351678094 0 -0.049415103946970476 -0.060262074912783764 0 -0.049268341314639703 -0.060069003740940832 0 -0.040645499495547313 -0.055434395020816159 0 -0.048495281203848849 -0.054006997844531952 0 -0.049415103946970476 -0.060262074912783764 0 -0.049268341314639703 -0.060069003740940832 0 -0.049307541582645754 -0.060338850229693895 0 -0.049460255737696524 -0.059660967923803584 0 -0.04921460366773181 -0.059594217555133597 0 -0.049126684574959646 -0.060464138242148517 0 -0.054667625806607785 -0.054846730648220252 0 -0.060059451725657208 -0.058769906386536945 0 -0.048495281203848849 -0.054006997844531952 0 -0.054667625806607785 -0.054846730648220252 0 -0.042920856098343806 -0.023099527284030474 0 -0.041874520148012753 -0.02152945478794584 0 -0.043711554367319355 -0.021978127746027039 0 -0.088829428172183159 -0.057954900943380759 0 -0.087697051001232124 -0.057859420569563252 0 -0.088090309000852601 -0.058430995747626051 0 -0.088829428172183159 -0.057954900943380759 0 -0.088090309000852601 -0.058430995747626051 0 -0.088232663626731891 -0.059414679504341324 0 -0.087697051001232124 -0.057859420569563252 0 -0.088090309000852601 -0.058430995747626051 0 -0.087601759039031876 -0.058525821779130925 0 -0.088090309000852601 -0.058430995747626051 0 -0.088232663626731891 -0.059414679504341324 0 -0.087601759039031876 -0.058525821779130925 0 -0.088232663626731891 -0.059414679504341324 0 -0.087087238344674689 -0.059002308887813368 0 -0.087601759039031876 -0.058525821779130925 0 -0.048495281203848849 -0.054006997844531952 0 -0.04785706312760378 -0.057274535543072796 0 -0.049268341314639703 -0.060069003740940832 0 -0.049307541582645754 -0.060338850229693895 0 -0.049126684574959646 -0.060464138242148517 0 -0.04921460366773181 -0.059594217555133597 0 -0.0488951118662126 -0.060470645086364655 0 -0.049126684574959646 -0.060464138242148517 0 -0.0488951118662126 -0.060470645086364655 0 -0.049126684574959646 -0.060464138242148517 0 -0.049124521199313959 -0.060664551251901407 0 -0.049126684574959646 -0.060464138242148517 0 -0.049292175045051415 -0.060502492723290044 0 -0.049124521199313959 -0.060664551251901407 0 -0.049307541582645754 -0.060338850229693895 0 -0.049126684574959646 -0.060464138242148517 0 -0.049292175045051415 -0.060502492723290044 0 -0.049292175045051415 -0.060502492723290044 0 -0.049124521199313959 -0.060664551251901407 0 -0.049359190085727471 -0.060619971231221592 0 -0.049124521199313959 -0.060664551251901407 0 -0.048721106590892925 -0.06104102203001064 0 -0.049287623949192123 -0.060879518252248237 0 -0.049124521199313959 -0.060664551251901407 0 -0.049287623949192123 -0.060879518252248237 0 -0.049359190085727471 -0.060619971231221592 0 -0.0488951118662126 -0.060470645086364655 0 -0.049124521199313959 -0.060664551251901407 0 -0.048721106590892925 -0.06104102203001064 0 -0.088232663626731891 -0.059414679504341324 0 -0.087624685858928353 -0.060865222401696777 0 -0.087075724576405333 -0.060062962983159815 0 -0.060059451725657208 -0.058769906386536945 0 -0.056881761115698967 -0.068857760712536659 0 -0.056881761115698967 -0.068857760712536659 0 -0.046466359990833275 -0.070112664700199945 0 -0.046814031105583118 -0.085576420944109319 0 -0.042529493916998999 -0.086378311217526385 0 -0.043145818073849575 -0.083620053936705782 0 -0.042529493916998999 -0.086378311217526385 0 -0.040617849074966225 -0.085204320069757894 0 -0.043145818073849575 -0.083620053936705782 0 -0.042529493916998999 -0.086378311217526385 0 -0.040617849074966225 -0.085204320069757894 0 -0.038221954307656687 -0.087178623534335711 0 -0.040617849074966225 -0.085204320069757894 0 -0.039716137261798352 -0.084227937230962446 0 -0.040627395561850257 -0.083242951669916784 0 -0.049287623949192123 -0.060879518252248237 0 -0.04954447201678544 -0.060622266956663055 0 -0.049778917060799066 -0.060758865967774196 0 -0.046466359990833275 -0.070112664700199945 0 -0.041680895392202183 -0.067577820549926282 0 -0.049287623949192123 -0.060879518252248237 0 -0.04954447201678544 -0.060622266956663055 0 -0.049359190085727471 -0.060619971231221592 0 -0.025958108151457396 -0.066039088399423906 0 -0.027117597621395952 -0.068159083311315774 0 -0.02904596434359704 -0.066382018341130014 0 -0.040960481460074402 -0.063945831904978406 0 -0.041680895392202183 -0.067577820549926282 0 -0.04954447201678544 -0.060622266956663055 0 -0.049722063583396162 -0.060595474143217976 0 -0.049778917060799066 -0.060758865967774196 0 -0.038627768847656549 -0.085584969743058972 0 -0.037667133675726897 -0.081994991719003568 0 -0.037366563703135243 -0.085092365960164423 0 -0.038221954307656687 -0.087178623534335711 0 -0.038627768847656549 -0.085584969743058972 0 -0.037366563703135243 -0.085092365960164423 0 -0.040617849074966225 -0.085204320069757894 0 -0.038221954307656687 -0.087178623534335711 0 -0.038627768847656549 -0.085584969743058972 0 -0.041680895392202183 -0.067577820549926282 0 -0.039214969165584868 -0.072629106651234898 0 -0.038627768847656549 -0.085584969743058972 0 -0.039716137261798352 -0.084227937230962446 0 -0.039140766431794441 -0.083120680107545267 0 -0.040617849074966225 -0.085204320069757894 0 -0.038627768847656549 -0.085584969743058972 0 -0.039716137261798352 -0.084227937230962446 0 -0.037998119165593383 -0.083282377596150967 0 -0.037566404134816225 -0.081578804432890964 0 -0.038627768847656549 -0.085584969743058972 0 -0.039140766431794441 -0.083120680107545267 0 -0.037772487033607513 -0.082095692689519231 0 -0.039716137261798352 -0.084227937230962446 0 -0.039140766431794441 -0.083120680107545267 0 -0.040627395561850257 -0.083242951669916784 0 -0.039140766431794441 -0.083120680107545267 0 -0.040627395561850257 -0.083242951669916784 0 -0.039665025577634017 -0.081596225947293433 0 -0.039140766431794441 -0.083120680107545267 0 -0.037772487033607513 -0.082095692689519231 0 -0.039665025577634017 -0.081596225947293433 0 -0.040627395561850257 -0.083242951669916784 0 -0.041418294170091942 -0.081647387938658736 0 -0.043145818073849575 -0.083620053936705782 0 -0.040617849074966225 -0.085204320069757894 0 -0.040627395561850257 -0.083242951669916784 0 -0.043145818073849575 -0.083620053936705782 0 -0.040627395561850257 -0.083242951669916784 0 -0.041418294170091942 -0.081647387938658736 0 -0.039665025577634017 -0.081596225947293433 0 -0.041418294170091942 -0.081647387938658736 0 -0.040728825265201329 -0.079908007137647188 0 -0.043244638091593172 -0.080600914896688997 0 -0.041418294170091942 -0.081647387938658736 0 -0.040728825265201329 -0.079908007137647188 0 -0.039665025577634017 -0.081596225947293433 0 -0.037772487033607513 -0.082095692689519231 0 -0.038807577137603549 -0.07992760524909448 0 -0.036840982893547633 -0.078569008465333948 0 -0.037772487033607513 -0.082095692689519231 0 -0.039665025577634017 -0.081596225947293433 0 -0.038807577137603549 -0.07992760524909448 0 -0.040728825265201329 -0.079908007137647188 0 -0.039665025577634017 -0.081596225947293433 0 -0.038807577137603549 -0.07992760524909448 0 -0.040728825265201329 -0.079908007137647188 0 -0.038807577137603549 -0.07992760524909448 0 -0.039035409826812986 -0.077451305040190599 0 -0.038807577137603549 -0.07992760524909448 0 -0.039035409826812986 -0.077451305040190599 0 -0.036840982893547633 -0.078569008465333948 0 -0.040728825265201329 -0.079908007137647188 0 -0.039035409826812986 -0.077451305040190599 0 -0.042210086333250151 -0.077746616175745853 0 -0.040728825265201329 -0.079908007137647188 0 -0.042210086333250151 -0.077746616175745853 0 -0.043244638091593172 -0.080600914896688997 0 -0.040007063941951151 -0.074999969244431919 0 -0.044131725094824985 -0.074999976865436718 0 -0.042210086333250151 -0.077746616175745853 0 -0.039035409826812986 -0.077451305040190599 0 -0.040007063941951151 -0.074999969244431919 0 -0.042210086333250151 -0.077746616175745853 0 -0.039035409826812986 -0.077451305040190599 0 -0.040007063941951151 -0.074999969244431919 0 -0.035882440010789003 -0.074999988429300557 0 -0.044131725094824985 -0.074999976865436718 0 -0.046101640516433819 -0.078605396978191813 0 -0.048256462711254028 -0.074999943332412194 0 -0.044131725094824985 -0.074999976865436718 0 -0.042210086333250151 -0.077746616175745853 0 -0.046101640516433819 -0.078605396978191813 0 -0.042210086333250151 -0.077746616175745853 0 -0.046101640516433819 -0.078605396978191813 0 -0.043244638091593172 -0.080600914896688997 0 -0.046101640516433819 -0.078605396978191813 0 -0.045558907575491629 -0.082035204603478712 0 -0.048488484835694137 -0.081746220313380233 0 -0.046101640516433819 -0.078605396978191813 0 -0.043244638091593172 -0.080600914896688997 0 -0.045558907575491629 -0.082035204603478712 0 -0.043244638091593172 -0.080600914896688997 0 -0.043145818073849575 -0.083620053936705782 0 -0.045558907575491629 -0.082035204603478712 0 -0.041418294170091942 -0.081647387938658736 0 -0.043244638091593172 -0.080600914896688997 0 -0.043145818073849575 -0.083620053936705782 0 -0.046814031105583118 -0.085576420944109319 0 -0.043145818073849575 -0.083620053936705782 0 -0.045558907575491629 -0.082035204603478712 0 -0.047290205087660561 -0.085293519240799531 0 -0.048801032882872575 -0.081646334089962774 0 -0.051041375481618273 -0.084644311273137249 0 -0.046814031105583118 -0.085576420944109319 0 -0.045558907575491629 -0.082035204603478712 0 -0.048488484835694137 -0.081746220313380233 0 -0.056881761115698967 -0.068857760712536659 0 -0.050864345286725475 -0.079710307346478451 0 -0.048801032882872575 -0.081646334089962774 0 -0.052130434441124709 -0.080879530146487702 0 -0.051041375481618273 -0.084644311273137249 0 -0.050864345286725475 -0.079710307346478451 0 -0.050580065136245689 -0.079492404996497887 0 -0.048801032882872575 -0.081646334089962774 0 -0.050244182980314529 -0.077861986033875508 0 -0.052130434441124709 -0.080879530146487702 0 -0.046101640516433819 -0.078605396978191813 0 -0.048488484835694137 -0.081746220313380233 0 -0.050244182980314529 -0.077861986033875508 0 -0.050244182980314529 -0.077861986033875508 0 -0.048256462711254028 -0.074999943332412194 0 -0.052381199051985822 -0.07499997251606462 0 -0.046101640516433819 -0.078605396978191813 0 -0.050244182980314529 -0.077861986033875508 0 -0.048256462711254028 -0.074999943332412194 0 -0.052381199051985822 -0.07499997251606462 0 -0.05286747931746287 -0.077567772290710477 0 -0.056505833342552263 -0.074999961231326004 0 -0.050244182980314529 -0.077861986033875508 0 -0.052381199051985822 -0.07499997251606462 0 -0.05286747931746287 -0.077567772290710477 0 -0.05286747931746287 -0.077567772290710477 0 -0.054978554900544555 -0.079435800797561323 0 -0.052130434441124709 -0.080879530146487702 0 -0.050244182980314529 -0.077861986033875508 0 -0.05286747931746287 -0.077567772290710477 0 -0.052130434441124709 -0.080879530146487702 0 -0.05286747931746287 -0.077567772290710477 0 -0.054978554900544555 -0.079435800797561323 0 -0.056505833342552263 -0.074999961231326004 0 -0.054978554900544555 -0.079435800797561323 0 -0.054944237647509296 -0.084001241536472829 0 -0.057436705566706006 -0.081073308929396279 0 -0.054978554900544555 -0.079435800797561323 0 -0.052130434441124709 -0.080879530146487702 0 -0.054944237647509296 -0.084001241536472829 0 -0.052130434441124709 -0.080879530146487702 0 -0.054944237647509296 -0.084001241536472829 0 -0.051041375481618273 -0.084644311273137249 0 -0.085002221184370452 -0.061566016888904389 0 -0.085212722640565092 -0.060430888748785203 0 -0.084371896925396844 -0.06098833018114555 0 -0.084671378259716448 -0.059847283884535356 0 -0.083966469178987119 -0.059332999749546221 0 -0.085212722640565092 -0.060430888748785203 0 -0.085170550424862448 -0.059371271284338355 0 -0.083637908984099174 -0.059149567704309722 0 -0.085212722640565092 -0.060430888748785203 0 -0.086259382519201788 -0.059813895952121603 0 -0.085170550424862448 -0.059371271284338355 0 -0.085212722640565092 -0.060430888748785203 0 -0.086211391401000495 -0.061192117328703888 0 -0.086259382519201788 -0.059813895952121603 0 -0.085002221184370452 -0.061566016888904389 0 -0.085212722640565092 -0.060430888748785203 0 -0.086211391401000495 -0.061192117328703888 0 -0.069461595632420006 -0.071123160150832296 0 -0.066517191014976926 -0.070343230398035625 0 -0.056881761115698967 -0.068857760712536659 0 -0.066517191014976926 -0.070343230398035625 0 -0.087624685858928353 -0.060865222401696777 0 -0.086211391401000495 -0.061192117328703888 0 -0.087075724576405333 -0.060062962983159815 0 -0.086211391401000495 -0.061192117328703888 0 -0.087075724576405333 -0.060062962983159815 0 -0.086259382519201788 -0.059813895952121603 0 -0.086259382519201788 -0.059813895952121603 0 -0.086401040156290645 -0.05888022169834832 0 -0.08575179383789315 -0.058769746642118446 0 -0.086259382519201788 -0.059813895952121603 0 -0.086401040156290645 -0.05888022169834832 0 -0.087087238344674689 -0.059002308887813368 0 -0.086401040156290645 -0.05888022169834832 0 -0.087087238344674689 -0.059002308887813368 0 -0.086705573839319747 -0.058275569853063224 0 -0.086401040156290645 -0.05888022169834832 0 -0.086225395326945842 -0.058431630062387233 0 -0.08575179383789315 -0.058769746642118446 0 -0.087075724576405333 -0.060062962983159815 0 -0.086259382519201788 -0.059813895952121603 0 -0.087087238344674689 -0.059002308887813368 0 -0.088232663626731891 -0.059414679504341324 0 -0.087075724576405333 -0.060062962983159815 0 -0.087087238344674689 -0.059002308887813368 0 -0.087087238344674689 -0.059002308887813368 0 -0.087601759039031876 -0.058525821779130925 0 -0.087149530891020052 -0.058353521672236543 0 -0.087601759039031876 -0.058525821779130925 0 -0.087149530891020052 -0.058353521672236543 0 -0.087341599594149832 -0.058017097825424635 0 -0.087087238344674689 -0.059002308887813368 0 -0.087149530891020052 -0.058353521672236543 0 -0.086705573839319747 -0.058275569853063224 0 -0.087149530891020052 -0.058353521672236543 0 -0.087015035447663758 -0.05796930826212425 0 -0.086705573839319747 -0.058275569853063224 0 -0.086747767233041465 -0.057822316114942388 0 -0.087015035447663758 -0.05796930826212425 0 -0.086705573839319747 -0.058275569853063224 0 -0.086747767233041465 -0.057822316114942388 0 -0.086893467194733634 -0.057789244047376585 0 -0.087015035447663758 -0.05796930826212425 0 -0.087135087880080495 -0.05773305874337066 0 -0.086893467194733634 -0.057789244047376585 0 -0.087015035447663758 -0.05796930826212425 0 -0.087697051001232124 -0.057859420569563252 0 -0.087601759039031876 -0.058525821779130925 0 -0.087341599594149832 -0.058017097825424635 0 -0.087149530891020052 -0.058353521672236543 0 -0.087015035447663758 -0.05796930826212425 0 -0.087341599594149832 -0.058017097825424635 0 -0.087135087880080495 -0.05773305874337066 0 -0.087015035447663758 -0.05796930826212425 0 -0.087341599594149832 -0.058017097825424635 0 -0.087397987094504997 -0.057758565901837755 0 -0.087135087880080495 -0.05773305874337066 0 -0.087341599594149832 -0.058017097825424635 0 -0.087397987094504997 -0.057758565901837755 0 -0.087697051001232124 -0.057859420569563252 0 -0.087341599594149832 -0.058017097825424635 0 -0.086225395326945842 -0.058431630062387233 0 -0.086340634476529302 -0.058031534098364881 0 -0.085917512996507447 -0.058207819665868299 0 -0.086401040156290645 -0.05888022169834832 0 -0.086225395326945842 -0.058431630062387233 0 -0.086705573839319747 -0.058275569853063224 0 -0.086225395326945842 -0.058431630062387233 0 -0.086705573839319747 -0.058275569853063224 0 -0.086340634476529302 -0.058031534098364881 0 -0.086747767233041465 -0.057822316114942388 0 -0.086705573839319747 -0.058275569853063224 0 -0.086577351330219626 -0.057985683542614422 0 -0.086705573839319747 -0.058275569853063224 0 -0.086577351330219626 -0.057985683542614422 0 -0.086340634476529302 -0.058031534098364881 0 -0.086747767233041465 -0.057822316114942388 0 -0.086577351330219626 -0.057985683542614422 0 -0.086494773865317898 -0.057787126865775924 0 -0.086577351330219626 -0.057985683542614422 0 -0.086494773865317898 -0.057787126865775924 0 -0.086340634476529302 -0.058031534098364881 0 -0.0862362913795722 -0.057688748855488303 0 -0.086340634476529302 -0.058031534098364881 0 -0.086065150192367407 -0.057855796998527019 0 -0.086340634476529302 -0.058031534098364881 0 -0.086065150192367407 -0.057855796998527019 0 -0.085917512996507447 -0.058207819665868299 0 -0.0862362913795722 -0.057688748855488303 0 -0.086494773865317898 -0.057787126865775924 0 -0.086340634476529302 -0.058031534098364881 0 -0.085368993699957457 -0.058071554084881474 0 -0.084793235270028286 -0.058614554965585729 0 -0.08575179383789315 -0.058769746642118446 0 -0.085794583753889972 -0.057736047143371057 0 -0.086065150192367407 -0.057855796998527019 0 -0.085917512996507447 -0.058207819665868299 0 -0.085794583753889972 -0.057736047143371057 0 -0.085917512996507447 -0.058207819665868299 0 -0.085368993699957457 -0.058071554084881474 0 -0.085917512996507447 -0.058207819665868299 0 -0.085368993699957457 -0.058071554084881474 0 -0.08575179383789315 -0.058769746642118446 0 -0.086225395326945842 -0.058431630062387233 0 -0.085917512996507447 -0.058207819665868299 0 -0.08575179383789315 -0.058769746642118446 0 -0.0853734786680833 -0.057559044906058586 0 -0.085794583753889972 -0.057736047143371057 0 -0.085368993699957457 -0.058071554084881474 0 -0.084588343279489386 -0.057605507202374652 0 -0.085368993699957457 -0.058071554084881474 0 -0.084793235270028286 -0.058614554965585729 0 -0.084588343279489386 -0.057605507202374652 0 -0.084793235270028286 -0.058614554965585729 0 -0.083637908984099174 -0.059149567704309722 0 -0.084588343279489386 -0.057605507202374652 0 -0.0853734786680833 -0.057559044906058586 0 -0.085368993699957457 -0.058071554084881474 0 -0.084793235270028286 -0.058614554965585729 0 -0.085170550424862448 -0.059371271284338355 0 -0.083637908984099174 -0.059149567704309722 0 -0.084793235270028286 -0.058614554965585729 0 -0.085170550424862448 -0.059371271284338355 0 -0.08575179383789315 -0.058769746642118446 0 -0.086259382519201788 -0.059813895952121603 0 -0.085170550424862448 -0.059371271284338355 0 -0.08575179383789315 -0.058769746642118446 0 -0.083966469178987119 -0.059332999749546221 0 -0.082756773113511942 -0.058407234950604014 0 -0.084372360700526672 -0.059895027545783935 0 -0.083164674630256341 -0.058664642140115388 0 -0.083428489704443137 -0.060688494460377648 0 -0.083238110655311781 -0.057459557163131753 0 -0.084588343279489386 -0.057605507202374652 0 -0.083637908984099174 -0.059149567704309722 0 -0.083238110655311781 -0.057459557163131753 0 -0.083637908984099174 -0.059149567704309722 0 -0.082366537821692842 -0.058013907523661562 0 -0.081968712147536454 -0.057808693824879819 0 -0.082756773113511942 -0.058407234950604014 0 -0.081332370215110888 -0.056982413447059926 0 -0.083164674630256341 -0.058664642140115388 0 -0.081737176378572488 -0.058714687521772474 0 -0.081737176378572488 -0.058714687521772474 0 -0.082302113298977575 -0.059915058181670394 0 -0.081257616156207996 -0.059561499775004627 0 -0.082302113298977575 -0.059915058181670394 0 -0.081600724051800147 -0.060630289907661346 0 -0.081257616156207996 -0.059561499775004627 0 -0.083164674630256341 -0.058664642140115388 0 -0.081737176378572488 -0.058714687521772474 0 -0.082302113298977575 -0.059915058181670394 0 -0.083164674630256341 -0.058664642140115388 0 -0.082302113298977575 -0.059915058181670394 0 -0.083428489704443137 -0.060688494460377648 0 -0.082302113298977575 -0.059915058181670394 0 -0.082238169946207029 -0.061279150239186314 0 -0.083428489704443137 -0.060688494460377648 0 -0.082302113298977575 -0.059915058181670394 0 -0.081600724051800147 -0.060630289907661346 0 -0.082238169946207029 -0.061279150239186314 0 -0.081600724051800147 -0.060630289907661346 0 -0.082238169946207029 -0.061279150239186314 0 -0.08109374511067044 -0.061539106128564953 0 -0.082238169946207029 -0.061279150239186314 0 -0.081327467162106176 -0.06249092326307152 0 -0.08109374511067044 -0.061539106128564953 0 -0.082238169946207029 -0.061279150239186314 0 -0.081327467162106176 -0.06249092326307152 0 -0.082376396538148072 -0.062258468400343728 0 -0.082238169946207029 -0.061279150239186314 0 -0.083029672199994797 -0.061555853548242501 0 -0.083428489704443137 -0.060688494460377648 0 -0.082238169946207029 -0.061279150239186314 0 -0.083029672199994797 -0.061555853548242501 0 -0.082376396538148072 -0.062258468400343728 0 -0.083029672199994797 -0.061555853548242501 0 -0.082376396538148072 -0.062258468400343728 0 -0.083246674072988858 -0.062197174328132702 0 -0.083623035643309307 -0.061513610550888276 0 -0.084371896925396844 -0.06098833018114555 0 -0.0838984801380806 -0.062183821391511372 0 -0.083623035643309307 -0.061513610550888276 0 -0.083428489704443137 -0.060688494460377648 0 -0.084371896925396844 -0.06098833018114555 0 -0.083029672199994797 -0.061555853548242501 0 -0.083623035643309307 -0.061513610550888276 0 -0.083246674072988858 -0.062197174328132702 0 -0.083029672199994797 -0.061555853548242501 0 -0.083623035643309307 -0.061513610550888276 0 -0.083428489704443137 -0.060688494460377648 0 -0.085212722640565092 -0.060430888748785203 0 -0.084372360700526672 -0.059895027545783935 0 -0.084371896925396844 -0.06098833018114555 0 -0.084372360700526672 -0.059895027545783935 0 -0.083428489704443137 -0.060688494460377648 0 -0.084371896925396844 -0.06098833018114555 0 -0.085002221184370452 -0.061566016888904389 0 -0.084371896925396844 -0.06098833018114555 0 -0.0838984801380806 -0.062183821391511372 0 -0.069461595632420006 -0.071123160150832296 0 -0.071552859733479648 -0.070882886323802116 0 -0.054944237647509296 -0.084001241536472829 0 -0.058947329815208949 -0.083303027762288692 0 -0.057436705566706006 -0.081073308929396279 0 -0.058947329815208949 -0.083303027762288692 0 -0.060577931411477041 -0.081046723832192483 0 -0.062958843598709485 -0.082553222637221813 0 -0.071552859733479648 -0.070882886323802116 0 -0.075636976775223089 -0.069043657068027203 0 -0.083623035643309307 -0.061513610550888276 0 -0.0838984801380806 -0.062183821391511372 0 -0.083246674072988858 -0.062197174328132702 0 -0.058947329815208949 -0.083303027762288692 0 -0.060577931411477041 -0.081046723832192483 0 -0.057436705566706006 -0.081073308929396279 0 -0.060577931411477041 -0.081046723832192483 0 -0.057436705566706006 -0.081073308929396279 0 -0.058593636543707882 -0.078340589270394459 0 -0.054978554900544555 -0.079435800797561323 0 -0.057436705566706006 -0.081073308929396279 0 -0.058593636543707882 -0.078340589270394459 0 -0.054978554900544555 -0.079435800797561323 0 -0.058593636543707882 -0.078340589270394459 0 -0.056505833342552263 -0.074999961231326004 0 -0.058593636543707882 -0.078340589270394459 0 -0.060630551857176446 -0.0749999562488224 0 -0.062234659422486058 -0.078912179406415858 0 -0.060577931411477041 -0.081046723832192483 0 -0.058593636543707882 -0.078340589270394459 0 -0.062234659422486058 -0.078912179406415858 0 -0.058593636543707882 -0.078340589270394459 0 -0.060630551857176446 -0.0749999562488224 0 -0.056505833342552263 -0.074999961231326004 0 -0.063849777730179566 -0.077128713170591362 0 -0.064755109188792431 -0.074999949580798447 0 -0.066224650217394584 -0.077184928714572124 0 -0.064764687390285333 -0.074996944920266012 0 -0.068803549484614979 -0.074524022711981774 0 -0.060630551857176446 -0.0749999562488224 0 -0.063849777730179566 -0.077128713170591362 0 -0.062234659422486058 -0.078912179406415858 0 -0.060630551857176446 -0.0749999562488224 0 -0.063849777730179566 -0.077128713170591362 0 -0.064755109188792431 -0.074999949580798447 0 -0.063849777730179566 -0.077128713170591362 0 -0.065078964484257373 -0.078712503326772598 0 -0.066224650217394584 -0.077184928714572124 0 -0.062234659422486058 -0.078912179406415858 0 -0.065078964484257373 -0.078712503326772598 0 -0.06534766289340263 -0.080967275109923881 0 -0.063849777730179566 -0.077128713170591362 0 -0.062234659422486058 -0.078912179406415858 0 -0.065078964484257373 -0.078712503326772598 0 -0.073759734818255401 -0.071403512472743555 0 -0.075636976775223089 -0.069043657068027203 0 -0.062234659422486058 -0.078912179406415858 0 -0.06534766289340263 -0.080967275109923881 0 -0.062958843598709485 -0.082553222637221813 0 -0.081198146763113127 -0.064235952034458435 0 -0.082318178732301878 -0.063455454467656353 0 -0.081188066191267033 -0.06367008211860728 0 -0.060577931411477041 -0.081046723832192483 0 -0.062234659422486058 -0.078912179406415858 0 -0.062958843598709485 -0.082553222637221813 0 -0.0838984801380806 -0.062183821391511372 0 -0.082594196274023382 -0.062765891069823318 0 -0.083246674072988858 -0.062197174328132702 0 -0.082376396538148072 -0.062258468400343728 0 -0.082427755183300908 -0.063183063764372077 0 -0.083246674072988858 -0.062197174328132702 0 -0.075636976775223089 -0.069043657068027203 0 -0.078141803504035337 -0.067210501067121731 0 -0.082427755183300908 -0.063183063764372077 0 -0.081188066191267033 -0.06367008211860728 0 -0.081702271714755761 -0.062952622145137097 0 -0.075636976775223089 -0.069043657068027203 0 -0.077850513483878461 -0.068165103116138673 0 -0.081188066191267033 -0.06367008211860728 0 -0.081702271714755761 -0.062952622145137097 0 -0.081079389542006081 -0.063163581683578843 0 -0.082376396538148072 -0.062258468400343728 0 -0.082427755183300908 -0.063183063764372077 0 -0.081702271714755761 -0.062952622145137097 0 -0.081327467162106176 -0.06249092326307152 0 -0.082376396538148072 -0.062258468400343728 0 -0.081702271714755761 -0.062952622145137097 0 -0.081327467162106176 -0.06249092326307152 0 -0.081702271714755761 -0.062952622145137097 0 -0.081079389542006081 -0.063163581683578843 0 -0.081327467162106176 -0.06249092326307152 0 -0.081079389542006081 -0.063163581683578843 0 -0.080503189366497099 -0.063129047015256887 0 -0.081327467162106176 -0.06249092326307152 0 -0.080503189366497099 -0.063129047015256887 0 -0.080326212814889136 -0.062436938427200606 0 -0.080503189366497099 -0.063129047015256887 0 -0.079770914739093049 -0.063050129489606227 0 -0.080326212814889136 -0.062436938427200606 0 -0.080503189366497099 -0.063129047015256887 0 -0.080023201421273477 -0.063807611510696721 0 -0.080655863559680671 -0.063739529169373282 0 -0.080503189366497099 -0.063129047015256887 0 -0.080023201421273477 -0.063807611510696721 0 -0.079770914739093049 -0.063050129489606227 0 -0.081079389542006081 -0.063163581683578843 0 -0.080503189366497099 -0.063129047015256887 0 -0.080655863559680671 -0.063739529169373282 0 -0.081188066191267033 -0.06367008211860728 0 -0.081079389542006081 -0.063163581683578843 0 -0.080655863559680671 -0.063739529169373282 0 -0.080023201421273477 -0.063807611510696721 0 -0.078884035279214171 -0.063372221101048912 0 -0.079770914739093049 -0.063050129489606227 0 -0.078884035279214171 -0.063372221101048912 0 -0.079770914739093049 -0.063050129489606227 0 -0.079218318249104774 -0.062510242793277312 0 -0.07381408870732184 -0.072483263464721337 0 -0.074772213428659223 -0.070952722260189921 0 -0.080023201421273477 -0.063807611510696721 0 -0.078884035279214171 -0.063372221101048912 0 -0.080035283436516863 -0.06500311196649515 0 -0.082443948851687238 -0.070759987559206067 0 -0.081777545137845298 -0.071203443649065251 0 -0.079144239623637341 -0.069631291823573541 0 -0.079810128224331048 -0.066752881074262707 0 -0.082443948851687238 -0.070759987559206067 0 -0.079144239623637341 -0.069631291823573541 0 -0.075625971951946341 -0.06765297983530337 0 -0.073101459704539171 -0.072673440887251459 0 -0.073759734818255401 -0.071403512472743555 0 -0.073101459704539171 -0.072673440887251459 0 -0.081198146763113127 -0.064235952034458435 0 -0.08044987520944176 -0.064253843895720017 0 -0.080035283436516863 -0.06500311196649515 0 -0.065078964484257373 -0.078712503326772598 0 -0.06534766289340263 -0.080967275109923881 0 -0.067724105178518193 -0.079376640585523267 0 -0.080023201421273477 -0.063807611510696721 0 -0.08044987520944176 -0.064253843895720017 0 -0.080035283436516863 -0.06500311196649515 0 -0.081198146763113127 -0.064235952034458435 0 -0.080655863559680671 -0.063739529169373282 0 -0.08044987520944176 -0.064253843895720017 0 -0.081198146763113127 -0.064235952034458435 0 -0.081188066191267033 -0.06367008211860728 0 -0.080655863559680671 -0.063739529169373282 0 -0.080023201421273477 -0.063807611510696721 0 -0.080655863559680671 -0.063739529169373282 0 -0.08044987520944176 -0.064253843895720017 0 -0.065078964484257373 -0.078712503326772598 0 -0.067724105178518193 -0.079376640585523267 0 -0.066224650217394584 -0.077184928714572124 0 -0.067670657693866723 -0.077682206670458595 0 -0.068012183258432848 -0.07877236370040222 0 -0.066287917981601344 -0.077222566778651414 0 -0.073101459704539171 -0.072673440887251459 0 -0.068803549484614979 -0.074524022711981774 0 -0.067810862088759291 -0.079428365682755644 0 -0.068012183258432848 -0.07877236370040222 0 -0.066287917981601344 -0.077222566778651414 0 -0.07348750581687416 -0.071625680565519434 0 -0.074127998483339258 -0.071197913711181393 0 -0.0744179741136516 -0.072173161022159399 0 -0.073101459704539171 -0.072673440887251459 0 -0.07381408870732184 -0.072483263464721337 0 -0.067810862088759291 -0.079428365682755644 0 -0.068012183258432848 -0.07877236370040222 0 -0.068427810481313814 -0.079014062185274306 0 -0.068012183258432848 -0.07877236370040222 0 -0.068427001803728613 -0.07901675976914542 0 -0.068488135486297994 -0.07803329196815513 0 -0.073772673778918024 -0.072499775145146619 0 -0.07381408870732184 -0.072483263464721337 0 -0.07381408870732184 -0.072483263464721337 0 -0.072655487406382627 -0.073379566433757898 0 -0.068427001803728613 -0.07901675976914542 0 -0.070123544939421412 -0.077885310293044616 0 -0.068488135486297994 -0.07803329196815513 0 -0.067670657693866723 -0.077682206670458595 0 -0.068488135486297994 -0.07803329196815513 0 -0.068206547028409586 -0.076808181681100804 0 -0.070123544939421412 -0.077885310293044616 0 -0.068488135486297994 -0.07803329196815513 0 -0.068206547028409586 -0.076808181681100804 0 -0.067670657693866723 -0.077682206670458595 0 -0.068012183258432848 -0.07877236370040222 0 -0.068488135486297994 -0.07803329196815513 0 -0.070123544939421412 -0.077885310293044616 0 -0.068206547028409586 -0.076808181681100804 0 -0.069274309860068967 -0.074999971061838561 0 -0.072655487406382627 -0.073379566433757898 0 -0.069282649205108904 -0.074997787313353964 0 -0.0647552906727933 -0.074999991569143276 0 -0.068206547028409586 -0.076808181681100804 0 -0.069274309860068967 -0.074999971061838561 0 -0.0647552906727933 -0.074999991569143276 0 -0.068206547028409586 -0.076808181681100804 0 -0.066287917981601344 -0.077222566778651414 0 -0.067670657693866723 -0.077682206670458595 0 -0.068206547028409586 -0.076808181681100804 0 -0.066287917981601344 -0.077222566778651414 0 -0.069276556632051886 -0.074999005594507936 0 -0.074999485427690721 -0.07499970933951057 0 -0.074338068723069695 -0.074972036328364466 0 -0.074999485427690721 -0.07499970933951057 0 -0.076246431973542 -0.071463661306792867 0 -0.074998793053611262 -0.067037318425359912 0 -0.074999485427690721 -0.07499970933951057 0 -0.074338068723069695 -0.074972036328364466 0 -0.076246431973542 -0.071463661306792867 0 -0.074338068723069695 -0.074972036328364466 0 -0.077077866933249722 -0.073684641255439345 0 -0.076246431973542 -0.071463661306792867 0 -0.07344945049770836 -0.073695835517781333 0 -0.073284853825285975 -0.07361277451869587 0 -0.070242206429987533 -0.077925977334371926 0 -0.069276556632051886 -0.074999005594507936 0 -0.072254051772056488 -0.076559323510207902 0 -0.069276556632051886 -0.074999005594507936 0 -0.074338068723069695 -0.074972036328364466 0 -0.072254051772056488 -0.076559323510207902 0 -0.072655487406382627 -0.073379566433757898 0 -0.073284853825285975 -0.07361277451869587 0 -0.072655487406382627 -0.073379566433757898 0 -0.074772213428659223 -0.070952722260189921 0 -0.077077866933249722 -0.073684641255439345 0 -0.077747632959389107 -0.071761892129707683 0 -0.076246431973542 -0.071463661306792867 0 -0.079207149857742798 -0.072331681543129175 0 -0.077747632959389107 -0.071761892129707683 0 -0.07845136976236701 -0.069628623202014739 0 -0.079207149857742798 -0.072331681543129175 0 -0.077077866933249722 -0.073684641255439345 0 -0.077747632959389107 -0.071761892129707683 0 -0.077747632959389107 -0.071761892129707683 0 -0.076246431973542 -0.071463661306792867 0 -0.07845136976236701 -0.069628623202014739 0 -0.076246431973542 -0.071463661306792867 0 -0.076587858085002236 -0.068396268915266512 0 -0.074998793053611262 -0.067037318425359912 0 -0.076246431973542 -0.071463661306792867 0 -0.076587858085002236 -0.068396268915266512 0 -0.07845136976236701 -0.069628623202014739 0 -0.075300187936621105 -0.069067284610456331 0 -0.074772213428659223 -0.070952722260189921 0 -0.074772213428659223 -0.070952722260189921 0 -0.075329691921770289 -0.068611710046494107 0 -0.079810128224331048 -0.066752881074262707 0 -0.079144239623637341 -0.069631291823573541 0 -0.077922495182849466 -0.065258880457631174 0 -0.077051281048098913 -0.068215159404422784 0 -0.079186546669373706 -0.069484493766722666 0 -0.077922495182849466 -0.065258880457631174 0 -0.077051281048098913 -0.068215159404422784 0 -0.074999965808684066 -0.067036037241400656 0 -0.077922495182849466 -0.065258880457631174 0 -0.075300187936621105 -0.069067284610456331 0 -0.074999356087701294 -0.067041026355777758 0 -0.077211614771524897 -0.062574871558404715 0 -0.074999937400418604 -0.062614448458842356 0 -0.077922495182849466 -0.065258880457631174 0 -0.074999965808684066 -0.067036037241400656 0 -0.074999937400418604 -0.062614448458842356 0 -0.077922495182849466 -0.065258880457631174 0 -0.077211614771524897 -0.062574871558404715 0 -0.074999937400418604 -0.062614448458842356 0 -0.077060989183408687 -0.060041922426505648 0 -0.077211614771524897 -0.062574871558404715 0 -0.078150611920534047 -0.060982409887763149 0 -0.077060989183408687 -0.060041922426505648 0 -0.077211614771524897 -0.062574871558404715 0 -0.078150611920534047 -0.060982409887763149 0 -0.078927645055319337 -0.06161741778977866 0 -0.078884035279214171 -0.063372221101048912 0 -0.077211614771524897 -0.062574871558404715 0 -0.079218318249104774 -0.062510242793277312 0 -0.079810128224331048 -0.066752881074262707 0 -0.077211614771524897 -0.062574871558404715 0 -0.077922495182849466 -0.065258880457631174 0 -0.075625971951946341 -0.06765297983530337 0 -0.075640874518589613 -0.065453234802262325 0 -0.077211614771524897 -0.062574871558404715 0 -0.079218318249104774 -0.062510242793277312 0 -0.078927645055319337 -0.06161741778977866 0 -0.079770914739093049 -0.063050129489606227 0 -0.079218318249104774 -0.062510242793277312 0 -0.080326212814889136 -0.062436938427200606 0 -0.079218318249104774 -0.062510242793277312 0 -0.080326212814889136 -0.062436938427200606 0 -0.080028968792353064 -0.061548943837419108 0 -0.079218318249104774 -0.062510242793277312 0 -0.078927645055319337 -0.06161741778977866 0 -0.080028968792353064 -0.061548943837419108 0 -0.081327467162106176 -0.06249092326307152 0 -0.080326212814889136 -0.062436938427200606 0 -0.08109374511067044 -0.061539106128564953 0 -0.080326212814889136 -0.062436938427200606 0 -0.08109374511067044 -0.061539106128564953 0 -0.080028968792353064 -0.061548943837419108 0 -0.081600724051800147 -0.060630289907661346 0 -0.08109374511067044 -0.061539106128564953 0 -0.080775537550074619 -0.060705056021583798 0 -0.08109374511067044 -0.061539106128564953 0 -0.080775537550074619 -0.060705056021583798 0 -0.080028968792353064 -0.061548943837419108 0 -0.080775537550074619 -0.060705056021583798 0 -0.080028968792353064 -0.061548943837419108 0 -0.07974133864702565 -0.060278543136573395 0 -0.081600724051800147 -0.060630289907661346 0 -0.080775537550074619 -0.060705056021583798 0 -0.081257616156207996 -0.059561499775004627 0 -0.078150611920534047 -0.060982409887763149 0 -0.078927645055319337 -0.06161741778977866 0 -0.07974133864702565 -0.060278543136573395 0 -0.078927645055319337 -0.06161741778977866 0 -0.080028968792353064 -0.061548943837419108 0 -0.07974133864702565 -0.060278543136573395 0 -0.078150611920534047 -0.060982409887763149 0 -0.07974133864702565 -0.060278543136573395 0 -0.078848135854471521 -0.059150187409678881 0 -0.07974133864702565 -0.060278543136573395 0 -0.080607253182603117 -0.058410635750964578 0 -0.078848135854471521 -0.059150187409678881 0 -0.07974133864702565 -0.060278543136573395 0 -0.081257616156207996 -0.059561499775004627 0 -0.080607253182603117 -0.058410635750964578 0 -0.081737176378572488 -0.058714687521772474 0 -0.081257616156207996 -0.059561499775004627 0 -0.080607253182603117 -0.058410635750964578 0 -0.080775537550074619 -0.060705056021583798 0 -0.07974133864702565 -0.060278543136573395 0 -0.081257616156207996 -0.059561499775004627 0 -0.080027555380033408 -0.056493473421152761 0 -0.081332370215110888 -0.056982413447059926 0 -0.080607253182603117 -0.058410635750964578 0 -0.081332370215110888 -0.056982413447059926 0 -0.081737176378572488 -0.058714687521772474 0 -0.080607253182603117 -0.058410635750964578 0 -0.080027555380033408 -0.056493473421152761 0 -0.080607253182603117 -0.058410635750964578 0 -0.078848135854471521 -0.059150187409678881 0 -0.080027555380033408 -0.056493473421152761 0 -0.077606314537580337 -0.057020987577422376 0 -0.078848135854471521 -0.059150187409678881 0 -0.077606314537580337 -0.057020987577422376 0 -0.074999980987679807 -0.058196143687203945 0 -0.077060989183408687 -0.060041922426505648 0 -0.074999937400418604 -0.062614448458842356 0 -0.074999980987679807 -0.058196143687203945 0 -0.077060989183408687 -0.060041922426505648 0 -0.078150611920534047 -0.060982409887763149 0 -0.077060989183408687 -0.060041922426505648 0 -0.078848135854471521 -0.059150187409678881 0 -0.077606314537580337 -0.057020987577422376 0 -0.077060989183408687 -0.060041922426505648 0 -0.078848135854471521 -0.059150187409678881 0 -0.0098179097133705047 -0.092205490101152338 0 -0.0090530568109539918 -0.094677605685653907 0 -0.013390988212776591 -0.091624534560177578 0 -0.024816235467516119 -0.072460392630495224 0 -0.035812704506848196 -0.068584484166395343 0 -0.0098179097133705047 -0.092205490101152338 0 -0.013390988212776591 -0.091624534560177578 0 -0.011085901309563186 -0.090068454125484712 0 -0.0098179097133705047 -0.092205490101152338 0 -0.0077403310499457208 -0.090889328027766336 0 -0.0093135193053166428 -0.090188444265972598 0 -0.0098179097133705047 -0.092205490101152338 0 -0.0077403310499457208 -0.090889328027766336 0 -0.0076697914033652375 -0.092304046001187065 0 -0.0098179097133705047 -0.092205490101152338 0 -0.0076697914033652375 -0.092304046001187065 0 -0.0078453748839911359 -0.092551600475703752 0 -0.0069028798160154607 -0.091743461459353928 0 -0.0076697914033652375 -0.092304046001187065 0 -0.0078453748839911359 -0.092551600475703752 0 -0.073765850082316758 -0.036395535843489431 0 -0.069058907207381046 -0.035040813013474545 0 -0.067349743092383382 -0.045717988316932891 0 -0.073765850082316758 -0.036395535843489431 0 -0.069058907207381046 -0.035040813013474545 0 -0.070142196376643401 -0.029610647028723014 0 -0.022626705191853922 -0.07856968071007947 0 -0.024816235467516119 -0.072460392630495224 0 -0.069058907207381046 -0.035040813013474545 0 -0.064652439737400993 -0.036470956966098998 0 -0.067349743092383382 -0.045717988316932891 0 -0.069058907207381046 -0.035040813013474545 0 -0.064652439737400993 -0.036470956966098998 0 -0.065404783610424275 -0.031024952582876717 0 -0.064652439737400993 -0.036470956966098998 0 -0.059600276203879025 -0.032586240978451669 0 -0.065404783610424275 -0.031024952582876717 0 -0.060107411726307611 -0.038808104124944322 0 -0.059600276203879025 -0.032586240978451669 0 -0.052954439330516516 -0.035624606253971847 0 -0.064652439737400993 -0.036470956966098998 0 -0.060107411726307611 -0.038808104124944322 0 -0.059600276203879025 -0.032586240978451669 0 -0.058738287775475594 -0.04414311976857771 0 -0.067349743092383382 -0.045717988316932891 0 -0.056404596624834068 -0.050214069315754541 0 -0.060107411726307611 -0.038808104124944322 0 -0.058738287775475594 -0.04414311976857771 0 -0.067349743092383382 -0.045717988316932891 0 -0.060107411726307611 -0.038808104124944322 0 -0.058738287775475594 -0.04414311976857771 0 -0.053040315043498085 -0.042416584211082027 0 -0.058738287775475594 -0.04414311976857771 0 -0.056404596624834068 -0.050214069315754541 0 -0.053040315043498085 -0.042416584211082027 0 -0.064652439737400993 -0.036470956966098998 0 -0.060107411726307611 -0.038808104124944322 0 -0.067349743092383382 -0.045717988316932891 0 -0.013390988212776591 -0.091624534560177578 0 -0.01365797950351485 -0.089320449137772567 0 -0.018447170122027321 -0.089144964344321398 0 -0.035812704506848196 -0.068584484166395343 0 -0.036570494163013528 -0.072429672710059137 0 -0.013390988212776591 -0.091624534560177578 0 -0.01365797950351485 -0.089320449137772567 0 -0.011085901309563186 -0.090068454125484712 0 -0.067349743092383382 -0.045717988316932891 0 -0.056404596624834068 -0.050214069315754541 0 -0.059180913972225982 -0.057862263669309334 0 -0.018447170122027321 -0.089144964344321398 0 -0.013547997611692474 -0.087041395089288057 0 -0.019841327436907929 -0.087176204352282669 0 -0.01365797950351485 -0.089320449137772567 0 -0.018447170122027321 -0.089144964344321398 0 -0.013547997611692474 -0.087041395089288057 0 -0.01365797950351485 -0.089320449137772567 0 -0.013547997611692474 -0.087041395089288057 0 -0.011601793019017455 -0.088729920633496523 0 -0.016038007636166442 -0.088549387516394268 0 -0.011846397856166912 -0.087986886674887063 0 -0.0129796929944886 -0.087245936900629137 0 -0.013547997611692474 -0.087041395089288057 0 -0.011601793019017455 -0.088729920633496523 0 -0.0086375907282055589 -0.088419270426425639 0 -0.016038007636166442 -0.088549387516394268 0 -0.011111055744805469 -0.089084239691817751 0 -0.011846397856166912 -0.087986886674887063 0 -0.014172964529189085 -0.087800631514134031 0 -0.010715447144030374 -0.088696483895486039 0 -0.01365797950351485 -0.089320449137772567 0 -0.011601793019017455 -0.088729920633496523 0 -0.011085901309563186 -0.090068454125484712 0 -0.011601793019017455 -0.088729920633496523 0 -0.010271192822190111 -0.089306686740309754 0 -0.0086375907282055589 -0.088419270426425639 0 -0.0098179097133705047 -0.092205490101152338 0 -0.011085901309563186 -0.090068454125484712 0 -0.0093135193053166428 -0.090188444265972598 0 -0.011601793019017455 -0.088729920633496523 0 -0.010271192822190111 -0.089306686740309754 0 -0.011085901309563186 -0.090068454125484712 0 -0.010271192822190111 -0.089306686740309754 0 -0.011085901309563186 -0.090068454125484712 0 -0.0093135193053166428 -0.090188444265972598 0 -0.0077403310499457208 -0.090889328027766336 0 -0.0093135193053166428 -0.090188444265972598 0 -0.0086375907282055589 -0.088419270426425639 0 -0.010356138167788364 -0.088206805057310447 0 -0.011111055744805469 -0.089084239691817751 0 -0.0055311241189763488 -0.089214630062985217 0 -0.010271192822190111 -0.089306686740309754 0 -0.0093135193053166428 -0.090188444265972598 0 -0.0086375907282055589 -0.088419270426425639 0 -0.010356138167788364 -0.088206805057310447 0 -0.011111055744805469 -0.089084239691817751 0 -0.011846397856166912 -0.087986886674887063 0 -0.011846397856166912 -0.087986886674887063 0 -0.01080680622739019 -0.08721984736792783 0 -0.0129796929944886 -0.087245936900629137 0 -0.010356138167788364 -0.088206805057310447 0 -0.011846397856166912 -0.087986886674887063 0 -0.010572226539326849 -0.087724431540752712 0 -0.011846397856166912 -0.087986886674887063 0 -0.010572226539326849 -0.087724431540752712 0 -0.01080680622739019 -0.08721984736792783 0 -0.010356138167788364 -0.088206805057310447 0 -0.010572226539326849 -0.087724431540752712 0 -0.0095226745215587823 -0.087502572430011499 0 -0.010572226539326849 -0.087724431540752712 0 -0.0095226745215587823 -0.087502572430011499 0 -0.01080680622739019 -0.08721984736792783 0 -0.010356138167788364 -0.088206805057310447 0 -0.0095226745215587823 -0.087502572430011499 0 -0.0073249515041537089 -0.087707639390670791 0 -0.010356138167788364 -0.088206805057310447 0 -0.0040162599918043282 -0.084686840223721471 0 -0.0055311241189763488 -0.089214630062985217 0 -0.0073458188896413611 -0.08699713382112513 0 -0.0048890069648314608 -0.086316668615250891 0 -0.0040162599918043282 -0.084686840223721471 0 -0.0023104777524991268 -0.087827036784272131 0 -0.00018651879612837768 -0.086080821546777819 0 -0.0040162599918043282 -0.084686840223721471 0 -0.0023104777524991268 -0.087827036784272131 0 -0.0055311241189763488 -0.089214630062985217 0 -0.0023104777524991268 -0.087827036784272131 0 -0.0055311241189763488 -0.089214630062985217 0 -0.0013885678652821036 -0.091766609831284429 0 -0.010715447144030374 -0.088696483895486039 0 -0.0086874858011143832 -0.08923020375831367 0 -0.0077403310499457208 -0.090889328027766336 0 -0.0086375907282055589 -0.088419270426425639 0 -0.0055311241189763488 -0.089214630062985217 0 -0.00018651879612837768 -0.086080821546777819 0 0.0028379346909428288 -0.086641883448547341 0 0.0020887975363184292 -0.082639873462636446 0 0.0028379346909428288 -0.086641883448547341 0 0.0020887975363184292 -0.082639873462636446 0 0.0052360310261414227 -0.085054062717613441 0 0.0028379346909428288 -0.086641883448547341 0 0.0052360310261414227 -0.085054062717613441 0 0.0055639125210955615 -0.087331695282425861 0 -0.0040162599918043282 -0.084686840223721471 0 -0.00018651879612837768 -0.086080821546777819 0 0.0020887975363184292 -0.082639873462636446 0 -0.0048890069648314608 -0.086316668615250891 0 -0.0001434345976878257 -0.085225334809732614 0 -0.0023104777524991268 -0.087827036784272131 0 0.00046349108017273223 -0.088446720681116406 0 -0.0013885678652821036 -0.091766609831284429 0 -0.0023104777524991268 -0.087827036784272131 0 -0.00018651879612837768 -0.086080821546777819 0 0.00046349108017273223 -0.088446720681116406 0 -0.00018651879612837768 -0.086080821546777819 0 0.00046349108017273223 -0.088446720681116406 0 0.0028379346909428288 -0.086641883448547341 0 0.0028379346909428288 -0.086641883448547341 0 0.0040332880385615067 -0.09083569567330646 0 0.0055639125210955615 -0.087331695282425861 0 0.00046349108017273223 -0.088446720681116406 0 0.0028379346909428288 -0.086641883448547341 0 0.0040332880385615067 -0.09083569567330646 0 0.0040332880385615067 -0.09083569567330646 0 -0.0013885678652821036 -0.091766609831284429 0 0.0043216121720849555 -0.097034833337083182 0 0.00046349108017273223 -0.088446720681116406 0 0.0040332880385615067 -0.09083569567330646 0 -0.0013885678652821036 -0.091766609831284429 0 -0.0013885678652821036 -0.091766609831284429 0 -0.0068526088863499921 -0.093041031265614679 0 -0.0027153990964290846 -0.097931131804700755 0 -0.0077403310499457208 -0.090889328027766336 0 -0.0076697914033652375 -0.092304046001187065 0 -0.0068526088863499921 -0.093041031265614679 0 -0.0077403310499457208 -0.090889328027766336 0 -0.0055311241189763488 -0.089214630062985217 0 -0.0068526088863499921 -0.093041031265614679 0 -0.0055311241189763488 -0.089214630062985217 0 -0.0013885678652821036 -0.091766609831284429 0 -0.0068526088863499921 -0.093041031265614679 0 -0.0069028798160154607 -0.091743461459353928 0 -0.0076697914033652375 -0.092304046001187065 0 -0.0068526088863499921 -0.093041031265614679 0 -0.0069028798160154607 -0.091743461459353928 0 -0.0068526088863499921 -0.093041031265614679 0 -0.0060432318369175652 -0.089722894609149215 0 -0.0068526088863499921 -0.093041031265614679 0 -0.0060432318369175652 -0.089722894609149215 0 -0.01113030090933315 -0.089609443491179289 0 -0.004038221427814982 -0.090861587674293198 0 -0.0028161767412445467 -0.090303172169599391 0 -0.01113030090933315 -0.089609443491179289 0 -0.0095883664673381101 -0.08562861135180988 0 -0.015655864444657049 -0.083944072222019078 0 -0.0060432318369175652 -0.089722894609149215 0 -0.01113030090933315 -0.089609443491179289 0 -0.0095883664673381101 -0.08562861135180988 0 -0.0060432318369175652 -0.089722894609149215 0 -0.0095883664673381101 -0.08562861135180988 0 -0.0058112849945296842 -0.085684669860773138 0 -0.0013885678652821036 -0.091766609831284429 0 -0.0027153990964290846 -0.097931131804700755 0 0.0043216121720849555 -0.097034833337083182 0 -0.0028161767412445467 -0.090303172169599391 0 0.0015226964564838102 -0.087624879200571021 0 -0.0027153990964290846 -0.097931131804700755 0 0.0043216121720849555 -0.097034833337083182 0 0.00094696861885176873 -0.10273773904843755 0 0.0043216121720849555 -0.097034833337083182 0 0.00094696861885176873 -0.10273773904843755 0 0.0059721889565882893 -0.10276271934734969 0 0.0015226964564838102 -0.087624879200571021 0 0.012934906281021719 -0.082004093205169812 0 0.00094696861885176873 -0.10273773904843755 0 0.0059936237206472762 -0.10688550969999318 0 0.0059721889565882893 -0.10276271934734969 0 -0.015655864444657049 -0.083944072222019078 0 -0.015528612293054826 -0.07929914401956295 0 -0.010993569030728699 -0.080606385206700049 0 -0.015528612293054826 -0.07929914401956295 0 -0.010993569030728699 -0.080606385206700049 0 -0.01227962155194212 -0.076802949386406708 0 -0.015655864444657049 -0.083944072222019078 0 -0.015528612293054826 -0.07929914401956295 0 -0.019652700840897829 -0.077736176335616816 0 0.00094696861885176873 -0.10273773904843755 0 0.0048255133434803423 -0.10830759122710756 0 0.0059936237206472762 -0.10688550969999318 0 0.012934906281021719 -0.082004093205169812 0 0.011752571190764663 -0.083843632025785916 0 -0.0058112849945296842 -0.085684669860773138 0 -0.0070708836177313826 -0.082140862536863632 0 -0.0030903690689601392 -0.080809125234488258 0 -0.0095883664673381101 -0.08562861135180988 0 -0.0058112849945296842 -0.085684669860773138 0 -0.0070708836177313826 -0.082140862536863632 0 -0.0095883664673381101 -0.08562861135180988 0 -0.015655864444657049 -0.083944072222019078 0 -0.010993569030728699 -0.080606385206700049 0 -0.0095883664673381101 -0.08562861135180988 0 -0.0070708836177313826 -0.082140862536863632 0 -0.010993569030728699 -0.080606385206700049 0 -0.010993569030728699 -0.080606385206700049 0 -0.0094688860467820168 -0.077140626450825964 0 -0.0075468718248909647 -0.079053325269143895 0 -0.010993569030728699 -0.080606385206700049 0 -0.01227962155194212 -0.076802949386406708 0 -0.0094688860467820168 -0.077140626450825964 0 -0.0094688860467820168 -0.077140626450825964 0 -0.0073204941446398048 -0.076914637024650165 0 -0.0075468718248909647 -0.079053325269143895 0 -0.0070708836177313826 -0.082140862536863632 0 -0.010993569030728699 -0.080606385206700049 0 -0.0075468718248909647 -0.079053325269143895 0 -0.0070708836177313826 -0.082140862536863632 0 -0.0075468718248909647 -0.079053325269143895 0 -0.0053235510880300053 -0.079469739660801536 0 -0.0070708836177313826 -0.082140862536863632 0 -0.0053235510880300053 -0.079469739660801536 0 -0.0030903690689601392 -0.080809125234488258 0 -0.0075468718248909647 -0.079053325269143895 0 -0.0053235510880300053 -0.079469739660801536 0 -0.0054608154229305482 -0.07771754524827057 0 -0.0073204941446398048 -0.076914637024650165 0 -0.0075468718248909647 -0.079053325269143895 0 -0.0054608154229305482 -0.07771754524827057 0 -0.0057006030988237732 -0.075603320180040526 0 -0.0073204941446398048 -0.076914637024650165 0 -0.0054608154229305482 -0.07771754524827057 0 -0.0034721135379956179 -0.075837240603732495 0 -0.0054608154229305482 -0.07771754524827057 0 -0.0014414615123666938 -0.07815953154932942 0 -0.020414724359058806 -0.051228644233005827 0 -0.021811205840113701 -0.050689542680084604 0 -0.0053235510880300053 -0.079469739660801536 0 -0.0054608154229305482 -0.07771754524827057 0 -0.0036942247964188166 -0.077624338595588746 0 -0.021811205840113701 -0.050689542680084604 0 -0.029364871808154263 -0.045838285259917746 0 -0.00042311564999723177 -0.075711565009139212 0 -0.0014414615123666938 -0.07815953154932942 0 0.0036905414480512396 -0.078102482042600424 0 -0.029102607387574295 -0.043606460152858913 0 -0.024446348788537547 -0.04343084848965649 0 -0.027734239642082836 -0.050440544073576649 0 -0.074576845860394786 -0.011876939622957806 0 -0.076707799305887808 -0.016369516133951663 0 -0.071303657741178986 -0.015993536464966696 0 -0.029364871808154263 -0.045838285259917746 0 -0.024772112142042252 -0.052971075743903646 0 -0.0053235510880300053 -0.079469739660801536 0 -0.0036942247964188166 -0.077624338595588746 0 -0.0030903690689601392 -0.080809125234488258 0 -0.021811205840113701 -0.050689542680084604 0 -0.024772112142042252 -0.052971075743903646 0 -0.074576845860394786 -0.011876939622957806 0 -0.071303657741178986 -0.015993536464966696 0 -0.066503498383019055 -0.011519931987527224 0 -0.029364871808154263 -0.045838285259917746 0 -0.045541381962260152 -0.030394207762575589 0 -0.071303657741178986 -0.015993536464966696 0 -0.069255135432469195 -0.020012241347694366 0 -0.066518422325415313 -0.016621732923004659 0 -0.071303657741178986 -0.015993536464966696 0 -0.072791075838359115 -0.020377376786813263 0 -0.069255135432469195 -0.020012241347694366 0 -0.076707799305887808 -0.016369516133951663 0 -0.071303657741178986 -0.015993536464966696 0 -0.072791075838359115 -0.020377376786813263 0 -0.072791075838359115 -0.020377376786813263 0 -0.069255135432469195 -0.020012241347694366 0 -0.07077048075779406 -0.024193015632088328 0 -0.0058112849945296842 -0.085684669860773138 0 -0.0038017063991347632 -0.081230398438220108 0 -0.0026443052165423492 -0.088005502153601048 0 -0.076707799305887808 -0.016369516133951663 0 -0.072791075838359115 -0.020377376786813263 0 -0.075088184390436866 -0.026070681050360461 0 -0.024432901748062043 -0.062980256151286648 0 -0.024772112142042252 -0.052971075743903646 0 -0.024772112142042252 -0.052971075743903646 0 -0.029127391635507753 -0.057873310340192601 0 -0.0060432318369175652 -0.089722894609149215 0 -0.0058112849945296842 -0.085684669860773138 0 -0.0026443052165423492 -0.088005502153601048 0 -0.072791075838359115 -0.020377376786813263 0 -0.075088184390436866 -0.026070681050360461 0 -0.07077048075779406 -0.024193015632088328 0 -0.069255135432469195 -0.020012241347694366 0 -0.07077048075779406 -0.024193015632088328 0 -0.066530234772883376 -0.025041230149711179 0 -0.07077048075779406 -0.024193015632088328 0 -0.070142196376643401 -0.029610647028723014 0 -0.066530234772883376 -0.025041230149711179 0 -0.075088184390436866 -0.026070681050360461 0 -0.07077048075779406 -0.024193015632088328 0 -0.070142196376643401 -0.029610647028723014 0 -0.073765850082316758 -0.036395535843489431 0 -0.075088184390436866 -0.026070681050360461 0 -0.070142196376643401 -0.029610647028723014 0 -0.024816235467516119 -0.072460392630495224 0 -0.029127391635507753 -0.057873310340192601 0 -0.0014558503449718966 -0.09494994411694388 0 -0.0060432318369175652 -0.089722894609149215 0 -0.0026443052165423492 -0.088005502153601048 0 -0.024816235467516119 -0.072460392630495224 0 -0.012682868886408839 -0.085495482062459785 0 -0.0069028798160154607 -0.091743461459353928 0 -0.0078453748839911359 -0.092551600475703752 0 -0.0060432318369175652 -0.089722894609149215 0 -0.062255160911842633 -0.027870330469110891 0 -0.059600276203879025 -0.032586240978451669 0 -0.057853307040735075 -0.026271725828097173 0 -0.059600276203879025 -0.032586240978451669 0 -0.057853307040735075 -0.026271725828097173 0 -0.054036349671822914 -0.02925037319945225 0 -0.062255160911842633 -0.027870330469110891 0 -0.059600276203879025 -0.032586240978451669 0 -0.065404783610424275 -0.031024952582876717 0 -0.070142196376643401 -0.029610647028723014 0 -0.065404783610424275 -0.031024952582876717 0 -0.066530234772883376 -0.025041230149711179 0 -0.062255160911842633 -0.027870330469110891 0 -0.065404783610424275 -0.031024952582876717 0 -0.066530234772883376 -0.025041230149711179 0 -0.069058907207381046 -0.035040813013474545 0 -0.070142196376643401 -0.029610647028723014 0 -0.065404783610424275 -0.031024952582876717 0 -0.062255160911842633 -0.027870330469110891 0 -0.066530234772883376 -0.025041230149711179 0 -0.061464395500159349 -0.023971139189087595 0 -0.066530234772883376 -0.025041230149711179 0 -0.061464395500159349 -0.023971139189087595 0 -0.063463598302443844 -0.020011848306222393 0 -0.062255160911842633 -0.027870330469110891 0 -0.061464395500159349 -0.023971139189087595 0 -0.057853307040735075 -0.026271725828097173 0 -0.061464395500159349 -0.023971139189087595 0 -0.057853307040735075 -0.026271725828097173 0 -0.05822359532457886 -0.021642252082833931 0 -0.05822359532457886 -0.021642252082833931 0 -0.059042674967357843 -0.017895786858497367 0 -0.063463598302443844 -0.020011848306222393 0 -0.061464395500159349 -0.023971139189087595 0 -0.05822359532457886 -0.021642252082833931 0 -0.063463598302443844 -0.020011848306222393 0 -0.059042674967357843 -0.017895786858497367 0 -0.063463598302443844 -0.020011848306222393 0 -0.062074638668528456 -0.015524783413058671 0 -0.069255135432469195 -0.020012241347694366 0 -0.063463598302443844 -0.020011848306222393 0 -0.066518422325415313 -0.016621732923004659 0 -0.069255135432469195 -0.020012241347694366 0 -0.066530234772883376 -0.025041230149711179 0 -0.063463598302443844 -0.020011848306222393 0 -0.063463598302443844 -0.020011848306222393 0 -0.066518422325415313 -0.016621732923004659 0 -0.062074638668528456 -0.015524783413058671 0 -0.045541381962260152 -0.030394207762575589 0 -0.048081993377225046 -0.023917970056892793 0 -0.065980191619553832 -0.011954821269201001 0 -0.062074638668528456 -0.015524783413058671 0 -0.060416700403362139 -0.011689465627652267 0 -0.071303657741178986 -0.015993536464966696 0 -0.066518422325415313 -0.016621732923004659 0 -0.066503498383019055 -0.011519931987527224 0 -0.066518422325415313 -0.016621732923004659 0 -0.066503498383019055 -0.011519931987527224 0 -0.062074638668528456 -0.015524783413058671 0 -0.045541381962260152 -0.030394207762575589 0 -0.051635014143461451 -0.024894790132115562 0 -0.048081993377225046 -0.023917970056892793 0 -0.049846331752462551 -0.019016537885940422 0 -0.057904952308456402 -0.014784527975924566 0 -0.060416700403362139 -0.011689465627652267 0 -0.054614357949313179 -0.011468642908496418 0 -0.059042674967357843 -0.017895786858497367 0 -0.057904952308456402 -0.014784527975924566 0 -0.062074638668528456 -0.015524783413058671 0 -0.057904952308456402 -0.014784527975924566 0 -0.062074638668528456 -0.015524783413058671 0 -0.060416700403362139 -0.011689465627652267 0 -0.059042674967357843 -0.017895786858497367 0 -0.057904952308456402 -0.014784527975924566 0 -0.052973996800113526 -0.017051924649243592 0 -0.057904952308456402 -0.014784527975924566 0 -0.054614357949313179 -0.011468642908496418 0 -0.052973996800113526 -0.017051924649243592 0 -0.049846331752462551 -0.019016537885940422 0 -0.050797953848315106 -0.018200983624455051 0 -0.053928298181363417 -0.012994183588086163 0 -0.053216961794537332 -0.017307430701531418 0 -0.051774094913293156 -0.014549711272534483 0 -0.051964287782615672 -0.01288251621522804 0 -0.053928298181363417 -0.012994183588086163 0 -0.051774094913293156 -0.014549711272534483 0 -0.050013700324862513 -0.018899415997392071 0 -0.049846331752462551 -0.019016537885940422 0 -0.050797953848315106 -0.018200983624455051 0 -0.050811846040780539 -0.018906269187048415 0 -0.052973996800113526 -0.017051924649243592 0 -0.054689396589167626 -0.023600092776414387 0 -0.051632680942526106 -0.022410528376750071 0 -0.05822359532457886 -0.021642252082833931 0 -0.059042674967357843 -0.017895786858497367 0 -0.052973996800113526 -0.017051924649243592 0 -0.05822359532457886 -0.021642252082833931 0 -0.052973996800113526 -0.017051924649243592 0 -0.054689396589167626 -0.023600092776414387 0 -0.053216961794537332 -0.017307430701531418 0 -0.04927230588719838 -0.019608194995211672 0 -0.049981618041416986 -0.015471626501151697 0 -0.053216961794537332 -0.017307430701531418 0 -0.04927230588719838 -0.019608194995211672 0 -0.051632680942526106 -0.022410528376750071 0 -0.053216961794537332 -0.017307430701531418 0 -0.049981618041416986 -0.015471626501151697 0 -0.051774094913293156 -0.014549711272534483 0 -0.050438859348734343 -0.012988551406598584 0 -0.051964287782615672 -0.01288251621522804 0 -0.051774094913293156 -0.014549711272534483 0 -0.048898774181897982 -0.012135146877300612 0 -0.050438859348734343 -0.012988551406598584 0 -0.049981618041416986 -0.015471626501151697 0 -0.050438859348734343 -0.012988551406598584 0 -0.049981618041416986 -0.015471626501151697 0 -0.051774094913293156 -0.014549711272534483 0 -0.048898774181897982 -0.012135146877300612 0 -0.046634544685260723 -0.012971729787422503 0 -0.046930934351739333 -0.017055085181629116 0 -0.048898774181897982 -0.012135146877300612 0 -0.049981618041416986 -0.015471626501151697 0 -0.046930934351739333 -0.017055085181629116 0 -0.045571350316608888 -0.0095351990938704299 0 -0.046634544685260723 -0.012971729787422503 0 -0.043318294156735236 -0.017100073278584448 0 -0.046634544685260723 -0.012971729787422503 0 -0.043318294156735236 -0.017100073278584448 0 -0.046930934351739333 -0.017055085181629116 0 -0.043376977797753118 -0.020619282753350295 0 -0.046930934351739333 -0.017055085181629116 0 -0.045328839896941725 -0.022727838729455132 0 -0.043318294156735236 -0.017100073278584448 0 -0.043376977797753118 -0.020619282753350295 0 -0.046930934351739333 -0.017055085181629116 0 -0.04927230588719838 -0.019608194995211672 0 -0.049981618041416986 -0.015471626501151697 0 -0.046930934351739333 -0.017055085181629116 0 -0.04927230588719838 -0.019608194995211672 0 -0.046930934351739333 -0.017055085181629116 0 -0.045328839896941725 -0.022727838729455132 0 -0.04927230588719838 -0.019608194995211672 0 -0.045328839896941725 -0.022727838729455132 0 -0.047665300037083864 -0.024947902640209622 0 -0.045328839896941725 -0.022727838729455132 0 -0.045163086002862618 -0.025697617884021039 0 -0.047665300037083864 -0.024947902640209622 0 -0.045163086002862618 -0.025697617884021039 0 -0.047665300037083864 -0.024947902640209622 0 -0.045481042563543135 -0.027911424975022772 0 -0.045328839896941725 -0.022727838729455132 0 -0.040901705773216952 -0.024024925424535826 0 -0.042762605519484645 -0.02719288389421794 0 -0.043376977797753118 -0.020619282753350295 0 -0.045328839896941725 -0.022727838729455132 0 -0.040901705773216952 -0.024024925424535826 0 -0.045328839896941725 -0.022727838729455132 0 -0.045163086002862618 -0.025697617884021039 0 -0.042762605519484645 -0.02719288389421794 0 -0.040901705773216952 -0.024024925424535826 0 -0.042762605519484645 -0.02719288389421794 0 -0.038539495406666076 -0.028089105862959585 0 -0.042762605519484645 -0.02719288389421794 0 -0.040376039009118563 -0.03127097460753693 0 -0.038539495406666076 -0.028089105862959585 0 -0.042762605519484645 -0.02719288389421794 0 -0.043359333170997535 -0.031461892268295155 0 -0.045481042563543135 -0.027911424975022772 0 -0.042762605519484645 -0.02719288389421794 0 -0.043359333170997535 -0.031461892268295155 0 -0.040376039009118563 -0.03127097460753693 0 -0.045481042563543135 -0.027911424975022772 0 -0.047411781032162606 -0.029166995102313787 0 -0.040855851553145445 -0.03795285226983125 0 -0.047665300037083864 -0.024947902640209622 0 -0.045481042563543135 -0.027911424975022772 0 -0.047411781032162606 -0.029166995102313787 0 -0.045163086002862618 -0.025697617884021039 0 -0.042762605519484645 -0.02719288389421794 0 -0.045481042563543135 -0.027911424975022772 0 -0.047665300037083864 -0.024947902640209622 0 -0.047411781032162606 -0.029166995102313787 0 -0.05071711040382617 -0.026683074687670304 0 -0.047411781032162606 -0.029166995102313787 0 -0.050152764508315351 -0.031081701856901959 0 -0.05071711040382617 -0.026683074687670304 0 -0.047411781032162606 -0.029166995102313787 0 -0.050152764508315351 -0.031081701856901959 0 -0.04732241859613448 -0.035649315966064771 0 -0.050152764508315351 -0.031081701856901959 0 -0.054036349671822914 -0.02925037319945225 0 -0.052954439330516516 -0.035624606253971847 0 -0.059600276203879025 -0.032586240978451669 0 -0.054036349671822914 -0.02925037319945225 0 -0.052954439330516516 -0.035624606253971847 0 -0.050152764508315351 -0.031081701856901959 0 -0.054036349671822914 -0.02925037319945225 0 -0.05071711040382617 -0.026683074687670304 0 -0.057853307040735075 -0.026271725828097173 0 -0.054036349671822914 -0.02925037319945225 0 -0.054689396589167626 -0.023600092776414387 0 -0.054036349671822914 -0.02925037319945225 0 -0.054689396589167626 -0.023600092776414387 0 -0.05071711040382617 -0.026683074687670304 0 -0.057853307040735075 -0.026271725828097173 0 -0.05822359532457886 -0.021642252082833931 0 -0.054689396589167626 -0.023600092776414387 0 -0.054689396589167626 -0.023600092776414387 0 -0.051632680942526106 -0.022410528376750071 0 -0.05071711040382617 -0.026683074687670304 0 -0.04927230588719838 -0.019608194995211672 0 -0.047665300037083864 -0.024947902640209622 0 -0.051632680942526106 -0.022410528376750071 0 -0.047665300037083864 -0.024947902640209622 0 -0.051632680942526106 -0.022410528376750071 0 -0.05071711040382617 -0.026683074687670304 0 -0.03100509715984847 -0.049890552545536024 0 -0.029875125938244946 -0.05364675804869689 0 -0.027740701816195798 -0.048614314762376008 0 -0.021508117548033449 -0.017320867983927356 0 -0.025508019728167641 -0.019132632059515185 0 -0.025325983926942085 -0.023756154432617312 0 -0.0388299613319361 -0.027658100475866781 0 -0.033388010324479744 -0.033201719428094724 0 -0.049593470310399672 -0.022623910416348668 0 -0.049218544008747277 -0.023421677981101952 0 -0.0503132600376235 -0.023061391417137141 0 -0.021508117548033449 -0.017320867983927356 0 -0.028211879480061278 -0.015270334085001627 0 -0.025508019728167641 -0.019132632059515185 0 -0.0388299613319361 -0.027658100475866781 0 -0.040703094047746406 -0.018626113885293092 0 -0.040703094047746406 -0.018626113885293092 0 -0.042814880427201357 -0.016033308288462937 0 -0.040703094047746406 -0.018626113885293092 0 -0.036855175364089714 -0.021023033136775639 0 -0.028211879480061278 -0.015270334085001627 0 -0.025508019728167641 -0.019132632059515185 0 -0.030704178603023467 -0.022231081698258617 0 -0.025508019728167641 -0.019132632059515185 0 -0.030704178603023467 -0.022231081698258617 0 -0.025325983926942085 -0.023756154432617312 0 -0.029843933713815142 -0.013486921400943626 0 -0.032543408878410132 -0.021756595937706284 0 -0.037105896453243706 -0.01750262127481288 0 -0.032543408878410132 -0.021756595937706284 0 -0.037105896453243706 -0.01750262127481288 0 -0.038831635445973914 -0.020892581584028666 0 -0.045571350316608888 -0.0095351990938704299 0 -0.037105896453243706 -0.01750262127481288 0 -0.032611389603341305 -0.011575601146353866 0 -0.029843933713815142 -0.013486921400943626 0 -0.037105896453243706 -0.01750262127481288 0 -0.033122842583358167 -0.012544772347809124 0 -0.041188956663161268 -0.015031861561726055 0 -0.042814880427201357 -0.016033308288462937 0 -0.045571350316608888 -0.0095351990938704299 0 -0.043318294156735236 -0.017100073278584448 0 -0.037105896453243706 -0.01750262127481288 0 -0.043318294156735236 -0.017100073278584448 0 -0.037105896453243706 -0.01750262127481288 0 -0.038831635445973914 -0.020892581584028666 0 -0.043376977797753118 -0.020619282753350295 0 -0.040901705773216952 -0.024024925424535826 0 -0.038831635445973914 -0.020892581584028666 0 -0.043318294156735236 -0.017100073278584448 0 -0.043376977797753118 -0.020619282753350295 0 -0.038831635445973914 -0.020892581584028666 0 -0.040901705773216952 -0.024024925424535826 0 -0.038831635445973914 -0.020892581584028666 0 -0.036765622385632357 -0.024801345054073266 0 -0.040901705773216952 -0.024024925424535826 0 -0.036765622385632357 -0.024801345054073266 0 -0.038539495406666076 -0.028089105862959585 0 -0.040376039009118563 -0.03127097460753693 0 -0.038539495406666076 -0.028089105862959585 0 -0.036517234204839689 -0.03226080325143138 0 -0.038539495406666076 -0.028089105862959585 0 -0.036517234204839689 -0.03226080325143138 0 -0.033465396758012189 -0.029538934283380915 0 -0.036765622385632357 -0.024801345054073266 0 -0.038539495406666076 -0.028089105862959585 0 -0.033465396758012189 -0.029538934283380915 0 -0.036855175364089714 -0.021023033136775639 0 -0.036615496630509337 -0.02426661576926387 0 -0.030704178603023467 -0.022231081698258617 0 -0.033465396758012189 -0.029538934283380915 0 -0.029157055699327666 -0.030499450552388049 0 -0.032543408878410132 -0.021756595937706284 0 -0.038831635445973914 -0.020892581584028666 0 -0.036765622385632357 -0.024801345054073266 0 -0.032543408878410132 -0.021756595937706284 0 -0.036765622385632357 -0.024801345054073266 0 -0.033465396758012189 -0.029538934283380915 0 -0.032326138968122267 -0.037580656726986246 0 -0.033388010324479744 -0.033201719428094724 0 -0.030704178603023467 -0.022231081698258617 0 -0.029157055699327666 -0.030499450552388049 0 -0.025325983926942085 -0.023756154432617312 0 -0.028246539520676791 -0.044948235796246933 0 -0.028843576739369749 -0.045727349540753658 0 -0.027740701816195798 -0.048614314762376008 0 -0.028246539520676791 -0.044948235796246933 0 -0.028843576739369749 -0.045727349540753658 0 -0.028536371930956494 -0.044872308281790639 0 -0.03100509715984847 -0.049890552545536024 0 -0.028843576739369749 -0.045727349540753658 0 -0.027740701816195798 -0.048614314762376008 0 -0.026286874588576328 -0.048246454305746325 0 -0.027877824732420363 -0.047993886390369722 0 -0.027743940606999539 -0.04553712310796873 0 -0.027877824732420363 -0.047993886390369722 0 -0.028494894476951256 -0.045752406873944294 0 -0.027743940606999539 -0.04553712310796873 0 -0.028494894476951256 -0.045752406873944294 0 -0.027743940606999539 -0.04553712310796873 0 -0.028548273820743857 -0.044315204440088178 0 -0.029587784680515313 -0.042463605024216325 0 -0.028843576739369749 -0.045727349540753658 0 -0.028548273820743857 -0.044315204440088178 0 -0.028843576739369749 -0.045727349540753658 0 -0.028548273820743857 -0.044315204440088178 0 -0.028536371930956494 -0.044872308281790639 0 -0.028494894476951256 -0.045752406873944294 0 -0.028548273820743857 -0.044315204440088178 0 -0.028536371930956494 -0.044872308281790639 0 -0.028494894476951256 -0.045752406873944294 0 -0.028536371930956494 -0.044872308281790639 0 -0.029249515856998812 -0.045455894281887309 0 -0.028246539520676791 -0.044948235796246933 0 -0.028536371930956494 -0.044872308281790639 0 -0.029249515856998812 -0.045455894281887309 0 -0.028494894476951256 -0.045752406873944294 0 -0.029249515856998812 -0.045455894281887309 0 -0.029549106330492941 -0.04744482629685208 0 -0.027877824732420363 -0.047993886390369722 0 -0.028494894476951256 -0.045752406873944294 0 -0.029549106330492941 -0.04744482629685208 0 -0.029249515856998812 -0.045455894281887309 0 -0.029549106330492941 -0.04744482629685208 0 -0.031789674078058702 -0.045715018495275282 0 -0.029549106330492941 -0.04744482629685208 0 -0.031789674078058702 -0.045715018495275282 0 -0.031422095005619669 -0.049886372514549075 0 -0.031789674078058702 -0.045715018495275282 0 -0.035931564402687431 -0.049064873200404195 0 -0.031422095005619669 -0.049886372514549075 0 -0.028246539520676791 -0.044948235796246933 0 -0.029249515856998812 -0.045455894281887309 0 -0.031789674078058702 -0.045715018495275282 0 -0.036517234204839689 -0.03226080325143138 0 -0.033465396758012189 -0.029538934283380915 0 -0.032268421432447791 -0.038519368733310896 0 -0.033465396758012189 -0.029538934283380915 0 -0.029157055699327666 -0.030499450552388049 0 -0.032268421432447791 -0.038519368733310896 0 -0.032326138968122267 -0.037580656726986246 0 -0.03371987658786766 -0.042260790159966241 0 -0.032268421432447791 -0.038519368733310896 0 -0.038494084597833676 -0.035155272670187768 0 -0.03860964059968984 -0.040878949786155298 0 -0.036517234204839689 -0.03226080325143138 0 -0.032268421432447791 -0.038519368733310896 0 -0.038494084597833676 -0.035155272670187768 0 -0.040376039009118563 -0.03127097460753693 0 -0.036517234204839689 -0.03226080325143138 0 -0.038494084597833676 -0.035155272670187768 0 -0.032268421432447791 -0.038519368733310896 0 -0.03860964059968984 -0.040878949786155298 0 -0.035931564402687431 -0.049064873200404195 0 -0.03371987658786766 -0.042260790159966241 0 -0.035157398772806776 -0.045294292540258581 0 -0.03860964059968984 -0.040878949786155298 0 -0.035931564402687431 -0.049064873200404195 0 -0.041111660065291475 -0.051179708281302735 0 -0.035931564402687431 -0.049064873200404195 0 -0.033275581237577186 -0.051960371259393526 0 -0.031422095005619669 -0.049886372514549075 0 -0.035931564402687431 -0.049064873200404195 0 -0.035422047679618457 -0.053575825900887837 0 -0.033275581237577186 -0.051960371259393526 0 -0.035931564402687431 -0.049064873200404195 0 -0.035422047679618457 -0.053575825900887837 0 -0.041111660065291475 -0.051179708281302735 0 -0.035422047679618457 -0.053575825900887837 0 -0.041111660065291475 -0.051179708281302735 0 -0.035723352291803477 -0.059752559972785349 0 -0.035422047679618457 -0.053575825900887837 0 -0.031802166787564125 -0.054992025193296351 0 -0.035723352291803477 -0.059752559972785349 0 -0.035422047679618457 -0.053575825900887837 0 -0.031802166787564125 -0.054992025193296351 0 -0.033275581237577186 -0.051960371259393526 0 -0.031802166787564125 -0.054992025193296351 0 -0.030218957712055759 -0.052664945861164082 0 -0.033275581237577186 -0.051960371259393526 0 -0.031802166787564125 -0.054992025193296351 0 -0.030218957712055759 -0.052664945861164082 0 -0.028237430570344297 -0.05574852239102239 0 -0.030218957712055759 -0.052664945861164082 0 -0.033275581237577186 -0.051960371259393526 0 -0.031422095005619669 -0.049886372514549075 0 -0.027877824732420363 -0.047993886390369722 0 -0.029549106330492941 -0.04744482629685208 0 -0.028551816431510845 -0.05104427834400236 0 -0.030218957712055759 -0.052664945861164082 0 -0.031422095005619669 -0.049886372514549075 0 -0.028551816431510845 -0.05104427834400236 0 -0.029549106330492941 -0.04744482629685208 0 -0.031422095005619669 -0.049886372514549075 0 -0.028551816431510845 -0.05104427834400236 0 -0.030218957712055759 -0.052664945861164082 0 -0.028551816431510845 -0.05104427834400236 0 -0.028237430570344297 -0.05574852239102239 0 -0.028551816431510845 -0.05104427834400236 0 -0.028237430570344297 -0.05574852239102239 0 -0.026534494379111127 -0.053749286357537986 0 -0.028237430570344297 -0.05574852239102239 0 -0.026534494379111127 -0.053749286357537986 0 -0.025611269414243555 -0.056348206103304897 0 -0.026534494379111127 -0.053749286357537986 0 -0.024005724473053845 -0.0551628325655883 0 -0.025611269414243555 -0.056348206103304897 0 -0.026534494379111127 -0.053749286357537986 0 -0.024005724473053845 -0.0551628325655883 0 -0.024895029130543062 -0.052783400810374768 0 -0.026534494379111127 -0.053749286357537986 0 -0.024895029130543062 -0.052783400810374768 0 -0.026581555777471507 -0.050659423244194639 0 -0.024981308172162632 -0.050297627783292775 0 -0.024895029130543062 -0.052783400810374768 0 -0.026581555777471507 -0.050659423244194639 0 -0.028551816431510845 -0.05104427834400236 0 -0.026534494379111127 -0.053749286357537986 0 -0.026581555777471507 -0.050659423244194639 0 -0.027877824732420363 -0.047993886390369722 0 -0.028551816431510845 -0.05104427834400236 0 -0.026581555777471507 -0.050659423244194639 0 -0.026286874588576328 -0.048246454305746325 0 -0.027877824732420363 -0.047993886390369722 0 -0.026581555777471507 -0.050659423244194639 0 -0.026286874588576328 -0.048246454305746325 0 -0.024981308172162632 -0.050297627783292775 0 -0.026581555777471507 -0.050659423244194639 0 -0.047025326720910678 -0.041969168731438661 0 -0.04732241859613448 -0.035649315966064771 0 -0.039688606634758129 -0.041646176085738874 0 -0.047025326720910678 -0.041969168731438661 0 -0.039688606634758129 -0.041646176085738874 0 -0.04291028234332965 -0.049398267192335615 0 -0.047025326720910678 -0.041969168731438661 0 -0.04291028234332965 -0.049398267192335615 0 -0.04973286381386556 -0.048315883809044724 0 -0.047025326720910678 -0.041969168731438661 0 -0.053040315043498085 -0.042416584211082027 0 -0.04973286381386556 -0.048315883809044724 0 -0.056404596624834068 -0.050214069315754541 0 -0.053040315043498085 -0.042416584211082027 0 -0.04973286381386556 -0.048315883809044724 0 -0.047025326720910678 -0.041969168731438661 0 -0.053040315043498085 -0.042416584211082027 0 -0.052954439330516516 -0.035624606253971847 0 -0.060107411726307611 -0.038808104124944322 0 -0.053040315043498085 -0.042416584211082027 0 -0.052954439330516516 -0.035624606253971847 0 -0.050152764508315351 -0.031081701856901959 0 -0.052954439330516516 -0.035624606253971847 0 -0.04732241859613448 -0.035649315966064771 0 -0.047411781032162606 -0.029166995102313787 0 -0.04732241859613448 -0.035649315966064771 0 -0.039688606634758129 -0.041646176085738874 0 -0.047025326720910678 -0.041969168731438661 0 -0.052954439330516516 -0.035624606253971847 0 -0.04732241859613448 -0.035649315966064771 0 -0.043405376885432112 -0.036893377956574658 0 -0.041882722273866545 -0.0434475179290814 0 -0.047411781032162606 -0.029166995102313787 0 -0.040855851553145445 -0.03795285226983125 0 -0.046552073844435639 -0.040120436886816969 0 -0.043766695791548127 -0.034360309948110242 0 -0.042292392365121237 -0.039660955331635821 0 -0.043359333170997535 -0.031461892268295155 0 -0.045481042563543135 -0.027911424975022772 0 -0.045259766318494897 -0.038374781357616849 0 -0.043359333170997535 -0.031461892268295155 0 -0.041643168663510345 -0.035059152936997545 0 -0.045259766318494897 -0.038374781357616849 0 -0.03860964059968984 -0.040878949786155298 0 -0.041643168663510345 -0.035059152936997545 0 -0.045259766318494897 -0.038374781357616849 0 -0.043359333170997535 -0.031461892268295155 0 -0.040376039009118563 -0.03127097460753693 0 -0.041643168663510345 -0.035059152936997545 0 -0.040376039009118563 -0.03127097460753693 0 -0.038494084597833676 -0.035155272670187768 0 -0.041643168663510345 -0.035059152936997545 0 -0.038494084597833676 -0.035155272670187768 0 -0.03860964059968984 -0.040878949786155298 0 -0.041643168663510345 -0.035059152936997545 0 -0.040855851553145445 -0.03795285226983125 0 -0.042134815846243991 -0.044947330396486539 0 -0.037239676040346073 -0.049879181584676566 0 -0.03860964059968984 -0.040878949786155298 0 -0.045259766318494897 -0.038374781357616849 0 -0.041111660065291475 -0.051179708281302735 0 -0.042292392365121237 -0.039660955331635821 0 -0.039624545878281292 -0.048754552383587633 0 -0.040855851553145445 -0.03795285226983125 0 -0.046552073844435639 -0.040120436886816969 0 -0.042134815846243991 -0.044947330396486539 0 -0.046552073844435639 -0.040120436886816969 0 -0.042134815846243991 -0.044947330396486539 0 -0.044669587178383596 -0.052262173580104321 0 -0.042134815846243991 -0.044947330396486539 0 -0.037239676040346073 -0.049879181584676566 0 -0.044669587178383596 -0.052262173580104321 0 -0.041882722273866545 -0.0434475179290814 0 -0.038960599832803616 -0.05562515218441999 0 -0.037239676040346073 -0.049879181584676566 0 -0.039633527375915086 -0.056025728459229228 0 -0.035723352291803477 -0.059752559972785349 0 -0.039624545878281292 -0.048754552383587633 0 -0.038070776554271248 -0.053859183062678319 0 -0.037239676040346073 -0.049879181584676566 0 -0.039633527375915086 -0.056025728459229228 0 -0.044669587178383596 -0.052262173580104321 0 -0.033463762902673236 -0.058006436503832533 0 -0.047401037217449642 -0.059540002088078456 0 -0.03825930779976968 -0.067082642229539566 0 -0.033463762902673236 -0.058006436503832533 0 -0.04291028234332965 -0.049398267192335615 0 -0.047401037217449642 -0.059540002088078456 0 -0.04291028234332965 -0.049398267192335615 0 -0.04973286381386556 -0.048315883809044724 0 -0.047401037217449642 -0.059540002088078456 0 -0.039688606634758129 -0.041646176085738874 0 -0.033463762902673236 -0.058006436503832533 0 -0.04291028234332965 -0.049398267192335615 0 -0.056404596624834068 -0.050214069315754541 0 -0.04973286381386556 -0.048315883809044724 0 -0.047401037217449642 -0.059540002088078456 0 -0.056404596624834068 -0.050214069315754541 0 -0.059180913972225982 -0.057862263669309334 0 -0.047401037217449642 -0.059540002088078456 0 -0.059180913972225982 -0.057862263669309334 0 -0.047401037217449642 -0.059540002088078456 0 -0.046587990651081906 -0.072281118230830985 0 -0.036570494163013528 -0.072429672710059137 0 -0.034467279309173718 -0.077028904609075036 0 -0.018447170122027321 -0.089144964344321398 0 -0.02319246820712097 -0.087370676314132006 0 -0.019841327436907929 -0.087176204352282669 0 -0.02319246820712097 -0.087370676314132006 0 -0.021042399912318179 -0.085595022693067693 0 -0.019841327436907929 -0.087176204352282669 0 -0.02319246820712097 -0.087370676314132006 0 -0.021042399912318179 -0.085595022693067693 0 -0.023847295618755329 -0.083994910763628278 0 -0.021042399912318179 -0.085595022693067693 0 -0.023847295618755329 -0.083994910763628278 0 -0.02097560427608396 -0.083859889516266745 0 -0.034467279309173718 -0.077028904609075036 0 -0.032825588637906675 -0.079268051197101355 0 -0.02319246820712097 -0.087370676314132006 0 -0.023847295618755329 -0.083994910763628278 0 -0.029665159342737953 -0.082869003211143336 0 -0.046587990651081906 -0.072281118230830985 0 -0.028040634055905862 -0.077335764657861863 0 -0.029665159342737953 -0.082869003211143336 0 -0.047401037217449642 -0.059540002088078456 0 -0.046587990651081906 -0.072281118230830985 0 -0.03825930779976968 -0.067082642229539566 0 -0.046587990651081906 -0.072281118230830985 0 -0.03825930779976968 -0.067082642229539566 0 -0.028040634055905862 -0.077335764657861863 0 -0.038960599832803616 -0.05562515218441999 0 -0.036066991635807621 -0.067198683997507905 0 -0.033463762902673236 -0.058006436503832533 0 -0.03825930779976968 -0.067082642229539566 0 -0.028040634055905862 -0.077335764657861863 0 -0.039633527375915086 -0.056025728459229228 0 -0.044669587178383596 -0.052262173580104321 0 -0.041802588824664283 -0.061889616539248592 0 -0.039633527375915086 -0.056025728459229228 0 -0.041802588824664283 -0.061889616539248592 0 -0.035723352291803477 -0.059752559972785349 0 -0.036391338629098005 -0.065838901438967076 0 -0.041802588824664283 -0.061889616539248592 0 -0.035723352291803477 -0.059752559972785349 0 -0.028040634055905862 -0.077335764657861863 0 -0.028721420179565749 -0.08391808784819306 0 -0.029665159342737953 -0.082869003211143336 0 -0.036391338629098005 -0.065838901438967076 0 -0.041802588824664283 -0.061889616539248592 0 -0.038182549373308443 -0.070132653756006427 0 -0.028721420179565749 -0.08391808784819306 0 -0.029665159342737953 -0.082869003211143336 0 -0.026629802759687782 -0.082555524971216376 0 -0.036066991635807621 -0.067198683997507905 0 -0.034146287513921403 -0.073648851679807337 0 -0.036391338629098005 -0.065838901438967076 0 -0.038182549373308443 -0.070132653756006427 0 -0.034022496384561687 -0.07184495405163227 0 -0.036391338629098005 -0.065838901438967076 0 -0.034022496384561687 -0.07184495405163227 0 -0.032770881214754355 -0.069662681441752486 0 -0.038182549373308443 -0.070132653756006427 0 -0.034022496384561687 -0.07184495405163227 0 -0.030302884049251303 -0.077390545239228906 0 -0.034022496384561687 -0.07184495405163227 0 -0.032770881214754355 -0.069662681441752486 0 -0.031722951229687199 -0.073953389115706855 0 -0.034146287513921403 -0.073648851679807337 0 -0.03331730867687846 -0.075135096661137338 0 -0.028721420179565749 -0.08391808784819306 0 -0.027255306615244827 -0.080624345091872676 0 -0.025277304612745983 -0.081577335374429266 0 -0.028721420179565749 -0.08391808784819306 0 -0.027255306615244827 -0.080624345091872676 0 -0.030302884049251303 -0.077390545239228906 0 -0.027255306615244827 -0.080624345091872676 0 -0.025277304612745983 -0.081577335374429266 0 -0.023925610078257095 -0.079863741220775802 0 -0.025277304612745983 -0.081577335374429266 0 -0.021245072215007817 -0.081008890343987575 0 -0.02316283995359247 -0.082386566797269425 0 -0.025277304612745983 -0.081577335374429266 0 -0.021245072215007817 -0.081008890343987575 0 -0.023925610078257095 -0.079863741220775802 0 -0.021245072215007817 -0.081008890343987575 0 -0.02316283995359247 -0.082386566797269425 0 -0.020541769943905587 -0.082467963768171212 0 -0.02316283995359247 -0.082386566797269425 0 -0.020541769943905587 -0.082467963768171212 0 -0.02097560427608396 -0.083859889516266745 0 -0.023847295618755329 -0.083994910763628278 0 -0.02316283995359247 -0.082386566797269425 0 -0.02097560427608396 -0.083859889516266745 0 -0.023847295618755329 -0.083994910763628278 0 -0.02316283995359247 -0.082386566797269425 0 -0.026629802759687782 -0.082555524971216376 0 -0.028721420179565749 -0.08391808784819306 0 -0.025277304612745983 -0.081577335374429266 0 -0.026629802759687782 -0.082555524971216376 0 -0.023847295618755329 -0.083994910763628278 0 -0.029665159342737953 -0.082869003211143336 0 -0.026629802759687782 -0.082555524971216376 0 -0.025277304612745983 -0.081577335374429266 0 -0.02316283995359247 -0.082386566797269425 0 -0.026629802759687782 -0.082555524971216376 0 -0.024433285213555804 -0.060762470616255171 0 -0.026655651459195576 -0.064142410275280365 0 -0.022896663134011948 -0.065453870924073496 0 -0.022055094427293507 -0.057545424039856213 0 -0.024433285213555804 -0.060762470616255171 0 -0.022896663134011948 -0.065453870924073496 0 -0.022055094427293507 -0.057545424039856213 0 -0.024433285213555804 -0.060762470616255171 0 -0.024320063838716099 -0.057678375846799274 0 -0.024005724473053845 -0.0551628325655883 0 -0.024320063838716099 -0.057678375846799274 0 -0.025611269414243555 -0.056348206103304897 0 -0.028237430570344297 -0.05574852239102239 0 -0.025611269414243555 -0.056348206103304897 0 -0.025498849909234723 -0.058775297118113384 0 -0.024320063838716099 -0.057678375846799274 0 -0.025611269414243555 -0.056348206103304897 0 -0.025498849909234723 -0.058775297118113384 0 -0.024433285213555804 -0.060762470616255171 0 -0.024320063838716099 -0.057678375846799274 0 -0.025498849909234723 -0.058775297118113384 0 -0.024433285213555804 -0.060762470616255171 0 -0.025498849909234723 -0.058775297118113384 0 -0.02741482124936484 -0.060046799602514314 0 -0.028237430570344297 -0.05574852239102239 0 -0.025498849909234723 -0.058775297118113384 0 -0.02741482124936484 -0.060046799602514314 0 -0.028237430570344297 -0.05574852239102239 0 -0.02741482124936484 -0.060046799602514314 0 -0.030589119940481045 -0.059032267120146698 0 -0.02741482124936484 -0.060046799602514314 0 -0.028956662510348369 -0.062577354187425924 0 -0.030589119940481045 -0.059032267120146698 0 -0.02741482124936484 -0.060046799602514314 0 -0.028956662510348369 -0.062577354187425924 0 -0.026655651459195576 -0.064142410275280365 0 -0.024433285213555804 -0.060762470616255171 0 -0.02741482124936484 -0.060046799602514314 0 -0.026655651459195576 -0.064142410275280365 0 -0.028956662510348369 -0.062577354187425924 0 -0.026655651459195576 -0.064142410275280365 0 -0.029218109216252074 -0.066474973184410813 0 -0.031492959553002818 -0.062659089563056977 0 -0.03322643213864114 -0.065424447770106128 0 -0.029218109216252074 -0.066474973184410813 0 -0.028956662510348369 -0.062577354187425924 0 -0.031492959553002818 -0.062659089563056977 0 -0.029218109216252074 -0.066474973184410813 0 -0.028956662510348369 -0.062577354187425924 0 -0.031492959553002818 -0.062659089563056977 0 -0.030589119940481045 -0.059032267120146698 0 -0.031802166787564125 -0.054992025193296351 0 -0.028237430570344297 -0.05574852239102239 0 -0.030589119940481045 -0.059032267120146698 0 -0.031802166787564125 -0.054992025193296351 0 -0.030589119940481045 -0.059032267120146698 0 -0.035723352291803477 -0.059752559972785349 0 -0.031492959553002818 -0.062659089563056977 0 -0.030589119940481045 -0.059032267120146698 0 -0.035723352291803477 -0.059752559972785349 0 -0.031492959553002818 -0.062659089563056977 0 -0.035723352291803477 -0.059752559972785349 0 -0.03322643213864114 -0.065424447770106128 0 -0.036391338629098005 -0.065838901438967076 0 -0.035723352291803477 -0.059752559972785349 0 -0.03322643213864114 -0.065424447770106128 0 -0.03322643213864114 -0.065424447770106128 0 -0.032770881214754355 -0.069662681441752486 0 -0.030366433293940235 -0.070281467088560895 0 -0.036391338629098005 -0.065838901438967076 0 -0.03322643213864114 -0.065424447770106128 0 -0.032770881214754355 -0.069662681441752486 0 -0.032770881214754355 -0.069662681441752486 0 -0.030366433293940235 -0.070281467088560895 0 -0.031722951229687199 -0.073953389115706855 0 -0.030366433293940235 -0.070281467088560895 0 -0.029913921775231552 -0.073864048659931986 0 -0.031722951229687199 -0.073953389115706855 0 -0.030366433293940235 -0.070281467088560895 0 -0.028208381267397987 -0.071241114180765869 0 -0.029913921775231552 -0.073864048659931986 0 -0.030366433293940235 -0.070281467088560895 0 -0.029218109216252074 -0.066474973184410813 0 -0.028208381267397987 -0.071241114180765869 0 -0.03322643213864114 -0.065424447770106128 0 -0.030366433293940235 -0.070281467088560895 0 -0.029218109216252074 -0.066474973184410813 0 -0.029218109216252074 -0.066474973184410813 0 -0.026515761779544813 -0.068013124215349358 0 -0.028208381267397987 -0.071241114180765869 0 -0.026655651459195576 -0.064142410275280365 0 -0.029218109216252074 -0.066474973184410813 0 -0.026515761779544813 -0.068013124215349358 0 -0.028208381267397987 -0.071241114180765869 0 -0.025275310420027699 -0.072460303017632968 0 -0.028456961812664178 -0.074171080484048593 0 -0.026515761779544813 -0.068013124215349358 0 -0.028208381267397987 -0.071241114180765869 0 -0.025275310420027699 -0.072460303017632968 0 -0.030927576442674378 -0.072165641045388626 0 -0.028527032820914896 -0.071172478423738292 0 -0.02904596434359704 -0.066382018341130014 0 -0.028302750286289365 -0.071094872347176458 0 -0.026384412506784364 -0.065619024766288975 0 -0.026515761779544813 -0.068013124215349358 0 -0.025275310420027699 -0.072460303017632968 0 -0.022896663134011948 -0.065453870924073496 0 -0.027117597621395952 -0.068159083311315774 0 -0.028527032820914896 -0.071172478423738292 0 -0.02904596434359704 -0.066382018341130014 0 -0.026655651459195576 -0.064142410275280365 0 -0.026515761779544813 -0.068013124215349358 0 -0.022896663134011948 -0.065453870924073496 0 -0.037667133675726897 -0.081994991719003568 0 -0.035977001215972811 -0.081676758880026942 0 -0.036748215429435051 -0.078509976051331087 0 -0.037566404134816225 -0.081578804432890964 0 -0.036761859084346163 -0.078431388232707802 0 -0.036368534661471302 -0.075722686951013876 0 -0.034547867586517657 -0.075897628937596398 0 -0.037667133675726897 -0.081994991719003568 0 -0.037366563703135243 -0.085092365960164423 0 -0.035977001215972811 -0.081676758880026942 0 -0.030927576442674378 -0.072165641045388626 0 -0.028527032820914896 -0.071172478423738292 0 -0.030552894537231586 -0.074680708640412721 0 -0.039214969165584868 -0.072629106651234898 0 -0.036368534661471302 -0.075722686951013876 0 -0.028302750286289365 -0.071094872347176458 0 -0.029788348928307389 -0.074363588724236623 0 -0.025275310420027699 -0.072460303017632968 0 -0.028456961812664178 -0.074171080484048593 0 -0.028590035447339124 -0.076449178806680063 0 -0.030927576442674378 -0.072165641045388626 0 -0.030552894537231586 -0.074680708640412721 0 -0.03201236973800866 -0.075657520238950435 0 -0.028456961812664178 -0.074171080484048593 0 -0.028590035447339124 -0.076449178806680063 0 -0.029818951619652853 -0.07580254000175364 0 -0.030552894537231586 -0.074680708640412721 0 -0.03201236973800866 -0.075657520238950435 0 -0.031947630628994646 -0.076153213979591905 0 -0.028590035447339124 -0.076449178806680063 0 -0.029818951619652853 -0.07580254000175364 0 -0.030204404929664346 -0.07647531256291587 0 -0.029818951619652853 -0.07580254000175364 0 -0.03005610157164695 -0.076461315697988683 0 -0.030204404929664346 -0.07647531256291587 0 -0.028456961812664178 -0.074171080484048593 0 -0.029818951619652853 -0.07580254000175364 0 -0.029913921775231552 -0.073864048659931986 0 -0.028208381267397987 -0.071241114180765869 0 -0.028456961812664178 -0.074171080484048593 0 -0.029913921775231552 -0.073864048659931986 0 -0.029818951619652853 -0.07580254000175364 0 -0.029913921775231552 -0.073864048659931986 0 -0.030673790267186769 -0.075663242238895215 0 -0.029913921775231552 -0.073864048659931986 0 -0.031722951229687199 -0.073953389115706855 0 -0.030673790267186769 -0.075663242238895215 0 -0.029818951619652853 -0.07580254000175364 0 -0.030673790267186769 -0.075663242238895215 0 -0.03005610157164695 -0.076461315697988683 0 -0.030673790267186769 -0.075663242238895215 0 -0.03005610157164695 -0.076461315697988683 0 -0.030302884049251303 -0.077390545239228906 0 -0.03005610157164695 -0.076461315697988683 0 -0.029955936251891153 -0.076172091714189677 0 -0.028137255941117663 -0.076411907602873197 0 -0.03005610157164695 -0.076461315697988683 0 -0.029955936251891153 -0.076172091714189677 0 -0.030204404929664346 -0.07647531256291587 0 -0.029955936251891153 -0.076172091714189677 0 -0.029164393463211789 -0.074999399779096337 0 -0.028137255941117663 -0.076411907602873197 0 -0.029955936251891153 -0.076172091714189677 0 -0.029164393463211789 -0.074999399779096337 0 -0.031934901255794165 -0.075919910517091543 0 -0.029164393463211789 -0.074999399779096337 0 -0.031934901255794165 -0.075919910517091543 0 -0.033221673413473166 -0.075000369341339787 0 -0.029955936251891153 -0.076172091714189677 0 -0.031934901255794165 -0.075919910517091543 0 -0.030204404929664346 -0.07647531256291587 0 -0.028590035447339124 -0.076449178806680063 0 -0.031934901255794165 -0.075919910517091543 0 -0.030204404929664346 -0.07647531256291587 0 -0.029788348928307389 -0.074363588724236623 0 -0.030349811935864668 -0.075140822422870956 0 -0.03201236973800866 -0.075657520238950435 0 -0.031934901255794165 -0.075919910517091543 0 -0.031947630628994646 -0.076153213979591905 0 -0.034624739999478529 -0.078360135709483816 0 -0.033226921183196173 -0.074999978910686424 0 -0.035882187935352229 -0.074999979271952968 0 -0.031934901255794165 -0.075919910517091543 0 -0.031947630628994646 -0.076153213979591905 0 -0.033221673413473166 -0.075000369341339787 0 -0.034547867586517657 -0.075897628937596398 0 -0.033228610663718065 -0.075000527108005727 0 -0.035883252283033774 -0.075003450331733376 0 -0.036761859084346163 -0.078431388232707802 0 -0.039035409826812986 -0.077451305040190599 0 -0.035882440010789003 -0.074999988429300557 0 -0.036840982893547633 -0.078569008465333948 0 -0.034624739999478529 -0.078360135709483816 0 -0.035882187935352229 -0.074999979271952968 0 -0.036748215429435051 -0.078509976051331087 0 -0.035977001215972811 -0.081676758880026942 0 -0.034624739999478529 -0.078360135709483816 0 -0.036748215429435051 -0.078509976051331087 0 -0.023181773711019139 -0.077878083881164142 0 -0.030302884049251303 -0.077390545239228906 0 -0.024598867560765847 -0.076400169713371588 0 -0.023181773711019139 -0.077878083881164142 0 -0.019645592308020283 -0.076970768773860748 0 -0.020145055234260772 -0.079347447386727998 0 -0.023181773711019139 -0.077878083881164142 0 -0.023925610078257095 -0.079863741220775802 0 -0.020145055234260772 -0.079347447386727998 0 -0.021245072215007817 -0.081008890343987575 0 -0.023925610078257095 -0.079863741220775802 0 -0.020145055234260772 -0.079347447386727998 0 -0.023181773711019139 -0.077878083881164142 0 -0.023925610078257095 -0.079863741220775802 0 -0.030302884049251303 -0.077390545239228906 0 -0.027255306615244827 -0.080624345091872676 0 -0.023925610078257095 -0.079863741220775802 0 -0.030302884049251303 -0.077390545239228906 0 -0.034022496384561687 -0.07184495405163227 0 -0.031722951229687199 -0.073953389115706855 0 -0.030302884049251303 -0.077390545239228906 0 -0.031722951229687199 -0.073953389115706855 0 -0.030673790267186769 -0.075663242238895215 0 -0.030302884049251303 -0.077390545239228906 0 -0.03005610157164695 -0.076461315697988683 0 -0.030302884049251303 -0.077390545239228906 0 -0.028137255941117663 -0.076411907602873197 0 -0.030302884049251303 -0.077390545239228906 0 -0.028137255941117663 -0.076411907602873197 0 -0.024598867560765847 -0.076400169713371588 0 -0.029164393463211789 -0.074999399779096337 0 -0.028137255941117663 -0.076411907602873197 0 -0.025101796417532699 -0.074998795409528737 0 -0.028137255941117663 -0.076411907602873197 0 -0.025101796417532699 -0.074998795409528737 0 -0.024598867560765847 -0.076400169713371588 0 -0.025101796417532699 -0.074998795409528737 0 -0.024598867560765847 -0.076400169713371588 0 -0.021038137032452199 -0.074998665974567766 0 -0.023181773711019139 -0.077878083881164142 0 -0.024598867560765847 -0.076400169713371588 0 -0.019645592308020283 -0.076970768773860748 0 -0.021038137032452199 -0.074998665974567766 0 -0.016973902716869212 -0.07499918126532408 0 -0.019645592308020283 -0.076970768773860748 0 -0.024598867560765847 -0.076400169713371588 0 -0.021038137032452199 -0.074998665974567766 0 -0.019645592308020283 -0.076970768773860748 0 -0.016973902716869212 -0.07499918126532408 0 -0.015272773944638775 -0.076780678215883816 0 -0.019645592308020283 -0.076970768773860748 0 -0.016973902716869212 -0.07499918126532408 0 -0.015272773944638775 -0.076780678215883816 0 -0.012910083976648994 -0.074999284451321355 0 -0.015272773944638775 -0.076780678215883816 0 -0.0131335598470183 -0.078644360308269393 0 -0.017215397205628032 -0.078945543434276649 0 -0.015272773944638775 -0.076780678215883816 0 -0.019645592308020283 -0.076970768773860748 0 -0.017215397205628032 -0.078945543434276649 0 -0.012910083976648994 -0.074999284451321355 0 -0.010999362683636065 -0.076926428971045846 0 -0.0088463322819294123 -0.074999558328845306 0 -0.015272773944638775 -0.076780678215883816 0 -0.012910083976648994 -0.074999284451321355 0 -0.010999362683636065 -0.076926428971045846 0 -0.015272773944638775 -0.076780678215883816 0 -0.010999362683636065 -0.076926428971045846 0 -0.0131335598470183 -0.078644360308269393 0 -0.010999362683636065 -0.076926428971045846 0 -0.0099103626061269219 -0.079359564767080254 0 -0.0131335598470183 -0.078644360308269393 0 -0.0090479713059353293 -0.079056098544902004 0 -0.010176081262142537 -0.080205827971481694 0 -0.0099103626061269219 -0.079359564767080254 0 -0.0131335598470183 -0.078644360308269393 0 -0.01214329479481748 -0.081674304801398423 0 -0.0131335598470183 -0.078644360308269393 0 -0.01214329479481748 -0.081674304801398423 0 -0.017215397205628032 -0.078945543434276649 0 -0.01214329479481748 -0.081674304801398423 0 -0.017215397205628032 -0.078945543434276649 0 -0.013740829849470195 -0.083181267060343497 0 -0.01214329479481748 -0.081674304801398423 0 -0.013740829849470195 -0.083181267060343497 0 -0.01079019709119609 -0.083623985021683139 0 -0.01214329479481748 -0.081674304801398423 0 -0.01079019709119609 -0.083623985021683139 0 -0.0089475231306214986 -0.081646516103156153 0 -0.0092537816872607648 -0.078829884407554104 0 -0.01214329479481748 -0.081674304801398423 0 -0.0089475231306214986 -0.081646516103156153 0 -0.019645592308020283 -0.076970768773860748 0 -0.017215397205628032 -0.078945543434276649 0 -0.020145055234260772 -0.079347447386727998 0 -0.015593907903659316 -0.08005178071762499 0 -0.014162794804240455 -0.081569200597481337 0 -0.017215397205628032 -0.078945543434276649 0 -0.018640049618259803 -0.080567211559641277 0 -0.017450617500617143 -0.081013896624471643 0 -0.017215397205628032 -0.078945543434276649 0 -0.017450617500617143 -0.081013896624471643 0 -0.016342363894465254 -0.080700115743313136 0 -0.021245072215007817 -0.081008890343987575 0 -0.020145055234260772 -0.079347447386727998 0 -0.018640049618259803 -0.080567211559641277 0 -0.017215397205628032 -0.078945543434276649 0 -0.020145055234260772 -0.079347447386727998 0 -0.018640049618259803 -0.080567211559641277 0 -0.021245072215007817 -0.081008890343987575 0 -0.018640049618259803 -0.080567211559641277 0 -0.01888108254610912 -0.081814072924252496 0 -0.021245072215007817 -0.081008890343987575 0 -0.01888108254610912 -0.081814072924252496 0 -0.020541769943905587 -0.082467963768171212 0 -0.01888108254610912 -0.081814072924252496 0 -0.020541769943905587 -0.082467963768171212 0 -0.018764266664701067 -0.083285534102581799 0 -0.020541769943905587 -0.082467963768171212 0 -0.018764266664701067 -0.083285534102581799 0 -0.02097560427608396 -0.083859889516266745 0 -0.018764266664701067 -0.083285534102581799 0 -0.017290293849769541 -0.082616862381404366 0 -0.017010296174354376 -0.084356020866751424 0 -0.017290293849769541 -0.082616862381404366 0 -0.016068954075083439 -0.08334459384496419 0 -0.017010296174354376 -0.084356020866751424 0 -0.01888108254610912 -0.081814072924252496 0 -0.018764266664701067 -0.083285534102581799 0 -0.017290293849769541 -0.082616862381404366 0 -0.017290293849769541 -0.082616862381404366 0 -0.017450617500617143 -0.081013896624471643 0 -0.016231666084707896 -0.08219383468296973 0 -0.01888108254610912 -0.081814072924252496 0 -0.017290293849769541 -0.082616862381404366 0 -0.017450617500617143 -0.081013896624471643 0 -0.018640049618259803 -0.080567211559641277 0 -0.01888108254610912 -0.081814072924252496 0 -0.017450617500617143 -0.081013896624471643 0 -0.016342363894465254 -0.080700115743313136 0 -0.016231666084707896 -0.08219383468296973 0 -0.014179645216385074 -0.083223267774391207 0 -0.014162794804240455 -0.081569200597481337 0 -0.011461284783334243 -0.083602895025069693 0 -0.017450617500617143 -0.081013896624471643 0 -0.016342363894465254 -0.080700115743313136 0 -0.016231666084707896 -0.08219383468296973 0 -0.01079019709119609 -0.083623985021683139 0 -0.010718846707298238 -0.087001889173952074 0 -0.0081718003045129894 -0.08440057625139577 0 -0.013740829849470195 -0.083181267060343497 0 -0.01079019709119609 -0.083623985021683139 0 -0.010718846707298238 -0.087001889173952074 0 -0.016231666084707896 -0.08219383468296973 0 -0.014179645216385074 -0.083223267774391207 0 -0.016068954075083439 -0.08334459384496419 0 -0.014179645216385074 -0.083223267774391207 0 -0.016068954075083439 -0.08334459384496419 0 -0.015446508348598674 -0.084547681244585143 0 -0.017290293849769541 -0.082616862381404366 0 -0.016231666084707896 -0.08219383468296973 0 -0.016068954075083439 -0.08334459384496419 0 -0.016068954075083439 -0.08334459384496419 0 -0.015446508348598674 -0.084547681244585143 0 -0.017010296174354376 -0.084356020866751424 0 -0.015446508348598674 -0.084547681244585143 0 -0.016091743036352725 -0.085832619268434052 0 -0.017010296174354376 -0.084356020866751424 0 -0.01306220036978592 -0.084524062791573318 0 -0.013832294809284197 -0.085083334455786447 0 -0.010799922298477692 -0.081221093729701377 0 -0.010975665291687595 -0.08417356979161511 0 -0.0086439516497265976 -0.084510468813318113 0 -0.011461284783334243 -0.083602895025069693 0 -0.010885835537236963 -0.083988225862225402 0 -0.011461284783334243 -0.083602895025069693 0 -0.01306220036978592 -0.084524062791573318 0 -0.010799922298477692 -0.081221093729701377 0 -0.013218594904059586 -0.083478150695403042 0 -0.010975665291687595 -0.08417356979161511 0 -0.013218594904059586 -0.083478150695403042 0 -0.010975665291687595 -0.08417356979161511 0 -0.011814819206857872 -0.08592224191718266 0 -0.010975665291687595 -0.08417356979161511 0 -0.0092966330281693543 -0.086476728238517347 0 -0.0086439516497265976 -0.084510468813318113 0 -0.010975665291687595 -0.08417356979161511 0 -0.011814819206857872 -0.08592224191718266 0 -0.0092966330281693543 -0.086476728238517347 0 -0.011814819206857872 -0.08592224191718266 0 -0.01080680622739019 -0.08721984736792783 0 -0.0129796929944886 -0.087245936900629137 0 -0.0095226745215587823 -0.087502572430011499 0 -0.01080680622739019 -0.08721984736792783 0 -0.0092966330281693543 -0.086476728238517347 0 -0.011814819206857872 -0.08592224191718266 0 -0.01080680622739019 -0.08721984736792783 0 -0.0092966330281693543 -0.086476728238517347 0 -0.013218594904059586 -0.083478150695403042 0 -0.014048014379251171 -0.086273450000980287 0 -0.016091743036352725 -0.085832619268434052 0 -0.013218594904059586 -0.083478150695403042 0 -0.011814819206857872 -0.08592224191718266 0 -0.014048014379251171 -0.086273450000980287 0 -0.016038007636166442 -0.088549387516394268 0 -0.014048014379251171 -0.086273450000980287 0 -0.016091743036352725 -0.085832619268434052 0 -0.011814819206857872 -0.08592224191718266 0 -0.014048014379251171 -0.086273450000980287 0 -0.0129796929944886 -0.087245936900629137 0 -0.016038007636166442 -0.088549387516394268 0 -0.014048014379251171 -0.086273450000980287 0 -0.0129796929944886 -0.087245936900629137 0 -0.014172964529189085 -0.087800631514134031 0 -0.016242794129200957 -0.087260692561639763 0 -0.016038007636166442 -0.088549387516394268 0 -0.016091743036352725 -0.085832619268434052 0 -0.018161658026631118 -0.085946325254660505 0 -0.016038007636166442 -0.088549387516394268 0 -0.018161658026631118 -0.085946325254660505 0 -0.019841327436907929 -0.087176204352282669 0 -0.021042399912318179 -0.085595022693067693 0 -0.018161658026631118 -0.085946325254660505 0 -0.019841327436907929 -0.087176204352282669 0 -0.021042399912318179 -0.085595022693067693 0 -0.018161658026631118 -0.085946325254660505 0 -0.019094210120802368 -0.084733374073107215 0 -0.021042399912318179 -0.085595022693067693 0 -0.02097560427608396 -0.083859889516266745 0 -0.019094210120802368 -0.084733374073107215 0 -0.018764266664701067 -0.083285534102581799 0 -0.02097560427608396 -0.083859889516266745 0 -0.019094210120802368 -0.084733374073107215 0 -0.018764266664701067 -0.083285534102581799 0 -0.019094210120802368 -0.084733374073107215 0 -0.017010296174354376 -0.084356020866751424 0 -0.016091743036352725 -0.085832619268434052 0 -0.018161658026631118 -0.085946325254660505 0 -0.017010296174354376 -0.084356020866751424 0 -0.018161658026631118 -0.085946325254660505 0 -0.019094210120802368 -0.084733374073107215 0 -0.017010296174354376 -0.084356020866751424 0 -0.0047563421926564795 -0.085725332936023246 0 -0.0046051941873405701 -0.084516027228319815 0 -0.0034912019447711651 -0.08536156194924252 0 -0.0047563421926564795 -0.085725332936023246 0 -0.0046051941873405701 -0.084516027228319815 0 -0.0055266640442655683 -0.084953444874170156 0 -0.0046051941873405701 -0.084516027228319815 0 -0.0055266640442655683 -0.084953444874170156 0 -0.0058251197960042271 -0.084105349441780594 0 -0.0046051941873405701 -0.084516027228319815 0 -0.0034912019447711651 -0.08536156194924252 0 -0.0034840430899559325 -0.084198637432344195 0 -0.0025084522608525735 -0.084874974463911929 0 -0.0034912019447711651 -0.08536156194924252 0 -0.0034840430899559325 -0.084198637432344195 0 -0.0025084522608525735 -0.084874974463911929 0 -0.0024456019682227081 -0.083879622222191572 0 -0.0015578385630819918 -0.084492729053188886 0 -0.0025084522608525735 -0.084874974463911929 0 -0.0024456019682227081 -0.083879622222191572 0 -0.0034840430899559325 -0.084198637432344195 0 -0.0025084522608525735 -0.084874974463911929 0 -0.002440657890602558 -0.085914935601886219 0 -0.0016383029731962568 -0.085423861420490133 0 -0.0025084522608525735 -0.084874974463911929 0 -0.0034912019447711651 -0.08536156194924252 0 -0.002440657890602558 -0.085914935601886219 0 -0.0001434345976878257 -0.085225334809732614 0 0.0031025070083241808 -0.084810121333892499 0 -0.0033544617663354352 -0.087103895010697791 0 -0.002440657890602558 -0.085914935601886219 0 -0.0012681369382573418 -0.086615203645934918 0 -0.0034912019447711651 -0.08536156194924252 0 -0.0033544617663354352 -0.087103895010697791 0 -0.002440657890602558 -0.085914935601886219 0 -0.0047563421926564795 -0.085725332936023246 0 -0.0033544617663354352 -0.087103895010697791 0 -0.0058838029770084104 -0.086881749652347795 0 -0.0001434345976878257 -0.085225334809732614 0 -0.0051508067998174492 -0.08565062686366616 0 -0.0073249515041537089 -0.087707639390670791 0 -0.0043378932512233214 -0.086982220157525089 0 -0.0069050191432915037 -0.086750482242343649 0 -0.0047563421926564795 -0.085725332936023246 0 -0.0034912019447711651 -0.08536156194924252 0 -0.0033544617663354352 -0.087103895010697791 0 -0.0073249515041537089 -0.087707639390670791 0 -0.0069050191432915037 -0.086750482242343649 0 -0.0092966330281693543 -0.086476728238517347 0 -0.0047563421926564795 -0.085725332936023246 0 -0.0058838029770084104 -0.086881749652347795 0 -0.0058834803387190788 -0.085677737961509515 0 -0.0058838029770084104 -0.086881749652347795 0 -0.0069420130344718502 -0.085896685337884998 0 -0.0058834803387190788 -0.085677737961509515 0 -0.0069420130344718502 -0.085896685337884998 0 -0.0092966330281693543 -0.086476728238517347 0 -0.0078013294023156019 -0.085451039530789974 0 -0.0095226745215587823 -0.087502572430011499 0 -0.0073249515041537089 -0.087707639390670791 0 -0.0092966330281693543 -0.086476728238517347 0 -0.0058838029770084104 -0.086881749652347795 0 -0.0069420130344718502 -0.085896685337884998 0 -0.0092966330281693543 -0.086476728238517347 0 -0.0051508067998174492 -0.08565062686366616 0 -0.0069246519074993339 -0.085735447631972148 0 -0.0092966330281693543 -0.086476728238517347 0 -0.0086439516497265976 -0.084510468813318113 0 -0.0078013294023156019 -0.085451039530789974 0 -0.0091437957005975849 -0.083428118658222 0 -0.0086439516497265976 -0.084510468813318113 0 -0.0074750152547244488 -0.083683300107109698 0 -0.0086439516497265976 -0.084510468813318113 0 -0.0078013294023156019 -0.085451039530789974 0 -0.0067821184470380587 -0.084920498567981728 0 -0.0086439516497265976 -0.084510468813318113 0 -0.0067821184470380587 -0.084920498567981728 0 -0.0074750152547244488 -0.083683300107109698 0 -0.0058834803387190788 -0.085677737961509515 0 -0.0055266640442655683 -0.084953444874170156 0 -0.0067821184470380587 -0.084920498567981728 0 -0.0047563421926564795 -0.085725332936023246 0 -0.0058834803387190788 -0.085677737961509515 0 -0.0055266640442655683 -0.084953444874170156 0 -0.0069420130344718502 -0.085896685337884998 0 -0.0058834803387190788 -0.085677737961509515 0 -0.0067821184470380587 -0.084920498567981728 0 -0.0069420130344718502 -0.085896685337884998 0 -0.0078013294023156019 -0.085451039530789974 0 -0.0067821184470380587 -0.084920498567981728 0 -0.0067821184470380587 -0.084920498567981728 0 -0.0058251197960042271 -0.084105349441780594 0 -0.0074750152547244488 -0.083683300107109698 0 -0.0055266640442655683 -0.084953444874170156 0 -0.0067821184470380587 -0.084920498567981728 0 -0.0058251197960042271 -0.084105349441780594 0 -0.0058251197960042271 -0.084105349441780594 0 -0.0063296920057119418 -0.083136672756308275 0 -0.0045529037857532512 -0.083380512439936688 0 -0.0063296920057119418 -0.083136672756308275 0 -0.0054185224671812983 -0.082357852548176513 0 -0.0045529037857532512 -0.083380512439936688 0 -0.0058251197960042271 -0.084105349441780594 0 -0.0063296920057119418 -0.083136672756308275 0 -0.0074750152547244488 -0.083683300107109698 0 -0.0091437957005975849 -0.083428118658222 0 -0.0074750152547244488 -0.083683300107109698 0 -0.0075738756608525071 -0.082257871128187374 0 -0.0063296920057119418 -0.083136672756308275 0 -0.0074750152547244488 -0.083683300107109698 0 -0.0075738756608525071 -0.082257871128187374 0 -0.011461284783334243 -0.083602895025069693 0 -0.0094060300178798809 -0.082758072967367285 0 -0.01079019709119609 -0.083623985021683139 0 -0.0081718003045129894 -0.08440057625139577 0 -0.0089475231306214986 -0.081646516103156153 0 -0.0063296920057119418 -0.083136672756308275 0 -0.0075738756608525071 -0.082257871128187374 0 -0.0054185224671812983 -0.082357852548176513 0 -0.0075738756608525071 -0.082257871128187374 0 -0.0054185224671812983 -0.082357852548176513 0 -0.0059036354738681192 -0.081413949354937662 0 -0.0094060300178798809 -0.082758072967367285 0 -0.0084450503263465097 -0.082164069633923489 0 -0.0054185224671812983 -0.082357852548176513 0 -0.0044534137535559163 -0.081694014938606563 0 -0.0059036354738681192 -0.081413949354937662 0 -0.0054185224671812983 -0.082357852548176513 0 -0.0045529037857532512 -0.083380512439936688 0 -0.0035171391072686825 -0.082444530820493911 0 -0.0044534137535559163 -0.081694014938606563 0 -0.0035171391072686825 -0.082444530820493911 0 -0.0035258552126830765 -0.080763716845338784 0 -0.0054185224671812983 -0.082357852548176513 0 -0.0044534137535559163 -0.081694014938606563 0 -0.0035171391072686825 -0.082444530820493911 0 -0.0045529037857532512 -0.083380512439936688 0 -0.0032384484424316791 -0.083333519477420459 0 -0.0035171391072686825 -0.082444530820493911 0 -0.0045529037857532512 -0.083380512439936688 0 -0.0034840430899559325 -0.084198637432344195 0 -0.0032384484424316791 -0.083333519477420459 0 -0.0046051941873405701 -0.084516027228319815 0 -0.0045529037857532512 -0.083380512439936688 0 -0.0034840430899559325 -0.084198637432344195 0 -0.0046051941873405701 -0.084516027228319815 0 -0.0058251197960042271 -0.084105349441780594 0 -0.0045529037857532512 -0.083380512439936688 0 -0.0024456019682227081 -0.083879622222191572 0 -0.0034840430899559325 -0.084198637432344195 0 -0.0032384484424316791 -0.083333519477420459 0 -0.0032384484424316791 -0.083333519477420459 0 -0.0022041102908229447 -0.082786442566277887 0 -0.0035171391072686825 -0.082444530820493911 0 -0.0024456019682227081 -0.083879622222191572 0 -0.0032384484424316791 -0.083333519477420459 0 -0.0022041102908229447 -0.082786442566277887 0 -0.0022041102908229447 -0.082786442566277887 0 -0.0035171391072686825 -0.082444530820493911 0 -0.0018053088979978543 -0.081338591080985997 0 -0.0035171391072686825 -0.082444530820493911 0 -0.0035258552126830765 -0.080763716845338784 0 -0.0018053088979978543 -0.081338591080985997 0 -0.0022803646195556568 -0.080181663188496455 0 -0.0035258552126830765 -0.080763716845338784 0 -0.0018053088979978543 -0.081338591080985997 0 -0.0022803646195556568 -0.080181663188496455 0 -0.0035258552126830765 -0.080763716845338784 0 -0.0036125049303281954 -0.079563526201651899 0 -0.0044534137535559163 -0.081694014938606563 0 -0.0046737028472060545 -0.080316311747962221 0 -0.0035258552126830765 -0.080763716845338784 0 -0.0044534137535559163 -0.081694014938606563 0 -0.0046737028472060545 -0.080316311747962221 0 -0.0059036354738681192 -0.081413949354937662 0 -0.0046737028472060545 -0.080316311747962221 0 -0.0035258552126830765 -0.080763716845338784 0 -0.0036125049303281954 -0.079563526201651899 0 -0.0046737028472060545 -0.080316311747962221 0 -0.0036125049303281954 -0.079563526201651899 0 -0.00447955081077335 -0.078780922433683231 0 -0.0036125049303281954 -0.079563526201651899 0 -0.00447955081077335 -0.078780922433683231 0 -0.0032197117321144937 -0.078223591553167632 0 -0.0036125049303281954 -0.079563526201651899 0 -0.002474602430636237 -0.079125448744053473 0 -0.0032197117321144937 -0.078223591553167632 0 -0.002474602430636237 -0.079125448744053473 0 -0.0022638329016718556 -0.078117627390779834 0 -0.0010994467840025211 -0.079762924820330067 0 -0.002474602430636237 -0.079125448744053473 0 -0.0022638329016718556 -0.078117627390779834 0 -0.0032197117321144937 -0.078223591553167632 0 -0.0022803646195556568 -0.080181663188496455 0 -0.002474602430636237 -0.079125448744053473 0 -0.0010994467840025211 -0.079762924820330067 0 -0.0022803646195556568 -0.080181663188496455 0 -0.0036125049303281954 -0.079563526201651899 0 -0.002474602430636237 -0.079125448744053473 0 -0.0081718003045129894 -0.08440057625139577 0 -0.0089475231306214986 -0.081646516103156153 0 -0.0059036354738681192 -0.081413949354937662 0 -0.0089475231306214986 -0.081646516103156153 0 -0.0059036354738681192 -0.081413949354937662 0 -0.0064374106130195702 -0.07925861385645093 0 -0.0046737028472060545 -0.080316311747962221 0 -0.0059036354738681192 -0.081413949354937662 0 -0.0064374106130195702 -0.07925861385645093 0 -0.0046737028472060545 -0.080316311747962221 0 -0.00447955081077335 -0.078780922433683231 0 -0.0064374106130195702 -0.07925861385645093 0 -0.00447955081077335 -0.078780922433683231 0 -0.0064374106130195702 -0.07925861385645093 0 -0.0053500446914359623 -0.077547795089168481 0 -0.0092537816872607648 -0.078829884407554104 0 -0.0089475231306214986 -0.081646516103156153 0 -0.0064374106130195702 -0.07925861385645093 0 -0.010999362683636065 -0.076926428971045846 0 -0.0099103626061269219 -0.079359564767080254 0 -0.0073921761708895042 -0.077308055420484884 0 -0.0092537816872607648 -0.078829884407554104 0 -0.0064374106130195702 -0.07925861385645093 0 -0.0068387591486946658 -0.07683065787890328 0 -0.0090479713059353293 -0.079056098544902004 0 -0.0069932261233378217 -0.077074175557644967 0 -0.0064374106130195702 -0.07925861385645093 0 -0.0068387591486946658 -0.07683065787890328 0 -0.0053500446914359623 -0.077547795089168481 0 -0.0069932261233378217 -0.077074175557644967 0 -0.0047849586709619498 -0.075001928654799141 0 -0.0073921761708895042 -0.077308055420484884 0 -0.0047827209022332767 -0.075000018410186456 0 -0.0088463322819294123 -0.074999558328845306 0 -0.0068387591486946658 -0.07683065787890328 0 -0.0053500446914359623 -0.077547795089168481 0 -0.0047814013419681528 -0.074999521587605505 0 -0.010999362683636065 -0.076926428971045846 0 -0.0073921761708895042 -0.077308055420484884 0 -0.0088463322819294123 -0.074999558328845306 0 -0.0016527399737136011 -0.077181893877668314 0 -0.0022638329016718556 -0.078117627390779834 0 -0.0010994467840025211 -0.079762924820330067 0 -0.0027635881902869168 -0.077224077128049781 0 -0.0019643169893920885 -0.077253583259480868 0 -0.0022638329016718556 -0.078117627390779834 0 -0.0019643169893920885 -0.077253583259480868 0 -0.0014843980042185817 -0.077174132070730997 0 -0.0025193036471596185 -0.07627942729167346 0 -0.0027635881902869168 -0.077224077128049781 0 -0.0019643169893920885 -0.077253583259480868 0 -0.0025193036471596185 -0.07627942729167346 0 -0.0019643169893920885 -0.077253583259480868 0 -0.0016527399737136011 -0.077181893877668314 0 -0.0022638329016718556 -0.078117627390779834 0 9.7381004332978144e-05 -0.077040240649069489 0 0.00015266955640560778 -0.0770305470830496 0 -0.0027635881902869168 -0.077224077128049781 0 -0.0022638329016718556 -0.078117627390779834 0 -0.0032197117321144937 -0.078223591553167632 0 -0.00447955081077335 -0.078780922433683231 0 -0.0032197117321144937 -0.078223591553167632 0 -0.0038448183322319415 -0.077158123245665247 0 -0.00447955081077335 -0.078780922433683231 0 -0.0053500446914359623 -0.077547795089168481 0 -0.0038448183322319415 -0.077158123245665247 0 -0.0027635881902869168 -0.077224077128049781 0 -0.0032197117321144937 -0.078223591553167632 0 -0.0038448183322319415 -0.077158123245665247 0 -0.0027635881902869168 -0.077224077128049781 0 -0.0038448183322319415 -0.077158123245665247 0 -0.0025193036471596185 -0.07627942729167346 0 -0.0047814013419681528 -0.074999521587605505 0 -0.001441796651218666 -0.074999939486482328 0 -0.0025193036471596185 -0.07627942729167346 0 -0.0053500446914359623 -0.077547795089168481 0 -0.0047814013419681528 -0.074999521587605505 0 -0.0038448183322319415 -0.077158123245665247 0 -0.0047814013419681528 -0.074999521587605505 0 -0.0038448183322319415 -0.077158123245665247 0 -0.0025193036471596185 -0.07627942729167346 0 -0.0014843980042185817 -0.077174132070730997 0 -0.001441796651218666 -0.074999939486482328 0 -0.0025193036471596185 -0.07627942729167346 0 0.00015266955640560778 -0.0770305470830496 0 -0.0014367418504222587 -0.075002099425124577 0 -0.00036338364288172442 -0.077732345705081474 0 -0.0014394147078612379 -0.07499999603548102 0 0.0023307743723653723 -0.074999994137626355 0 -0.00036338364288172442 -0.077732345705081474 0 0.0023307743723653723 -0.074999994137626355 0 0.0037098577932405266 -0.076910204217612244 0 0.00015266955640560778 -0.0770305470830496 0 0.0040033794994455592 -0.076593991672679149 0 0.0010298314796203893 -0.077563606274819411 0 0.0041499922591538884 -0.079141860152143681 0 0.0023588158674051115 -0.080930378408378786 0 0.0010298314796203893 -0.077563606274819411 0 0.0041499922591538884 -0.079141860152143681 0 0.0045016485933237534 -0.07684875827712509 0 0.0041499922591538884 -0.079141860152143681 0 0.0045016485933237534 -0.07684875827712509 0 0.0064816461198288601 -0.078685589565573838 0 0.0023307743723653723 -0.074999994137626355 0 0.0037098577932405266 -0.076910204217612244 0 0.006100958450869368 -0.075000005403670064 0 0.0045016485933237534 -0.07684875827712509 0 0.0080733273133649242 -0.076074489057163963 0 0.0078462172088004916 -0.077739562888228295 0 0.0040033794994455592 -0.076593991672679149 0 0.007564761218273576 -0.076008190429659311 0 0.0037098577932405266 -0.076910204217612244 0 0.006100958450869368 -0.075000005403670064 0 0.0077864585645284288 -0.0760897538610152 0 0.006100958450869368 -0.075000005403670064 0 0.0077864585645284288 -0.0760897538610152 0 0.0098712144413314121 -0.07499997167388496 0 0.0080733273133649242 -0.076074489057163963 0 0.009491542816257718 -0.077281392807491023 0 0.0078462172088004916 -0.077739562888228295 0 0.0078462172088004916 -0.077739562888228295 0 0.0092493820398641437 -0.07911209787086422 0 0.0064816461198288601 -0.078685589565573838 0 0.0082184523806527118 -0.078973996485617134 0 0.0078270941335224879 -0.078914261100346661 0 0.009491542816257718 -0.077281392807491023 0 0.0078462172088004916 -0.077739562888228295 0 0.0092493820398641437 -0.07911209787086422 0 0.0045016485933237534 -0.07684875827712509 0 0.0078462172088004916 -0.077739562888228295 0 0.0064816461198288601 -0.078685589565573838 0 0.0041499922591538884 -0.079141860152143681 0 0.0064816461198288601 -0.078685589565573838 0 0.0063865938472422246 -0.081658647371121357 0 0.0090824133135316652 -0.079034885725636661 0 0.0064816461198288601 -0.078685589565573838 0 0.0063865938472422246 -0.081658647371121357 0 0.0082184523806527118 -0.078973996485617134 0 0.0046931057473594412 -0.080839609939850815 0 0.0042608670037530966 -0.0776220491711965 0 0.003696454824528982 -0.080863549668348605 0 0.0020111033772642513 -0.079799708411126116 0 0.003696454824528982 -0.080863549668348605 0 0.0020111033772642513 -0.079799708411126116 0 0.0023460281437744624 -0.082491527405293294 0 0.0041499922591538884 -0.079141860152143681 0 0.0063865938472422246 -0.081658647371121357 0 0.0023588158674051115 -0.080930378408378786 0 0.0046931057473594412 -0.080839609939850815 0 0.0024506801973962801 -0.081924013356271294 0 0.0063865938472422246 -0.081658647371121357 0 0.0023588158674051115 -0.080930378408378786 0 0.0036772380491074549 -0.084285039024144207 0 0.0012011740887875922 -0.079883933944933067 0 0.0024506801973962801 -0.081924013356271294 0 -0.0022803646195556568 -0.080181663188496455 0 -0.0018053088979978543 -0.081338591080985997 0 -0.0010994467840025211 -0.079762924820330067 0 -0.0018053088979978543 -0.081338591080985997 0 -0.0010994467840025211 -0.079762924820330067 0 -0.00028611407751757425 -0.082161088619495504 0 0.00015266955640560778 -0.0770305470830496 0 0.0012011740887875922 -0.079883933944933067 0 0.01839248238907757 -0.079246472330925813 0 0.017317713377047149 -0.079208681959891294 0 0.018282722108081594 -0.077838693340232606 0 0.017317713377047149 -0.079208681959891294 0 0.018282722108081594 -0.077838693340232606 0 0.016044458955566481 -0.078193616474197591 0 0.018282722108081594 -0.077838693340232606 0 0.017142733572858462 -0.076594726272570926 0 0.016044458955566481 -0.078193616474197591 0 0.016833088760474721 -0.074999973873287412 0 0.017142733572858462 -0.076594726272570926 0 0.020024765276273736 -0.075000004533501349 0 0.018282722108081594 -0.077838693340232606 0 0.017142733572858462 -0.076594726272570926 0 0.020024765276273736 -0.075000004533501349 0 0.016833088760474721 -0.074999973873287412 0 0.017142733572858462 -0.076594726272570926 0 0.014684120912164698 -0.076734610461301617 0 0.017142733572858462 -0.076594726272570926 0 0.014684120912164698 -0.076734610461301617 0 0.016044458955566481 -0.078193616474197591 0 0.016833088760474721 -0.074999973873287412 0 0.014684120912164698 -0.076734610461301617 0 0.013641496872110939 -0.074999981495300252 0 0.013776726245295743 -0.078473729942908216 0 0.01302217573875648 -0.079928918757832673 0 0.015576251774673637 -0.080264948069018321 0 0.014684120912164698 -0.076734610461301617 0 0.016044458955566481 -0.078193616474197591 0 0.013776726245295743 -0.078473729942908216 0 0.017317713377047149 -0.079208681959891294 0 0.016044458955566481 -0.078193616474197591 0 0.015576251774673637 -0.080264948069018321 0 0.016044458955566481 -0.078193616474197591 0 0.013776726245295743 -0.078473729942908216 0 0.015576251774673637 -0.080264948069018321 0 0.014684120912164698 -0.076734610461301617 0 0.013776726245295743 -0.078473729942908216 0 0.01141521005107206 -0.077194594524037499 0 0.013776726245295743 -0.078473729942908216 0 0.01141521005107206 -0.077194594524037499 0 0.013028994781356527 -0.079908475556428105 0 0.011911837929881266 -0.079010486003502384 0 0.011777083507027676 -0.079122461616617776 0 0.013641275706961189 -0.075000020072672174 0 0.011865927794925018 -0.075260529344761934 0 0.0098712144413314121 -0.07499997167388496 0 0.014684120912164698 -0.076734610461301617 0 0.013641496872110939 -0.074999981495300252 0 0.01141521005107206 -0.077194594524037499 0 0.013638094154457126 -0.075001963075216116 0 0.011066662207340441 -0.076952905310599826 0 0.013641275706961189 -0.075000020072672174 0 0.011865927794925018 -0.075260529344761934 0 0.01137644801374788 -0.077109312797912472 0 0.007564761218273576 -0.076008190429659311 0 0.0095807161457550638 -0.075633842089997072 0 0.009491542816257718 -0.077281392807491023 0 0.011865927794925018 -0.075260529344761934 0 0.01137644801374788 -0.077109312797912472 0 0.0080733273133649242 -0.076074489057163963 0 0.009491542816257718 -0.077281392807491023 0 0.011865927794925018 -0.075260529344761934 0 0.0077864585645284288 -0.0760897538610152 0 0.011865927794925018 -0.075260529344761934 0 0.0098712144413314121 -0.07499997167388496 0 0.0082184523806527118 -0.078973996485617134 0 0.011066662207340441 -0.076952905310599826 0 0.0091642856042065263 -0.079387313451829408 0 0.01141521005107206 -0.077194594524037499 0 0.013028994781356527 -0.079908475556428105 0 0.009491542816257718 -0.077281392807491023 0 0.0092493820398641437 -0.07911209787086422 0 0.01137644801374788 -0.077109312797912472 0 0.0082184523806527118 -0.078973996485617134 0 0.011777083507027676 -0.079122461616617776 0 0.0042608670037530966 -0.0776220491711965 0 0.0056777219250147828 -0.080563422822806707 0 0.0070247752283230181 -0.077993859877970639 0 0.0042608670037530966 -0.0776220491711965 0 0.003696454824528982 -0.080863549668348605 0 0.0056777219250147828 -0.080563422822806707 0 0.013141280884230038 -0.082694519077237919 0 0.014611227302036638 -0.079941328778162693 0 0.015455536578145853 -0.081930600475879425 0 0.013141280884230038 -0.082694519077237919 0 0.015455536578145853 -0.081930600475879425 0 0.016048581347555158 -0.084334011657778291 0 0.010147345493236239 -0.081838951377457822 0 0.011777083507027676 -0.079122461616617776 0 0.014611227302036638 -0.079941328778162693 0 0.016503749103660707 -0.080232397086228369 0 0.015455536578145853 -0.081930600475879425 0 0.011777083507027676 -0.079122461616617776 0 0.014510673041043275 -0.079631002077056728 0 0.016503749103660707 -0.080232397086228369 0 0.015455536578145853 -0.081930600475879425 0 0.017333140931956929 -0.082466320157595918 0 0.015455536578145853 -0.081930600475879425 0 0.017333140931956929 -0.082466320157595918 0 0.016048581347555158 -0.084334011657778291 0 0.017333140931956929 -0.082466320157595918 0 0.019256159464843006 -0.079969341082539461 0 0.019274745533466267 -0.081310918860213882 0 0.017333140931956929 -0.082466320157595918 0 0.018642324157232135 -0.08425600402588955 0 0.019267853937957467 -0.082460047651203419 0 0.017333140931956929 -0.082466320157595918 0 0.019274745533466267 -0.081310918860213882 0 0.019267853937957467 -0.082460047651203419 0 0.017333140931956929 -0.082466320157595918 0 0.018227421259861785 -0.080518736968123575 0 0.018780154319433608 -0.08049098818411346 0 0.014510673041043275 -0.079631002077056728 0 0.015563278094888649 -0.079815324322128386 0 0.016503749103660707 -0.080232397086228369 0 0.017333140931956929 -0.082466320157595918 0 0.018227421259861785 -0.080518736968123575 0 0.01855952956944304 -0.080872516037053685 0 0.019438330038993878 -0.079755902541435122 0 0.017317713377047149 -0.079208681959891294 0 0.015576251774673637 -0.080264948069018321 0 0.018227421259861785 -0.080518736968123575 0 0.01839248238907757 -0.079246472330925813 0 0.018227421259861785 -0.080518736968123575 0 0.018780154319433608 -0.08049098818411346 0 0.01839248238907757 -0.079246472330925813 0 0.017317713377047149 -0.079208681959891294 0 0.018227421259861785 -0.080518736968123575 0 0.017333140931956929 -0.082466320157595918 0 0.018642324157232135 -0.08425600402588955 0 0.016048581347555158 -0.084334011657778291 0 0.01850141700313581 -0.08641738332865373 0 0.018642324157232135 -0.08425600402588955 0 0.016048581347555158 -0.084334011657778291 0 0.022485656555655993 -0.082960165392997193 0 0.019422221224412388 -0.083257272326641096 0 0.01850141700313581 -0.08641738332865373 0 0.016048581347555158 -0.084334011657778291 0 0.015668027713335787 -0.087025202293816079 0 0.016048581347555158 -0.084334011657778291 0 0.013887936257726217 -0.085446376772414984 0 0.015668027713335787 -0.087025202293816079 0 0.013887936257726217 -0.085446376772414984 0 0.012934873959569552 -0.087653077997113013 0 0.015668027713335787 -0.087025202293816079 0 0.013141280884230038 -0.082694519077237919 0 0.016048581347555158 -0.084334011657778291 0 0.013887936257726217 -0.085446376772414984 0 0.010147345493236239 -0.081838951377457822 0 0.0092543754187822524 -0.084222079198243621 0 0.003696454824528982 -0.080863549668348605 0 0.0056777219250147828 -0.080563422822806707 0 0.0043225904505416598 -0.083125262325212043 0 0.013141280884230038 -0.082694519077237919 0 0.013887936257726217 -0.085446376772414984 0 0.011675662008159593 -0.085525018055095117 0 0.013887936257726217 -0.085446376772414984 0 0.012934873959569552 -0.087653077997113013 0 0.011675662008159593 -0.085525018055095117 0 0.019818237757368681 -0.079477068346529955 0 0.016789590207912476 -0.081635800076212794 0 0.018878173767605633 -0.084282969931591262 0 0.019818237757368681 -0.079477068346529955 0 0.022964227040553599 -0.083399196584009447 0 0.018878173767605633 -0.084282969931591262 0 0.019818237757368681 -0.079477068346529955 0 0.022964227040553599 -0.083399196584009447 0 0.02435447182400061 -0.079080944257102784 0 0.015628077790614005 -0.083735701023710266 0 0.019422221224412388 -0.083257272326641096 0 0.02435447182400061 -0.079080944257102784 0 0.026258606417229737 -0.081677605139238482 0 0.027636466887311698 -0.080839187890286379 0 0.022964227040553599 -0.083399196584009447 0 0.02435447182400061 -0.079080944257102784 0 0.026258606417229737 -0.081677605139238482 0 0.022964227040553599 -0.083399196584009447 0 0.026258606417229737 -0.081677605139238482 0 0.025904869530909418 -0.083559982811798508 0 0.026258606417229737 -0.081677605139238482 0 0.025904869530909418 -0.083559982811798508 0 0.028786148987282646 -0.082977616694995926 0 0.026258606417229737 -0.081677605139238482 0 0.028786148987282646 -0.082977616694995926 0 0.028932145870336979 -0.081981826150344717 0 0.026258606417229737 -0.081677605139238482 0 0.027636466887311698 -0.080839187890286379 0 0.028932145870336979 -0.081981826150344717 0 0.027827245430702752 -0.079621314413858266 0 0.027636466887311698 -0.080839187890286379 0 0.029009675604836242 -0.080879503268432962 0 0.027827245430702752 -0.079621314413858266 0 0.02435447182400061 -0.079080944257102784 0 0.027636466887311698 -0.080839187890286379 0 0.00012310628172455208 -0.082947791638449703 0 0.00083996674703153921 -0.083563290715901517 0 -0.00021032671348390983 -0.08362689283110307 0 0.00012310628172455208 -0.082947791638449703 0 -0.00021032671348390983 -0.08362689283110307 0 -0.00050898595409294548 -0.083053300303884733 0 0.00012310628172455208 -0.082947791638449703 0 -0.00050898595409294548 -0.083053300303884733 0 -0.00062245974204311176 -0.082474822986457752 0 0.00012310628172455208 -0.082947791638449703 0 0.00083996674703153921 -0.083563290715901517 0 0.0010170788840074452 -0.082157988126771539 0 0.00083996674703153921 -0.083563290715901517 0 -4.0359915429828787e-05 -0.084453564897859823 0 0.000912283269186257 -0.084945027573318926 0 0.00083996674703153921 -0.083563290715901517 0 -0.00021032671348390983 -0.08362689283110307 0 -4.0359915429828787e-05 -0.084453564897859823 0 -0.00021032671348390983 -0.08362689283110307 0 -0.00079992730753912749 -0.084161866067448271 0 -4.0359915429828787e-05 -0.084453564897859823 0 -0.00079992730753912749 -0.084161866067448271 0 -0.001515331975999186 -0.083624172992997389 0 -0.00086082723931200716 -0.083478603471048782 0 -0.00021032671348390983 -0.08362689283110307 0 -0.00079992730753912749 -0.084161866067448271 0 -0.00086082723931200716 -0.083478603471048782 0 -0.0024456019682227081 -0.083879622222191572 0 -0.001515331975999186 -0.083624172992997389 0 -0.0015578385630819918 -0.084492729053188886 0 -0.00079992730753912749 -0.084161866067448271 0 -0.001515331975999186 -0.083624172992997389 0 -0.0015578385630819918 -0.084492729053188886 0 -0.0024456019682227081 -0.083879622222191572 0 -0.0022041102908229447 -0.082786442566277887 0 -0.001515331975999186 -0.083624172992997389 0 -0.0022041102908229447 -0.082786442566277887 0 -0.001515331975999186 -0.083624172992997389 0 -0.0012166351271082879 -0.082888197010590414 0 -0.00021032671348390983 -0.08362689283110307 0 -0.00086082723931200716 -0.083478603471048782 0 -0.00050898595409294548 -0.083053300303884733 0 -0.001515331975999186 -0.083624172992997389 0 -0.00086082723931200716 -0.083478603471048782 0 -0.0012166351271082879 -0.082888197010590414 0 -0.00086082723931200716 -0.083478603471048782 0 -0.0012166351271082879 -0.082888197010590414 0 -0.00050898595409294548 -0.083053300303884733 0 -0.00062245974204311176 -0.082474822986457752 0 -0.0012546767955947293 -0.082240591177174804 0 -0.00028611407751757425 -0.082161088619495504 0 -0.0018053088979978543 -0.081338591080985997 0 -0.0012546767955947293 -0.082240591177174804 0 -0.00028611407751757425 -0.082161088619495504 0 -0.0012166351271082879 -0.082888197010590414 0 -0.00050898595409294548 -0.083053300303884733 0 -0.00062245974204311176 -0.082474822986457752 0 -0.0022041102908229447 -0.082786442566277887 0 -0.0018053088979978543 -0.081338591080985997 0 -0.0012546767955947293 -0.082240591177174804 0 -0.0012166351271082879 -0.082888197010590414 0 -0.00062245974204311176 -0.082474822986457752 0 -0.0012546767955947293 -0.082240591177174804 0 -0.0022041102908229447 -0.082786442566277887 0 -0.0012166351271082879 -0.082888197010590414 0 -0.0012546767955947293 -0.082240591177174804 0 0.0020111033772642513 -0.079799708411126116 0 -0.00024489499586855445 -0.081983896201386477 0 0.0010170788840074452 -0.082157988126771539 0 0.00012310628172455208 -0.082947791638449703 0 -0.00024489499586855445 -0.081983896201386477 0 0.0010170788840074452 -0.082157988126771539 0 0.00012310628172455208 -0.082947791638449703 0 -0.00062245974204311176 -0.082474822986457752 0 -0.00025046013297168063 -0.082111654138075599 0 0.0023557425264547462 -0.081934169877656934 0 0.0024506801973962801 -0.081924013356271294 0 0.0023640051223602953 -0.081981957550159107 0 0.0024506801973962801 -0.081924013356271294 0 0.0020111033772642513 -0.079799708411126116 0 0.0010170788840074452 -0.082157988126771539 0 0.0023460281437744624 -0.082491527405293294 0 0.00083996674703153921 -0.083563290715901517 0 0.0010170788840074452 -0.082157988126771539 0 0.0023460281437744624 -0.082491527405293294 0 0.003696454824528982 -0.080863549668348605 0 0.0023460281437744624 -0.082491527405293294 0 0.0043225904505416598 -0.083125262325212043 0 0.0043225904505416598 -0.083125262325212043 0 0.0028614082542845051 -0.083857669552284519 0 0.0029770996206195553 -0.085649085624561097 0 0.0023460281437744624 -0.082491527405293294 0 0.0043225904505416598 -0.083125262325212043 0 0.0028614082542845051 -0.083857669552284519 0 0.00083996674703153921 -0.083563290715901517 0 0.0023460281437744624 -0.082491527405293294 0 0.0017984027884673248 -0.08416134181607457 0 0.0023460281437744624 -0.082491527405293294 0 0.0028614082542845051 -0.083857669552284519 0 0.0017984027884673248 -0.08416134181607457 0 0.00083996674703153921 -0.083563290715901517 0 0.0017984027884673248 -0.08416134181607457 0 0.000912283269186257 -0.084945027573318926 0 0.0028614082542845051 -0.083857669552284519 0 0.0017984027884673248 -0.08416134181607457 0 0.0029770996206195553 -0.085649085624561097 0 0.0017984027884673248 -0.08416134181607457 0 0.0029770996206195553 -0.085649085624561097 0 0.000912283269186257 -0.084945027573318926 0 0.010204590745376368 -0.084598709479146411 0 0.0064250842160775328 -0.084563854257726306 0 0.0029770996206195553 -0.085649085624561097 0 0.00083415951684656469 -0.086146295779364765 0 0.000912283269186257 -0.084945027573318926 0 0.019818237757368681 -0.079477068346529955 0 0.015112493225560448 -0.080217116171665631 0 0.016789590207912476 -0.081635800076212794 0 0.0092543754187822524 -0.084222079198243621 0 0.010204590745376368 -0.084598709479146411 0 0.015628077790614005 -0.083735701023710266 0 0.010204590745376368 -0.084598709479146411 0 0.012934873959569552 -0.087653077997113013 0 0.011675662008159593 -0.085525018055095117 0 0.010232444634923768 -0.08831058958000583 0 0.010204590745376368 -0.084598709479146411 0 0.010343105088843218 -0.084390239405213799 0 0.016789590207912476 -0.081635800076212794 0 0.015420049215932215 -0.083100973520079335 0 0.018878173767605633 -0.084282969931591262 0 0.016789590207912476 -0.081635800076212794 0 0.015420049215932215 -0.083100973520079335 0 0.014594399334748596 -0.081114786123443125 0 0.015112493225560448 -0.080217116171665631 0 0.016789590207912476 -0.081635800076212794 0 0.014594399334748596 -0.081114786123443125 0 0.01507598595690339 -0.080194545211278681 0 0.014594399334748596 -0.081114786123443125 0 0.011123552712763603 -0.081109324609556943 0 0.012857202984137396 -0.082104388656133884 0 0.014594399334748596 -0.081114786123443125 0 0.011123552712763603 -0.081109324609556943 0 0.015420049215932215 -0.083100973520079335 0 0.012857202984137396 -0.082104388656133884 0 0.014594399334748596 -0.081114786123443125 0 0.015420049215932215 -0.083100973520079335 0 0.012857202984137396 -0.082104388656133884 0 0.013471930240305473 -0.083906467282370806 0 0.0064250842160775328 -0.084563854257726306 0 0.0031025070083241808 -0.084810121333892499 0 0.012857202984137396 -0.082104388656133884 0 0.008407261812950392 -0.083530833260880483 0 0.013471930240305473 -0.083906467282370806 0 0.012857202984137396 -0.082104388656133884 0 0.011123552712763603 -0.081109324609556943 0 0.008407261812950392 -0.083530833260880483 0 0.011123552712763603 -0.081109324609556943 0 0.008407261812950392 -0.083530833260880483 0 0.0071927819142917964 -0.08207266822941571 0 0.00083415951684656469 -0.086146295779364765 0 -0.0005980221832548382 -0.085316088663539388 0 -0.0012681369382573418 -0.086615203645934918 0 0.00083415951684656469 -0.086146295779364765 0 0.000912283269186257 -0.084945027573318926 0 -0.0005980221832548382 -0.085316088663539388 0 -4.0359915429828787e-05 -0.084453564897859823 0 0.000912283269186257 -0.084945027573318926 0 -0.0005980221832548382 -0.085316088663539388 0 -0.00079992730753912749 -0.084161866067448271 0 -4.0359915429828787e-05 -0.084453564897859823 0 -0.0005980221832548382 -0.085316088663539388 0 -0.0025084522608525735 -0.084874974463911929 0 -0.0015578385630819918 -0.084492729053188886 0 -0.0016383029731962568 -0.085423861420490133 0 -0.00079992730753912749 -0.084161866067448271 0 -0.0015578385630819918 -0.084492729053188886 0 -0.0005980221832548382 -0.085316088663539388 0 -0.0015578385630819918 -0.084492729053188886 0 -0.0005980221832548382 -0.085316088663539388 0 -0.0016383029731962568 -0.085423861420490133 0 -0.0005980221832548382 -0.085316088663539388 0 -0.0016383029731962568 -0.085423861420490133 0 -0.0012681369382573418 -0.086615203645934918 0 -0.002440657890602558 -0.085914935601886219 0 -0.0016383029731962568 -0.085423861420490133 0 -0.0012681369382573418 -0.086615203645934918 0 -0.0001434345976878257 -0.085225334809732614 0 0.0068865623036347542 -0.084637302233010289 0 0.0031867505754110152 -0.08308182568192958 0 0.008407261812950392 -0.083530833260880483 0 0.0071927819142917964 -0.08207266822941571 0 0.00786256844102819 -0.083087218018704417 0 0.0052360310261414227 -0.085054062717613441 0 0.0078375481651470486 -0.086696069559289379 0 0.0020887975363184292 -0.082639873462636446 0 0.00786256844102819 -0.083087218018704417 0 0.0052360310261414227 -0.085054062717613441 0 0.0052360310261414227 -0.085054062717613441 0 0.0055639125210955615 -0.087331695282425861 0 0.0078375481651470486 -0.086696069559289379 0 0.0068865623036347542 -0.084637302233010289 0 0.0099048788556432409 -0.084582674209357459 0 0.00786256844102819 -0.083087218018704417 0 0.010523977142462585 -0.085633701290322911 0 0.0078375481651470486 -0.086696069559289379 0 0.00786256844102819 -0.083087218018704417 0 0.010523977142462585 -0.085633701290322911 0 0.013471930240305473 -0.083906467282370806 0 0.010653804541278811 -0.088838769018656158 0 0.0078375481651470486 -0.086696069559289379 0 0.0073817210235019087 -0.08951475391670756 0 0.010523977142462585 -0.085633701290322911 0 0.010653804541278811 -0.088838769018656158 0 0.0078375481651470486 -0.086696069559289379 0 0.010523977142462585 -0.085633701290322911 0 0.010653804541278811 -0.088838769018656158 0 0.013109036290060909 -0.086452519603000877 0 0.0040332880385615067 -0.09083569567330646 0 0.0055639125210955615 -0.087331695282425861 0 0.0073817210235019087 -0.08951475391670756 0 0.0055639125210955615 -0.087331695282425861 0 0.0078375481651470486 -0.086696069559289379 0 0.0073817210235019087 -0.08951475391670756 0 0.0040332880385615067 -0.09083569567330646 0 0.0073817210235019087 -0.08951475391670756 0 0.0092413087130517289 -0.093004417089207661 0 0.0040332880385615067 -0.09083569567330646 0 0.0043216121720849555 -0.097034833337083182 0 0.0092413087130517289 -0.093004417089207661 0 0.010653804541278811 -0.088838769018656158 0 0.0073817210235019087 -0.08951475391670756 0 0.0092413087130517289 -0.093004417089207661 0 0.010653804541278811 -0.088838769018656158 0 0.0092413087130517289 -0.093004417089207661 0 0.013893418923852046 -0.091255664130550904 0 0.017679500736082449 -0.089274755405941861 0 0.026326904925652043 -0.082705321569867998 0 0.02442701479046824 -0.090122853697419625 0 0.016904661938725703 -0.091928402083482713 0 0.021358927199922832 -0.088616330284266062 0 0.013765471504755289 -0.095033963305505426 0 0.013893418923852046 -0.091255664130550904 0 0.017704330207597256 -0.092311126911093236 0 0.0092413087130517289 -0.093004417089207661 0 0.013765471504755289 -0.095033963305505426 0 0.013893418923852046 -0.091255664130550904 0 0.013893418923852046 -0.091255664130550904 0 0.017310671802913308 -0.089701443595688421 0 0.014885385567419139 -0.088334344291252379 0 0.013893418923852046 -0.091255664130550904 0 0.017310671802913308 -0.089701443595688421 0 0.017704330207597256 -0.092311126911093236 0 0.014885385567419139 -0.088334344291252379 0 0.015941961133755393 -0.085544221492260708 0 0.018395260637304078 -0.087245397574681874 0 0.017310671802913308 -0.089701443595688421 0 0.014885385567419139 -0.088334344291252379 0 0.018395260637304078 -0.087245397574681874 0 0.014885385567419139 -0.088334344291252379 0 0.013109036290060909 -0.086452519603000877 0 0.015941961133755393 -0.085544221492260708 0 0.010653804541278811 -0.088838769018656158 0 0.013893418923852046 -0.091255664130550904 0 0.014885385567419139 -0.088334344291252379 0 0.010653804541278811 -0.088838769018656158 0 0.014885385567419139 -0.088334344291252379 0 0.013109036290060909 -0.086452519603000877 0 0.010523977142462585 -0.085633701290322911 0 0.013109036290060909 -0.086452519603000877 0 0.013471930240305473 -0.083906467282370806 0 0.013109036290060909 -0.086452519603000877 0 0.013471930240305473 -0.083906467282370806 0 0.015941961133755393 -0.085544221492260708 0 0.015420049215932215 -0.083100973520079335 0 0.015941961133755393 -0.085544221492260708 0 0.018878173767605633 -0.084282969931591262 0 0.015420049215932215 -0.083100973520079335 0 0.013471930240305473 -0.083906467282370806 0 0.015941961133755393 -0.085544221492260708 0 0.015941961133755393 -0.085544221492260708 0 0.018878173767605633 -0.084282969931591262 0 0.018395260637304078 -0.087245397574681874 0 0.018878173767605633 -0.084282969931591262 0 0.021506380781841777 -0.086110722888965277 0 0.018395260637304078 -0.087245397574681874 0 0.022964227040553599 -0.083399196584009447 0 0.018878173767605633 -0.084282969931591262 0 0.021506380781841777 -0.086110722888965277 0 0.022964227040553599 -0.083399196584009447 0 0.021506380781841777 -0.086110722888965277 0 0.02545734957762134 -0.086318203067727001 0 0.02497200927198159 -0.086188619983256651 0 0.027100791000468916 -0.084721804394492867 0 0.021506380781841777 -0.086110722888965277 0 0.021694441760757983 -0.089351084179508725 0 0.02545734957762134 -0.086318203067727001 0 0.017310671802913308 -0.089701443595688421 0 0.021694441760757983 -0.089351084179508725 0 0.018395260637304078 -0.087245397574681874 0 0.021506380781841777 -0.086110722888965277 0 0.021694441760757983 -0.089351084179508725 0 0.018395260637304078 -0.087245397574681874 0 0.028786148987282646 -0.082977616694995926 0 0.029114408776504209 -0.083648560443229714 0 0.029921199529879129 -0.083518688952193831 0 0.025904869530909418 -0.083559982811798508 0 0.028786148987282646 -0.082977616694995926 0 0.02545734957762134 -0.086318203067727001 0 0.027989884395872681 -0.083997789947842308 0 0.027100791000468916 -0.084721804394492867 0 0.022964227040553599 -0.083399196584009447 0 0.025904869530909418 -0.083559982811798508 0 0.02545734957762134 -0.086318203067727001 0 0.031040168409469361 -0.082091171755066389 0 0.029921199529879129 -0.083518688952193831 0 0.030481925860141784 -0.082545639167153254 0 0.029921199529879129 -0.083518688952193831 0 0.029648355300383636 -0.083083858101798386 0 0.030481925860141784 -0.082545639167153254 0 0.02950526107948679 -0.081662531429910923 0 0.029653723393834177 -0.080518974152937614 0 0.029114408776504209 -0.083648560443229714 0 0.029648355300383636 -0.083083858101798386 0 0.029130588516963606 -0.082500946387668889 0 0.029114408776504209 -0.083648560443229714 0 0.029921199529879129 -0.083518688952193831 0 0.029648355300383636 -0.083083858101798386 0 0.029648355300383636 -0.083083858101798386 0 0.029130588516963606 -0.082500946387668889 0 0.030481925860141784 -0.082545639167153254 0 0.029130588516963606 -0.082500946387668889 0 0.030481925860141784 -0.082545639167153254 0 0.030442445764300965 -0.081776183387565038 0 0.030481925860141784 -0.082545639167153254 0 0.030442445764300965 -0.081776183387565038 0 0.031419354646640564 -0.08338873329438623 0 0.029130588516963606 -0.082500946387668889 0 0.030442445764300965 -0.081776183387565038 0 0.028830708592787101 -0.080586258041530259 0 0.029653723393834177 -0.080518974152937614 0 0.029739050423991279 -0.079036856022892246 0 0.031040168409469361 -0.082091171755066389 0 0.026326904925652043 -0.082705321569867998 0 0.031419354646640564 -0.08338873329438623 0 0.02497200927198159 -0.086188619983256651 0 0.021358927199922832 -0.088616330284266062 0 0.017310671802913308 -0.089701443595688421 0 0.021694441760757983 -0.089351084179508725 0 0.017704330207597256 -0.092311126911093236 0 0.031040168409469361 -0.082091171755066389 0 0.030481925860141784 -0.082545639167153254 0 0.031419354646640564 -0.08338873329438623 0 0.030442445764300965 -0.081776183387565038 0 0.031419354646640564 -0.08338873329438623 0 0.03153453211400159 -0.081133341098674011 0 0.031434850107514803 -0.084887641194479557 0 0.031265115297783391 -0.0856343168505206 0 0.031419354646640564 -0.08338873329438623 0 0.03359968014627402 -0.079748347227461047 0 0.03153453211400159 -0.081133341098674011 0 0.026326904925652043 -0.082705321569867998 0 0.031419354646640564 -0.08338873329438623 0 0.02442701479046824 -0.090122853697419625 0 0.031419354646640564 -0.08338873329438623 0 0.030032869166455874 -0.093222988255746209 0 0.02442701479046824 -0.090122853697419625 0 0.030032869166455874 -0.093222988255746209 0 0.02442701479046824 -0.090122853697419625 0 0.024086432713556507 -0.097218123325696099 0 0.03153453211400159 -0.081133341098674011 0 0.031965475867698719 -0.078655828298602834 0 0.030702338552066409 -0.079823257780295101 0 0.03359968014627402 -0.079748347227461047 0 0.03153453211400159 -0.081133341098674011 0 0.031965475867698719 -0.078655828298602834 0 0.031965475867698719 -0.078655828298602834 0 0.033297637029157591 -0.077765569272104637 0 0.032177606990766321 -0.076594901672449811 0 0.03359968014627402 -0.079748347227461047 0 0.031965475867698719 -0.078655828298602834 0 0.033297637029157591 -0.077765569272104637 0 0.030032869166455874 -0.093222988255746209 0 0.027543157134234525 -0.10198389809976856 0 0.024086432713556507 -0.097218123325696099 0 0.031265115297783391 -0.0856343168505206 0 0.031159277325145538 -0.084989576352113044 0 0.03359968014627402 -0.079748347227461047 0 0.033297637029157591 -0.077765569272104637 0 0.034408083159939089 -0.076780001537947062 0 0.033297637029157591 -0.077765569272104637 0 0.034344487736676921 -0.076877986239249158 0 0.033351289728088214 -0.076715039468016805 0 0.031951793305998143 -0.084004190616557381 0 0.031159277325145538 -0.084989576352113044 0 0.027543157134234525 -0.10198389809976856 0 0.021921632175633542 -0.1020694831238794 0 0.024086432713556507 -0.097218123325696099 0 0.030442445764300965 -0.081776183387565038 0 0.028830708592787101 -0.080586258041530259 0 0.030702338552066409 -0.079823257780295101 0 0.028830708592787101 -0.080586258041530259 0 0.030702338552066409 -0.079823257780295101 0 0.030684433524481237 -0.077708486148310385 0 0.030442445764300965 -0.081776183387565038 0 0.03153453211400159 -0.081133341098674011 0 0.030702338552066409 -0.079823257780295101 0 0.030684433524481237 -0.077708486148310385 0 0.029707681501590085 -0.076485486751430437 0 0.030571470374186956 -0.075913657228430367 0 0.031965475867698719 -0.078655828298602834 0 0.030684433524481237 -0.077708486148310385 0 0.032177606990766321 -0.076594901672449811 0 0.031965475867698719 -0.078655828298602834 0 0.030702338552066409 -0.079823257780295101 0 0.030684433524481237 -0.077708486148310385 0 0.029739050423991279 -0.079036856022892246 0 0.029780794875303471 -0.078114811416666818 0 0.028830708592787101 -0.080586258041530259 0 0.030684433524481237 -0.077708486148310385 0 0.029707681501590085 -0.076485486751430437 0 0.0306439745374288 -0.077061451142426768 0 0.029707681501590085 -0.076485486751430437 0 0.03022022927431172 -0.076104254122176432 0 0.029707681501590085 -0.076485486751430437 0 0.029404138458027914 -0.075668120022042068 0 0.03022022927431172 -0.076104254122176432 0 0.029707681501590085 -0.076485486751430437 0 0.029404138458027914 -0.075668120022042068 0 0.030571470374186956 -0.075913657228430367 0 0.029404138458027914 -0.075668120022042068 0 0.030571470374186956 -0.075913657228430367 0 0.030022801538503861 -0.074606252876404003 0 0.030684433524481237 -0.077708486148310385 0 0.030571470374186956 -0.075913657228430367 0 0.032177606990766321 -0.076594901672449811 0 0.030571470374186956 -0.075913657228430367 0 0.032177606990766321 -0.076594901672449811 0 0.031960721837142735 -0.074723181919553502 0 0.031156052652635102 -0.074151982933522292 0 0.030022801538503861 -0.074606252876404003 0 0.028889963429770675 -0.072319056475349613 0 0.030571470374186956 -0.075913657228430367 0 0.031156052652635102 -0.074151982933522292 0 0.031960721837142735 -0.074723181919553502 0 0.031156052652635102 -0.074151982933522292 0 0.032241989189678626 -0.073429739842922198 0 0.031356379095167218 -0.071925369414655924 0 0.031156052652635102 -0.074151982933522292 0 0.031960721837142735 -0.074723181919553502 0 0.032241989189678626 -0.073429739842922198 0 0.030571470374186956 -0.075913657228430367 0 0.031156052652635102 -0.074151982933522292 0 0.030022801538503861 -0.074606252876404003 0 0.029404138458027914 -0.075668120022042068 0 0.030464381141934668 -0.076285069098298644 0 0.028911682628866758 -0.077790042502367041 0 0.031046387059912823 -0.073019965805045772 0 0.032179205992782678 -0.069623614683155227 0 0.029404138458027914 -0.075668120022042068 0 0.030022801538503861 -0.074606252876404003 0 0.028889963429770675 -0.072319056475349613 0 0.033250344995530305 -0.084885830667496429 0 0.034575598504203296 -0.07893989422826031 0 0.038131347679428398 -0.080383824740461976 0 0.031159277325145538 -0.084989576352113044 0 0.033628465198330217 -0.077681688282346464 0 0.033621249086973407 -0.075634812090187117 0 0.034344487736676921 -0.076877986239249158 0 0.035076098900407034 -0.074384707281533458 0 0.033621249086973407 -0.075634812090187117 0 0.034344487736676921 -0.076877986239249158 0 0.033351289728088214 -0.076715039468016805 0 0.033621249086973407 -0.075634812090187117 0 0.033351289728088214 -0.076715039468016805 0 0.032177606990766321 -0.076594901672449811 0 0.033621249086973407 -0.075634812090187117 0 0.032177606990766321 -0.076594901672449811 0 0.033374610413625015 -0.073596514284889766 0 0.033297637029157591 -0.077765569272104637 0 0.033351289728088214 -0.076715039468016805 0 0.032177606990766321 -0.076594901672449811 0 0.032177606990766321 -0.076594901672449811 0 0.031960721837142735 -0.074723181919553502 0 0.034044604106176213 -0.073335750829000221 0 0.033130660300280029 -0.074575125937565698 0 0.033950278694142529 -0.072748457205887671 0 0.031960721837142735 -0.074723181919553502 0 0.032241989189678626 -0.073429739842922198 0 0.034044604106176213 -0.073335750829000221 0 0.032241989189678626 -0.073429739842922198 0 0.034044604106176213 -0.073335750829000221 0 0.032762811171114854 -0.072374692694710446 0 0.033621249086973407 -0.075634812090187117 0 0.033374610413625015 -0.073596514284889766 0 0.035076098900407034 -0.074384707281533458 0 0.034575598504203296 -0.07893989422826031 0 0.038131347679428398 -0.080383824740461976 0 0.038285447918393931 -0.076309932915163095 0 0.038131347679428398 -0.080383824740461976 0 0.038285447918393931 -0.076309932915163095 0 0.042899883409113652 -0.075951899559694572 0 0.027543157134234525 -0.10198389809976856 0 0.020662801757369936 -0.10694680787943205 0 0.021921632175633542 -0.1020694831238794 0 0.031159277325145538 -0.084989576352113044 0 0.027688248871195212 -0.088610242554662905 0 0.020662801757369936 -0.10694680787943205 0 0.021921632175633542 -0.1020694831238794 0 0.017702084501280982 -0.1037764642866594 0 0.021921632175633542 -0.1020694831238794 0 0.017702084501280982 -0.1037764642866594 0 0.019934838235044227 -0.099902408052973832 0 0.020662801757369936 -0.10694680787943205 0 0.017702084501280982 -0.1037764642866594 0 0.015460688141461168 -0.1065946446547536 0 0.017702084501280982 -0.1037764642866594 0 0.012704298073383996 -0.10402982270931097 0 0.0144508896348505 -0.10039482176613271 0 0.017702084501280982 -0.1037764642866594 0 0.015460688141461168 -0.1065946446547536 0 0.012704298073383996 -0.10402982270931097 0 0.017702084501280982 -0.1037764642866594 0 0.019934838235044227 -0.099902408052973832 0 0.0144508896348505 -0.10039482176613271 0 0.015460688141461168 -0.1065946446547536 0 0.011359520203649182 -0.10737249539676699 0 0.015222727703055841 -0.11061057981293719 0 0.027688248871195212 -0.088610242554662905 0 0.02592439948157671 -0.087463289917222534 0 0.020662801757369936 -0.10694680787943205 0 0.015460688141461168 -0.1065946446547536 0 0.015222727703055841 -0.11061057981293719 0 0.011359520203649182 -0.10737249539676699 0 0.015222727703055841 -0.11061057981293719 0 0.011349544691442576 -0.11019508646198919 0 0.011359520203649182 -0.10737249539676699 0 0.0080608440610103072 -0.10834527113886233 0 0.011349544691442576 -0.11019508646198919 0 0.015460688141461168 -0.1065946446547536 0 0.011359520203649182 -0.10737249539676699 0 0.012704298073383996 -0.10402982270931097 0 0.0065216763852846095 -0.10845460552385942 0 0.0080608440610103072 -0.10834527113886233 0 0.0072138416291253485 -0.11106894065798091 0 0.0065216763852846095 -0.10845460552385942 0 0.0080608440610103072 -0.10834527113886233 0 0.0059936237206472762 -0.10688550969999318 0 0.0050489086922157703 -0.10837118634836489 0 0.0065216763852846095 -0.10845460552385942 0 0.0059936237206472762 -0.10688550969999318 0 0.011359520203649182 -0.10737249539676699 0 0.0080608440610103072 -0.10834527113886233 0 0.0080095101367766881 -0.10586219391986863 0 0.011359520203649182 -0.10737249539676699 0 0.0080095101367766881 -0.10586219391986863 0 0.0089508573087931538 -0.10411136639454013 0 0.0080608440610103072 -0.10834527113886233 0 0.0080095101367766881 -0.10586219391986863 0 0.0059936237206472762 -0.10688550969999318 0 0.0080095101367766881 -0.10586219391986863 0 0.0059936237206472762 -0.10688550969999318 0 0.0059721889565882893 -0.10276271934734969 0 0.0080095101367766881 -0.10586219391986863 0 0.0089508573087931538 -0.10411136639454013 0 0.0059721889565882893 -0.10276271934734969 0 0.0089508573087931538 -0.10411136639454013 0 0.0059721889565882893 -0.10276271934734969 0 0.0089014760136784908 -0.10071400810027943 0 0.012704298073383996 -0.10402982270931097 0 0.0089014760136784908 -0.10071400810027943 0 0.0144508896348505 -0.10039482176613271 0 0.011359520203649182 -0.10737249539676699 0 0.0089508573087931538 -0.10411136639454013 0 0.012704298073383996 -0.10402982270931097 0 0.0089508573087931538 -0.10411136639454013 0 0.012704298073383996 -0.10402982270931097 0 0.0089014760136784908 -0.10071400810027943 0 0.0089014760136784908 -0.10071400810027943 0 0.010622089994601059 -0.097320553109121688 0 0.0144508896348505 -0.10039482176613271 0 0.0043216121720849555 -0.097034833337083182 0 0.0089014760136784908 -0.10071400810027943 0 0.010622089994601059 -0.097320553109121688 0 0.0043216121720849555 -0.097034833337083182 0 0.0059721889565882893 -0.10276271934734969 0 0.0089014760136784908 -0.10071400810027943 0 0.0043216121720849555 -0.097034833337083182 0 0.0092413087130517289 -0.093004417089207661 0 0.010622089994601059 -0.097320553109121688 0 0.0092413087130517289 -0.093004417089207661 0 0.013765471504755289 -0.095033963305505426 0 0.010622089994601059 -0.097320553109121688 0 0.017679500736082449 -0.089274755405941861 0 0.010622089994601059 -0.097320553109121688 0 0.018463228813657178 -0.095923178942998052 0 0.016904661938725703 -0.091928402083482713 0 0.014334942415627789 -0.093994381512182854 0 0.017679500736082449 -0.089274755405941861 0 0.018463228813657178 -0.095923178942998052 0 0.02442701479046824 -0.090122853697419625 0 0.018463228813657178 -0.095923178942998052 0 0.02442701479046824 -0.090122853697419625 0 0.024086432713556507 -0.097218123325696099 0 0.018463228813657178 -0.095923178942998052 0 0.024086432713556507 -0.097218123325696099 0 0.019934838235044227 -0.099902408052973832 0 0.021921632175633542 -0.1020694831238794 0 0.024086432713556507 -0.097218123325696099 0 0.019934838235044227 -0.099902408052973832 0 0.018463228813657178 -0.095923178942998052 0 0.019934838235044227 -0.099902408052973832 0 0.0144508896348505 -0.10039482176613271 0 0.010622089994601059 -0.097320553109121688 0 0.018463228813657178 -0.095923178942998052 0 0.0144508896348505 -0.10039482176613271 0 0.026822641454181454 -0.075837279416549094 0 0.022073814389689073 -0.077365295262968148 0 0.022832324590127448 -0.072668190805150717 0 0.026822641454181454 -0.075837279416549094 0 0.022832324590127448 -0.072668190805150717 0 0.026448100042136252 -0.072414687178859502 0 0.026822641454181454 -0.075837279416549094 0 0.026448100042136252 -0.072414687178859502 0 0.02934895816729504 -0.072854312598420817 0 0.026721727588794666 -0.076751039266814092 0 0.026355093486612569 -0.077514633976125513 0 0.027554262302414378 -0.077472656411253921 0 0.026837627971931205 -0.07560175594944217 0 0.024851806513345637 -0.075457376579790417 0 0.026355093486612569 -0.077514633976125513 0 0.025440810683971631 -0.077351568352666059 0 0.025857882366785264 -0.078020152684008234 0 0.026721727588794666 -0.076751039266814092 0 0.026355093486612569 -0.077514633976125513 0 0.025440810683971631 -0.077351568352666059 0 0.030393999627401407 -0.057574941111926167 0 0.030970899320698058 -0.056750017407365967 0 0.031080311254860347 -0.05734955397452781 0 0.022073814389689073 -0.077365295262968148 0 0.020229498380974448 -0.075884654926286099 0 0.017696960372702859 -0.07885371116648153 0 0.024851806513345637 -0.075457376579790417 0 0.030758980460828183 -0.071256247665230171 0 0.02824213638078792 -0.068629367828234089 0 0.030758980460828183 -0.071256247665230171 0 0.030393999627401407 -0.057574941111926167 0 0.031080311254860347 -0.05734955397452781 0 0.031061123351913574 -0.057930313448997635 0 0.030393999627401407 -0.057574941111926167 0 0.030513638869659115 -0.05814594574865016 0 0.031061123351913574 -0.057930313448997635 0 0.022073814389689073 -0.077365295262968148 0 0.020229498380974448 -0.075884654926286099 0 0.022832324590127448 -0.072668190805150717 0 0.030393999627401407 -0.057574941111926167 0 0.030513638869659115 -0.05814594574865016 0 0.030048852831534363 -0.058316124401487673 0 0.02824213638078792 -0.068629367828234089 0 0.027985255288097706 -0.066365146725703761 0 0.030403234900851638 -0.058448245057380409 0 0.030513638869659115 -0.05814594574865016 0 0.030048852831534363 -0.058316124401487673 0 0.030403234900851638 -0.058448245057380409 0 0.030139117362325798 -0.058753520867601862 0 0.030048852831534363 -0.058316124401487673 0 0.030513638869659115 -0.05814594574865016 0 0.031061123351913574 -0.057930313448997635 0 0.030850051391079228 -0.058298611409563696 0 0.030403234900851638 -0.058448245057380409 0 0.030513638869659115 -0.05814594574865016 0 0.030850051391079228 -0.058298611409563696 0 0.030403234900851638 -0.058448245057380409 0 0.030459020298157665 -0.058616475706437118 0 0.030850051391079228 -0.058298611409563696 0 0.030459020298157665 -0.058616475706437118 0 0.030139117362325798 -0.058753520867601862 0 0.03013030350991026 -0.058807877400694576 0 0.030403234900851638 -0.058448245057380409 0 0.030459020298157665 -0.058616475706437118 0 0.030139117362325798 -0.058753520867601862 0 0.030139117362325798 -0.058753520867601862 0 0.030048852831534363 -0.058316124401487673 0 0.030136758920919993 -0.059079181273945465 0 0.030139117362325798 -0.058753520867601862 0 0.030136758920919993 -0.059079181273945465 0 0.029979620552765533 -0.059023825688603204 0 0.027985255288097706 -0.066365146725703761 0 0.028803983734435285 -0.064338608351824617 0 0.022832324590127448 -0.072668190805150717 0 0.026448100042136252 -0.072414687178859502 0 0.025448195906329098 -0.069237880030992446 0 0.026448100042136252 -0.072414687178859502 0 0.025448195906329098 -0.069237880030992446 0 0.029091936831372966 -0.07064320311324937 0 0.025448195906329098 -0.069237880030992446 0 0.029091936831372966 -0.07064320311324937 0 0.028224562937943121 -0.065138103990987725 0 0.029091936831372966 -0.07064320311324937 0 0.032344247586322164 -0.068549251095187266 0 0.028224562937943121 -0.065138103990987725 0 0.029091936831372966 -0.07064320311324937 0 0.032344247586322164 -0.068549251095187266 0 0.031832164884248934 -0.072068036200507293 0 0.032344247586322164 -0.068549251095187266 0 0.031832164884248934 -0.072068036200507293 0 0.033960972690605648 -0.070628877172457846 0 0.031832164884248934 -0.072068036200507293 0 0.02934895816729504 -0.072854312598420817 0 0.03238857638760792 -0.0737116900923587 0 0.031832164884248934 -0.072068036200507293 0 0.031799828804512202 -0.074468374777205193 0 0.03238857638760792 -0.0737116900923587 0 0.029091936831372966 -0.07064320311324937 0 0.031832164884248934 -0.072068036200507293 0 0.02934895816729504 -0.072854312598420817 0 0.026448100042136252 -0.072414687178859502 0 0.029091936831372966 -0.07064320311324937 0 0.02934895816729504 -0.072854312598420817 0 0.038989341582071207 -0.070164140532496769 0 0.04334162609295724 -0.065689501254647287 0 0.036711975005659321 -0.067129636063898296 0 0.032866666547764205 -0.071367801457190308 0 0.032179205992782678 -0.069623614683155227 0 0.032344247586322164 -0.068549251095187266 0 0.033960972690605648 -0.070628877172457846 0 0.036711975005659321 -0.067129636063898296 0 0.038989341582071207 -0.070164140532496769 0 0.033960972690605648 -0.070628877172457846 0 0.036711975005659321 -0.067129636063898296 0 0.031832164884248934 -0.072068036200507293 0 0.033960972690605648 -0.070628877172457846 0 0.031799828804512202 -0.074468374777205193 0 0.030326604660792664 -0.074831187835306665 0 0.029459211351873155 -0.07500277258904256 0 0.030464381141934668 -0.076285069098298644 0 0.031799828804512202 -0.074468374777205193 0 0.030767520089925331 -0.075190847548170375 0 0.031799828804512202 -0.074468374777205193 0 0.030767520089925331 -0.075190847548170375 0 0.03238857638760792 -0.0737116900923587 0 0.038989341582071207 -0.070164140532496769 0 0.033960972690605648 -0.070628877172457846 0 0.031799828804512202 -0.074468374777205193 0 0.032866666547764205 -0.071367801457190308 0 0.032495101116140589 -0.072299771901103468 0 0.029404138458027914 -0.075668120022042068 0 0.030767520089925331 -0.075190847548170375 0 0.03022022927431172 -0.076104254122176432 0 0.029404138458027914 -0.075668120022042068 0 0.030464381141934668 -0.076285069098298644 0 0.030767520089925331 -0.075190847548170375 0 0.030767520089925331 -0.075190847548170375 0 0.03022022927431172 -0.076104254122176432 0 0.02969482492486384 -0.076168560769507454 0 0.03022022927431172 -0.076104254122176432 0 0.02969482492486384 -0.076168560769507454 0 0.029855009850133649 -0.076685031559945299 0 0.02969482492486384 -0.076168560769507454 0 0.029855009850133649 -0.076685031559945299 0 0.028647556585934479 -0.076749085431384603 0 0.030767520089925331 -0.075190847548170375 0 0.02969482492486384 -0.076168560769507454 0 0.028124856068874528 -0.07596193047484863 0 0.029141680868787635 -0.077403131668394992 0 0.029855009850133649 -0.076685031559945299 0 0.028647556585934479 -0.076749085431384603 0 0.029141680868787635 -0.077403131668394992 0 0.028647556585934479 -0.076749085431384603 0 0.028361978268018392 -0.077695519529309739 0 0.029141680868787635 -0.077403131668394992 0 0.029855009850133649 -0.076685031559945299 0 0.029874495399919342 -0.07790204277948877 0 0.0306439745374288 -0.077061451142426768 0 0.03022022927431172 -0.076104254122176432 0 0.029855009850133649 -0.076685031559945299 0 0.0306439745374288 -0.077061451142426768 0 0.029855009850133649 -0.076685031559945299 0 0.029874495399919342 -0.07790204277948877 0 0.026822641454181454 -0.075837279416549094 0 0.02934895816729504 -0.072854312598420817 0 0.03238857638760792 -0.0737116900923587 0 0.026837627971931205 -0.07560175594944217 0 0.029459211351873155 -0.07500277258904256 0 0.026721727588794666 -0.076751039266814092 0 0.028124856068874528 -0.07596193047484863 0 0.027826504136094658 -0.076741964760979178 0 0.02969482492486384 -0.076168560769507454 0 0.028124856068874528 -0.07596193047484863 0 0.028647556585934479 -0.076749085431384603 0 0.028124856068874528 -0.07596193047484863 0 0.028647556585934479 -0.076749085431384603 0 0.027826504136094658 -0.076741964760979178 0 0.028647556585934479 -0.076749085431384603 0 0.027379565652349995 -0.077592014409420554 0 0.028361978268018392 -0.077695519529309739 0 0.028647556585934479 -0.076749085431384603 0 0.027554262302414378 -0.077472656411253921 0 0.027826504136094658 -0.076741964760979178 0 0.027860777669192947 -0.077324920563816929 0 0.027391581019458173 -0.077651685745140656 0 0.026721727588794666 -0.076751039266814092 0 0.027554262302414378 -0.077472656411253921 0 0.027826504136094658 -0.076741964760979178 0 0.027379565652349995 -0.077592014409420554 0 0.027938472013378644 -0.07876842318017907 0 0.026782915656194825 -0.079215753139403045 0 0.027391581019458173 -0.077651685745140656 0 0.026595098081174121 -0.078220970869717049 0 0.028361978268018392 -0.077695519529309739 0 0.027938472013378644 -0.07876842318017907 0 0.028826447310471098 -0.078222040967139708 0 0.027379565652349995 -0.077592014409420554 0 0.028361978268018392 -0.077695519529309739 0 0.027938472013378644 -0.07876842318017907 0 0.027938472013378644 -0.07876842318017907 0 0.028819518880905001 -0.079548250652922842 0 0.027512849038111888 -0.079873563578399767 0 0.027938472013378644 -0.07876842318017907 0 0.027512849038111888 -0.079873563578399767 0 0.026782915656194825 -0.079215753139403045 0 0.030562655942290896 -0.079025421695275461 0 0.0306439745374288 -0.077061451142426768 0 0.029874495399919342 -0.07790204277948877 0 0.029141680868787635 -0.077403131668394992 0 0.029874495399919342 -0.07790204277948877 0 0.028826447310471098 -0.078222040967139708 0 0.029141680868787635 -0.077403131668394992 0 0.028361978268018392 -0.077695519529309739 0 0.028826447310471098 -0.078222040967139708 0 0.027938472013378644 -0.07876842318017907 0 0.028826447310471098 -0.078222040967139708 0 0.028819518880905001 -0.079548250652922842 0 0.029874495399919342 -0.07790204277948877 0 0.028826447310471098 -0.078222040967139708 0 0.028819518880905001 -0.079548250652922842 0 0.030562655942290896 -0.079025421695275461 0 0.029874495399919342 -0.07790204277948877 0 0.028819518880905001 -0.079548250652922842 0 0.030066219213316151 -0.081124062253223592 0 0.030562655942290896 -0.079025421695275461 0 0.029448434954625274 -0.080476147683517407 0 0.030562655942290896 -0.079025421695275461 0 0.028819518880905001 -0.079548250652922842 0 0.029448434954625274 -0.080476147683517407 0 0.028819518880905001 -0.079548250652922842 0 0.029448434954625274 -0.080476147683517407 0 0.028348924895302174 -0.080905495301211675 0 0.029448434954625274 -0.080476147683517407 0 0.029683501137711218 -0.081320051834252199 0 0.028348924895302174 -0.080905495301211675 0 0.029626285717726627 -0.081359884642731847 0 0.029310158941653491 -0.081367924534349156 0 0.029683501137711218 -0.081320051834252199 0 0.029568556747285979 -0.082319943966398246 0 0.029438915495677922 -0.081909932844317412 0 0.029683501137711218 -0.081320051834252199 0 0.02934067685475527 -0.081719763332091397 0 0.029438915495677922 -0.081909932844317412 0 0.030066219213316151 -0.081124062253223592 0 0.029683501137711218 -0.081320051834252199 0 0.02934067685475527 -0.081719763332091397 0 0.030066219213316151 -0.081124062253223592 0 0.029448434954625274 -0.080476147683517407 0 0.029683501137711218 -0.081320051834252199 0 0.027512849038111888 -0.079873563578399767 0 0.026983491309410478 -0.080725848547440554 0 0.026383571845706371 -0.079957770199803838 0 0.027512849038111888 -0.079873563578399767 0 0.026383571845706371 -0.079957770199803838 0 0.026782915656194825 -0.079215753139403045 0 0.028819518880905001 -0.079548250652922842 0 0.027512849038111888 -0.079873563578399767 0 0.028348924895302174 -0.080905495301211675 0 0.029310158941653491 -0.081367924534349156 0 0.029015702171015841 -0.081219365280688599 0 0.027512849038111888 -0.079873563578399767 0 0.028348924895302174 -0.080905495301211675 0 0.026983491309410478 -0.080725848547440554 0 0.029568556747285979 -0.082319943966398246 0 0.030354426259679618 -0.083062011803150287 0 0.030176543051949081 -0.082551752243084017 0 0.030354426259679618 -0.083062011803150287 0 0.031574319773604829 -0.083758315747218481 0 0.031188186765361996 -0.083194192848521933 0 0.029015702171015841 -0.081219365280688599 0 0.029184989763000158 -0.080580631847174886 0 0.026983491309410478 -0.080725848547440554 0 0.025755552007971957 -0.080605922364699545 0 0.026383571845706371 -0.079957770199803838 0 0.025755552007971957 -0.080605922364699545 0 0.025591922802086216 -0.079877494031674059 0 0.026383571845706371 -0.079957770199803838 0 0.025591922802086216 -0.079877494031674059 0 0.026383571845706371 -0.079957770199803838 0 0.025618974432717039 -0.079022916674673455 0 0.026383571845706371 -0.079957770199803838 0 0.026782915656194825 -0.079215753139403045 0 0.025618974432717039 -0.079022916674673455 0 0.026782915656194825 -0.079215753139403045 0 0.025618974432717039 -0.079022916674673455 0 0.026430923100905522 -0.078361211475515724 0 0.025852378316254473 -0.078755837547380053 0 0.026595098081174121 -0.078220970869717049 0 0.025803136983898075 -0.078795431750927528 0 0.025857882366785264 -0.078020152684008234 0 0.026661176984308543 -0.078139200750866181 0 0.026355093486612569 -0.077514633976125513 0 0.025857882366785264 -0.078020152684008234 0 0.026661176984308543 -0.078139200750866181 0 0.027379565652349995 -0.077592014409420554 0 0.026782915656194825 -0.079215753139403045 0 0.026430923100905522 -0.078361211475515724 0 0.026355093486612569 -0.077514633976125513 0 0.027554262302414378 -0.077472656411253921 0 0.026661176984308543 -0.078139200750866181 0 0.025042623622196548 -0.078309816916044439 0 0.02433099281661872 -0.078803291194297714 0 0.024174440059539646 -0.077889879000402007 0 0.025440810683971631 -0.077351568352666059 0 0.025042623622196548 -0.078309816916044439 0 0.024174440059539646 -0.077889879000402007 0 0.025440810683971631 -0.077351568352666059 0 0.025857882366785264 -0.078020152684008234 0 0.025042623622196548 -0.078309816916044439 0 0.025803136983898075 -0.078795431750927528 0 0.025857882366785264 -0.078020152684008234 0 0.025042623622196548 -0.078309816916044439 0 0.025803136983898075 -0.078795431750927528 0 0.025042623622196548 -0.078309816916044439 0 0.0249145484200737 -0.079475927752789818 0 0.025852378316254473 -0.078755837547380053 0 0.025471251959635351 -0.079026535768539755 0 0.025042623622196548 -0.078309816916044439 0 0.02433099281661872 -0.078803291194297714 0 0.0249145484200737 -0.079475927752789818 0 0.02433099281661872 -0.078803291194297714 0 0.0249145484200737 -0.079475927752789818 0 0.024054363266697663 -0.079572044622802193 0 0.0249145484200737 -0.079475927752789818 0 0.024555913693978505 -0.079992030724285929 0 0.024054363266697663 -0.079572044622802193 0 0.0249145484200737 -0.079475927752789818 0 0.025111549058363342 -0.080125529016183208 0 0.024555913693978505 -0.079992030724285929 0 0.025591922802086216 -0.079877494031674059 0 0.0249145484200737 -0.079475927752789818 0 0.025111549058363342 -0.080125529016183208 0 0.025591922802086216 -0.079877494031674059 0 0.025618974432717039 -0.079022916674673455 0 0.0249145484200737 -0.079475927752789818 0 0.025755552007971957 -0.080605922364699545 0 0.025591922802086216 -0.079877494031674059 0 0.025111549058363342 -0.080125529016183208 0 0.031574319773604829 -0.083758315747218481 0 0.033818120072412278 -0.0836969014693415 0 0.032337349099236079 -0.083599799720200874 0 0.029184989763000158 -0.080580631847174886 0 0.031001972971760265 -0.078763527793099058 0 0.025755552007971957 -0.080605922364699545 0 0.025111549058363342 -0.080125529016183208 0 0.024632294572527667 -0.080579837593868595 0 0.024555913693978505 -0.079992030724285929 0 0.024632294572527667 -0.080579837593868595 0 0.024057643512498686 -0.080174139429474323 0 0.025111549058363342 -0.080125529016183208 0 0.024555913693978505 -0.079992030724285929 0 0.024632294572527667 -0.080579837593868595 0 0.033818120072412278 -0.0836969014693415 0 0.033422844473517788 -0.0820296095126863 0 0.034867948870459374 -0.082546496817714379 0 0.033142544655684059 -0.083076659990324708 0 0.034401135709666866 -0.082365867666257711 0 0.033227501446135697 -0.082434551714708204 0 0.034743516910262208 -0.082884317311069655 0 0.036377890102649774 -0.082064734098902761 0 0.033422844473517788 -0.0820296095126863 0 0.034867948870459374 -0.082546496817714379 0 0.03485168642656964 -0.081705969811325788 0 0.033422844473517788 -0.0820296095126863 0 0.034670799454493653 -0.08035834711957883 0 0.03485168642656964 -0.081705969811325788 0 0.032496684110675515 -0.082444486253623203 0 0.032362120826295471 -0.082912216801971361 0 0.031854835518239338 -0.082446958500655906 0 0.032496684110675515 -0.082444486253623203 0 0.032362120826295471 -0.082912216801971361 0 0.033227501446135697 -0.082434551714708204 0 0.033142544655684059 -0.083076659990324708 0 0.032362120826295471 -0.082912216801971361 0 0.033227501446135697 -0.082434551714708204 0 0.033818120072412278 -0.0836969014693415 0 0.033422844473517788 -0.0820296095126863 0 0.032337349099236079 -0.083599799720200874 0 0.032362120826295471 -0.082912216801971361 0 0.032337349099236079 -0.083599799720200874 0 0.031826738536480707 -0.083250757864073002 0 0.034743516910262208 -0.082884317311069655 0 0.034098346983243218 -0.083323390650544324 0 0.033142544655684059 -0.083076659990324708 0 0.032362120826295471 -0.082912216801971361 0 0.032337349099236079 -0.083599799720200874 0 0.031574319773604829 -0.083758315747218481 0 0.032337349099236079 -0.083599799720200874 0 0.031826738536480707 -0.083250757864073002 0 0.031574319773604829 -0.083758315747218481 0 0.031188186765361996 -0.083194192848521933 0 0.031826738536480707 -0.083250757864073002 0 0.031188186765361996 -0.083194192848521933 0 0.03077204496957112 -0.0827337616169488 0 0.031681014724452457 -0.082924511571328033 0 0.031188186765361996 -0.083194192848521933 0 0.031826738536480707 -0.083250757864073002 0 0.031681014724452457 -0.082924511571328033 0 0.032362120826295471 -0.082912216801971361 0 0.031826738536480707 -0.083250757864073002 0 0.031681014724452457 -0.082924511571328033 0 0.030354426259679618 -0.083062011803150287 0 0.031188186765361996 -0.083194192848521933 0 0.03077204496957112 -0.0827337616169488 0 0.03077204496957112 -0.0827337616169488 0 0.030404888061225425 -0.082291580298366612 0 0.030205205773362807 -0.082412745742480878 0 0.03077204496957112 -0.0827337616169488 0 0.03096724499076749 -0.082373471508417687 0 0.031303176568241359 -0.082632353375164336 0 0.03077204496957112 -0.0827337616169488 0 0.03096724499076749 -0.082373471508417687 0 0.030404888061225425 -0.082291580298366612 0 0.03077204496957112 -0.0827337616169488 0 0.031681014724452457 -0.082924511571328033 0 0.031303176568241359 -0.082632353375164336 0 0.031681014724452457 -0.082924511571328033 0 0.031303176568241359 -0.082632353375164336 0 0.031854835518239338 -0.082446958500655906 0 0.032362120826295471 -0.082912216801971361 0 0.031681014724452457 -0.082924511571328033 0 0.031854835518239338 -0.082446958500655906 0 0.03096724499076749 -0.082373471508417687 0 0.031303176568241359 -0.082632353375164336 0 0.031854835518239338 -0.082446958500655906 0 0.031854835518239338 -0.082446958500655906 0 0.03147297656074971 -0.081895088195394303 0 0.032539863494033372 -0.081962852686185583 0 0.03096724499076749 -0.082373471508417687 0 0.031854835518239338 -0.082446958500655906 0 0.03147297656074971 -0.081895088195394303 0 0.03147297656074971 -0.081895088195394303 0 0.032105856126409739 -0.081587584142089886 0 0.032539863494033372 -0.081962852686185583 0 0.030404888061225425 -0.082291580298366612 0 0.030743856803730436 -0.081983343326057473 0 0.03007038858748956 -0.081997220308540217 0 0.03096724499076749 -0.082373471508417687 0 0.03147297656074971 -0.081895088195394303 0 0.030743856803730436 -0.081983343326057473 0 0.03096724499076749 -0.082373471508417687 0 0.030404888061225425 -0.082291580298366612 0 0.030743856803730436 -0.081983343326057473 0 0.03147297656074971 -0.081895088195394303 0 0.030743856803730436 -0.081983343326057473 0 0.03061680688937584 -0.081446885733523725 0 0.030743856803730436 -0.081983343326057473 0 0.030322455627597378 -0.081759069352436042 0 0.03061680688937584 -0.081446885733523725 0 0.030322455627597378 -0.081759069352436042 0 0.03007038858748956 -0.081997220308540217 0 0.02987733182655607 -0.081568567376033116 0 0.030743856803730436 -0.081983343326057473 0 0.030322455627597378 -0.081759069352436042 0 0.03007038858748956 -0.081997220308540217 0 0.03061680688937584 -0.081446885733523725 0 0.029653001594223967 -0.08081822256739489 0 0.031099007279821893 -0.080432562304147623 0 0.030322455627597378 -0.081759069352436042 0 0.03061680688937584 -0.081446885733523725 0 0.02987733182655607 -0.081568567376033116 0 0.03061680688937584 -0.081446885733523725 0 0.02987733182655607 -0.081568567376033116 0 0.029653001594223967 -0.08081822256739489 0 0.03061680688937584 -0.081446885733523725 0 0.031692836621688654 -0.081233411281109336 0 0.031099007279821893 -0.080432562304147623 0 0.03147297656074971 -0.081895088195394303 0 0.032105856126409739 -0.081587584142089886 0 0.031692836621688654 -0.081233411281109336 0 0.032105856126409739 -0.081587584142089886 0 0.031692836621688654 -0.081233411281109336 0 0.032747999116584263 -0.081220060640294495 0 0.03147297656074971 -0.081895088195394303 0 0.03061680688937584 -0.081446885733523725 0 0.031692836621688654 -0.081233411281109336 0 0.031692836621688654 -0.081233411281109336 0 0.032747999116584263 -0.081220060640294495 0 0.032211632044604963 -0.080603046779450294 0 0.032105856126409739 -0.081587584142089886 0 0.032747999116584263 -0.081220060640294495 0 0.032539863494033372 -0.081962852686185583 0 0.032747999116584263 -0.081220060640294495 0 0.034015723995346116 -0.080904362816653877 0 0.03355144308756363 -0.081690566764309525 0 0.032747999116584263 -0.081220060640294495 0 0.03355144308756363 -0.081690566764309525 0 0.032539863494033372 -0.081962852686185583 0 0.032747999116584263 -0.081220060640294495 0 0.034015723995346116 -0.080904362816653877 0 0.033327979460406623 -0.080301583878660709 0 0.034015723995346116 -0.080904362816653877 0 0.034562306543142143 -0.081399839741152946 0 0.035016595417655512 -0.080709837165024709 0 0.034015723995346116 -0.080904362816653877 0 0.034562306543142143 -0.081399839741152946 0 0.03355144308756363 -0.081690566764309525 0 0.034562306543142143 -0.081399839741152946 0 0.03355144308756363 -0.081690566764309525 0 0.034401135709666866 -0.082365867666257711 0 0.03355144308756363 -0.081690566764309525 0 0.034401135709666866 -0.082365867666257711 0 0.033227501446135697 -0.082434551714708204 0 0.032496684110675515 -0.082444486253623203 0 0.033227501446135697 -0.082434551714708204 0 0.032539863494033372 -0.081962852686185583 0 0.032496684110675515 -0.082444486253623203 0 0.031854835518239338 -0.082446958500655906 0 0.032539863494033372 -0.081962852686185583 0 0.03355144308756363 -0.081690566764309525 0 0.033227501446135697 -0.082434551714708204 0 0.032539863494033372 -0.081962852686185583 0 0.027636466887311698 -0.080839187890286379 0 0.029009675604836242 -0.080879503268432962 0 0.028932145870336979 -0.081981826150344717 0 0.029009675604836242 -0.080879503268432962 0 0.028932145870336979 -0.081981826150344717 0 0.029289976783003369 -0.081750078649474089 0 0.028932145870336979 -0.081981826150344717 0 0.02934067685475527 -0.081719763332091397 0 0.029289976783003369 -0.081750078649474089 0 0.028786148987282646 -0.082977616694995926 0 0.029114408776504209 -0.083648560443229714 0 0.028932145870336979 -0.081981826150344717 0 0.030066219213316151 -0.081124062253223592 0 0.028932145870336979 -0.081981826150344717 0 0.02934067685475527 -0.081719763332091397 0 0.02950526107948679 -0.081662531429910923 0 0.029411518281289965 -0.081862478236981395 0 0.02934067685475527 -0.081719763332091397 0 0.029289976783003369 -0.081750078649474089 0 0.029438915495677922 -0.081909932844317412 0 0.029568556747285979 -0.082319943966398246 0 0.029438915495677922 -0.081909932844317412 0 0.029599157794660744 -0.081959845888957245 0 0.029289976783003369 -0.081750078649474089 0 0.029438915495677922 -0.081909932844317412 0 0.029599157794660744 -0.081959845888957245 0 0.029009675604836242 -0.080879503268432962 0 0.029575427441757531 -0.08139838697960447 0 0.029373857672750706 -0.0803082753322064 0 0.029009675604836242 -0.080879503268432962 0 0.029289976783003369 -0.081750078649474089 0 0.029575427441757531 -0.08139838697960447 0 0.029289976783003369 -0.081750078649474089 0 0.029599157794660744 -0.081959845888957245 0 0.029575427441757531 -0.08139838697960447 0 0.029575427441757531 -0.08139838697960447 0 0.029994442860006697 -0.082121140738468754 0 0.030248654630814553 -0.081039689279251925 0 0.027759727424744342 -0.081893206241346841 0 0.027525325767240098 -0.081942961100443634 0 0.029599157794660744 -0.081959845888957245 0 0.029575427441757531 -0.08139838697960447 0 0.029994442860006697 -0.082121140738468754 0 0.029994442860006697 -0.082121140738468754 0 0.029906548864495557 -0.082221120715293514 0 0.029631559748665954 -0.082132768998597561 0 0.029568556747285979 -0.082319943966398246 0 0.029599157794660744 -0.081959845888957245 0 0.029994442860006697 -0.082121140738468754 0 0.029568556747285979 -0.082319943966398246 0 0.029994442860006697 -0.082121140738468754 0 0.030176543051949081 -0.082551752243084017 0 0.029994442860006697 -0.082121140738468754 0 0.030176543051949081 -0.082551752243084017 0 0.030205205773362807 -0.082412745742480878 0 0.03077204496957112 -0.0827337616169488 0 0.030176543051949081 -0.082551752243084017 0 0.030205205773362807 -0.082412745742480878 0 0.030354426259679618 -0.083062011803150287 0 0.03077204496957112 -0.0827337616169488 0 0.030176543051949081 -0.082551752243084017 0 0.029994442860006697 -0.082121140738468754 0 0.030205205773362807 -0.082412745742480878 0 0.029906548864495557 -0.082221120715293514 0 0.030404888061225425 -0.082291580298366612 0 0.030205205773362807 -0.082412745742480878 0 0.029906548864495557 -0.082221120715293514 0 0.030404888061225425 -0.082291580298366612 0 0.029906548864495557 -0.082221120715293514 0 0.03007038858748956 -0.081997220308540217 0 0.029906548864495557 -0.082221120715293514 0 0.029589212753379859 -0.081971591142138076 0 0.03007038858748956 -0.081997220308540217 0 0.029906548864495557 -0.082221120715293514 0 0.029589212753379859 -0.081971591142138076 0 0.029631559748665954 -0.082132768998597561 0 0.029589212753379859 -0.081971591142138076 0 0.029132851075218846 -0.081729937147480392 0 0.029224764539522129 -0.081786185665863126 0 0.029589212753379859 -0.081971591142138076 0 0.029615116989352035 -0.08181551772563099 0 0.029132851075218846 -0.081729937147480392 0 0.029589212753379859 -0.081971591142138076 0 0.029615116989352035 -0.08181551772563099 0 0.03007038858748956 -0.081997220308540217 0 0.029615116989352035 -0.08181551772563099 0 0.03007038858748956 -0.081997220308540217 0 0.02987733182655607 -0.081568567376033116 0 0.029313887786881033 -0.081277182049960872 0 0.029132851075218846 -0.081729937147480392 0 0.02740883452033023 -0.080103296714419486 0 0.029615116989352035 -0.08181551772563099 0 0.02987733182655607 -0.081568567376033116 0 0.029313887786881033 -0.081277182049960872 0 0.02987733182655607 -0.081568567376033116 0 0.029313887786881033 -0.081277182049960872 0 0.029653001594223967 -0.08081822256739489 0 0.029615116989352035 -0.08181551772563099 0 0.029313887786881033 -0.081277182049960872 0 0.029132851075218846 -0.081729937147480392 0 0.029132851075218846 -0.081729937147480392 0 0.028384228488621387 -0.081925253051663663 0 0.02740883452033023 -0.080103296714419486 0 0.024561604034483691 -0.085032959661264423 0 0.022626210142117281 -0.083733874121904875 0 0.024373015275373319 -0.081753680352842639 0 0.026801337984216345 -0.0824236055674364 0 0.025927788682456029 -0.080415477350360517 0 0.027048403728222533 -0.08235908352366493 0 0.026801337984216345 -0.0824236055674364 0 0.030233324524457102 -0.080307039690916862 0 0.030248654630814553 -0.081039689279251925 0 0.029373857672750706 -0.0803082753322064 0 0.029589212753379859 -0.081971591142138076 0 0.029224764539522129 -0.081786185665863126 0 0.029631559748665954 -0.082132768998597561 0 0.026801337984216345 -0.0824236055674364 0 0.027525325767240098 -0.081942961100443634 0 0.026801337984216345 -0.0824236055674364 0 0.024952175514179813 -0.082709742014709084 0 0.029575427441757531 -0.08139838697960447 0 0.030248654630814553 -0.081039689279251925 0 0.029373857672750706 -0.0803082753322064 0 0.02151279168337045 -0.085766227650181048 0 0.022626210142117281 -0.083733874121904875 0 0.020618323592048553 -0.083192253644570724 0 0.024561604034483691 -0.085032959661264423 0 0.02151279168337045 -0.085766227650181048 0 0.022626210142117281 -0.083733874121904875 0 0.018642324157232135 -0.08425600402588955 0 0.02151279168337045 -0.085766227650181048 0 0.020618323592048553 -0.083192253644570724 0 0.018642324157232135 -0.08425600402588955 0 0.019267853937957467 -0.082460047651203419 0 0.020618323592048553 -0.083192253644570724 0 0.01850141700313581 -0.08641738332865373 0 0.018642324157232135 -0.08425600402588955 0 0.02151279168337045 -0.085766227650181048 0 0.027827245430702752 -0.079621314413858266 0 0.029009675604836242 -0.080879503268432962 0 0.029373857672750706 -0.0803082753322064 0 0.022485656555655993 -0.082960165392997193 0 0.024952175514179813 -0.082709742014709084 0 0.019256159464843006 -0.079969341082539461 0 0.020708330406973122 -0.07980991669959546 0 0.019983250577803344 -0.080496866530853223 0 0.020708330406973122 -0.07980991669959546 0 0.019983250577803344 -0.080496866530853223 0 0.020473011448475489 -0.081255378253921498 0 0.020708330406973122 -0.07980991669959546 0 0.020473011448475489 -0.081255378253921498 0 0.022087009974976077 -0.080132988564317734 0 0.019256159464843006 -0.079969341082539461 0 0.019983250577803344 -0.080496866530853223 0 0.019274745533466267 -0.081310918860213882 0 0.019983250577803344 -0.080496866530853223 0 0.019274745533466267 -0.081310918860213882 0 0.020473011448475489 -0.081255378253921498 0 0.019274745533466267 -0.081310918860213882 0 0.019267853937957467 -0.082460047651203419 0 0.020473011448475489 -0.081255378253921498 0 0.019267853937957467 -0.082460047651203419 0 0.020618323592048553 -0.083192253644570724 0 0.020473011448475489 -0.081255378253921498 0 0.020618323592048553 -0.083192253644570724 0 0.020473011448475489 -0.081255378253921498 0 0.022037212619127493 -0.082015254089756975 0 0.022626210142117281 -0.083733874121904875 0 0.022037212619127493 -0.082015254089756975 0 0.024373015275373319 -0.081753680352842639 0 0.022037212619127493 -0.082015254089756975 0 0.022087009974976077 -0.080132988564317734 0 0.024373015275373319 -0.081753680352842639 0 0.022626210142117281 -0.083733874121904875 0 0.020618323592048553 -0.083192253644570724 0 0.022037212619127493 -0.082015254089756975 0 0.020473011448475489 -0.081255378253921498 0 0.022037212619127493 -0.082015254089756975 0 0.022087009974976077 -0.080132988564317734 0 0.022087009974976077 -0.080132988564317734 0 0.024373015275373319 -0.081753680352842639 0 0.02424303900841648 -0.078445152961886006 0 0.02740883452033023 -0.080103296714419486 0 0.028032847254269567 -0.078490034470290126 0 0.026022759185335802 -0.077953735826940901 0 0.025927788682456029 -0.080415477350360517 0 0.025065938664638188 -0.077728484239384263 0 0.029313887786881033 -0.081277182049960872 0 0.02740883452033023 -0.080103296714419486 0 0.029653001594223967 -0.08081822256739489 0 0.02740883452033023 -0.080103296714419486 0 0.029653001594223967 -0.08081822256739489 0 0.029659347307638143 -0.079609439478015021 0 0.02740883452033023 -0.080103296714419486 0 0.028032847254269567 -0.078490034470290126 0 0.029659347307638143 -0.079609439478015021 0 0.028032847254269567 -0.078490034470290126 0 0.027394160444951611 -0.076904665688274906 0 0.026022759185335802 -0.077953735826940901 0 0.028032847254269567 -0.078490034470290126 0 0.027394160444951611 -0.076904665688274906 0 0.030009468586015345 -0.077545866530057767 0 0.027394160444951611 -0.076904665688274906 0 0.024196111691191177 -0.07499982615116714 0 0.028589830546252623 -0.074999643470846283 0 0.024193026759303522 -0.074999849880212383 0 0.02424303900841648 -0.078445152961886006 0 0.02321702381629432 -0.075000115005272691 0 0.027394160444951611 -0.076904665688274906 0 0.024196111691191177 -0.07499982615116714 0 0.026022759185335802 -0.077953735826940901 0 0.024195209360347966 -0.075002320035003511 0 0.025065938664638188 -0.077728484239384263 0 0.022087009974976077 -0.080132988564317734 0 0.02424303900841648 -0.078445152961886006 0 0.021199243249340267 -0.077517280189734805 0 0.020708330406973122 -0.07980991669959546 0 0.022087009974976077 -0.080132988564317734 0 0.021199243249340267 -0.077517280189734805 0 0.023214303633256279 -0.075002678343562584 0 0.021206439440277926 -0.077526781887896759 0 0.023216428002324669 -0.074999988943218382 0 0.020024765276273736 -0.075000004533501349 0 0.020991656919433985 -0.077785649146526303 0 0.02424303900841648 -0.078445152961886006 0 0.02321702381629432 -0.075000115005272691 0 0.021199243249340267 -0.077517280189734805 0 0.018282722108081594 -0.077838693340232606 0 0.020024765276273736 -0.075000004533501349 0 0.020991656919433985 -0.077785649146526303 0 0.019438330038993878 -0.079755902541435122 0 0.021206439440277926 -0.077526781887896759 0 0.019256159464843006 -0.079969341082539461 0 0.020708330406973122 -0.07980991669959546 0 0.021199243249340267 -0.077517280189734805 0 0.01839248238907757 -0.079246472330925813 0 0.018282722108081594 -0.077838693340232606 0 0.020991656919433985 -0.077785649146526303 0 0.01839248238907757 -0.079246472330925813 0 0.018780154319433608 -0.08049098818411346 0 0.020991656919433985 -0.077785649146526303 0 0.033736978142725985 -0.07907174411341146 0 0.032435921049116273 -0.079856119894261696 0 0.031616630484787987 -0.079075538405177559 0 0.033736978142725985 -0.07907174411341146 0 0.031616630484787987 -0.079075538405177559 0 0.033540426753495584 -0.077387387334443877 0 0.033736978142725985 -0.07907174411341146 0 0.034646914578402875 -0.079961125822205298 0 0.036467811151776622 -0.077887136837312104 0 0.033736978142725985 -0.07907174411341146 0 0.034646914578402875 -0.079961125822205298 0 0.033327979460406623 -0.080301583878660709 0 0.034015723995346116 -0.080904362816653877 0 0.034646914578402875 -0.079961125822205298 0 0.035016595417655512 -0.080709837165024709 0 0.034015723995346116 -0.080904362816653877 0 0.034646914578402875 -0.079961125822205298 0 0.033327979460406623 -0.080301583878660709 0 0.033736978142725985 -0.07907174411341146 0 0.033327979460406623 -0.080301583878660709 0 0.032435921049116273 -0.079856119894261696 0 0.033327979460406623 -0.080301583878660709 0 0.032435921049116273 -0.079856119894261696 0 0.032211632044604963 -0.080603046779450294 0 0.032747999116584263 -0.081220060640294495 0 0.033327979460406623 -0.080301583878660709 0 0.032211632044604963 -0.080603046779450294 0 0.032435921049116273 -0.079856119894261696 0 0.031099007279821893 -0.080432562304147623 0 0.031616630484787987 -0.079075538405177559 0 0.031692836621688654 -0.081233411281109336 0 0.032211632044604963 -0.080603046779450294 0 0.031099007279821893 -0.080432562304147623 0 0.032435921049116273 -0.079856119894261696 0 0.032211632044604963 -0.080603046779450294 0 0.031099007279821893 -0.080432562304147623 0 0.029653001594223967 -0.08081822256739489 0 0.031099007279821893 -0.080432562304147623 0 0.029659347307638143 -0.079609439478015021 0 0.028032847254269567 -0.078490034470290126 0 0.029659347307638143 -0.079609439478015021 0 0.030009468586015345 -0.077545866530057767 0 0.031099007279821893 -0.080432562304147623 0 0.029659347307638143 -0.079609439478015021 0 0.031616630484787987 -0.079075538405177559 0 0.029659347307638143 -0.079609439478015021 0 0.031616630484787987 -0.079075538405177559 0 0.030009468586015345 -0.077545866530057767 0 0.031616630484787987 -0.079075538405177559 0 0.030009468586015345 -0.077545866530057767 0 0.033540426753495584 -0.077387387334443877 0 0.027394160444951611 -0.076904665688274906 0 0.030009468586015345 -0.077545866530057767 0 0.028589830546252623 -0.074999643470846283 0 0.030009468586015345 -0.077545866530057767 0 0.028589830546252623 -0.074999643470846283 0 0.03298533486248921 -0.074999582299593165 0 0.030009468586015345 -0.077545866530057767 0 0.03298533486248921 -0.074999582299593165 0 0.033540426753495584 -0.077387387334443877 0 0.03298533486248921 -0.074999582299593165 0 0.033540426753495584 -0.077387387334443877 0 0.037377291184497181 -0.075000056322655259 0 0.033736978142725985 -0.07907174411341146 0 0.033540426753495584 -0.077387387334443877 0 0.036467811151776622 -0.077887136837312104 0 0.033540426753495584 -0.077387387334443877 0 0.037377291184497181 -0.075000056322655259 0 0.036467811151776622 -0.077887136837312104 0 0.037380967458673579 -0.074999967718934218 0 0.038479164865673578 -0.076234178411127035 0 0.040756253679110087 -0.07499994401162384 0 0.037380967458673579 -0.074999967718934218 0 0.038479164865673578 -0.076234178411127035 0 0.038355039194147164 -0.078829030662209004 0 0.037381076275088285 -0.075002407034185398 0 0.037973573523452937 -0.077827607555433803 0 0.038479164865673578 -0.076234178411127035 0 0.04078999076986338 -0.077476947189756354 0 0.039602707237155609 -0.077922426575709261 0 0.038479164865673578 -0.076234178411127035 0 0.040756253679110087 -0.07499994401162384 0 0.04078999076986338 -0.077476947189756354 0 0.040756253679110087 -0.07499994401162384 0 0.04078999076986338 -0.077476947189756354 0 0.04270752697924951 -0.076519600576922961 0 0.04078999076986338 -0.077476947189756354 0 0.042957577147083995 -0.078641945288328699 0 0.04270752697924951 -0.076519600576922961 0 0.04078999076986338 -0.077476947189756354 0 0.04009873077500687 -0.078674804459186648 0 0.039602707237155609 -0.077922426575709261 0 0.04078999076986338 -0.077476947189756354 0 0.04009873077500687 -0.078674804459186648 0 0.041326813425958703 -0.079181238282183444 0 0.04009873077500687 -0.078674804459186648 0 0.041326813425958703 -0.079181238282183444 0 0.040486531198519526 -0.080172111598744197 0 0.04078999076986338 -0.077476947189756354 0 0.041326813425958703 -0.079181238282183444 0 0.042957577147083995 -0.078641945288328699 0 0.038738508777480078 -0.078265647625286539 0 0.038852913236030413 -0.079357799510489629 0 0.038479164865673578 -0.076234178411127035 0 0.038355039194147164 -0.078829030662209004 0 0.038866986960984368 -0.079440958991055008 0 0.038479164865673578 -0.076234178411127035 0 0.039602707237155609 -0.077922426575709261 0 0.039049090953204316 -0.079292990442724587 0 0.04009873077500687 -0.078674804459186648 0 0.039602707237155609 -0.077922426575709261 0 0.039049090953204316 -0.079292990442724587 0 0.04009873077500687 -0.078674804459186648 0 0.039049090953204316 -0.079292990442724587 0 0.040486531198519526 -0.080172111598744197 0 0.039049090953204316 -0.079292990442724587 0 0.040486531198519526 -0.080172111598744197 0 0.039414850708135454 -0.082346425664407655 0 0.034646914578402875 -0.079961125822205298 0 0.036467811151776622 -0.077887136837312104 0 0.035924820773035361 -0.07998004723486965 0 0.037973573523452937 -0.077827607555433803 0 0.038935708810763872 -0.080486550546570459 0 0.038852913236030413 -0.079357799510489629 0 0.038935708810763872 -0.080486550546570459 0 0.038355039194147164 -0.078829030662209004 0 0.038866986960984368 -0.079440958991055008 0 0.039229458919372399 -0.082605747039094957 0 0.041326813425958703 -0.079181238282183444 0 0.042535888184596457 -0.081409157853900863 0 0.042957577147083995 -0.078641945288328699 0 0.041326813425958703 -0.079181238282183444 0 0.040486531198519526 -0.080172111598744197 0 0.042535888184596457 -0.081409157853900863 0 0.040486531198519526 -0.080172111598744197 0 0.039414850708135454 -0.082346425664407655 0 0.042535888184596457 -0.081409157853900863 0 0.040315115426932564 -0.081356805748807215 0 0.039577903582956701 -0.081190502273143991 0 0.042535888184596457 -0.081409157853900863 0 0.040918364580797562 -0.083813354667426759 0 0.042699140200578536 -0.083308474314143816 0 0.039414850708135454 -0.082346425664407655 0 0.042535888184596457 -0.081409157853900863 0 0.039968110090434071 -0.08483950897500242 0 0.038935708810763872 -0.080486550546570459 0 0.039143571054133908 -0.081070235585476949 0 0.034646914578402875 -0.079961125822205298 0 0.035924820773035361 -0.07998004723486965 0 0.035016595417655512 -0.080709837165024709 0 0.035924820773035361 -0.07998004723486965 0 0.035707952276583778 -0.081302464465269952 0 0.035016595417655512 -0.080709837165024709 0 0.038935708810763872 -0.080486550546570459 0 0.039577903582956701 -0.081190502273143991 0 0.045046184965966928 -0.081937299022145277 0 0.046383804737105197 -0.082505093871832594 0 0.045336761660886474 -0.083789450997187792 0 0.045046184965966928 -0.081937299022145277 0 0.043917894742788323 -0.082984406918967163 0 0.045336761660886474 -0.083789450997187792 0 0.043917894742788323 -0.082984406918967163 0 0.042535888184596457 -0.081409157853900863 0 0.042699140200578536 -0.083308474314143816 0 0.045046184965966928 -0.081937299022145277 0 0.043917894742788323 -0.082984406918967163 0 0.042535888184596457 -0.081409157853900863 0 0.042535888184596457 -0.081409157853900863 0 0.044768819662763346 -0.079806931482093307 0 0.042957577147083995 -0.078641945288328699 0 0.045046184965966928 -0.081937299022145277 0 0.042535888184596457 -0.081409157853900863 0 0.044768819662763346 -0.079806931482093307 0 0.047047011088378533 -0.079907273478179455 0 0.048339209263703407 -0.080223080370498467 0 0.045046184965966928 -0.081937299022145277 0 0.044768819662763346 -0.079806931482093307 0 0.046955591476109566 -0.0807190284511487 0 0.044768819662763346 -0.079806931482093307 0 0.046026765821112085 -0.07732551865262044 0 0.047940458278845667 -0.080962191508909362 0 0.044768819662763346 -0.079806931482093307 0 0.046026765821112085 -0.07732551865262044 0 0.042957577147083995 -0.078641945288328699 0 0.046026765821112085 -0.07732551865262044 0 0.042957577147083995 -0.078641945288328699 0 0.04270752697924951 -0.076519600576922961 0 0.046026765821112085 -0.07732551865262044 0 0.044131631839771375 -0.075000009920177427 0 0.04270752697924951 -0.076519600576922961 0 0.040756253679110087 -0.07499994401162384 0 0.044131631839771375 -0.075000009920177427 0 0.04270752697924951 -0.076519600576922961 0 0.046026765821112085 -0.07732551865262044 0 0.044131631839771375 -0.075000009920177427 0 0.047506720369804648 -0.074999746855766422 0 0.046026765821112085 -0.07732551865262044 0 0.047506720369804648 -0.074999746855766422 0 0.048831862340532453 -0.076881763835428066 0 0.047510435326131549 -0.075001265046402477 0 0.050649631735109932 -0.076226238470955179 0 0.047506720369804648 -0.074999746855766422 0 0.048831862340532453 -0.076881763835428066 0 0.050686616241865025 -0.076177558281226992 0 0.047507032103908775 -0.074999993031437936 0 0.051531964537264309 -0.075000000902800068 0 0.050769293727264117 -0.076334105971367958 0 0.048831862340532453 -0.076881763835428066 0 0.050686616241865025 -0.076177558281226992 0 0.05031813346691727 -0.077805834095021523 0 0.048831862340532453 -0.076881763835428066 0 0.05031813346691727 -0.077805834095021523 0 0.048880669268001997 -0.078457959983746092 0 0.05031813346691727 -0.077805834095021523 0 0.050923934814383433 -0.079487374671503158 0 0.048880669268001997 -0.078457959983746092 0 0.046026765821112085 -0.07732551865262044 0 0.048831862340532453 -0.076881763835428066 0 0.048880669268001997 -0.078457959983746092 0 0.046026765821112085 -0.07732551865262044 0 0.048880669268001997 -0.078457959983746092 0 0.047940458278845667 -0.080962191508909362 0 0.05555711570918611 -0.074999898763700584 0 0.056144740405557808 -0.077217556562181183 0 0.054071618384139014 -0.077635086558689684 0 0.051531964537264309 -0.075000000902800068 0 0.050769293727264117 -0.076334105971367958 0 0.054071618384139014 -0.077635086558689684 0 0.050686616241865025 -0.076177558281226992 0 0.05031813346691727 -0.077805834095021523 0 0.054029715937976876 -0.077413168592340389 0 0.051531964537264309 -0.075000000902800068 0 0.05555711570918611 -0.074999898763700584 0 0.054071618384139014 -0.077635086558689684 0 0.050649631735109932 -0.076226238470955179 0 0.053497412574110746 -0.077335137079252103 0 0.05031813346691727 -0.077805834095021523 0 0.050923934814383433 -0.079487374671503158 0 0.054029715937976876 -0.077413168592340389 0 0.050923934814383433 -0.079487374671503158 0 0.054029715937976876 -0.077413168592340389 0 0.053718094944344173 -0.080543979902386056 0 0.053497412574110746 -0.077335137079252103 0 0.055010315345056161 -0.077922775162626648 0 0.054029715937976876 -0.077413168592340389 0 0.056087548558017057 -0.079645803464031315 0 0.057433275555937038 -0.078709397311835849 0 0.056144740405557808 -0.077217556562181183 0 0.054071618384139014 -0.077635086558689684 0 0.057433275555937038 -0.078709397311835849 0 0.054029715937976876 -0.077413168592340389 0 0.056087548558017057 -0.079645803464031315 0 0.053718094944344173 -0.080543979902386056 0 0.055993673595524387 -0.081336352197943426 0 0.053718094944344173 -0.080543979902386056 0 0.054279231288957445 -0.083289856804500087 0 0.055993673595524387 -0.081336352197943426 0 0.056087548558017057 -0.079645803464031315 0 0.053718094944344173 -0.080543979902386056 0 0.050923934814383433 -0.079487374671503158 0 0.053718094944344173 -0.080543979902386056 0 0.051081437175163252 -0.082113823588257848 0 0.049888717672631623 -0.082819298234698635 0 0.051424739020909306 -0.082361638994848899 0 0.0491760131265883 -0.08154604648957911 0 0.054831186751590467 -0.080873196902699757 0 0.051039470536896434 -0.08066231965400697 0 0.053718094944344173 -0.080543979902386056 0 0.054279231288957445 -0.083289856804500087 0 0.051081437175163252 -0.082113823588257848 0 0.05860667305262833 -0.080636767297567066 0 0.058360383056592073 -0.080191679172951474 0 0.0579430081650016 -0.08037892645978284 0 0.057600003952593855 -0.079917305324021179 0 0.057415786362344713 -0.080272233537499543 0 0.057880756146687876 -0.080200139479838409 0 0.054831186751590467 -0.080873196902699757 0 0.055786136272738041 -0.081052783347650023 0 0.057415786362344713 -0.080272233537499543 0 0.0579430081650016 -0.08037892645978284 0 0.057880756146687876 -0.080200139479838409 0 0.055781690119354493 -0.080261844814306788 0 0.054831186751590467 -0.080873196902699757 0 0.050923934814383433 -0.079487374671503158 0 0.047940458278845667 -0.080962191508909362 0 0.051081437175163252 -0.082113823588257848 0 0.048339209263703407 -0.080223080370498467 0 0.051039470536896434 -0.08066231965400697 0 0.050923934814383433 -0.079487374671503158 0 0.048880669268001997 -0.078457959983746092 0 0.047940458278845667 -0.080962191508909362 0 0.049888717672631623 -0.082819298234698635 0 0.0491760131265883 -0.08154604648957911 0 0.048557530167618476 -0.08324950811423068 0 0.0491760131265883 -0.08154604648957911 0 0.047570680969072403 -0.082253487280709844 0 0.048557530167618476 -0.08324950811423068 0 0.046955591476109566 -0.0807190284511487 0 0.0491760131265883 -0.08154604648957911 0 0.047570680969072403 -0.082253487280709844 0 0.046955591476109566 -0.0807190284511487 0 0.047570680969072403 -0.082253487280709844 0 0.046383804737105197 -0.082505093871832594 0 0.047570680969072403 -0.082253487280709844 0 0.046383804737105197 -0.082505093871832594 0 0.047010223523798224 -0.083815403730496202 0 0.045046184965966928 -0.081937299022145277 0 0.046955591476109566 -0.0807190284511487 0 0.046383804737105197 -0.082505093871832594 0 0.046383804737105197 -0.082505093871832594 0 0.047010223523798224 -0.083815403730496202 0 0.045336761660886474 -0.083789450997187792 0 0.047010223523798224 -0.083815403730496202 0 0.046218134813514881 -0.085023980902243473 0 0.047105240763178763 -0.085210952121436881 0 0.047010223523798224 -0.083815403730496202 0 0.046218134813514881 -0.085023980902243473 0 0.045336761660886474 -0.083789450997187792 0 0.047010223523798224 -0.083815403730496202 0 0.047933047417877815 -0.084873334412393572 0 0.047105240763178763 -0.085210952121436881 0 0.047570680969072403 -0.082253487280709844 0 0.047010223523798224 -0.083815403730496202 0 0.048557530167618476 -0.08324950811423068 0 0.048557530167618476 -0.08324950811423068 0 0.047933047417877815 -0.084873334412393572 0 0.049658002361379551 -0.084385875533042748 0 0.049888717672631623 -0.082819298234698635 0 0.048557530167618476 -0.08324950811423068 0 0.049658002361379551 -0.084385875533042748 0 0.047010223523798224 -0.083815403730496202 0 0.048557530167618476 -0.08324950811423068 0 0.047933047417877815 -0.084873334412393572 0 0.05971321205526605 -0.079053603366439379 0 0.059325010736943219 -0.079711625648555468 0 0.059305185005779602 -0.07918909731263675 0 0.047933047417877815 -0.084873334412393572 0 0.047879119626477021 -0.086396083047984934 0 0.049658002361379551 -0.084385875533042748 0 0.055454551637856841 -0.077917757357790593 0 0.054370542724344148 -0.080687412589500074 0 0.047933047417877815 -0.084873334412393572 0 0.047879119626477021 -0.086396083047984934 0 0.047379676852522215 -0.086207589989025959 0 0.055454551637856841 -0.077917757357790593 0 0.055266555409942769 -0.077953065358896609 0 0.047867092547042585 -0.086387348759148747 0 0.047379676852522215 -0.086207589989025959 0 0.046786434487368217 -0.086447460995575154 0 0.047379676852522215 -0.086207589989025959 0 0.046688192842299865 -0.085795383111052961 0 0.047105240763178763 -0.085210952121436881 0 0.047379676852522215 -0.086207589989025959 0 0.046688192842299865 -0.085795383111052961 0 0.046786434487368217 -0.086447460995575154 0 0.046688192842299865 -0.085795383111052961 0 0.046218134813514881 -0.085023980902243473 0 0.04595246479538858 -0.086085129151792922 0 0.046688192842299865 -0.085795383111052961 0 0.046786434487368217 -0.086447460995575154 0 0.04595246479538858 -0.086085129151792922 0 0.046688192842299865 -0.085795383111052961 0 0.046218134813514881 -0.085023980902243473 0 0.047105240763178763 -0.085210952121436881 0 0.047933047417877815 -0.084873334412393572 0 0.047379676852522215 -0.086207589989025959 0 0.047105240763178763 -0.085210952121436881 0 0.05860667305262833 -0.080636767297567066 0 0.058360383056592073 -0.080191679172951474 0 0.058723926323819238 -0.079874986306156082 0 0.058155376045503741 -0.079811294847138059 0 0.058360383056592073 -0.080191679172951474 0 0.0579430081650016 -0.08037892645978284 0 0.058155376045503741 -0.079811294847138059 0 0.058360383056592073 -0.080191679172951474 0 0.058723926323819238 -0.079874986306156082 0 0.054831186751590467 -0.080873196902699757 0 0.054370542724344148 -0.080687412589500074 0 0.049888717672631623 -0.082819298234698635 0 0.051424739020909306 -0.082361638994848899 0 0.049658002361379551 -0.084385875533042748 0 0.05860667305262833 -0.080636767297567066 0 0.058723926323819238 -0.079874986306156082 0 0.059325010736943219 -0.079711625648555468 0 0.058723926323819238 -0.079874986306156082 0 0.059325010736943219 -0.079711625648555468 0 0.059002070508109017 -0.079082289306551826 0 0.059325010736943219 -0.079711625648555468 0 0.059305185005779602 -0.07918909731263675 0 0.059002070508109017 -0.079082289306551826 0 0.059305185005779602 -0.07918909731263675 0 0.059002070508109017 -0.079082289306551826 0 0.059225445351906318 -0.078979967547246205 0 0.058155376045503741 -0.079811294847138059 0 0.058723926323819238 -0.079874986306156082 0 0.059002070508109017 -0.079082289306551826 0 0.059258448919921027 -0.07866208886664848 0 0.059002070508109017 -0.079082289306551826 0 0.059257449539627464 -0.07902693723816763 0 0.059353282934261321 -0.079428500209047764 0 0.059266142171957012 -0.079404836998431552 0 0.059290599622652221 -0.079166422345828519 0 0.059086400062982991 -0.079191277263597912 0 0.059502907021046984 -0.07936506249158716 0 0.059002070508109017 -0.079082289306551826 0 0.059257449539627464 -0.07902693723816763 0 0.059104716600950756 -0.07911862216714842 0 0.059257449539627464 -0.07902693723816763 0 0.059290599622652221 -0.079166422345828519 0 0.059104716600950756 -0.07911862216714842 0 0.062544563124123695 -0.07375744566045539 0 0.063319935249809611 -0.073395559919330902 0 0.061704817342024779 -0.073215912340380274 0 0.059992588350532172 -0.072560084695782415 0 0.059036743271531425 -0.073653817344469283 0 0.063319935249809611 -0.073395559919330902 0 0.063608017614893084 -0.070672947352018983 0 0.063319935249809611 -0.073395559919330902 0 0.059498486857077197 -0.075702914179965469 0 0.059002070508109017 -0.079082289306551826 0 0.059104716600950756 -0.07911862216714842 0 0.059225445351906318 -0.078979967547246205 0 0.074454975967093578 -0.055678679726610072 0 0.071977624186935749 -0.055981034704054911 0 0.07325912915875811 -0.057538308039691066 0 0.063319935249809611 -0.073395559919330902 0 0.06552498043391522 -0.071607991093369475 0 0.074454975967093578 -0.055678679726610072 0 0.076473223781004726 -0.056591550007189281 0 0.075598698542310744 -0.058070980427940351 0 0.074454975967093578 -0.055678679726610072 0 0.075598698542310744 -0.058070980427940351 0 0.07325912915875811 -0.057538308039691066 0 0.047867092547042585 -0.086387348759148747 0 0.046786434487368217 -0.086447460995575154 0 0.046007358708143646 -0.087239321372694092 0 0.05828567857962097 -0.071915096878830062 0 0.059036743271531425 -0.073653817344469283 0 0.056380530218630091 -0.074091644562905401 0 0.055454551637856841 -0.077917757357790593 0 0.0554895619225051 -0.072536066149565842 0 0.047867092547042585 -0.086387348759148747 0 0.045914352162507749 -0.08857371884123165 0 0.046007358708143646 -0.087239321372694092 0 0.046786434487368217 -0.086447460995575154 0 0.046007358708143646 -0.087239321372694092 0 0.04595246479538858 -0.086085129151792922 0 0.05828567857962097 -0.071915096878830062 0 0.059992588350532172 -0.072560084695782415 0 0.059036743271531425 -0.073653817344469283 0 0.055454551637856841 -0.077917757357790593 0 0.059498486857077197 -0.075702914179965469 0 0.05971321205526605 -0.079053603366439379 0 0.059305185005779602 -0.07918909731263675 0 0.059225445351906318 -0.078979967547246205 0 0.071977624186935749 -0.055981034704054911 0 0.071096606029640103 -0.057911637484030103 0 0.07325912915875811 -0.057538308039691066 0 0.071977624186935749 -0.055981034704054911 0 0.069457419691965491 -0.056368223661537445 0 0.071096606029640103 -0.057911637484030103 0 0.063608017614893084 -0.070672947352018983 0 0.0554895619225051 -0.072536066149565842 0 0.051887622638986608 -0.07167762392136133 0 0.049668620220777199 -0.072046016353332312 0 0.050299956234748672 -0.073474652215801725 0 0.0554895619225051 -0.072536066149565842 0 0.048485742283342854 -0.075144536598247019 0 0.0554895619225051 -0.072536066149565842 0 0.055150737695294036 -0.067905999230066613 0 0.045914352162507749 -0.08857371884123165 0 0.043975736312783675 -0.08749443375347421 0 0.044026451953646434 -0.088878395048412259 0 0.046007358708143646 -0.087239321372694092 0 0.044884874986654777 -0.08645449744733108 0 0.043975736312783675 -0.08749443375347421 0 0.045914352162507749 -0.08857371884123165 0 0.046007358708143646 -0.087239321372694092 0 0.043975736312783675 -0.08749443375347421 0 0.046007358708143646 -0.087239321372694092 0 0.044884874986654777 -0.08645449744733108 0 0.04595246479538858 -0.086085129151792922 0 0.043975736312783675 -0.08749443375347421 0 0.041537856518032816 -0.08648973417786042 0 0.043558523348277201 -0.085826753950778295 0 0.044884874986654777 -0.08645449744733108 0 0.043975736312783675 -0.08749443375347421 0 0.043558523348277201 -0.085826753950778295 0 0.048485742283342854 -0.075144536598247019 0 0.044279364879496776 -0.07593879781532982 0 0.043975736312783675 -0.08749443375347421 0 0.044026451953646434 -0.088878395048412259 0 0.04216303038759843 -0.089180619090023477 0 0.049668620220777199 -0.072046016353332312 0 0.048466174648439699 -0.072611708690071872 0 0.047448907165987327 -0.072426219744043646 0 0.049298964513542654 -0.072952988407147326 0 0.049668620220777199 -0.072046016353332312 0 0.050299956234748672 -0.073474652215801725 0 0.049298964513542654 -0.072952988407147326 0 0.049668620220777199 -0.072046016353332312 0 0.048466174648439699 -0.072611708690071872 0 0.048466174648439699 -0.072611708690071872 0 0.047448907165987327 -0.072426219744043646 0 0.047505874667536412 -0.072687179488121326 0 0.04545817362619433 -0.07406575779380388 0 0.046557199597398805 -0.073985494643036623 0 0.045308670711220508 -0.073382771783947212 0 0.048466174648439699 -0.072611708690071872 0 0.047521928265125829 -0.072680928811882997 0 0.047652609156535158 -0.073258638986263613 0 0.037137126046997648 -0.083252146742134367 0 0.03626521882800874 -0.082490994708887697 0 0.036565359223781596 -0.0816893846125894 0 0.044279364879496776 -0.07593879781532982 0 0.041701761781944346 -0.078497634758590784 0 0.044592362254046766 -0.074756432901089576 0 0.04424348534739591 -0.074825546084571565 0 0.04424348534739591 -0.074825546084571565 0 0.045409524147064603 -0.072638357616880658 0 0.037137126046997648 -0.083252146742134367 0 0.037180938387689141 -0.083442058004992117 0 0.036473582423160372 -0.083500055735777928 0 0.044279364879496776 -0.07593879781532982 0 0.04424348534739591 -0.074825546084571565 0 0.037137126046997648 -0.083252146742134367 0 0.036345978526786039 -0.083354595940528006 0 0.036108401354895195 -0.082945630882087895 0 0.037137126046997648 -0.083252146742134367 0 0.036473582423160372 -0.083500055735777928 0 0.036345978526786039 -0.083354595940528006 0 0.04424348534739591 -0.074825546084571565 0 0.041026623486744677 -0.074078301289101478 0 0.041026623486744677 -0.074078301289101478 0 0.041032382900821847 -0.074110986893721253 0 0.037137126046997648 -0.083252146742134367 0 0.03626521882800874 -0.082490994708887697 0 0.036108401354895195 -0.082945630882087895 0 0.033818120072412278 -0.0836969014693415 0 0.036475227120744552 -0.083504838712536056 0 0.035573331270254478 -0.083111336507587966 0 0.031001972971760265 -0.078763527793099058 0 0.041026623486744677 -0.074078301289101478 0 0.033818120072412278 -0.0836969014693415 0 0.035573331270254478 -0.083111336507587966 0 0.034867948870459374 -0.082546496817714379 0 0.036345978526786039 -0.083354595940528006 0 0.035573331270254478 -0.083111336507587966 0 0.036108401354895195 -0.082945630882087895 0 0.036475227120744552 -0.083504838712536056 0 0.036345978526786039 -0.083354595940528006 0 0.035573331270254478 -0.083111336507587966 0 0.035573331270254478 -0.083111336507587966 0 0.035826754316962035 -0.082625114184013429 0 0.036108401354895195 -0.082945630882087895 0 0.03626521882800874 -0.082490994708887697 0 0.035826754316962035 -0.082625114184013429 0 0.036108401354895195 -0.082945630882087895 0 0.03626521882800874 -0.082490994708887697 0 0.035923100038700341 -0.082325729107346077 0 0.036058884449299923 -0.082010159306334873 0 0.03626521882800874 -0.082490994708887697 0 0.035826754316962035 -0.082625114184013429 0 0.035923100038700341 -0.082325729107346077 0 0.035826754316962035 -0.082625114184013429 0 0.035923100038700341 -0.082325729107346077 0 0.035542342909032201 -0.082176878835196809 0 0.035826754316962035 -0.082625114184013429 0 0.034867948870459374 -0.082546496817714379 0 0.035542342909032201 -0.082176878835196809 0 0.035573331270254478 -0.083111336507587966 0 0.035826754316962035 -0.082625114184013429 0 0.034867948870459374 -0.082546496817714379 0 0.035832153062472102 -0.081070772117195461 0 0.036216259644639259 -0.081627046369979209 0 0.03605659501082624 -0.080122024936297956 0 0.039295662280032138 -0.080225103792588334 0 0.039624030211943349 -0.07989976682037607 0 0.034867948870459374 -0.082546496817714379 0 0.03485168642656964 -0.081705969811325788 0 0.035542342909032201 -0.082176878835196809 0 0.03485168642656964 -0.081705969811325788 0 0.035656703034817175 -0.081638175347468339 0 0.035542342909032201 -0.082176878835196809 0 0.035656703034817175 -0.081638175347468339 0 0.035542342909032201 -0.082176878835196809 0 0.036058884449299923 -0.082010159306334873 0 0.035923100038700341 -0.082325729107346077 0 0.035542342909032201 -0.082176878835196809 0 0.036058884449299923 -0.082010159306334873 0 0.035656703034817175 -0.081638175347468339 0 0.036058884449299923 -0.082010159306334873 0 0.036216259644639259 -0.081627046369979209 0 0.035656703034817175 -0.081638175347468339 0 0.035832153062472102 -0.081070772117195461 0 0.036216259644639259 -0.081627046369979209 0 0.035832153062472102 -0.081070772117195461 0 0.035370087541309068 -0.081126682401717692 0 0.035561155882839542 -0.080441761667148726 0 0.035656703034817175 -0.081638175347468339 0 0.035832153062472102 -0.081070772117195461 0 0.035370087541309068 -0.081126682401717692 0 0.03485168642656964 -0.081705969811325788 0 0.035656703034817175 -0.081638175347468339 0 0.035370087541309068 -0.081126682401717692 0 0.034670799454493653 -0.08035834711957883 0 0.03485168642656964 -0.081705969811325788 0 0.035370087541309068 -0.081126682401717692 0 0.041626804036396237 -0.079508452345063013 0 0.041665810056540284 -0.078910787418608741 0 0.042008570903416108 -0.080074845405787742 0 0.041286729270573738 -0.077750885720208746 0 0.041626804036396237 -0.079508452345063013 0 0.041665810056540284 -0.078910787418608741 0 0.036216259644639259 -0.081627046369979209 0 0.036565359223781596 -0.0816893846125894 0 0.036081105772326524 -0.080072962491052349 0 0.044279364879496776 -0.07593879781532982 0 0.042219801550418753 -0.081278410172890905 0 0.041701761781944346 -0.078497634758590784 0 0.039624030211943349 -0.07989976682037607 0 0.043975736312783675 -0.08749443375347421 0 0.04216303038759843 -0.089180619090023477 0 0.041537856518032816 -0.08648973417786042 0 0.03626521882800874 -0.082490994708887697 0 0.036058884449299923 -0.082010159306334873 0 0.036565359223781596 -0.0816893846125894 0 0.036058884449299923 -0.082010159306334873 0 0.036216259644639259 -0.081627046369979209 0 0.036565359223781596 -0.0816893846125894 0 0.041626804036396237 -0.079508452345063013 0 0.042008570903416108 -0.080074845405787742 0 0.041980469424859231 -0.081256640724568535 0 0.042219801550418753 -0.081278410172890905 0 0.039577903582956701 -0.081190502273143991 0 0.041537856518032816 -0.08648973417786042 0 0.042522392640179846 -0.084768382871113296 0 0.043558523348277201 -0.085826753950778295 0 0.041537856518032816 -0.08648973417786042 0 0.042522392640179846 -0.084768382871113296 0 0.040918364580797562 -0.083813354667426759 0 0.034670799454493653 -0.08035834711957883 0 0.035874385666092252 -0.079533273091022941 0 0.035920770731304855 -0.078730805349007962 0 0.036377890102649774 -0.082064734098902761 0 0.039143571054133908 -0.081070235585476949 0 0.034670799454493653 -0.08035834711957883 0 0.035370087541309068 -0.081126682401717692 0 0.035561155882839542 -0.080441761667148726 0 0.034670799454493653 -0.08035834711957883 0 0.035561155882839542 -0.080441761667148726 0 0.035874385666092252 -0.079533273091022941 0 0.035832153062472102 -0.081070772117195461 0 0.035561155882839542 -0.080441761667148726 0 0.03605659501082624 -0.080122024936297956 0 0.03606170983338023 -0.080123969393313857 0 0.035874385666092252 -0.079533273091022941 0 0.035920770731304855 -0.078730805349007962 0 0.035561155882839542 -0.080441761667148726 0 0.03605659501082624 -0.080122024936297956 0 0.035874385666092252 -0.079533273091022941 0 0.039624030211943349 -0.07989976682037607 0 0.039143571054133908 -0.081070235585476949 0 0.039624030211943349 -0.07989976682037607 0 0.03953836116349204 -0.079834144369237289 0 0.034562306543142143 -0.081399839741152946 0 0.034401135709666866 -0.082365867666257711 0 0.035707952276583778 -0.081302464465269952 0 0.038926517895305268 -0.080675309190678335 0 0.038962336166639182 -0.081006704954396228 0 0.03899183773120718 -0.080967340328046811 0 0.042008570903416108 -0.080074845405787742 0 0.042099556072533843 -0.081101294503553814 0 0.041980469424859231 -0.081256640724568535 0 0.039143571054133908 -0.081070235585476949 0 0.039577903582956701 -0.081190502273143991 0 0.034562306543142143 -0.081399839741152946 0 0.035707952276583778 -0.081302464465269952 0 0.035016595417655512 -0.080709837165024709 0 0.042522392640179846 -0.084768382871113296 0 0.040918364580797562 -0.083813354667426759 0 0.042699140200578536 -0.083308474314143816 0 0.042522392640179846 -0.084768382871113296 0 0.042699140200578536 -0.083308474314143816 0 0.043940405969722235 -0.084420751053127019 0 0.043917894742788323 -0.082984406918967163 0 0.042699140200578536 -0.083308474314143816 0 0.043940405969722235 -0.084420751053127019 0 0.043917894742788323 -0.082984406918967163 0 0.043940405969722235 -0.084420751053127019 0 0.045336761660886474 -0.083789450997187792 0 0.046218134813514881 -0.085023980902243473 0 0.045336761660886474 -0.083789450997187792 0 0.044979698209661328 -0.085270321698673407 0 0.043940405969722235 -0.084420751053127019 0 0.045336761660886474 -0.083789450997187792 0 0.044979698209661328 -0.085270321698673407 0 0.046218134813514881 -0.085023980902243473 0 0.044979698209661328 -0.085270321698673407 0 0.04595246479538858 -0.086085129151792922 0 0.044884874986654777 -0.08645449744733108 0 0.044979698209661328 -0.085270321698673407 0 0.04595246479538858 -0.086085129151792922 0 0.044884874986654777 -0.08645449744733108 0 0.044979698209661328 -0.085270321698673407 0 0.043558523348277201 -0.085826753950778295 0 0.042522392640179846 -0.084768382871113296 0 0.043940405969722235 -0.084420751053127019 0 0.043558523348277201 -0.085826753950778295 0 0.043940405969722235 -0.084420751053127019 0 0.044979698209661328 -0.085270321698673407 0 0.043558523348277201 -0.085826753950778295 0 0.074988465052262115 -0.074996007810351539 0 0.073191641915955924 -0.072233976119262661 0 0.075217223716125534 -0.066008185586961921 0 0.074988465052262115 -0.074996007810351539 0 0.074998838806792714 -0.062634123850413503 0 0.075217223716125534 -0.066008185586961921 0 0.073191641915955924 -0.072233976119262661 0 0.074620303302080165 -0.068749698972936077 0 0.075217223716125534 -0.066008185586961921 0 0.075043689857084206 -0.066073085199920598 0 0.074905332494165727 -0.064376275505769784 0 0.074988465052262115 -0.074996007810351539 0 0.073191641915955924 -0.072233976119262661 0 0.066991068562429645 -0.07499456766787721 0 0.073191641915955924 -0.072233976119262661 0 0.071489257622425431 -0.072303234792870236 0 0.073409961917676597 -0.06962729237126021 0 0.073191641915955924 -0.072233976119262661 0 0.066991068562429645 -0.07499456766787721 0 0.071489257622425431 -0.072303234792870236 0 0.066965765139757674 -0.074998254264069239 0 0.068328714083731604 -0.073795567577393542 0 0.066991068562429645 -0.07499456766787721 0 0.071489257622425431 -0.072303234792870236 0 0.07539473033119011 -0.072098274038913585 0 0.071489257622425431 -0.072303234792870236 0 0.073409961917676597 -0.06962729237126021 0 0.07539473033119011 -0.072098274038913585 0 0.073409961917676597 -0.06962729237126021 0 0.0749076666142348 -0.065709357660081402 0 0.076212113651100449 -0.06809526186002679 0 0.075191445433465343 -0.06693078961149411 0 0.075043689857084206 -0.066073085199920598 0 0.073191641915955924 -0.072233976119262661 0 0.073409961917676597 -0.06962729237126021 0 0.074620303302080165 -0.068749698972936077 0 0.07370457468947593 -0.06552103359383149 0 0.0749076666142348 -0.065709357660081402 0 0.074717124480674108 -0.063858112475848661 0 0.073409961917676597 -0.06962729237126021 0 0.07370457468947593 -0.06552103359383149 0 0.0749076666142348 -0.065709357660081402 0 0.0749076666142348 -0.065709357660081402 0 0.078318795672585567 -0.065337345964510976 0 0.076212113651100449 -0.06809526186002679 0 0.0749076666142348 -0.065709357660081402 0 0.078318795672585567 -0.065337345964510976 0 0.075592558928892245 -0.063671135489519429 0 0.078318795672585567 -0.065337345964510976 0 0.079280414338227703 -0.067837734082070472 0 0.076212113651100449 -0.06809526186002679 0 0.067771571593355978 -0.073429458439822237 0 0.063911816683406147 -0.074550387670617335 0 0.078318795672585567 -0.065337345964510976 0 0.079280414338227703 -0.067837734082070472 0 0.081244337036883413 -0.064023961887186537 0 0.062357124074662658 -0.081081340481179529 0 0.061736231354080531 -0.080071204172444524 0 0.06461431473682494 -0.078147741536453555 0 0.062357124074662658 -0.081081340481179529 0 0.061736231354080531 -0.080071204172444524 0 0.060347671503106465 -0.081497939878350051 0 0.073409961917676597 -0.06962729237126021 0 0.076212113651100449 -0.06809526186002679 0 0.07539473033119011 -0.072098274038913585 0 0.079280414338227703 -0.067837734082070472 0 0.076212113651100449 -0.06809526186002679 0 0.07539473033119011 -0.072098274038913585 0 0.067771571593355978 -0.073429458439822237 0 0.068328714083731604 -0.073795567577393542 0 0.066963032857537144 -0.074999989539846976 0 0.06461431473682494 -0.078147741536453555 0 0.063272425886118575 -0.074999961057069187 0 0.063272425886118575 -0.074999961057069187 0 0.061822145059823287 -0.077339690990296792 0 0.059582091261838242 -0.074999984011353688 0 0.06461431473682494 -0.078147741536453555 0 0.063272425886118575 -0.074999961057069187 0 0.061822145059823287 -0.077339690990296792 0 0.061736231354080531 -0.080071204172444524 0 0.06461431473682494 -0.078147741536453555 0 0.061822145059823287 -0.077339690990296792 0 0.061736231354080531 -0.080071204172444524 0 0.061822145059823287 -0.077339690990296792 0 0.059882037068936016 -0.078375413500230209 0 0.059306680654445186 -0.078375905563123988 0 0.057814803116390284 -0.07790054536503678 0 0.058277814344645969 -0.07920303149243102 0 0.059306680654445186 -0.078375905563123988 0 0.059581457432722022 -0.075000186938764729 0 0.058082659122982501 -0.076800867021301192 0 0.061822145059823287 -0.077339690990296792 0 0.059882037068936016 -0.078375413500230209 0 0.059582091261838242 -0.074999984011353688 0 0.060287306428757084 -0.077500422837242997 0 0.059583121451731946 -0.075002760298826091 0 0.05555711570918611 -0.074999898763700584 0 0.059581457432722022 -0.075000186938764729 0 0.058082659122982501 -0.076800867021301192 0 0.05555711570918611 -0.074999898763700584 0 0.056144740405557808 -0.077217556562181183 0 0.058082659122982501 -0.076800867021301192 0 0.056144740405557808 -0.077217556562181183 0 0.057814803116390284 -0.07790054536503678 0 0.057433275555937038 -0.078709397311835849 0 0.056144740405557808 -0.077217556562181183 0 0.058082659122982501 -0.076800867021301192 0 0.057814803116390284 -0.07790054536503678 0 0.059306680654445186 -0.078375905563123988 0 0.058082659122982501 -0.076800867021301192 0 0.057814803116390284 -0.07790054536503678 0 0.057814803116390284 -0.07790054536503678 0 0.057433275555937038 -0.078709397311835849 0 0.058277814344645969 -0.07920303149243102 0 0.057738512320667505 -0.079205471587275769 0 0.057433275555937038 -0.078709397311835849 0 0.058277814344645969 -0.07920303149243102 0 0.056087548558017057 -0.079645803464031315 0 0.057738512320667505 -0.079205471587275769 0 0.057433275555937038 -0.078709397311835849 0 0.055993673595524387 -0.081336352197943426 0 0.056087548558017057 -0.079645803464031315 0 0.057738512320667505 -0.079205471587275769 0 0.055781690119354493 -0.080261844814306788 0 0.056217066313694726 -0.079896858466703233 0 0.057600003952593855 -0.079917305324021179 0 0.058069229454658929 -0.079932673989324673 0 0.057880756146687876 -0.080200139479838409 0 0.057600003952593855 -0.079917305324021179 0 0.057738512320667505 -0.079205471587275769 0 0.058069229454658929 -0.079932673989324673 0 0.057738512320667505 -0.079205471587275769 0 0.058069229454658929 -0.079932673989324673 0 0.058277814344645969 -0.07920303149243102 0 0.061736231354080531 -0.080071204172444524 0 0.059882037068936016 -0.078375413500230209 0 0.06008955523010448 -0.081682397495825856 0 0.060287306428757084 -0.077500422837242997 0 0.061277061674520794 -0.078640481792264461 0 0.059306680654445186 -0.078375905563123988 0 0.058277814344645969 -0.07920303149243102 0 0.05884563475696835 -0.080153600142157361 0 0.061049558306573035 -0.079048217234859691 0 0.061277061674520794 -0.078640481792264461 0 0.058069229454658929 -0.079932673989324673 0 0.058277814344645969 -0.07920303149243102 0 0.05884563475696835 -0.080153600142157361 0 0.062357124074662658 -0.081081340481179529 0 0.060347671503106465 -0.081497939878350051 0 0.060460053377879866 -0.083643487683045373 0 0.061277061674520794 -0.078640481792264461 0 0.063911816683406147 -0.074550387670617335 0 0.059893266758186077 -0.078021210102063532 0 0.059566421965142821 -0.078334691167363357 0 0.059905067190904993 -0.078415969679678288 0 0.061277061674520794 -0.078640481792264461 0 0.059855498299567649 -0.07931335410900224 0 0.058069229454658929 -0.079932673989324673 0 0.057908787442553226 -0.080477558837449836 0 0.057880756146687876 -0.080200139479838409 0 0.058069229454658929 -0.079932673989324673 0 0.05884563475696835 -0.080153600142157361 0 0.057908787442553226 -0.080477558837449836 0 0.057908787442553226 -0.080477558837449836 0 0.0579430081650016 -0.08037892645978284 0 0.057880756146687876 -0.080200139479838409 0 0.059563340806548175 -0.078578675300477657 0 0.059905067190904993 -0.078415969679678288 0 0.059526650397148238 -0.078895681174936713 0 0.059258448919921027 -0.07866208886664848 0 0.059566421965142821 -0.078334691167363357 0 0.059563340806548175 -0.078578675300477657 0 0.058155376045503741 -0.079811294847138059 0 0.057908787442553226 -0.080477558837449836 0 0.0579430081650016 -0.08037892645978284 0 0.059353282934261321 -0.079428500209047764 0 0.059855498299567649 -0.07931335410900224 0 0.059566421965142821 -0.078334691167363357 0 0.059563340806548175 -0.078578675300477657 0 0.059905067190904993 -0.078415969679678288 0 0.063911816683406147 -0.074550387670617335 0 0.061284550195986116 -0.077754283740391825 0 0.063911816683406147 -0.074550387670617335 0 0.06598212989892574 -0.070990759448664328 0 0.059902294054299497 -0.078355057933777214 0 0.059900636826339414 -0.078976479270845931 0 0.059526650397148238 -0.078895681174936713 0 0.059258448919921027 -0.07866208886664848 0 0.059563340806548175 -0.078578675300477657 0 0.059526650397148238 -0.078895681174936713 0 0.059258448919921027 -0.07866208886664848 0 0.059257449539627464 -0.07902693723816763 0 0.059526650397148238 -0.078895681174936713 0 0.059257449539627464 -0.07902693723816763 0 0.059290599622652221 -0.079166422345828519 0 0.059541013521778777 -0.079130302013749085 0 0.059900636826339414 -0.078976479270845931 0 0.059526650397148238 -0.078895681174936713 0 0.059541013521778777 -0.079130302013749085 0 0.059257449539627464 -0.07902693723816763 0 0.059526650397148238 -0.078895681174936713 0 0.059541013521778777 -0.079130302013749085 0 0.059290599622652221 -0.079166422345828519 0 0.059541013521778777 -0.079130302013749085 0 0.059502907021046984 -0.07936506249158716 0 0.059541013521778777 -0.079130302013749085 0 0.059502907021046984 -0.07936506249158716 0 0.059921667367684582 -0.079507918742365083 0 0.06552498043391522 -0.071607991093369475 0 0.06512603790055492 -0.070814709374851736 0 0.076473223781004726 -0.056591550007189281 0 0.078349484850546214 -0.057750519117225237 0 0.077661093958042798 -0.058365279690186983 0 0.06512603790055492 -0.070814709374851736 0 0.065426888193877514 -0.070778584920475743 0 0.078398306399251064 -0.057910648436705639 0 0.078394509268328499 -0.058083839445275197 0 0.078848680280146952 -0.058344202767952429 0 0.06512603790055492 -0.070814709374851736 0 0.065165668725765999 -0.070646603568095198 0 0.059900636826339414 -0.078976479270845931 0 0.059541013521778777 -0.079130302013749085 0 0.059921667367684582 -0.079507918742365083 0 0.06598212989892574 -0.070990759448664328 0 0.06512603790055492 -0.070814709374851736 0 0.080318109322385561 -0.060671639263453148 0 0.078621042555796952 -0.059077747010333109 0 0.078200049276579156 -0.060588871591349014 0 0.080318109322385561 -0.060671639263453148 0 0.079296359836731681 -0.05852219106962038 0 0.078621042555796952 -0.059077747010333109 0 0.078621042555796952 -0.059077747010333109 0 0.078307745505440229 -0.058556250947560479 0 0.078554011941787238 -0.058551043015968661 0 0.078621042555796952 -0.059077747010333109 0 0.078848680280146952 -0.058344202767952429 0 0.078554011941787238 -0.058551043015968661 0 0.079296359836731681 -0.05852219106962038 0 0.078621042555796952 -0.059077747010333109 0 0.078848680280146952 -0.058344202767952429 0 0.078621042555796952 -0.059077747010333109 0 0.077752730140710866 -0.059352903300874317 0 0.078307745505440229 -0.058556250947560479 0 0.078621042555796952 -0.059077747010333109 0 0.078200049276579156 -0.060588871591349014 0 0.077752730140710866 -0.059352903300874317 0 0.078200049276579156 -0.060588871591349014 0 0.078891471197153215 -0.062437652231167776 0 0.076908041433167249 -0.062339822580419202 0 0.081244337036883413 -0.064023961887186537 0 0.080318109322385561 -0.060671639263453148 0 0.078891471197153215 -0.062437652231167776 0 0.080318109322385561 -0.060671639263453148 0 0.078200049276579156 -0.060588871591349014 0 0.078891471197153215 -0.062437652231167776 0 0.078318795672585567 -0.065337345964510976 0 0.081244337036883413 -0.064023961887186537 0 0.078891471197153215 -0.062437652231167776 0 0.077804472671276687 -0.063907605494585379 0 0.076880743232259977 -0.062925511903330511 0 0.078318795672585567 -0.065337345964510976 0 0.078891471197153215 -0.062437652231167776 0 0.076908041433167249 -0.062339822580419202 0 0.0749076666142348 -0.065709357660081402 0 0.075592558928892245 -0.063671135489519429 0 0.074717124480674108 -0.063858112475848661 0 0.075592558928892245 -0.063671135489519429 0 0.074717124480674108 -0.063858112475848661 0 0.075531453031984289 -0.062299984976468652 0 0.076880743232259977 -0.062925511903330511 0 0.075846148966476762 -0.061552418256827744 0 0.076908041433167249 -0.062339822580419202 0 0.076406280355176256 -0.060577190975589716 0 0.077171742502731525 -0.060362590543567553 0 0.078200049276579156 -0.060588871591349014 0 0.076908041433167249 -0.062339822580419202 0 0.077171742502731525 -0.060362590543567553 0 0.078200049276579156 -0.060588871591349014 0 0.077171742502731525 -0.060362590543567553 0 0.077752730140710866 -0.059352903300874317 0 0.077171742502731525 -0.060362590543567553 0 0.077752730140710866 -0.059352903300874317 0 0.076869195200113649 -0.059317734208192828 0 0.077752730140710866 -0.059352903300874317 0 0.077466990590403961 -0.058607773886854418 0 0.078307745505440229 -0.058556250947560479 0 0.077752730140710866 -0.059352903300874317 0 0.076869195200113649 -0.059317734208192828 0 0.077466990590403961 -0.058607773886854418 0 0.076869195200113649 -0.059317734208192828 0 0.076477246720252218 -0.057712621260174735 0 0.077466990590403961 -0.058607773886854418 0 0.076406280355176256 -0.060577190975589716 0 0.077171742502731525 -0.060362590543567553 0 0.076869195200113649 -0.059317734208192828 0 0.075846148966476762 -0.061552418256827744 0 0.075353107643851724 -0.060802054707888256 0 0.076406280355176256 -0.060577190975589716 0 0.076869195200113649 -0.059317734208192828 0 0.075854235290796504 -0.059440040536282109 0 0.076869195200113649 -0.059317734208192828 0 0.075854235290796504 -0.059440040536282109 0 0.076477246720252218 -0.057712621260174735 0 0.074999248589302375 -0.056411041381626309 0 0.075854235290796504 -0.059440040536282109 0 0.076477246720252218 -0.057712621260174735 0 0.074999248589302375 -0.056411041381626309 0 0.074999298330332587 -0.059515171023095885 0 0.075854235290796504 -0.059440040536282109 0 0.074999298330332587 -0.059515171023095885 0 0.075854235290796504 -0.059440040536282109 0 0.07499785536507339 -0.062621814824728755 0 0.075531453031984289 -0.062299984976468652 0 0.07499785536507339 -0.062621814824728755 0 0.074500316152876583 -0.063566714060212887 0 0.075531453031984289 -0.062299984976468652 0 0.075854235290796504 -0.059440040536282109 0 0.07499785536507339 -0.062621814824728755 0 0.074717124480674108 -0.063858112475848661 0 0.075531453031984289 -0.062299984976468652 0 0.074500316152876583 -0.063566714060212887 0 0.07370457468947593 -0.06552103359383149 0 0.074717124480674108 -0.063858112475848661 0 0.074500316152876583 -0.063566714060212887 0 0.074998672225042862 -0.062626779171485097 0 0.074905332494165727 -0.064376275505769784 0 0.074999945478759572 -0.048323059914165439 0 0.078731341021454987 -0.050444644674131789 0 0.077732449590377117 -0.046440929877946908 0 0.078731341021454987 -0.050444644674131789 0 0.080565224306474809 -0.047653784781793829 0 0.077732449590377117 -0.046440929877946908 0 0.074999945478759572 -0.048323059914165439 0 0.078731341021454987 -0.050444644674131789 0 0.074999929550891603 -0.05236433317295635 0 0.074999967383416605 -0.056405752223327776 0 0.074999929550891603 -0.05236433317295635 0 0.078720024552669257 -0.054653971747398458 0 0.075001791953341848 -0.056406189054325824 0 0.077197607808596094 -0.056024703988532182 0 0.078731341021454987 -0.050444644674131789 0 0.074999929550891603 -0.05236433317295635 0 0.078720024552669257 -0.054653971747398458 0 0.078731341021454987 -0.050444644674131789 0 0.078720024552669257 -0.054653971747398458 0 0.082345080046498112 -0.052870309543657436 0 0.077197607808596094 -0.056024703988532182 0 0.079512601117966056 -0.055441822223227112 0 0.076477246720252218 -0.057712621260174735 0 0.077466990590403961 -0.058607773886854418 0 0.077692715506830753 -0.058125816531180541 0 0.077466990590403961 -0.058607773886854418 0 0.077692715506830753 -0.058125816531180541 0 0.078307745505440229 -0.058556250947560479 0 0.082345080046498112 -0.052870309543657436 0 0.082271644474472702 -0.049908419770514842 0 0.085823604300548903 -0.051003296828387196 0 0.078731341021454987 -0.050444644674131789 0 0.082345080046498112 -0.052870309543657436 0 0.082271644474472702 -0.049908419770514842 0 0.078731341021454987 -0.050444644674131789 0 0.082271644474472702 -0.049908419770514842 0 0.080565224306474809 -0.047653784781793829 0 0.082271644474472702 -0.049908419770514842 0 0.080565224306474809 -0.047653784781793829 0 0.084267311132364131 -0.047842392153729825 0 0.080565224306474809 -0.047653784781793829 0 0.084267311132364131 -0.047842392153729825 0 0.082590121353279367 -0.045607368942555654 0 0.084267311132364131 -0.047842392153729825 0 0.087505943485436791 -0.04745732914232443 0 0.086348018840368246 -0.04491284495101449 0 0.087505943485436791 -0.04745732914232443 0 0.085823604300548903 -0.051003296828387196 0 0.088850484979117017 -0.049044906036909204 0 0.081336516705944259 -0.054877347028436552 0 0.082213308924989278 -0.054429474300891983 0 0.082271644474472702 -0.049908419770514842 0 0.084267311132364131 -0.047842392153729825 0 0.085823604300548903 -0.051003296828387196 0 0.084267311132364131 -0.047842392153729825 0 0.087505943485436791 -0.04745732914232443 0 0.085823604300548903 -0.051003296828387196 0 0.077692715506830753 -0.058125816531180541 0 0.078601083427027318 -0.058829524084102518 0 0.078307745505440229 -0.058556250947560479 0 0.079512601117966056 -0.055441822223227112 0 0.081336516705944259 -0.054877347028436552 0 0.078307745505440229 -0.058556250947560479 0 0.078554011941787238 -0.058551043015968661 0 0.078478229133620278 -0.058674394709231442 0 0.078547420017359898 -0.058430311915289385 0 0.078554011941787238 -0.058551043015968661 0 0.078478229133620278 -0.058674394709231442 0 0.078848680280146952 -0.058344202767952429 0 0.078547420017359898 -0.058430311915289385 0 0.078554011941787238 -0.058551043015968661 0 0.078394509268328499 -0.058083839445275197 0 0.078848680280146952 -0.058344202767952429 0 0.078547420017359898 -0.058430311915289385 0 0.078547420017359898 -0.058430311915289385 0 0.078478229133620278 -0.058674394709231442 0 0.078275746450008579 -0.05840918513945511 0 0.078601083427027318 -0.058829524084102518 0 0.078478229133620278 -0.058674394709231442 0 0.077884799970965951 -0.059250015500391891 0 0.078601083427027318 -0.058829524084102518 0 0.078307745505440229 -0.058556250947560479 0 0.078478229133620278 -0.058674394709231442 0 0.078601083427027318 -0.058829524084102518 0 0.077884799970965951 -0.059250015500391891 0 0.077729731599018081 -0.060430071055493549 0 0.077884799970965951 -0.059250015500391891 0 0.076968827860091779 -0.05927823565648109 0 0.077729731599018081 -0.060430071055493549 0 0.077884799970965951 -0.059250015500391891 0 0.077661093958042798 -0.058365279690186983 0 0.076968827860091779 -0.05927823565648109 0 0.078478229133620278 -0.058674394709231442 0 0.077661093958042798 -0.058365279690186983 0 0.078275746450008579 -0.05840918513945511 0 0.078478229133620278 -0.058674394709231442 0 0.077884799970965951 -0.059250015500391891 0 0.077661093958042798 -0.058365279690186983 0 0.078394509268328499 -0.058083839445275197 0 0.077661093958042798 -0.058365279690186983 0 0.078275746450008579 -0.05840918513945511 0 0.078349484850546214 -0.057750519117225237 0 0.078394509268328499 -0.058083839445275197 0 0.077661093958042798 -0.058365279690186983 0 0.078394509268328499 -0.058083839445275197 0 0.078547420017359898 -0.058430311915289385 0 0.078275746450008579 -0.05840918513945511 0 0.076473223781004726 -0.056591550007189281 0 0.077661093958042798 -0.058365279690186983 0 0.075598698542310744 -0.058070980427940351 0 0.077661093958042798 -0.058365279690186983 0 0.076968827860091779 -0.05927823565648109 0 0.075598698542310744 -0.058070980427940351 0 0.076968827860091779 -0.05927823565648109 0 0.077729731599018081 -0.060430071055493549 0 0.075590569860239529 -0.06008365049031128 0 0.076968827860091779 -0.05927823565648109 0 0.075598698542310744 -0.058070980427940351 0 0.075590569860239529 -0.06008365049031128 0 0.082213308924989278 -0.054429474300891983 0 0.081841611178913393 -0.05403472171594316 0 0.077729731599018081 -0.060430071055493549 0 0.075590569860239529 -0.06008365049031128 0 0.075506450108533782 -0.061874204427357284 0 0.087505943485436791 -0.04745732914232443 0 0.088850484979117017 -0.049044906036909204 0 0.089849236346985467 -0.04608856529293321 0 0.088850484979117017 -0.049044906036909204 0 0.089849236346985467 -0.04608856529293321 0 0.090520161882683289 -0.047282336541616996 0 0.089849236346985467 -0.04608856529293321 0 0.090520161882683289 -0.047282336541616996 0 0.090247942214518442 -0.046436270469193297 0 0.089849236346985467 -0.04608856529293321 0 0.09017455443122778 -0.046417782255389707 0 0.090247942214518442 -0.046436270469193297 0 0.087505943485436791 -0.04745732914232443 0 0.089849236346985467 -0.04608856529293321 0 0.086348018840368246 -0.04491284495101449 0 0.089849236346985467 -0.04608856529293321 0 0.089107078926643365 -0.043614833752944261 0 0.086348018840368246 -0.04491284495101449 0 0.089107078926643365 -0.043614833752944261 0 0.089011547321581369 -0.041515883603540006 0 0.087368032839394816 -0.042675524192219039 0 0.089107078926643365 -0.043614833752944261 0 0.092079426943591114 -0.043390182916415256 0 0.090506511925708633 -0.042119766387008352 0 0.089849236346985467 -0.04608856529293321 0 0.089107078926643365 -0.043614833752944261 0 0.092079426943591114 -0.043390182916415256 0 0.088266798140371944 -0.04230205396533103 0 0.088645132368427595 -0.040552977722878955 0 0.092079426943591114 -0.043390182916415256 0 0.091843894558437861 -0.04141998682935346 0 0.090506511925708633 -0.042119766387008352 0 0.091843894558437861 -0.04141998682935346 0 0.090506511925708633 -0.042119766387008352 0 0.090510825208412873 -0.040713637918698573 0 0.091843894558437861 -0.04141998682935346 0 0.090510825208412873 -0.040713637918698573 0 0.0917649901897407 -0.039932146212256978 0 0.090510825208412873 -0.040713637918698573 0 0.0917649901897407 -0.039932146212256978 0 0.090337376770346561 -0.038874084387136999 0 0.0917649901897407 -0.039932146212256978 0 0.090337376770346561 -0.038874084387136999 0 0.092178921907768288 -0.037864319292003956 0 0.088795536832514649 -0.038040274833390876 0 0.088876316291810822 -0.039886600415633064 0 0.086815714285043741 -0.038746530154743414 0 0.090337376770346561 -0.038874084387136999 0 0.088795536832514649 -0.038040274833390876 0 0.08984628928346082 -0.036893196109350775 0 0.090337376770346561 -0.038874084387136999 0 0.088795536832514649 -0.038040274833390876 0 0.088876316291810822 -0.039886600415633064 0 0.090510825208412873 -0.040713637918698573 0 0.090337376770346561 -0.038874084387136999 0 0.088876316291810822 -0.039886600415633064 0 0.088876316291810822 -0.039886600415633064 0 0.089011547321581369 -0.041515883603540006 0 0.087394033354959502 -0.04088360624313607 0 0.090510825208412873 -0.040713637918698573 0 0.088876316291810822 -0.039886600415633064 0 0.089011547321581369 -0.041515883603540006 0 0.089107078926643365 -0.043614833752944261 0 0.090506511925708633 -0.042119766387008352 0 0.089011547321581369 -0.041515883603540006 0 0.090506511925708633 -0.042119766387008352 0 0.090510825208412873 -0.040713637918698573 0 0.089011547321581369 -0.041515883603540006 0 0.089011547321581369 -0.041515883603540006 0 0.087394033354959502 -0.04088360624313607 0 0.087368032839394816 -0.042675524192219039 0 0.087394033354959502 -0.04088360624313607 0 0.086815714285043741 -0.038746530154743414 0 0.085342335003452743 -0.041341104233806311 0 0.087394033354959502 -0.04088360624313607 0 0.085342335003452743 -0.041341104233806311 0 0.087368032839394816 -0.042675524192219039 0 0.088876316291810822 -0.039886600415633064 0 0.087394033354959502 -0.04088360624313607 0 0.086815714285043741 -0.038746530154743414 0 0.088795536832514649 -0.038040274833390876 0 0.086815714285043741 -0.038746530154743414 0 0.087389749283749152 -0.037340974220518242 0 0.086815714285043741 -0.038746530154743414 0 0.084348044346595472 -0.038552925203110905 0 0.085816563846895511 -0.037194267540001713 0 0.086815714285043741 -0.038746530154743414 0 0.084348044346595472 -0.038552925203110905 0 0.085342335003452743 -0.041341104233806311 0 0.084348044346595472 -0.038552925203110905 0 0.085342335003452743 -0.041341104233806311 0 0.082335876056399193 -0.040282533508141476 0 0.085342335003452743 -0.041341104233806311 0 0.086348018840368246 -0.04491284495101449 0 0.083085276774704064 -0.042878942657352502 0 0.086348018840368246 -0.04491284495101449 0 0.082590121353279367 -0.045607368942555654 0 0.083085276774704064 -0.042878942657352502 0 0.089107078926643365 -0.043614833752944261 0 0.087368032839394816 -0.042675524192219039 0 0.086348018840368246 -0.04491284495101449 0 0.085342335003452743 -0.041341104233806311 0 0.087368032839394816 -0.042675524192219039 0 0.086348018840368246 -0.04491284495101449 0 0.084267311132364131 -0.047842392153729825 0 0.086348018840368246 -0.04491284495101449 0 0.082590121353279367 -0.045607368942555654 0 0.080565224306474809 -0.047653784781793829 0 0.082590121353279367 -0.045607368942555654 0 0.07988221856859791 -0.043324244436888051 0 0.082590121353279367 -0.045607368942555654 0 0.07988221856859791 -0.043324244436888051 0 0.083085276774704064 -0.042878942657352502 0 0.085342335003452743 -0.041341104233806311 0 0.083085276774704064 -0.042878942657352502 0 0.082335876056399193 -0.040282533508141476 0 0.07988221856859791 -0.043324244436888051 0 0.083085276774704064 -0.042878942657352502 0 0.082335876056399193 -0.040282533508141476 0 0.084348044346595472 -0.038552925203110905 0 0.082335876056399193 -0.040282533508141476 0 0.081944027510119893 -0.037002155591893279 0 0.082335876056399193 -0.040282533508141476 0 0.079707151473338331 -0.038957574182831661 0 0.081944027510119893 -0.037002155591893279 0 0.07988221856859791 -0.043324244436888051 0 0.082335876056399193 -0.040282533508141476 0 0.079707151473338331 -0.038957574182831661 0 0.07988221856859791 -0.043324244436888051 0 0.079707151473338331 -0.038957574182831661 0 0.077765405598424125 -0.040881488301261884 0 0.079707151473338331 -0.038957574182831661 0 0.077765405598424125 -0.040881488301261884 0 0.077226884186179262 -0.037980627290715864 0 0.079707151473338331 -0.038957574182831661 0 0.077226884186179262 -0.037980627290715864 0 0.078710811641962281 -0.036090113289647417 0 0.077226884186179262 -0.037980627290715864 0 0.074999919188881103 -0.040240527131566853 0 0.074999947065388747 -0.036199258260420135 0 0.077765405598424125 -0.040881488301261884 0 0.077226884186179262 -0.037980627290715864 0 0.074999919188881103 -0.040240527131566853 0 0.077765405598424125 -0.040881488301261884 0 0.074999919188881103 -0.040240527131566853 0 0.074999966413752617 -0.044281782442125113 0 0.07988221856859791 -0.043324244436888051 0 0.077765405598424125 -0.040881488301261884 0 0.074999966413752617 -0.044281782442125113 0 0.07988221856859791 -0.043324244436888051 0 0.074999966413752617 -0.044281782442125113 0 0.077732449590377117 -0.046440929877946908 0 0.080565224306474809 -0.047653784781793829 0 0.07988221856859791 -0.043324244436888051 0 0.077732449590377117 -0.046440929877946908 0 0.074999945478759572 -0.048323059914165439 0 0.074999966413752617 -0.044281782442125113 0 0.077732449590377117 -0.046440929877946908 0 0.064649254357270799 -0.059869786628498831 0 0.067252716073103888 -0.059796756687288184 0 0.063986549293800793 -0.056122754069712885 0 0.064649254357270799 -0.059869786628498831 0 0.064230743797816528 -0.060829559443682159 0 0.063303504135824792 -0.057000533694214879 0 0.048480578799357257 -0.062245844526072493 0 0.046787940424603311 -0.068654042341975308 0 0.048480578799357257 -0.062245844526072493 0 0.051109137136751304 -0.061495612450988425 0 0.064649254357270799 -0.059869786628498831 0 0.064230743797816528 -0.060829559443682159 0 0.066004849123851878 -0.060204127140529549 0 0.064388924599320441 -0.060783103238605217 0 0.066004849123851878 -0.060204127140529549 0 0.066063079791521928 -0.061745515318716547 0 0.068773706728485734 -0.061225523965619089 0 0.068602361103440881 -0.059948415299997615 0 0.069917382902061925 -0.060215599079646825 0 0.067252716073103888 -0.059796756687288184 0 0.066004849123851878 -0.060204127140529549 0 0.067372631506803976 -0.061539207310233157 0 0.064649254357270799 -0.059869786628498831 0 0.067252716073103888 -0.059796756687288184 0 0.066004849123851878 -0.060204127140529549 0 0.066063079791521928 -0.061745515318716547 0 0.067372631506803976 -0.061539207310233157 0 0.067556590235030842 -0.062706655423781524 0 0.067372631506803976 -0.061539207310233157 0 0.067556590235030842 -0.062706655423781524 0 0.070391275403682077 -0.063439693352546858 0 0.067252716073103888 -0.059796756687288184 0 0.067372631506803976 -0.061539207310233157 0 0.070391275403682077 -0.063439693352546858 0 0.066004849123851878 -0.060204127140529549 0 0.066063079791521928 -0.061745515318716547 0 0.067372631506803976 -0.061539207310233157 0 0.067556590235030842 -0.062706655423781524 0 0.0650276452690908 -0.063518687665505419 0 0.067436194187514106 -0.064127564189738084 0 0.066063079791521928 -0.061745515318716547 0 0.067556590235030842 -0.062706655423781524 0 0.0650276452690908 -0.063518687665505419 0 0.032646609918531251 -0.056108076421928853 0 0.03230473190508195 -0.056678267791746263 0 0.032803823397112727 -0.05685140390210628 0 0.064388924599320441 -0.060783103238605217 0 0.066063079791521928 -0.061745515318716547 0 0.0650276452690908 -0.063518687665505419 0 0.048480578799357257 -0.062245844526072493 0 0.053819111856973342 -0.058527307107486895 0 0.048480578799357257 -0.062245844526072493 0 0.038556452331332924 -0.066434268138582928 0 0.032646609918531251 -0.056108076421928853 0 0.03230473190508195 -0.056678267791746263 0 0.03179173960930462 -0.056408961723738583 0 0.03230473190508195 -0.056678267791746263 0 0.03179173960930462 -0.056408961723738583 0 0.031980964313092775 -0.057076652964792307 0 0.03179173960930462 -0.056408961723738583 0 0.03148111332977778 -0.056976003113999751 0 0.031980964313092775 -0.057076652964792307 0 0.038556452331332924 -0.066434268138582928 0 0.030758980460828183 -0.071256247665230171 0 0.03179173960930462 -0.056408961723738583 0 0.030970899320698058 -0.056750017407365967 0 0.03148111332977778 -0.056976003113999751 0 0.040208080547948964 -0.069367570346118665 0 0.036238523409149445 -0.070772419231055622 0 0.03966239142477665 -0.066880130543427341 0 0.030758980460828183 -0.071256247665230171 0 0.035705942826950707 -0.072424253086134982 0 0.02433099281661872 -0.078803291194297714 0 0.023522722894446048 -0.078752051403602447 0 0.024054363266697663 -0.079572044622802193 0 0.02433099281661872 -0.078803291194297714 0 0.024174440059539646 -0.077889879000402007 0 0.023522722894446048 -0.078752051403602447 0 0.04414499394178692 -0.067958386683871816 0 0.040208080547948964 -0.069367570346118665 0 0.03966239142477665 -0.066880130543427341 0 0.035705942826950707 -0.072424253086134982 0 0.046787940424603311 -0.068654042341975308 0 0.04414499394178692 -0.067958386683871816 0 0.03966239142477665 -0.066880130543427341 0 0.043053524752077667 -0.063010996330134003 0 0.023522722894446048 -0.078752051403602447 0 0.023441037635265123 -0.079540127738124411 0 0.022908897429460912 -0.079547218009752396 0 0.023441037635265123 -0.079540127738124411 0 0.02303356938268596 -0.080096766799604091 0 0.022908897429460912 -0.079547218009752396 0 0.046089381639190241 -0.070727654770691317 0 0.046787940424603311 -0.068654042341975308 0 0.023522722894446048 -0.078752051403602447 0 0.023441037635265123 -0.079540127738124411 0 0.024054363266697663 -0.079572044622802193 0 0.023441037635265123 -0.079540127738124411 0 0.024054363266697663 -0.079572044622802193 0 0.023560603738578802 -0.080099745213603427 0 0.024632294572527667 -0.080579837593868595 0 0.023479780932391382 -0.080627750106312054 0 0.024057643512498686 -0.080174139429474323 0 0.024555913693978505 -0.079992030724285929 0 0.024054363266697663 -0.079572044622802193 0 0.024057643512498686 -0.080174139429474323 0 0.024054363266697663 -0.079572044622802193 0 0.024057643512498686 -0.080174139429474323 0 0.023560603738578802 -0.080099745213603427 0 0.023479780932391382 -0.080627750106312054 0 0.024057643512498686 -0.080174139429474323 0 0.023560603738578802 -0.080099745213603427 0 0.046434472749074265 -0.071101815187371742 0 0.046035313133210999 -0.070630871281636171 0 0.045557200172945851 -0.067145919190877895 0 0.046211022503897164 -0.070781599308661805 0 0.046026735093740972 -0.070561506402672239 0 0.046467114797980755 -0.071972524971691015 0 0.046089381639190241 -0.070727654770691317 0 0.046898772736752033 -0.07029026959310547 0 0.023441037635265123 -0.079540127738124411 0 0.02303356938268596 -0.080096766799604091 0 0.023560603738578802 -0.080099745213603427 0 0.023479780932391382 -0.080627750106312054 0 0.02303356938268596 -0.080096766799604091 0 0.023560603738578802 -0.080099745213603427 0 0.046089381639190241 -0.070727654770691317 0 0.045409524147064603 -0.072638357616880658 0 0.046557199597398805 -0.073985494643036623 0 0.045048562382164467 -0.072189339511503928 0 0.045308670711220508 -0.073382771783947212 0 0.041026623486744677 -0.074078301289101478 0 0.046089381639190241 -0.070727654770691317 0 0.046898772736752033 -0.07029026959310547 0 0.045409524147064603 -0.072638357616880658 0 0.048466174648439699 -0.072611708690071872 0 0.047652609156535158 -0.073258638986263613 0 0.048761734353984419 -0.073676284953730492 0 0.066997624450474247 -0.059164608808236117 0 0.06872452446109846 -0.059187969325915649 0 0.068216984375758308 -0.057766024418590085 0 0.048041388257463249 -0.074451848204028309 0 0.047652609156535158 -0.073258638986263613 0 0.048761734353984419 -0.073676284953730492 0 0.049298964513542654 -0.072952988407147326 0 0.048466174648439699 -0.072611708690071872 0 0.048761734353984419 -0.073676284953730492 0 0.049298964513542654 -0.072952988407147326 0 0.048761734353984419 -0.073676284953730492 0 0.050299956234748672 -0.073474652215801725 0 0.048761734353984419 -0.073676284953730492 0 0.048727607472101794 -0.075256074861144009 0 0.050299956234748672 -0.073474652215801725 0 0.050232332328047594 -0.067803879053594127 0 0.055150737695294036 -0.067905999230066613 0 0.048041388257463249 -0.074451848204028309 0 0.048761734353984419 -0.073676284953730492 0 0.048727607472101794 -0.075256074861144009 0 0.046898772736752033 -0.07029026959310547 0 0.050232332328047594 -0.067803879053594127 0 0.046898772736752033 -0.07029026959310547 0 0.04827396422556738 -0.068103764830993313 0 0.050218253585460691 -0.06561161921191612 0 0.04827396422556738 -0.068103764830993313 0 0.064649254357270799 -0.059869786628498831 0 0.063545367868389754 -0.056717742738325395 0 0.063303504135824792 -0.057000533694214879 0 0.046035313133210999 -0.070630871281636171 0 0.045093464722918586 -0.067681369060059809 0 0.045557200172945851 -0.067145919190877895 0 0.060595145818059963 -0.065960976314915487 0 0.050232332328047594 -0.067803879053594127 0 0.046744135197994564 -0.070923449416106191 0 0.045496505465345088 -0.067012226165540464 0 0.044451683752840039 -0.068217858262728026 0 0.064649254357270799 -0.059869786628498831 0 0.063556947283374618 -0.056621581554978324 0 0.063986549293800793 -0.056122754069712885 0 0.04827396422556738 -0.068103764830993313 0 0.050232332328047594 -0.067803879053594127 0 0.04827396422556738 -0.068103764830993313 0 0.046787940424603311 -0.068654042341975308 0 0.06872452446109846 -0.059187969325915649 0 0.069715779501058658 -0.058454020209429587 0 0.069917382902061925 -0.060215599079646825 0 0.066997624450474247 -0.059164608808236117 0 0.068602361103440881 -0.059948415299997615 0 0.06872452446109846 -0.059187969325915649 0 0.068773706728485734 -0.061225523965619089 0 0.066997624450474247 -0.059164608808236117 0 0.068602361103440881 -0.059948415299997615 0 0.068602361103440881 -0.059948415299997615 0 0.06872452446109846 -0.059187969325915649 0 0.069917382902061925 -0.060215599079646825 0 0.069457419691965491 -0.056368223661537445 0 0.068216984375758308 -0.057766024418590085 0 0.069715779501058658 -0.058454020209429587 0 0.06872452446109846 -0.059187969325915649 0 0.068216984375758308 -0.057766024418590085 0 0.069715779501058658 -0.058454020209429587 0 0.069457419691965491 -0.056368223661537445 0 0.069715779501058658 -0.058454020209429587 0 0.071096606029640103 -0.057911637484030103 0 0.069715779501058658 -0.058454020209429587 0 0.071096606029640103 -0.057911637484030103 0 0.070868623326797983 -0.059249311575336375 0 0.071096606029640103 -0.057911637484030103 0 0.07245359746793785 -0.059151816440081058 0 0.070868623326797983 -0.059249311575336375 0 0.071096606029640103 -0.057911637484030103 0 0.07245359746793785 -0.059151816440081058 0 0.07325912915875811 -0.057538308039691066 0 0.07245359746793785 -0.059151816440081058 0 0.073455297391405092 -0.060811566633709291 0 0.071508654420480613 -0.060631294616911857 0 0.07245359746793785 -0.059151816440081058 0 0.070868623326797983 -0.059249311575336375 0 0.071508654420480613 -0.060631294616911857 0 0.069917382902061925 -0.060215599079646825 0 0.070868623326797983 -0.059249311575336375 0 0.071508654420480613 -0.060631294616911857 0 0.069715779501058658 -0.058454020209429587 0 0.069917382902061925 -0.060215599079646825 0 0.070868623326797983 -0.059249311575336375 0 0.075598698542310744 -0.058070980427940351 0 0.07325912915875811 -0.057538308039691066 0 0.074148142734747013 -0.05903194139948905 0 0.07245359746793785 -0.059151816440081058 0 0.07325912915875811 -0.057538308039691066 0 0.074148142734747013 -0.05903194139948905 0 0.07245359746793785 -0.059151816440081058 0 0.074148142734747013 -0.05903194139948905 0 0.073455297391405092 -0.060811566633709291 0 0.074148142734747013 -0.05903194139948905 0 0.075590569860239529 -0.06008365049031128 0 0.073455297391405092 -0.060811566633709291 0 0.075598698542310744 -0.058070980427940351 0 0.074148142734747013 -0.05903194139948905 0 0.075590569860239529 -0.06008365049031128 0 0.075590569860239529 -0.06008365049031128 0 0.073455297391405092 -0.060811566633709291 0 0.075506450108533782 -0.061874204427357284 0 0.090023295880563334 -0.046170720176607526 0 0.090520161882683289 -0.047282336541616996 0 0.090305079262928689 -0.046537220486373487 0 0.079915302330317711 -0.053600144557931002 0 0.081841611178913393 -0.05403472171594316 0 0.073455297391405092 -0.060811566633709291 0 0.073016256651629571 -0.063100692409848447 0 0.075506450108533782 -0.061874204427357284 0 0.090520161882683289 -0.047282336541616996 0 0.090247942214518442 -0.046436270469193297 0 0.090305079262928689 -0.046537220486373487 0 0.069917382902061925 -0.060215599079646825 0 0.070446939829041308 -0.061567473615398174 0 0.071508654420480613 -0.060631294616911857 0 0.068773706728485734 -0.061225523965619089 0 0.069917382902061925 -0.060215599079646825 0 0.070446939829041308 -0.061567473615398174 0 0.073455297391405092 -0.060811566633709291 0 0.071508654420480613 -0.060631294616911857 0 0.071768151707963329 -0.061971777467051722 0 0.070446939829041308 -0.061567473615398174 0 0.071508654420480613 -0.060631294616911857 0 0.071768151707963329 -0.061971777467051722 0 0.073016256651629571 -0.063100692409848447 0 0.071768151707963329 -0.061971777467051722 0 0.070391275403682077 -0.063439693352546858 0 0.073455297391405092 -0.060811566633709291 0 0.073016256651629571 -0.063100692409848447 0 0.071768151707963329 -0.061971777467051722 0 0.070446939829041308 -0.061567473615398174 0 0.071768151707963329 -0.061971777467051722 0 0.070391275403682077 -0.063439693352546858 0 0.060595145818059963 -0.065960976314915487 0 0.063895397985621091 -0.066088422259262217 0 0.067556590235030842 -0.062706655423781524 0 0.070391275403682077 -0.063439693352546858 0 0.068866263600881258 -0.063698810054781466 0 0.068773706728485734 -0.061225523965619089 0 0.070446939829041308 -0.061567473615398174 0 0.070391275403682077 -0.063439693352546858 0 0.070391275403682077 -0.063439693352546858 0 0.070036291132967263 -0.064517903836665752 0 0.068866263600881258 -0.063698810054781466 0 0.070036291132967263 -0.064517903836665752 0 0.068866263600881258 -0.063698810054781466 0 0.067436194187514106 -0.064127564189738084 0 0.090023295880563334 -0.046170720176607526 0 0.087842977672616437 -0.046583986737200135 0 0.089988456129144315 -0.046665685151717311 0 0.087842977672616437 -0.046583986737200135 0 0.087871842909348408 -0.047351576373283764 0 0.089988456129144315 -0.046665685151717311 0 0.073016256651629571 -0.063100692409848447 0 0.070391275403682077 -0.063439693352546858 0 0.070036291132967263 -0.064517903836665752 0 0.082763403323093315 -0.048089878882922682 0 0.086855962208419374 -0.047265808524433052 0 0.079915302330317711 -0.053600144557931002 0 0.075080467981910981 -0.053131130635133215 0 0.088332741768972378 -0.046705838575340629 0 0.089161218920848051 -0.046993166718580802 0 0.089988456129144315 -0.046665685151717311 0 0.089161218920848051 -0.046993166718580802 0 0.089671562631018595 -0.046934155338227881 0 0.089988456129144315 -0.046665685151717311 0 0.089161218920848051 -0.046993166718580802 0 0.089671562631018595 -0.046934155338227881 0 0.08969702309381479 -0.047339825827210635 0 0.089671562631018595 -0.046934155338227881 0 0.08969702309381479 -0.047339825827210635 0 0.089973929786463597 -0.046767402041479354 0 0.089161218920848051 -0.046993166718580802 0 0.08969702309381479 -0.047339825827210635 0 0.089297976923294581 -0.047838088496289816 0 0.089161218920848051 -0.046993166718580802 0 0.088575242573700627 -0.047372756871519345 0 0.089297976923294581 -0.047838088496289816 0 0.088575242573700627 -0.047372756871519345 0 0.0880322796712147 -0.047195972392749981 0 0.087720111867354442 -0.04775680817562495 0 0.088332741768972378 -0.046705838575340629 0 0.0880322796712147 -0.047195972392749981 0 0.088525703135226202 -0.047065595763588403 0 0.089161218920848051 -0.046993166718580802 0 0.088575242573700627 -0.047372756871519345 0 0.088525703135226202 -0.047065595763588403 0 0.088332741768972378 -0.046705838575340629 0 0.089161218920848051 -0.046993166718580802 0 0.088525703135226202 -0.047065595763588403 0 0.088575242573700627 -0.047372756871519345 0 0.0880322796712147 -0.047195972392749981 0 0.088525703135226202 -0.047065595763588403 0 0.090247942214518442 -0.046436270469193297 0 0.09022870931498321 -0.046545900004636862 0 0.090305079262928689 -0.046537220486373487 0 0.090247942214518442 -0.046436270469193297 0 0.09022870931498321 -0.046545900004636862 0 0.090204275078904148 -0.046489082668599427 0 0.090146936245134271 -0.046627265462623982 0 0.090305079262928689 -0.046537220486373487 0 0.089988456129144315 -0.046665685151717311 0 0.090146936245134271 -0.046627265462623982 0 0.089973929786463597 -0.046767402041479354 0 0.090162840539030481 -0.046604689515245407 0 0.09022870931498321 -0.046545900004636862 0 0.090146936245134271 -0.046627265462623982 0 0.090305079262928689 -0.046537220486373487 0 0.09022870931498321 -0.046545900004636862 0 0.090146936245134271 -0.046627265462623982 0 0.090162840539030481 -0.046604689515245407 0 0.090023295880563334 -0.046170720176607526 0 0.090305079262928689 -0.046537220486373487 0 0.089988456129144315 -0.046665685151717311 0 0.090146936245134271 -0.046627265462623982 0 0.089988456129144315 -0.046665685151717311 0 0.089973929786463597 -0.046767402041479354 0 0.089671562631018595 -0.046934155338227881 0 0.089988456129144315 -0.046665685151717311 0 0.089973929786463597 -0.046767402041479354 0 0.089973929786463597 -0.046767402041479354 0 0.090162840539030481 -0.046604689515245407 0 0.090227019162240338 -0.046513575059348146 0 0.08969702309381479 -0.047339825827210635 0 0.089973929786463597 -0.046767402041479354 0 0.090508532168103395 -0.047734862439468485 0 0.08969702309381479 -0.047339825827210635 0 0.090508532168103395 -0.047734862439468485 0 0.089297976923294581 -0.047838088496289816 0 0.091215370060229103 -0.042013834835042341 0 0.090276094203561252 -0.039377488200925279 0 0.090162840539030481 -0.046604689515245407 0 0.090193769165483648 -0.046514352089684179 0 0.090227019162240338 -0.046513575059348146 0 0.090087902089483252 -0.039762459321860878 0 0.090276094203561252 -0.039377488200925279 0 0.09017455443122778 -0.046417782255389707 0 0.090247942214518442 -0.046436270469193297 0 0.090204275078904148 -0.046489082668599427 0 0.09017455443122778 -0.046417782255389707 0 0.090193769165483648 -0.046514352089684179 0 0.090188890725415999 -0.04645181497759078 0 0.090199266267894665 -0.046544882744124612 0 0.090193769165483648 -0.046514352089684179 0 0.090204275078904148 -0.046489082668599427 0 0.09022870931498321 -0.046545900004636862 0 0.090199266267894665 -0.046544882744124612 0 0.090204275078904148 -0.046489082668599427 0 0.09022870931498321 -0.046545900004636862 0 0.090162840539030481 -0.046604689515245407 0 0.090199266267894665 -0.046544882744124612 0 0.090162840539030481 -0.046604689515245407 0 0.090199266267894665 -0.046544882744124612 0 0.090193769165483648 -0.046514352089684179 0 0.09017455443122778 -0.046417782255389707 0 0.090193769165483648 -0.046514352089684179 0 0.090204275078904148 -0.046489082668599427 0 0.088645132368427595 -0.040552977722878955 0 0.090064216159386368 -0.0343087073189886 0 0.092079426943591114 -0.043390182916415256 0 0.091843894558437861 -0.04141998682935346 0 0.093969224189049932 -0.040805108319658799 0 0.090193769165483648 -0.046514352089684179 0 0.090188890725415999 -0.04645181497759078 0 0.090208053862928517 -0.046490840712865272 0 0.091843894558437861 -0.04141998682935346 0 0.0917649901897407 -0.039932146212256978 0 0.093969224189049932 -0.040805108319658799 0 0.090064216159386368 -0.0343087073189886 0 0.090276094203561252 -0.039377488200925279 0 0.090276094203561252 -0.039377488200925279 0 0.088860387726662965 -0.034778949042297315 0 0.088402979395034068 -0.026342934264844624 0 0.090539758236887841 -0.02983874788520403 0 0.09538303296911628 -0.023266192131860763 0 0.090508532168103395 -0.047734862439468485 0 0.089297976923294581 -0.047838088496289816 0 0.089549384791432748 -0.048920678805723081 0 0.090064216159386368 -0.0343087073189886 0 0.094663194734379827 -0.023876924619140365 0 0.088402979395034068 -0.026342934264844624 0 0.092957249743770801 -0.020142999946749653 0 0.09538303296911628 -0.023266192131860763 0 0.090038359227388939 -0.024229365723449879 0 0.093806173094027376 -0.019097964596050388 0 0.090318683288560339 -0.017608650072836712 0 0.0917649901897407 -0.039932146212256978 0 0.093969224189049932 -0.040805108319658799 0 0.092178921907768288 -0.037864319292003956 0 0.090038359227388939 -0.024229365723449879 0 0.090318683288560339 -0.017608650072836712 0 0.086695451381023039 -0.018737465123316963 0 0.090064216159386368 -0.0343087073189886 0 0.088605357161586143 -0.029165306700919692 0 0.088575242573700627 -0.047372756871519345 0 0.088295854051256104 -0.048632481449482581 0 0.089297976923294581 -0.047838088496289816 0 0.088575242573700627 -0.047372756871519345 0 0.088295854051256104 -0.048632481449482581 0 0.087720111867354442 -0.04775680817562495 0 0.088295854051256104 -0.048632481449482581 0 0.089297976923294581 -0.047838088496289816 0 0.089549384791432748 -0.048920678805723081 0 0.088860387726662965 -0.034778949042297315 0 0.083722847517259044 -0.031693064562267073 0 0.088295854051256104 -0.048632481449482581 0 0.089549384791432748 -0.048920678805723081 0 0.088552754795530056 -0.05007166359769176 0 0.092957249743770801 -0.020142999946749653 0 0.09538303296911628 -0.023266192131860763 0 0.10003848346112885 -0.016747634960105159 0 0.088295854051256104 -0.048632481449482581 0 0.087359344665037197 -0.049861798428718303 0 0.088552754795530056 -0.05007166359769176 0 0.061650805247292377 -0.052237285954341024 0 0.063310291382706788 -0.050026153070075949 0 0.031810829485758724 -0.058412007045307184 0 0.03207460191662212 -0.058107969687788162 0 0.032245792274940448 -0.058564629342097926 0 0.088295854051256104 -0.048632481449482581 0 0.087051148763615846 -0.048498284540583664 0 0.087359344665037197 -0.049861798428718303 0 0.031810829485758724 -0.058412007045307184 0 0.031662673076043431 -0.058196166848833775 0 0.03207460191662212 -0.058107969687788162 0 0.031810829485758724 -0.058412007045307184 0 0.031662673076043431 -0.058196166848833775 0 0.031488944409714469 -0.058470070624799447 0 0.031662673076043431 -0.058196166848833775 0 0.031737835083626931 -0.057930667094719765 0 0.03207460191662212 -0.058107969687788162 0 0.031737835083626931 -0.057930667094719765 0 0.03207460191662212 -0.058107969687788162 0 0.031983891029443615 -0.057607351178539198 0 0.031662673076043431 -0.058196166848833775 0 0.031737835083626931 -0.057930667094719765 0 0.031458727766636468 -0.058051608745460032 0 0.088295854051256104 -0.048632481449482581 0 0.087051148763615846 -0.048498284540583664 0 0.087720111867354442 -0.04775680817562495 0 0.087051148763615846 -0.048498284540583664 0 0.087720111867354442 -0.04775680817562495 0 0.086671679640033195 -0.04704996673101175 0 0.061650805247292377 -0.052237285954341024 0 0.060812887666283282 -0.052531813209545308 0 0.082763403323093315 -0.048089878882922682 0 0.060812887666283282 -0.052531813209545308 0 0.0880322796712147 -0.047195972392749981 0 0.087720111867354442 -0.04775680817562495 0 0.086671679640033195 -0.04704996673101175 0 0.088332741768972378 -0.046705838575340629 0 0.0880322796712147 -0.047195972392749981 0 0.086671679640033195 -0.04704996673101175 0 0.087871842909348408 -0.047351576373283764 0 0.084620562138093089 -0.048019835853902931 0 0.084554000420806144 -0.047702012511585103 0 0.031737835083626931 -0.057930667094719765 0 0.0316931145225487 -0.057668217516723574 0 0.031983891029443615 -0.057607351178539198 0 0.031737835083626931 -0.057930667094719765 0 0.0316931145225487 -0.057668217516723574 0 0.031482968158731257 -0.057727172509850593 0 0.051427454833156687 -0.055400782777573453 0 0.06026712216124902 -0.053910586381155944 0 0.032450182985771445 -0.057815664960400089 0 0.032990480131956608 -0.057592977969762142 0 0.032442306632197639 -0.057240246045152994 0 0.054125102137504773 -0.054157325361418554 0 0.060552461229513431 -0.052849513651277012 0 0.06025127166563557 -0.051488981759354957 0 0.051427454833156687 -0.055400782777573453 0 0.060812887666283282 -0.052531813209545308 0 0.060812887666283282 -0.052531813209545308 0 0.06026712216124902 -0.053910586381155944 0 0.06026712216124902 -0.053910586381155944 0 0.053819111856973342 -0.058527307107486895 0 0.032990480131956608 -0.057592977969762142 0 0.032442306632197639 -0.057240246045152994 0 0.032803823397112727 -0.05685140390210628 0 0.065654489631205723 -0.066342743741362162 0 0.0650276452690908 -0.063518687665505419 0 0.067436194187514106 -0.064127564189738084 0 0.03230473190508195 -0.056678267791746263 0 0.032442306632197639 -0.057240246045152994 0 0.032803823397112727 -0.05685140390210628 0 0.070036291132967263 -0.064517903836665752 0 0.065654489631205723 -0.066342743741362162 0 0.067436194187514106 -0.064127564189738084 0 0.087842977672616437 -0.046583986737200135 0 0.087871842909348408 -0.047351576373283764 0 0.084554000420806144 -0.047702012511585103 0 0.075080467981910981 -0.053131130635133215 0 0.06026712216124902 -0.053910586381155944 0 0.067556590235030842 -0.062706655423781524 0 0.068866263600881258 -0.063698810054781466 0 0.067436194187514106 -0.064127564189738084 0 0.03158150219911799 -0.057451161823835153 0 0.031080311254860347 -0.05734955397452781 0 0.03148111332977778 -0.056976003113999751 0 0.030970899320698058 -0.056750017407365967 0 0.031080311254860347 -0.05734955397452781 0 0.03148111332977778 -0.056976003113999751 0 0.03158150219911799 -0.057451161823835153 0 0.03148111332977778 -0.056976003113999751 0 0.031980964313092775 -0.057076652964792307 0 0.03230473190508195 -0.056678267791746263 0 0.032442306632197639 -0.057240246045152994 0 0.031980964313092775 -0.057076652964792307 0 0.032450182985771445 -0.057815664960400089 0 0.032442306632197639 -0.057240246045152994 0 0.032099624468304791 -0.057486165909738485 0 0.032442306632197639 -0.057240246045152994 0 0.031980964313092775 -0.057076652964792307 0 0.032099624468304791 -0.057486165909738485 0 0.03158150219911799 -0.057451161823835153 0 0.031980964313092775 -0.057076652964792307 0 0.032099624468304791 -0.057486165909738485 0 0.03158150219911799 -0.057451161823835153 0 0.032099624468304791 -0.057486165909738485 0 0.03205297126452749 -0.057882598750235714 0 0.051427454833156687 -0.055400782777573453 0 0.044554051450798902 -0.056588291317279014 0 0.032450182985771445 -0.057815664960400089 0 0.032099624468304791 -0.057486165909738485 0 0.03205297126452749 -0.057882598750235714 0 0.044554051450798902 -0.056588291317279014 0 0.038567225087131743 -0.05759788280751315 0 0.03158150219911799 -0.057451161823835153 0 0.03205297126452749 -0.057882598750235714 0 0.031061123351913574 -0.057930313448997635 0 0.03158150219911799 -0.057451161823835153 0 0.031080311254860347 -0.05734955397452781 0 0.031061123351913574 -0.057930313448997635 0 0.031482968158731257 -0.057727172509850593 0 0.031061123351913574 -0.057930313448997635 0 0.031159071789448111 -0.058121806489251165 0 0.031061123351913574 -0.057930313448997635 0 0.031159071789448111 -0.058121806489251165 0 0.030850051391079228 -0.058298611409563696 0 0.031159071789448111 -0.058121806489251165 0 0.030850051391079228 -0.058298611409563696 0 0.031242237749369416 -0.058275673663268523 0 0.031662673076043431 -0.058196166848833775 0 0.031458727766636468 -0.058051608745460032 0 0.031242237749369416 -0.058275673663268523 0 0.031482968158731257 -0.057727172509850593 0 0.031159071789448111 -0.058121806489251165 0 0.031458727766636468 -0.058051608745460032 0 0.031737835083626931 -0.057930667094719765 0 0.031482968158731257 -0.057727172509850593 0 0.031458727766636468 -0.058051608745460032 0 0.031159071789448111 -0.058121806489251165 0 0.031458727766636468 -0.058051608745460032 0 0.031242237749369416 -0.058275673663268523 0 0.031662673076043431 -0.058196166848833775 0 0.031242237749369416 -0.058275673663268523 0 0.031488944409714469 -0.058470070624799447 0 0.031242237749369416 -0.058275673663268523 0 0.031488944409714469 -0.058470070624799447 0 0.030980500950538125 -0.058572303803171008 0 0.030459020298157665 -0.058616475706437118 0 0.030850051391079228 -0.058298611409563696 0 0.030980500950538125 -0.058572303803171008 0 0.030850051391079228 -0.058298611409563696 0 0.031242237749369416 -0.058275673663268523 0 0.030980500950538125 -0.058572303803171008 0 0.030459020298157665 -0.058616475706437118 0 0.030980500950538125 -0.058572303803171008 0 0.030592660521711858 -0.058778391019689152 0 0.030980500950538125 -0.058572303803171008 0 0.031037804356833641 -0.05895334227343281 0 0.030592660521711858 -0.058778391019689152 0 0.030980500950538125 -0.058572303803171008 0 0.031443153294434902 -0.058723914405107436 0 0.031037804356833641 -0.05895334227343281 0 0.031488944409714469 -0.058470070624799447 0 0.030980500950538125 -0.058572303803171008 0 0.031443153294434902 -0.058723914405107436 0 0.031488944409714469 -0.058470070624799447 0 0.031443153294434902 -0.058723914405107436 0 0.031769345199223621 -0.058657025762414716 0 0.03154065359985464 -0.059053789506874829 0 0.031072776876806985 -0.059324634714086812 0 0.032017615325619475 -0.059410909512467476 0 0.031443153294434902 -0.058723914405107436 0 0.03154065359985464 -0.059053789506874829 0 0.031037804356833641 -0.05895334227343281 0 0.03154065359985464 -0.059053789506874829 0 0.031037804356833641 -0.05895334227343281 0 0.031072776876806985 -0.059324634714086812 0 0.031037804356833641 -0.05895334227343281 0 0.030703272615229177 -0.059004843689235954 0 0.030592660521711858 -0.058778391019689152 0 0.031037804356833641 -0.05895334227343281 0 0.030703272615229177 -0.059004843689235954 0 0.031072776876806985 -0.059324634714086812 0 0.033853879102515284 -0.060395644997218494 0 0.036580000804109981 -0.058224153104543722 0 0.036216574624729853 -0.063137950585475902 0 0.036022644700955508 -0.052058714410913781 0 0.033743981947440285 -0.053335642668581922 0 0.030703272615229177 -0.059004843689235954 0 0.031072776876806985 -0.059324634714086812 0 0.030455916705557584 -0.05909298675750542 0 0.033853879102515284 -0.060395644997218494 0 0.036580000804109981 -0.058224153104543722 0 0.031593274922074276 -0.059256035669948609 0 0.036580000804109981 -0.058224153104543722 0 0.031593274922074276 -0.059256035669948609 0 0.030455916705557584 -0.05909298675750542 0 0.033853879102515284 -0.060395644997218494 0 0.036216574624729853 -0.063137950585475902 0 0.03037822346121655 -0.060575094893495073 0 0.04348935109178674 -0.039531859095691887 0 0.038848636136816272 -0.046497846628461757 0 0.036022644700955508 -0.052058714410913781 0 0.043034202416866701 -0.04776030998908018 0 0.036580000804109981 -0.058224153104543722 0 0.041318217840489078 -0.060102606383741604 0 0.04314122185629795 -0.057741881837543037 0 0.036580000804109981 -0.058224153104543722 0 0.041318217840489078 -0.060102606383741604 0 0.040367054324902556 -0.062264919398943505 0 0.036580000804109981 -0.058224153104543722 0 0.040367054324902556 -0.062264919398943505 0 0.036216574624729853 -0.063137950585475902 0 0.04348935109178674 -0.039531859095691887 0 0.052087932805788779 -0.032109888473926144 0 0.044481837034312868 -0.022804706000972091 0 0.046149541244135332 -0.023574365302208647 0 0.044715385142130359 -0.023865718180737339 0 0.040367054324902556 -0.062264919398943505 0 0.036216574624729853 -0.063137950585475902 0 0.042442085166318332 -0.065900356012664474 0 0.044481837034312868 -0.022804706000972091 0 0.042817051139655178 -0.022067523236632629 0 0.043385237820117939 -0.023242551412903243 0 0.044481837034312868 -0.022804706000972091 0 0.044015929240183604 -0.023665831898399343 0 0.044715385142130359 -0.023865718180737339 0 0.044481837034312868 -0.022804706000972091 0 0.044015929240183604 -0.023665831898399343 0 0.043385237820117939 -0.023242551412903243 0 0.044015929240183604 -0.023665831898399343 0 0.043385237820117939 -0.023242551412903243 0 0.043405234567874436 -0.023895457176441932 0 0.061103263156289875 -0.02204622301241134 0 0.057660033317353677 -0.020331412519093824 0 0.059864622845138341 -0.019267747959904685 0 0.061103263156289875 -0.02204622301241134 0 0.059864622845138341 -0.019267747959904685 0 0.061931837886856939 -0.019022256653097244 0 0.061103263156289875 -0.02204622301241134 0 0.057660033317353677 -0.020331412519093824 0 0.057595756797729054 -0.023924655773160844 0 0.057660033317353677 -0.020331412519093824 0 0.057595756797729054 -0.023924655773160844 0 0.055184306322620724 -0.022154890726302692 0 0.057660033317353677 -0.020331412519093824 0 0.058189442333170853 -0.01767017432908613 0 0.054048536048328717 -0.016947269337241017 0 0.057660033317353677 -0.020331412519093824 0 0.058189442333170853 -0.01767017432908613 0 0.059864622845138341 -0.019267747959904685 0 0.058189442333170853 -0.01767017432908613 0 0.059864622845138341 -0.019267747959904685 0 0.060351929707997048 -0.01694685283078487 0 0.059864622845138341 -0.019267747959904685 0 0.061731383420949713 -0.018023267692930552 0 0.061931837886856939 -0.019022256653097244 0 0.060351929707997048 -0.01694685283078487 0 0.061731383420949713 -0.018023267692930552 0 0.062136689053534658 -0.016691901327495224 0 0.059864622845138341 -0.019267747959904685 0 0.060351929707997048 -0.01694685283078487 0 0.061731383420949713 -0.018023267692930552 0 0.05571812521636875 -0.037405319000056551 0 0.052730291838656539 -0.030877688123999606 0 0.061103263156289875 -0.02204622301241134 0 0.061931837886856939 -0.019022256653097244 0 0.065033101469762614 -0.016753029782754152 0 0.061731383420949713 -0.018023267692930552 0 0.061931837886856939 -0.019022256653097244 0 0.065033101469762614 -0.016753029782754152 0 0.061731383420949713 -0.018023267692930552 0 0.065033101469762614 -0.016753029782754152 0 0.062136689053534658 -0.016691901327495224 0 0.052087932805788779 -0.032109888473926144 0 0.049109885860525622 -0.037165716677221926 0 0.042442085166318332 -0.065900356012664474 0 0.042487757277762481 -0.063334114393791385 0 0.044546213908598233 -0.06311446284387548 0 0.042580191341961338 -0.065632026670809307 0 0.044546213908598233 -0.06311446284387548 0 0.043195653539134043 -0.065924747006672918 0 0.052087932805788779 -0.032109888473926144 0 0.052730291838656539 -0.030877688123999606 0 0.040367054324902556 -0.062264919398943505 0 0.042442085166318332 -0.065900356012664474 0 0.042487757277762481 -0.063334114393791385 0 0.042599150424151133 -0.062061711834057939 0 0.044546213908598233 -0.06311446284387548 0 0.043952163750278078 -0.060809911766046262 0 0.042487757277762481 -0.063334114393791385 0 0.042599150424151133 -0.062061711834057939 0 0.044546213908598233 -0.06311446284387548 0 0.040367054324902556 -0.062264919398943505 0 0.042487757277762481 -0.063334114393791385 0 0.042599150424151133 -0.062061711834057939 0 0.046357981235581693 -0.061844305192728037 0 0.044546213908598233 -0.06311446284387548 0 0.043195653539134043 -0.065924747006672918 0 0.046357981235581693 -0.061844305192728037 0 0.044546213908598233 -0.06311446284387548 0 0.043952163750278078 -0.060809911766046262 0 0.046357981235581693 -0.061844305192728037 0 0.043952163750278078 -0.060809911766046262 0 0.045188640806487136 -0.059931290350665967 0 0.043952163750278078 -0.060809911766046262 0 0.045188640806487136 -0.059931290350665967 0 0.04314122185629795 -0.057741881837543037 0 0.046357981235581693 -0.061844305192728037 0 0.045188640806487136 -0.059931290350665967 0 0.046433470773245923 -0.058945859709233148 0 0.041318217840489078 -0.060102606383741604 0 0.043952163750278078 -0.060809911766046262 0 0.04314122185629795 -0.057741881837543037 0 0.041318217840489078 -0.060102606383741604 0 0.042599150424151133 -0.062061711834057939 0 0.043952163750278078 -0.060809911766046262 0 0.041318217840489078 -0.060102606383741604 0 0.040367054324902556 -0.062264919398943505 0 0.042599150424151133 -0.062061711834057939 0 0.045188640806487136 -0.059931290350665967 0 0.04314122185629795 -0.057741881837543037 0 0.046433470773245923 -0.058945859709233148 0 0.043034202416866701 -0.04776030998908018 0 0.062394574912060324 -0.038437817644826774 0 0.04314122185629795 -0.057741881837543037 0 0.046433470773245923 -0.058945859709233148 0 0.049718804094570961 -0.057401575964052515 0 0.046357981235581693 -0.061844305192728037 0 0.046433470773245923 -0.058945859709233148 0 0.049718804094570961 -0.057401575964052515 0 0.05571812521636875 -0.037405319000056551 0 0.062394574912060324 -0.038437817644826774 0 0.057595756797729054 -0.023924655773160844 0 0.056345767856217595 -0.027386381162573123 0 0.055184306322620724 -0.022154890726302692 0 0.061103263156289875 -0.02204622301241134 0 0.057595756797729054 -0.023924655773160844 0 0.057201417143728159 -0.027347854966010585 0 0.057595756797729054 -0.023924655773160844 0 0.057201417143728159 -0.027347854966010585 0 0.056345767856217595 -0.027386381162573123 0 0.062394574912060324 -0.038437817644826774 0 0.065478164957904358 -0.036452112941261099 0 0.075473524220409191 -0.02978442264370006 0 0.064757794394815965 -0.030257717369396316 0 0.06717264292299184 -0.040726646680154112 0 0.065101654914709622 -0.037684347037156209 0 0.063310291382706788 -0.050026153070075949 0 0.033322361588320387 -0.059345748486567602 0 0.033438658575043703 -0.059197685290024782 0 0.032327615581206955 -0.05882146844308439 0 0.065101654914709622 -0.037684347037156209 0 0.047640809150092341 -0.041468027611816859 0 0.032467511673072935 -0.059090490211153673 0 0.031954280527996273 -0.058935963609873687 0 0.032245792274940448 -0.058564629342097926 0 0.065478164957904358 -0.036452112941261099 0 0.065101654914709622 -0.037684347037156209 0 0.062394574912060324 -0.038437817644826774 0 0.065101654914709622 -0.037684347037156209 0 0.043343947781714132 -0.043032438831279558 0 0.047640809150092341 -0.041468027611816859 0 0.03154065359985464 -0.059053789506874829 0 0.032017615325619475 -0.059410909512467476 0 0.032327615581206955 -0.05882146844308439 0 0.031443153294434902 -0.058723914405107436 0 0.03154065359985464 -0.059053789506874829 0 0.032327615581206955 -0.05882146844308439 0 0.032017615325619475 -0.059410909512467476 0 0.033322361588320387 -0.059345748486567602 0 0.032327615581206955 -0.05882146844308439 0 0.031443153294434902 -0.058723914405107436 0 0.031954280527996273 -0.058935963609873687 0 0.031769345199223621 -0.058657025762414716 0 0.031810829485758724 -0.058412007045307184 0 0.031769345199223621 -0.058657025762414716 0 0.032245792274940448 -0.058564629342097926 0 0.031954280527996273 -0.058935963609873687 0 0.031769345199223621 -0.058657025762414716 0 0.032245792274940448 -0.058564629342097926 0 0.031810829485758724 -0.058412007045307184 0 0.031488944409714469 -0.058470070624799447 0 0.031769345199223621 -0.058657025762414716 0 0.087605442547683085 -0.051174516518989667 0 0.087359344665037197 -0.049861798428718303 0 0.088552754795530056 -0.05007166359769176 0 0.094663194734379827 -0.023876924619140365 0 0.096539682005631663 -0.020135815921503795 0 0.092957249743770801 -0.020142999946749653 0 0.10003848346112885 -0.016747634960105159 0 0.097481871420778771 -0.014115245622548919 0 0.10003848346112885 -0.016747634960105159 0 0.097481871420778771 -0.014115245622548919 0 0.1002996653978362 -0.012286570831681685 0 0.097481871420778771 -0.014115245622548919 0 0.095504445908983243 -0.011490301068074573 0 0.094244283512383578 -0.013251921111001872 0 0.097481871420778771 -0.014115245622548919 0 0.095504445908983243 -0.011490301068074573 0 0.097396557636905343 -0.011102811107992879 0 0.095504445908983243 -0.011490301068074573 0 0.097396557636905343 -0.011102811107992879 0 0.095035869904986067 -0.0094380266667146891 0 0.097396557636905343 -0.011102811107992879 0 0.1002996653978362 -0.012286570831681685 0 0.10026123481615558 -0.010508778176579095 0 0.097481871420778771 -0.014115245622548919 0 0.097396557636905343 -0.011102811107992879 0 0.1002996653978362 -0.012286570831681685 0 0.10399459338941096 -0.010981548880350741 0 0.10003848346112885 -0.016747634960105159 0 0.1002996653978362 -0.012286570831681685 0 0.065101654914709622 -0.037684347037156209 0 0.083722847517259044 -0.031693064562267073 0 0.1002996653978362 -0.012286570831681685 0 0.10268909235853592 -0.010395940914639806 0 0.10026123481615558 -0.010508778176579095 0 0.10399459338941096 -0.010981548880350741 0 0.1002996653978362 -0.012286570831681685 0 0.10268909235853592 -0.010395940914639806 0 0.065101654914709622 -0.037684347037156209 0 0.069708922568767984 -0.034920893987361652 0 0.088004849318951167 -0.015447478056299379 0 0.090318683288560339 -0.017608650072836712 0 0.086695451381023039 -0.018737465123316963 0 0.088004849318951167 -0.015447478056299379 0 0.090318683288560339 -0.017608650072836712 0 0.091170202452913296 -0.013949757645534961 0 0.093806173094027376 -0.019097964596050388 0 0.097481871420778771 -0.014115245622548919 0 0.093422825975306503 -0.015601618913133553 0 0.090318683288560339 -0.017608650072836712 0 0.093422825975306503 -0.015601618913133553 0 0.091170202452913296 -0.013949757645534961 0 0.093806173094027376 -0.019097964596050388 0 0.090318683288560339 -0.017608650072836712 0 0.093422825975306503 -0.015601618913133553 0 0.097481871420778771 -0.014115245622548919 0 0.093422825975306503 -0.015601618913133553 0 0.094244283512383578 -0.013251921111001872 0 0.095504445908983243 -0.011490301068074573 0 0.093015888076508277 -0.011100279029953487 0 0.095035869904986067 -0.0094380266667146891 0 0.095504445908983243 -0.011490301068074573 0 0.094244283512383578 -0.013251921111001872 0 0.093015888076508277 -0.011100279029953487 0 0.093015888076508277 -0.011100279029953487 0 0.090176505473580151 -0.011803785490921795 0 0.090865822233114332 -0.009770462799123374 0 0.093015888076508277 -0.011100279029953487 0 0.091170202452913296 -0.013949757645534961 0 0.090176505473580151 -0.011803785490921795 0 0.094244283512383578 -0.013251921111001872 0 0.093015888076508277 -0.011100279029953487 0 0.091170202452913296 -0.013949757645534961 0 0.093422825975306503 -0.015601618913133553 0 0.094244283512383578 -0.013251921111001872 0 0.091170202452913296 -0.013949757645534961 0 0.091170202452913296 -0.013949757645534961 0 0.090176505473580151 -0.011803785490921795 0 0.088123092743401341 -0.012814398396851867 0 0.090176505473580151 -0.011803785490921795 0 0.088123092743401341 -0.012814398396851867 0 0.087993836189779351 -0.0098934532603028522 0 0.088123092743401341 -0.012814398396851867 0 0.087993836189779351 -0.0098934532603028522 0 0.085502043348251303 -0.011382130463102699 0 0.088004849318951167 -0.015447478056299379 0 0.088123092743401341 -0.012814398396851867 0 0.086782023287698976 -0.013705306979026888 0 0.088004849318951167 -0.015447478056299379 0 0.091170202452913296 -0.013949757645534961 0 0.088123092743401341 -0.012814398396851867 0 0.087993836189779351 -0.0098934532603028522 0 0.089638359378823002 -0.0071239950155461574 0 0.086776530056878992 -0.0067172436205358158 0 0.090176505473580151 -0.011803785490921795 0 0.087993836189779351 -0.0098934532603028522 0 0.090865822233114332 -0.009770462799123374 0 0.090865822233114332 -0.009770462799123374 0 0.089638359378823002 -0.0071239950155461574 0 0.092908633393301632 -0.008366934907494265 0 0.087993836189779351 -0.0098934532603028522 0 0.090865822233114332 -0.009770462799123374 0 0.089638359378823002 -0.0071239950155461574 0 0.08338602307378104 -0.010923721144979885 0 0.08208990778909768 -0.017885485843108787 0 0.092908633393301632 -0.008366934907494265 0 0.09199360739003451 -0.0051217125733709051 0 0.096900332800482589 -0.0075928034902381049 0 0.089638359378823002 -0.0071239950155461574 0 0.092908633393301632 -0.008366934907494265 0 0.09199360739003451 -0.0051217125733709051 0 0.093015888076508277 -0.011100279029953487 0 0.090865822233114332 -0.009770462799123374 0 0.092908633393301632 -0.008366934907494265 0 0.092908633393301632 -0.008366934907494265 0 0.095035869904986067 -0.0094380266667146891 0 0.096900332800482589 -0.0075928034902381049 0 0.093015888076508277 -0.011100279029953487 0 0.092908633393301632 -0.008366934907494265 0 0.095035869904986067 -0.0094380266667146891 0 0.084910978559069414 0.0011283475173400363 0 0.084179234269759998 0.00094388585412648102 0 0.085329841517323729 0.0004004799210662269 0 0.084910978559069414 0.0011283475173400363 0 0.084508179969846969 0.001683953521072938 0 0.085391335752891359 0.0017730842258901985 0 0.084910978559069414 0.0011283475173400363 0 0.084508179969846969 0.001683953521072938 0 0.084179234269759998 0.00094388585412648102 0 0.089638359378823002 -0.0071239950155461574 0 0.086776530056878992 -0.0067172436205358158 0 0.087024085893814607 -0.002337220391353239 0 0.084508179969846969 0.001683953521072938 0 0.084179234269759998 0.00094388585412648102 0 0.08307643604419214 0.0011633769424977238 0 0.08338602307378104 -0.010923721144979885 0 0.082447018503811698 -0.0068064047203203956 0 0.089638359378823002 -0.0071239950155461574 0 0.09199360739003451 -0.0051217125733709051 0 0.087024085893814607 -0.002337220391353239 0 0.069708922568767984 -0.034920893987361652 0 0.08208990778909768 -0.017885485843108787 0 0.071825558830371769 -0.025326605695190348 0 0.069593618624795683 -0.024286575675484895 0 0.07192601151257369 -0.023792261907396039 0 0.10255722067528515 -0.010435589780120672 0 0.10026123481615558 -0.010508778176579095 0 0.096755504984161106 -0.0077487178179377154 0 0.065478164957904358 -0.036452112941261099 0 0.069394193701170448 -0.023896786877270024 0 0.072252276877255953 -0.025311826926362187 0 0.071825558830371769 -0.025326605695190348 0 0.07192601151257369 -0.023792261907396039 0 0.065478164957904358 -0.036452112941261099 0 0.069708922568767984 -0.034920893987361652 0 0.065528863237958493 -0.033987404917620048 0 0.06591497454618471 -0.035669858928864394 0 0.062529942659622764 -0.034118326795918343 0 0.069708922568767984 -0.034920893987361652 0 0.0734567636321551 -0.034040635392974382 0 0.097396557636905343 -0.011102811107992879 0 0.10026123481615558 -0.010508778176579095 0 0.096755504984161106 -0.0077487178179377154 0 0.097396557636905343 -0.011102811107992879 0 0.095035869904986067 -0.0094380266667146891 0 0.096755504984161106 -0.0077487178179377154 0 0.083688934258101338 -0.016460930751472543 0 0.08208990778909768 -0.017885485843108787 0 0.084910978559069414 0.0011283475173400363 0 0.085329841517323729 0.0004004799210662269 0 0.085391335752891359 0.0017730842258901985 0 0.08208990778909768 -0.017885485843108787 0 0.0747199780504616 -0.012884087138176655 0 0.085329841517323729 0.0004004799210662269 0 0.085391335752891359 0.0017730842258901985 0 0.08673394473920501 0.0018252689655752392 0 0.069593618624795683 -0.024286575675484895 0 0.07192601151257369 -0.023792261907396039 0 0.071597258481122777 -0.02227925542085589 0 0.069394193701170448 -0.023896786877270024 0 0.0747199780504616 -0.012884087138176655 0 0.057660033317353677 -0.020331412519093824 0 0.055184306322620724 -0.022154890726302692 0 0.054048536048328717 -0.016947269337241017 0 0.08673394473920501 0.0018252689655752392 0 0.085822066532276406 0.0025783874143758285 0 0.086141652395502755 0.0036831787108415914 0 0.086065186237580818 0.0039307822253181199 0 0.086063153798078287 0.0039269990765928549 0 0.086141652395502755 0.0036831787108415914 0 0.0747199780504616 -0.012884087138176655 0 0.075566469255320332 -0.0062981971420186843 0 0.085391335752891359 0.0017730842258901985 0 0.08673394473920501 0.0018252689655752392 0 0.085822066532276406 0.0025783874143758285 0 0.085218163268290875 0.0029339909978284766 0 0.085822066532276406 0.0025783874143758285 0 0.086141652395502755 0.0036831787108415914 0 0.084508179969846969 0.001683953521072938 0 0.085391335752891359 0.0017730842258901985 0 0.085218163268290875 0.0029339909978284766 0 0.085391335752891359 0.0017730842258901985 0 0.085218163268290875 0.0029339909978284766 0 0.085822066532276406 0.0025783874143758285 0 0.085218163268290875 0.0029339909978284766 0 0.085214000740223866 0.0038692868892242966 0 0.085956348768529006 0.0040909770996611196 0 0.085218163268290875 0.0029339909978284766 0 0.086141652395502755 0.0036831787108415914 0 0.085956348768529006 0.0040909770996611196 0 0.086141652395502755 0.0036831787108415914 0 0.085956348768529006 0.0040909770996611196 0 0.086065840129437021 0.0041811284401889384 0 0.086063153798078287 0.0039269990765928549 0 0.086141652395502755 0.0036831787108415914 0 0.086065840129437021 0.0041811284401889384 0 0.084508179969846969 0.001683953521072938 0 0.084177410888223975 0.0023480909600749732 0 0.08307643604419214 0.0011633769424977238 0 0.084177410888223975 0.0023480909600749732 0 0.0835054039583151 0.0026151158833608973 0 0.08307643604419214 0.0011633769424977238 0 0.0835054039583151 0.0026151158833608973 0 0.08307643604419214 0.0011633769424977238 0 0.08271705936866143 0.0022350480483379178 0 0.084508179969846969 0.001683953521072938 0 0.085218163268290875 0.0029339909978284766 0 0.084177410888223975 0.0023480909600749732 0 0.085218163268290875 0.0029339909978284766 0 0.084177410888223975 0.0023480909600749732 0 0.084433207307686053 0.0032764633843202877 0 0.085218163268290875 0.0029339909978284766 0 0.084433207307686053 0.0032764633843202877 0 0.085214000740223866 0.0038692868892242966 0 0.084177410888223975 0.0023480909600749732 0 0.084433207307686053 0.0032764633843202877 0 0.0835054039583151 0.0026151158833608973 0 0.084433207307686053 0.0032764633843202877 0 0.083573349460152033 0.0035295148099439995 0 0.0835054039583151 0.0026151158833608973 0 0.083573349460152033 0.0035295148099439995 0 0.0835054039583151 0.0026151158833608973 0 0.082901339316060557 0.0030593476601633997 0 0.083603328422202861 0.0042807515471419352 0 0.084467324958907852 0.0044513218449911095 0 0.083239685140173936 0.0049629451175766393 0 0.084433207307686053 0.0032764633843202877 0 0.083573349460152033 0.0035295148099439995 0 0.084467324958907852 0.0044513218449911095 0 0.083603328422202861 0.0042807515471419352 0 0.083239685140173936 0.0049629451175766393 0 0.082651228099546031 0.0039808311440988316 0 0.083573349460152033 0.0035295148099439995 0 0.083603328422202861 0.0042807515471419352 0 0.082651228099546031 0.0039808311440988316 0 0.083573349460152033 0.0035295148099439995 0 0.083603328422202861 0.0042807515471419352 0 0.084467324958907852 0.0044513218449911095 0 0.085214000740223866 0.0038692868892242966 0 0.084467324958907852 0.0044513218449911095 0 0.085740180786425382 0.004510216929765486 0 0.084433207307686053 0.0032764633843202877 0 0.085214000740223866 0.0038692868892242966 0 0.084467324958907852 0.0044513218449911095 0 0.085175447386555067 0.0048961563177211788 0 0.083976311283234642 0.0054487483950958196 0 0.084880404633930581 0.0056825713857081373 0 0.084467324958907852 0.0044513218449911095 0 0.085175447386555067 0.0048961563177211788 0 0.085740180786425382 0.004510216929765486 0 0.084467324958907852 0.0044513218449911095 0 0.085175447386555067 0.0048961563177211788 0 0.083976311283234642 0.0054487483950958196 0 0.085175447386555067 0.0048961563177211788 0 0.086099300920655597 0.0049846448301883702 0 0.084880404633930581 0.0056825713857081373 0 0.084467324958907852 0.0044513218449911095 0 0.083976311283234642 0.0054487483950958196 0 0.083239685140173936 0.0049629451175766393 0 0.083976311283234642 0.0054487483950958196 0 0.083239685140173936 0.0049629451175766393 0 0.082439726986840933 0.0055992234081853358 0 0.086065856860793835 0.0044923833600388572 0 0.085956348768529006 0.0040909770996611196 0 0.086065840129437021 0.0041811284401889384 0 0.086089008507871961 0.0045104135047196424 0 0.086065856860793835 0.0044923833600388572 0 0.086101220192368128 0.0047064470921717875 0 0.086089008507871961 0.0045104135047196424 0 0.086065856860793835 0.0044923833600388572 0 0.085956348768529006 0.0040909770996611196 0 0.085214000740223866 0.0038692868892242966 0 0.085956348768529006 0.0040909770996611196 0 0.085740180786425382 0.004510216929765486 0 0.086089008507871961 0.0045104135047196424 0 0.085956348768529006 0.0040909770996611196 0 0.085740180786425382 0.004510216929765486 0 0.086089008507871961 0.0045104135047196424 0 0.085740180786425382 0.004510216929765486 0 0.086290027133405681 0.0048060444572864949 0 0.085740180786425382 0.004510216929765486 0 0.086099300920655597 0.0049846448301883702 0 0.086290027133405681 0.0048060444572864949 0 0.085175447386555067 0.0048961563177211788 0 0.085740180786425382 0.004510216929765486 0 0.086099300920655597 0.0049846448301883702 0 0.086099300920655597 0.0049846448301883702 0 0.086290027133405681 0.0048060444572864949 0 0.086573848370903067 0.0047494262883590347 0 0.086089008507871961 0.0045104135047196424 0 0.086290027133405681 0.0048060444572864949 0 0.086101220192368128 0.0047064470921717875 0 0.086290027133405681 0.0048060444572864949 0 0.086159515690539673 0.0047319043393528777 0 0.086521895617631489 0.0046004195748832405 0 0.086290027133405681 0.0048060444572864949 0 0.086101220192368128 0.0047064470921717875 0 0.086159515690539673 0.0047319043393528777 0 0.086159515690539673 0.0047319043393528777 0 0.085806592487868844 0.0048410024030968489 0 0.085807470539671776 0.0046632537167010466 0 0.085806592487868844 0.0048410024030968489 0 0.085408677768538985 0.0048727185395947194 0 0.085807470539671776 0.0046632537167010466 0 0.086101220192368128 0.0047064470921717875 0 0.086159515690539673 0.0047319043393528777 0 0.085806592487868844 0.0048410024030968489 0 0.086101220192368128 0.0047064470921717875 0 0.085806592487868844 0.0048410024030968489 0 0.085945685717375098 0.004643692276577488 0 0.086065856860793835 0.0044923833600388572 0 0.086101220192368128 0.0047064470921717875 0 0.085945685717375098 0.004643692276577488 0 0.085945685717375098 0.004643692276577488 0 0.085890143351649739 0.004547577385088584 0 0.085712726662386204 0.004832055163491885 0 0.085806592487868844 0.0048410024030968489 0 0.085945685717375098 0.004643692276577488 0 0.085712726662386204 0.004832055163491885 0 0.085945685717375098 0.004643692276577488 0 0.085890143351649739 0.004547577385088584 0 0.086065840129437021 0.0041811284401889384 0 0.086065856860793835 0.0044923833600388572 0 0.085945685717375098 0.004643692276577488 0 0.086065840129437021 0.0041811284401889384 0 0.085890143351649739 0.004547577385088584 0 0.085660669190681243 0.0048616932121504815 0 0.085712726662386204 0.004832055163491885 0 0.085660669190681243 0.0048616932121504815 0 0.085712726662386204 0.004832055163491885 0 0.085363952735584808 0.0050028070955130243 0 0.085806592487868844 0.0048410024030968489 0 0.085712726662386204 0.004832055163491885 0 0.085363952735584808 0.0050028070955130243 0 0.085806592487868844 0.0048410024030968489 0 0.085363952735584808 0.0050028070955130243 0 0.085408677768538985 0.0048727185395947194 0 0.085363952735584808 0.0050028070955130243 0 0.084886057758593175 0.0050520583631469499 0 0.085408677768538985 0.0048727185395947194 0 0.085660669190681243 0.0048616932121504815 0 0.085363952735584808 0.0050028070955130243 0 0.084757131652330564 0.00522590748111994 0 0.085709788907278081 0.011773962798943457 0 0.084349333479172117 0.0088871912971634579 0 0.08355022574373823 0.0096793673861841189 0 0.085363952735584808 0.0050028070955130243 0 0.084757131652330564 0.00522590748111994 0 0.084886057758593175 0.0050520583631469499 0 0.084349333479172117 0.0088871912971634579 0 0.08355022574373823 0.0096793673861841189 0 0.081008522967303445 0.0073812822075329607 0 0.070571409682393338 -0.0012490654784159264 0 0.073719599910001793 -0.00018256051821294636 0 0.07474305497937786 0.0025654659059516755 0 0.077360115618971312 0.0023313504504099544 0 0.077980640952091757 0.0037004973869472733 0 0.070571409682393338 -0.0012490654784159264 0 0.073719599910001793 -0.00018256051821294636 0 0.072407895338434669 -0.0030196184105857234 0 0.073719599910001793 -0.00018256051821294636 0 0.074879363974216226 -0.0029782037247884753 0 0.072407895338434669 -0.0030196184105857234 0 0.058973072357438476 -0.015744578263807301 0 0.05762322719383612 -0.020149719761385902 0 0.074879363974216226 -0.0029782037247884753 0 0.071441297614390845 -0.005501892237964769 0 0.07026025808218242 -0.0097913484233681444 0 0.043486237532017816 -0.027080188401878331 0 0.044810692760655094 -0.025305962115073823 0 0.043550031898377035 -0.025748956176302434 0 0.074879363974216226 -0.0029782037247884753 0 0.072407895338434669 -0.0030196184105857234 0 0.071441297614390845 -0.005501892237964769 0 0.070571409682393338 -0.0012490654784159264 0 0.072407895338434669 -0.0030196184105857234 0 0.071441297614390845 -0.005501892237964769 0 0.065993686700833637 -0.0057001242072193276 0 0.070571409682393338 -0.0012490654784159264 0 0.071441297614390845 -0.005501892237964769 0 0.065993686700833637 -0.0057001242072193276 0 0.071441297614390845 -0.005501892237964769 0 0.069542646042988973 -0.0074324794303687325 0 0.075812593228376704 -0.0008309014275683633 0 0.080610080815822688 0.0052234457910582286 0 0.075812593228376704 -0.0008309014275683633 0 0.077360115618971312 0.0023313504504099544 0 0.065993686700833637 -0.0057001242072193276 0 0.06806285968390699 -0.0087485650890995626 0 0.065639745758439769 -0.0099274155703638085 0 0.065993686700833637 -0.0057001242072193276 0 0.06806285968390699 -0.0087485650890995626 0 0.069542646042988973 -0.0074324794303687325 0 0.06806285968390699 -0.0087485650890995626 0 0.069542646042988973 -0.0074324794303687325 0 0.07026025808218242 -0.0097913484233681444 0 0.071441297614390845 -0.005501892237964769 0 0.069542646042988973 -0.0074324794303687325 0 0.07026025808218242 -0.0097913484233681444 0 0.06806285968390699 -0.0087485650890995626 0 0.07026025808218242 -0.0097913484233681444 0 0.068371677043486012 -0.010952152369956595 0 0.06806285968390699 -0.0087485650890995626 0 0.068371677043486012 -0.010952152369956595 0 0.065639745758439769 -0.0099274155703638085 0 0.068371677043486012 -0.010952152369956595 0 0.066098666830081226 -0.01145721544642306 0 0.065639745758439769 -0.0099274155703638085 0 0.044810692760655094 -0.025305962115073823 0 0.043550031898377035 -0.025748956176302434 0 0.044138682299048347 -0.024985761655334719 0 0.044810692760655094 -0.025305962115073823 0 0.044138682299048347 -0.024985761655334719 0 0.044754855048356586 -0.02449877640041646 0 0.043550031898377035 -0.025748956176302434 0 0.044138682299048347 -0.024985761655334719 0 0.04350885850830611 -0.024988620436915267 0 0.044002895624944076 -0.024457118687707197 0 0.043097713633295245 -0.024489698658770528 0 0.043405234567874436 -0.023895457176441932 0 0.04350885850830611 -0.024988620436915267 0 0.044002895624944076 -0.024457118687707197 0 0.043097713633295245 -0.024489698658770528 0 0.044138682299048347 -0.024985761655334719 0 0.04350885850830611 -0.024988620436915267 0 0.044002895624944076 -0.024457118687707197 0 0.044138682299048347 -0.024985761655334719 0 0.044002895624944076 -0.024457118687707197 0 0.044754855048356586 -0.02449877640041646 0 0.044002895624944076 -0.024457118687707197 0 0.044754855048356586 -0.02449877640041646 0 0.044715385142130359 -0.023865718180737339 0 0.044002895624944076 -0.024457118687707197 0 0.044015929240183604 -0.023665831898399343 0 0.044715385142130359 -0.023865718180737339 0 0.044002895624944076 -0.024457118687707197 0 0.044015929240183604 -0.023665831898399343 0 0.043405234567874436 -0.023895457176441932 0 0.046149541244135332 -0.023574365302208647 0 0.044754855048356586 -0.02449877640041646 0 0.044715385142130359 -0.023865718180737339 0 0.052087932805788779 -0.032109888473926144 0 0.05762322719383612 -0.020149719761385902 0 0.046149541244135332 -0.023574365302208647 0 0.044810692760655094 -0.025305962115073823 0 0.044754855048356586 -0.02449877640041646 0 0.068371677043486012 -0.010952152369956595 0 0.064492348302226513 -0.016301741253506967 0 0.065542581777710288 -0.012941314505388319 0 0.064629259829664776 -0.017460554577138257 0 0.07026025808218242 -0.0097913484233681444 0 0.068371677043486012 -0.010952152369956595 0 0.060167841230791615 -0.021108084425216198 0 0.052730291838656539 -0.030877688123999606 0 0.068371677043486012 -0.010952152369956595 0 0.066098666830081226 -0.01145721544642306 0 0.065542581777710288 -0.012941314505388319 0 0.064492348302226513 -0.016301741253506967 0 0.064069534556527891 -0.014318521878159577 0 0.065542581777710288 -0.012941314505388319 0 0.064629259829664776 -0.017460554577138257 0 0.068371677043486012 -0.010952152369956595 0 0.063872177683633291 -0.017114427040701007 0 0.064492348302226513 -0.016301741253506967 0 0.064069534556527891 -0.014318521878159577 0 0.063238150866491163 -0.015029400195366747 0 0.06483341257399261 -0.012006223362231231 0 0.062139224107497219 -0.013700984024218665 0 0.065639745758439769 -0.0099274155703638085 0 0.064069534556527891 -0.014318521878159577 0 0.065542581777710288 -0.012941314505388319 0 0.064037425195189318 -0.013141248941647995 0 0.065542581777710288 -0.012941314505388319 0 0.064037425195189318 -0.013141248941647995 0 0.06483341257399261 -0.012006223362231231 0 0.066098666830081226 -0.01145721544642306 0 0.065542581777710288 -0.012941314505388319 0 0.06483341257399261 -0.012006223362231231 0 0.064037425195189318 -0.013141248941647995 0 0.06483341257399261 -0.012006223362231231 0 0.062139224107497219 -0.013700984024218665 0 0.064037425195189318 -0.013141248941647995 0 0.063322480788111146 -0.013842870875991162 0 0.062139224107497219 -0.013700984024218665 0 0.064069534556527891 -0.014318521878159577 0 0.064037425195189318 -0.013141248941647995 0 0.063322480788111146 -0.013842870875991162 0 0.063322480788111146 -0.013842870875991162 0 0.062139224107497219 -0.013700984024218665 0 0.062929701097683033 -0.014469992809156073 0 0.065033101469762614 -0.016753029782754152 0 0.062136689053534658 -0.016691901327495224 0 0.061431874459796275 -0.015046044977414887 0 0.064492348302226513 -0.016301741253506967 0 0.063238150866491163 -0.015029400195366747 0 0.061431874459796275 -0.015046044977414887 0 0.062929701097683033 -0.014469992809156073 0 0.063238150866491163 -0.015029400195366747 0 0.061431874459796275 -0.015046044977414887 0 0.062139224107497219 -0.013700984024218665 0 0.062929701097683033 -0.014469992809156073 0 0.061431874459796275 -0.015046044977414887 0 0.052730291838656539 -0.030877688123999606 0 0.053482007870744606 -0.030254405133640586 0 0.064069534556527891 -0.014318521878159577 0 0.062929701097683033 -0.014469992809156073 0 0.063238150866491163 -0.015029400195366747 0 0.064069534556527891 -0.014318521878159577 0 0.063322480788111146 -0.013842870875991162 0 0.062929701097683033 -0.014469992809156073 0 0.054048536048328717 -0.016947269337241017 0 0.058816700775806655 -0.014896595825533101 0 0.060387934544236584 -0.010558329383186757 0 0.060351929707997048 -0.01694685283078487 0 0.062136689053534658 -0.016691901327495224 0 0.061431874459796275 -0.015046044977414887 0 0.058189442333170853 -0.01767017432908613 0 0.060351929707997048 -0.01694685283078487 0 0.058816700775806655 -0.014896595825533101 0 0.086065186237580818 0.0039307822253181199 0 0.086063153798078287 0.0039269990765928549 0 0.086023828820306167 0.0041265687572907819 0 0.060351929707997048 -0.01694685283078487 0 0.058816700775806655 -0.014896595825533101 0 0.061431874459796275 -0.015046044977414887 0 0.0747199780504616 -0.012884087138176655 0 0.07507487558799078 -0.0057502045182136891 0 0.062139224107497219 -0.013700984024218665 0 0.061431874459796275 -0.015046044977414887 0 0.060701355599336433 -0.013563281265496831 0 0.058816700775806655 -0.014896595825533101 0 0.061431874459796275 -0.015046044977414887 0 0.060701355599336433 -0.013563281265496831 0 0.058189442333170853 -0.01767017432908613 0 0.054048536048328717 -0.016947269337241017 0 0.058816700775806655 -0.014896595825533101 0 0.058816700775806655 -0.014896595825533101 0 0.060701355599336433 -0.013563281265496831 0 0.060387934544236584 -0.010558329383186757 0 0.062139224107497219 -0.013700984024218665 0 0.060701355599336433 -0.013563281265496831 0 0.060387934544236584 -0.010558329383186757 0 0.086063153798078287 0.0039269990765928549 0 0.086023828820306167 0.0041265687572907819 0 0.086065840129437021 0.0041811284401889384 0 0.085890143351649739 0.004547577385088584 0 0.086023828820306167 0.0041265687572907819 0 0.086065840129437021 0.0041811284401889384 0 0.067084766559258546 -0.0039820400699245428 0 0.062139224107497219 -0.013700984024218665 0 0.060387934544236584 -0.010558329383186757 0 0.075812593228376704 -0.0008309014275683633 0 0.07507487558799078 -0.0057502045182136891 0 0.085890143351649739 0.004547577385088584 0 0.085660669190681243 0.0048616932121504815 0 0.086023828820306167 0.0041265687572907819 0 0.075812593228376704 -0.0008309014275683633 0 0.069463641337622964 -0.0093772167279128609 0 0.065993686700833637 -0.0057001242072193276 0 0.062139224107497219 -0.013700984024218665 0 0.065639745758439769 -0.0099274155703638085 0 0.066098666830081226 -0.01145721544642306 0 0.06483341257399261 -0.012006223362231231 0 0.065639745758439769 -0.0099274155703638085 0 0.074999924330186457 -0.032157733878293397 0 0.077252672205038758 -0.030723647227103842 0 0.074999987046196967 -0.028116275452909911 0 0.077267882450767017 -0.028673204025949008 0 0.077252672205038758 -0.030723647227103842 0 0.074999987046196967 -0.028116275452909911 0 0.077267882450767017 -0.028673204025949008 0 0.079298954985511705 -0.030517512637070549 0 0.080420411894022506 -0.02902183451184305 0 0.077267882450767017 -0.028673204025949008 0 0.079298954985511705 -0.030517512637070549 0 0.077252672205038758 -0.030723647227103842 0 0.079188107477297209 -0.032655783600076795 0 0.077252672205038758 -0.030723647227103842 0 0.077355455778986393 -0.033501737368368749 0 0.079298954985511705 -0.030517512637070549 0 0.079188107477297209 -0.032655783600076795 0 0.077252672205038758 -0.030723647227103842 0 0.074999924330186457 -0.032157733878293397 0 0.077252672205038758 -0.030723647227103842 0 0.077355455778986393 -0.033501737368368749 0 0.074999924330186457 -0.032157733878293397 0 0.076871795646883179 -0.035526984396956583 0 0.074999947065388747 -0.036199258260420135 0 0.074999924330186457 -0.032157733878293397 0 0.076871795646883179 -0.035526984396956583 0 0.077355455778986393 -0.033501737368368749 0 0.077226884186179262 -0.037980627290715864 0 0.076871795646883179 -0.035526984396956583 0 0.074999947065388747 -0.036199258260420135 0 0.077226884186179262 -0.037980627290715864 0 0.076871795646883179 -0.035526984396956583 0 0.078710811641962281 -0.036090113289647417 0 0.078710811641962281 -0.036090113289647417 0 0.077355455778986393 -0.033501737368368749 0 0.080665430496755883 -0.03420141301269973 0 0.079188107477297209 -0.032655783600076795 0 0.077355455778986393 -0.033501737368368749 0 0.080771817810686486 -0.033721925171318959 0 0.076871795646883179 -0.035526984396956583 0 0.078710811641962281 -0.036090113289647417 0 0.077355455778986393 -0.033501737368368749 0 0.07954491685904487 -0.033516944656376071 0 0.081078291244617129 -0.033620750999855883 0 0.079188107477297209 -0.032655783600076795 0 0.080771817810686486 -0.033721925171318959 0 0.08249558622199954 -0.032782785430214685 0 0.079707151473338331 -0.038957574182831661 0 0.078710811641962281 -0.036090113289647417 0 0.080324527685101843 -0.036385798401570114 0 0.080665430496755883 -0.03420141301269973 0 0.080324527685101843 -0.036385798401570114 0 0.081944027510119893 -0.037002155591893279 0 0.079707151473338331 -0.038957574182831661 0 0.080324527685101843 -0.036385798401570114 0 0.081944027510119893 -0.037002155591893279 0 0.078710811641962281 -0.036090113289647417 0 0.080665430496755883 -0.03420141301269973 0 0.080324527685101843 -0.036385798401570114 0 0.081944027510119893 -0.037002155591893279 0 0.083869207106178761 -0.034747436410695665 0 0.084293051540005992 -0.03667393414957628 0 0.084348044346595472 -0.038552925203110905 0 0.081944027510119893 -0.037002155591893279 0 0.084293051540005992 -0.03667393414957628 0 0.081078291244617129 -0.033620750999855883 0 0.08378585803744272 -0.033666426679978358 0 0.08249558622199954 -0.032782785430214685 0 0.084622021750146867 -0.031932363029920793 0 0.083970037324985133 -0.034021797010721305 0 0.080771817810686486 -0.033721925171318959 0 0.08249558622199954 -0.032782785430214685 0 0.083970037324985133 -0.034021797010721305 0 0.080665430496755883 -0.03420141301269973 0 0.081944027510119893 -0.037002155591893279 0 0.083869207106178761 -0.034747436410695665 0 0.082794952587249726 -0.030845164560665474 0 0.08249558622199954 -0.032782785430214685 0 0.084622021750146867 -0.031932363029920793 0 0.080249894217774731 -0.02965199258288518 0 0.081957546566332015 -0.027832746530488957 0 0.079188107477297209 -0.032655783600076795 0 0.082794952587249726 -0.030845164560665474 0 0.08249558622199954 -0.032782785430214685 0 0.079298954985511705 -0.030517512637070549 0 0.079188107477297209 -0.032655783600076795 0 0.083095352602332237 -0.030568827143724876 0 0.079298954985511705 -0.030517512637070549 0 0.083095352602332237 -0.030568827143724876 0 0.080420411894022506 -0.02902183451184305 0 0.083095352602332237 -0.030568827143724876 0 0.085294883807294705 -0.027615644162727968 0 0.083697720276735721 -0.027786795096179946 0 0.083095352602332237 -0.030568827143724876 0 0.082294996241121757 -0.028300982033069546 0 0.083697720276735721 -0.027786795096179946 0 0.083095352602332237 -0.030568827143724876 0 0.080420411894022506 -0.02902183451184305 0 0.082294996241121757 -0.028300982033069546 0 0.082794952587249726 -0.030845164560665474 0 0.08629733891484026 -0.029075791592640766 0 0.085108204334450863 -0.030893249658352506 0 0.081957546566332015 -0.027832746530488957 0 0.084650413123859472 -0.022879418772655577 0 0.083095352602332237 -0.030568827143724876 0 0.086961101759748818 -0.028548271674493125 0 0.085294883807294705 -0.027615644162727968 0 0.08629733891484026 -0.029075791592640766 0 0.086713991497464185 -0.031717855645383521 0 0.085108204334450863 -0.030893249658352506 0 0.085373585072014174 -0.019499579782407558 0 0.085578021753366929 -0.021303348545018586 0 0.084650413123859472 -0.022879418772655577 0 0.085723967244635699 -0.029783925647733848 0 0.085721003364175166 -0.028689023840150436 0 0.086580017136871246 -0.028254896814119759 0 0.086235681191345309 -0.031919938928542481 0 0.086580017136871246 -0.028254896814119759 0 0.086235681191345309 -0.031919938928542481 0 0.088608726662570469 -0.031619882890263351 0 0.084650413123859472 -0.022879418772655577 0 0.085373585072014174 -0.019499579782407558 0 0.086235681191345309 -0.031919938928542481 0 0.087965301066480553 -0.033636592067568812 0 0.088608726662570469 -0.031619882890263351 0 0.086713991497464185 -0.031717855645383521 0 0.085108204334450863 -0.030893249658352506 0 0.084622021750146867 -0.031932363029920793 0 0.086713991497464185 -0.031717855645383521 0 0.084622021750146867 -0.031932363029920793 0 0.085634601611141878 -0.032885275743287569 0 0.082794952587249726 -0.030845164560665474 0 0.085108204334450863 -0.030893249658352506 0 0.084622021750146867 -0.031932363029920793 0 0.084622021750146867 -0.031932363029920793 0 0.085634601611141878 -0.032885275743287569 0 0.083970037324985133 -0.034021797010721305 0 0.083869207106178761 -0.034747436410695665 0 0.085482896593995258 -0.035899428075556294 0 0.087024762406028952 -0.035172972538026662 0 0.08378585803744272 -0.033666426679978358 0 0.086120851493392658 -0.033328560399499628 0 0.085634601611141878 -0.032885275743287569 0 0.083970037324985133 -0.034021797010721305 0 0.087128902955279336 -0.034349337804848445 0 0.083869207106178761 -0.034747436410695665 0 0.084293051540005992 -0.03667393414957628 0 0.085482896593995258 -0.035899428075556294 0 0.084293051540005992 -0.03667393414957628 0 0.085482896593995258 -0.035899428075556294 0 0.085816563846895511 -0.037194267540001713 0 0.084348044346595472 -0.038552925203110905 0 0.084293051540005992 -0.03667393414957628 0 0.085816563846895511 -0.037194267540001713 0 0.086815714285043741 -0.038746530154743414 0 0.085816563846895511 -0.037194267540001713 0 0.087389749283749152 -0.037340974220518242 0 0.085816563846895511 -0.037194267540001713 0 0.087389749283749152 -0.037340974220518242 0 0.087143952417579218 -0.035970307243616065 0 0.085482896593995258 -0.035899428075556294 0 0.087143952417579218 -0.035970307243616065 0 0.087024762406028952 -0.035172972538026662 0 0.085482896593995258 -0.035899428075556294 0 0.085816563846895511 -0.037194267540001713 0 0.087143952417579218 -0.035970307243616065 0 0.087389749283749152 -0.037340974220518242 0 0.087143952417579218 -0.035970307243616065 0 0.088405598641505129 -0.036769436701069351 0 0.085723967244635699 -0.029783925647733848 0 0.086120851493392658 -0.033328560399499628 0 0.087143952417579218 -0.035970307243616065 0 0.087003901475836351 -0.035131249146541518 0 0.088205094170082654 -0.035227051741858091 0 0.086761705083179985 -0.035079213680060582 0 0.087965301066480553 -0.033636592067568812 0 0.088205094170082654 -0.035227051741858091 0 0.086120851493392658 -0.033328560399499628 0 0.086334222762464316 -0.033404825792891314 0 0.086235681191345309 -0.031919938928542481 0 0.086761705083179985 -0.035079213680060582 0 0.087965301066480553 -0.033636592067568812 0 0.086713991497464185 -0.031717855645383521 0 0.085634601611141878 -0.032885275743287569 0 0.087128902955279336 -0.034349337804848445 0 0.086151603080607375 -0.033466783215964704 0 0.086120851493392658 -0.033328560399499628 0 0.087965301066480553 -0.033636592067568812 0 0.090469809876315033 -0.034891458398205108 0 0.088608726662570469 -0.031619882890263351 0 0.087965301066480553 -0.033636592067568812 0 0.088205094170082654 -0.035227051741858091 0 0.090469809876315033 -0.034891458398205108 0 0.086977562618028983 -0.024864875110077515 0 0.085578021753366929 -0.021303348545018586 0 0.088205094170082654 -0.035227051741858091 0 0.08984628928346082 -0.036893196109350775 0 0.088405598641505129 -0.036769436701069351 0 0.087143952417579218 -0.035970307243616065 0 0.088205094170082654 -0.035227051741858091 0 0.088405598641505129 -0.036769436701069351 0 0.088205094170082654 -0.035227051741858091 0 0.08984628928346082 -0.036893196109350775 0 0.090469809876315033 -0.034891458398205108 0 0.088795536832514649 -0.038040274833390876 0 0.087389749283749152 -0.037340974220518242 0 0.088405598641505129 -0.036769436701069351 0 0.088795536832514649 -0.038040274833390876 0 0.08984628928346082 -0.036893196109350775 0 0.088405598641505129 -0.036769436701069351 0 0.088605357161586143 -0.029165306700919692 0 0.086977562618028983 -0.024864875110077515 0 0.08984628928346082 -0.036893196109350775 0 0.092178921907768288 -0.037864319292003956 0 0.090469809876315033 -0.034891458398205108 0 0.086695451381023039 -0.018737465123316963 0 0.085416972063060259 -0.015061624196370828 0 0.083801703145847159 -0.013900420442012831 0 0.090337376770346561 -0.038874084387136999 0 0.08984628928346082 -0.036893196109350775 0 0.092178921907768288 -0.037864319292003956 0 0.088004849318951167 -0.015447478056299379 0 0.086695451381023039 -0.018737465123316963 0 0.085416972063060259 -0.015061624196370828 0 0.085416972063060259 -0.015061624196370828 0 0.086782023287698976 -0.013705306979026888 0 0.085502043348251303 -0.011382130463102699 0 0.085416972063060259 -0.015061624196370828 0 0.085502043348251303 -0.011382130463102699 0 0.081561128678766054 -0.0078436162225328787 0 0.085416972063060259 -0.015061624196370828 0 0.083801703145847159 -0.013900420442012831 0 0.082794807686086824 -0.0098886686017988727 0 0.088004849318951167 -0.015447478056299379 0 0.085416972063060259 -0.015061624196370828 0 0.086782023287698976 -0.013705306979026888 0 0.083436785236517708 -0.012330731230613979 0 0.082385995804245424 -0.010588343078676064 0 0.088123092743401341 -0.012814398396851867 0 0.086782023287698976 -0.013705306979026888 0 0.085502043348251303 -0.011382130463102699 0 0.087993836189779351 -0.0098934532603028522 0 0.085502043348251303 -0.011382130463102699 0 0.085162107646631485 -0.0082890793443817362 0 0.087993836189779351 -0.0098934532603028522 0 0.085162107646631485 -0.0082890793443817362 0 0.086776530056878992 -0.0067172436205358158 0 0.085162107646631485 -0.0082890793443817362 0 0.086776530056878992 -0.0067172436205358158 0 0.083829450853269802 -0.0055998840964913647 0 0.085162107646631485 -0.0082890793443817362 0 0.081561128678766054 -0.0078436162225328787 0 0.083829450853269802 -0.0055998840964913647 0 0.085502043348251303 -0.011382130463102699 0 0.085162107646631485 -0.0082890793443817362 0 0.081561128678766054 -0.0078436162225328787 0 0.083801703145847159 -0.013900420442012831 0 0.081383320507263296 -0.0097796976251632323 0 0.082794807686086824 -0.0098886686017988727 0 0.082385995804245424 -0.010588343078676064 0 0.084045602223703997 -0.015349575375616951 0 0.081561128678766054 -0.0078436162225328787 0 0.079569795842886121 -0.0024813096675923734 0 0.083829450853269802 -0.0055998840964913647 0 0.079156286066855319 -0.0061757956809765542 0 0.082794807686086824 -0.0098886686017988727 0 0.080577470613643148 -0.0054634676982143783 0 0.079569795842886121 -0.0024813096675923734 0 0.083407114794475309 -0.0027263510734813123 0 0.083829450853269802 -0.0055998840964913647 0 0.081561128678766054 -0.0078436162225328787 0 0.079569795842886121 -0.0024813096675923734 0 0.077683300243536882 7.8484852320267318e-05 0 0.079156286066855319 -0.0061757956809765542 0 0.081383320507263296 -0.0097796976251632323 0 0.082794807686086824 -0.0098886686017988727 0 0.079569795842886121 -0.0024813096675923734 0 0.081560749298338842 -0.0014646674945751753 0 0.083407114794475309 -0.0027263510734813123 0 0.079569795842886121 -0.0024813096675923734 0 0.081560749298338842 -0.0014646674945751753 0 0.079236308329753716 0.0010259787104591109 0 0.081560749298338842 -0.0014646674945751753 0 0.083407114794475309 -0.0027263510734813123 0 0.081513543783428746 0.00099052846102396018 0 0.083407114794475309 -0.0027263510734813123 0 0.087024085893814607 -0.002337220391353239 0 0.081513543783428746 0.00099052846102396018 0 0.086776530056878992 -0.0067172436205358158 0 0.087024085893814607 -0.002337220391353239 0 0.083829450853269802 -0.0055998840964913647 0 0.083407114794475309 -0.0027263510734813123 0 0.087024085893814607 -0.002337220391353239 0 0.083829450853269802 -0.0055998840964913647 0 0.08307643604419214 0.0011633769424977238 0 0.082186256611950392 0.0017701959477825285 0 0.08271705936866143 0.0022350480483379178 0 0.082447018503811698 -0.0068064047203203956 0 0.08149853519917187 -0.005275491431457658 0 0.08307643604419214 0.0011633769424977238 0 0.082186256611950392 0.0017701959477825285 0 0.081513543783428746 0.00099052846102396018 0 0.082186256611950392 0.0017701959477825285 0 0.081317071532628835 0.0017085477355763662 0 0.081990718494099918 0.0029084984186237123 0 0.082186256611950392 0.0017701959477825285 0 0.08271705936866143 0.0022350480483379178 0 0.081990718494099918 0.0029084984186237123 0 0.082186256611950392 0.0017701959477825285 0 0.081513543783428746 0.00099052846102396018 0 0.081317071532628835 0.0017085477355763662 0 0.080860664777011662 0.0014675059893797138 0 0.081317071532628835 0.0017085477355763662 0 0.080833292250851313 0.0033541579148457946 0 0.081560749298338842 -0.0014646674945751753 0 0.081513543783428746 0.00099052846102396018 0 0.079236308329753716 0.0010259787104591109 0 0.081513543783428746 0.00099052846102396018 0 0.079236308329753716 0.0010259787104591109 0 0.081317071532628835 0.0017085477355763662 0 0.082766724614187936 -0.013799112950109301 0 0.082963798907098735 -0.013392260061067961 0 0.082421829461568896 -0.011820045613338419 0 0.082766724614187936 -0.013799112950109301 0 0.079569795842886121 -0.0024813096675923734 0 0.077683300243536882 7.8484852320267318e-05 0 0.079107141898769315 0.00078942089325184975 0 0.084045602223703997 -0.015349575375616951 0 0.082766724614187936 -0.013799112950109301 0 0.081317071532628835 0.0017085477355763662 0 0.080833292250851313 0.0033541579148457946 0 0.081990718494099918 0.0029084984186237123 0 0.082766724614187936 -0.013799112950109301 0 0.083517489011115886 -0.010617630855003607 0 0.080833292250851313 0.0033541579148457946 0 0.081990718494099918 0.0029084984186237123 0 0.08163100701557785 0.0041465781142122279 0 0.08271705936866143 0.0022350480483379178 0 0.081990718494099918 0.0029084984186237123 0 0.082901339316060557 0.0030593476601633997 0 0.0835054039583151 0.0026151158833608973 0 0.08271705936866143 0.0022350480483379178 0 0.082901339316060557 0.0030593476601633997 0 0.083573349460152033 0.0035295148099439995 0 0.082901339316060557 0.0030593476601633997 0 0.082651228099546031 0.0039808311440988316 0 0.081990718494099918 0.0029084984186237123 0 0.082901339316060557 0.0030593476601633997 0 0.082651228099546031 0.0039808311440988316 0 0.081990718494099918 0.0029084984186237123 0 0.082651228099546031 0.0039808311440988316 0 0.08163100701557785 0.0041465781142122279 0 0.082651228099546031 0.0039808311440988316 0 0.082368008011688379 0.0048075848777973523 0 0.08163100701557785 0.0041465781142122279 0 0.083239685140173936 0.0049629451175766393 0 0.082651228099546031 0.0039808311440988316 0 0.082368008011688379 0.0048075848777973523 0 0.083239685140173936 0.0049629451175766393 0 0.082368008011688379 0.0048075848777973523 0 0.082439726986840933 0.0055992234081853358 0 0.082368008011688379 0.0048075848777973523 0 0.082439726986840933 0.0055992234081853358 0 0.081573873272379277 0.0049318687089358534 0 0.08149712133899327 0.0055632822388092589 0 0.081573873272379277 0.0049318687089358534 0 0.080741512689950168 0.0050304114596401005 0 0.08149712133899327 0.0055632822388092589 0 0.080741512689950168 0.0050304114596401005 0 0.08065010789440849 0.0056467824923034501 0 0.082439726986840933 0.0055992234081853358 0 0.08149712133899327 0.0055632822388092589 0 0.081573873272379277 0.0049318687089358534 0 0.082368008011688379 0.0048075848777973523 0 0.081573873272379277 0.0049318687089358534 0 0.08163100701557785 0.0041465781142122279 0 0.081573873272379277 0.0049318687089358534 0 0.08163100701557785 0.0041465781142122279 0 0.08069878158506634 0.0050525352801539386 0 0.083393540308933464 -0.0093134702781311734 0 0.084363174931372228 -0.010326346471234449 0 0.080833292250851313 0.0033541579148457946 0 0.08163100701557785 0.0041465781142122279 0 0.08069878158506634 0.0050525352801539386 0 0.083517489011115886 -0.010617630855003607 0 0.084363174931372228 -0.010326346471234449 0 0.087093586549305685 -0.022400231870240053 0 0.086481416453811868 -0.022132612906374485 0 0.086554630764881499 -0.021506394225353109 0 0.087093586549305685 -0.022400231870240053 0 0.086554630764881499 -0.021506394225353109 0 0.08703542276515143 -0.020658182960503594 0 0.086481416453811868 -0.022132612906374485 0 0.086074128589049545 -0.021960609934571159 0 0.086554630764881499 -0.021506394225353109 0 0.086074128589049545 -0.021960609934571159 0 0.085937173200748479 -0.022436035187069974 0 0.086129458663546724 -0.022279563941164583 0 0.086481416453811868 -0.022132612906374485 0 0.086074128589049545 -0.021960609934571159 0 0.086129458663546724 -0.022279563941164583 0 0.086074128589049545 -0.021960609934571159 0 0.086554630764881499 -0.021506394225353109 0 0.085534912343910557 -0.021560155440907568 0 0.086554630764881499 -0.021506394225353109 0 0.08703542276515143 -0.020658182960503594 0 0.086190887337642533 -0.02040518547867471 0 0.086554630764881499 -0.021506394225353109 0 0.086190887337642533 -0.02040518547867471 0 0.085534912343910557 -0.021560155440907568 0 0.084363174931372228 -0.010326346471234449 0 0.08361873641397502 -0.012728630241835725 0 0.081761877340629507 -0.01661339944715981 0 0.083007295616798718 -0.015847891132826291 0 0.082270252608399846 -0.015034326909310959 0 0.08361873641397502 -0.012728630241835725 0 0.084944162603648954 -0.010146363433061797 0 0.084520416793500752 -0.011757350038980489 0 0.085229544277699576 -0.011864037031216614 0 0.084593829753072267 -0.012277307943123573 0 0.084363174931372228 -0.010326346471234449 0 0.084944162603648954 -0.010146363433061797 0 0.086190887337642533 -0.02040518547867471 0 0.085534912343910557 -0.021560155440907568 0 0.083686482849953392 -0.021857292133418669 0 0.08361873641397502 -0.012728630241835725 0 0.081038707507509175 -0.015614594449898109 0 0.081761877340629507 -0.01661339944715981 0 0.079026727569458222 -0.016292288288084395 0 0.080222708675595486 -0.01493672751671889 0 0.08361873641397502 -0.012728630241835725 0 0.08256425299118049 -0.015455536486225989 0 0.086835971938375112 -0.019772076414720213 0 0.083686482849953392 -0.021857292133418669 0 0.082899846439999203 -0.019212267333870044 0 0.086074128589049545 -0.021960609934571159 0 0.085534912343910557 -0.021560155440907568 0 0.085937173200748479 -0.022436035187069974 0 0.085727034136421354 -0.022439914852756381 0 0.085751937663763572 -0.022619920603023105 0 0.085534912343910557 -0.021560155440907568 0 0.084716784328216208 -0.023035225722694119 0 0.083686482849953392 -0.021857292133418669 0 0.085534912343910557 -0.021560155440907568 0 0.084716784328216208 -0.023035225722694119 0 0.086141747489475465 -0.0238446893556599 0 0.084716784328216208 -0.023035225722694119 0 0.08500668986401648 -0.024022719204931473 0 0.083600195121511553 -0.024736378646992362 0 0.086158108186199678 -0.025590395159332792 0 0.086141747489475465 -0.0238446893556599 0 0.086608351757600927 -0.026286316122297784 0 0.084716784328216208 -0.023035225722694119 0 0.08500668986401648 -0.024022719204931473 0 0.086141747489475465 -0.0238446893556599 0 0.085751937663763572 -0.022619920603023105 0 0.085654181001495314 -0.022269388935967444 0 0.085193566375173849 -0.024823625518394274 0 0.084832476122578077 -0.026154588955199846 0 0.083600195121511553 -0.024736378646992362 0 0.08500668986401648 -0.024022719204931473 0 0.085193566375173849 -0.024823625518394274 0 0.083600195121511553 -0.024736378646992362 0 0.085193566375173849 -0.024823625518394274 0 0.086158108186199678 -0.025590395159332792 0 0.084832476122578077 -0.026154588955199846 0 0.085193566375173849 -0.024823625518394274 0 0.086158108186199678 -0.025590395159332792 0 0.086141747489475465 -0.0238446893556599 0 0.08500668986401648 -0.024022719204931473 0 0.085193566375173849 -0.024823625518394274 0 0.086141747489475465 -0.0238446893556599 0 0.086129458663546724 -0.022279563941164583 0 0.086586560231944429 -0.022598431102200771 0 0.086608277804515438 -0.023095565637492141 0 0.087212191491102417 -0.023720380131353028 0 0.087093586549305685 -0.022400231870240053 0 0.086608277804515438 -0.023095565637492141 0 0.085937173200748479 -0.022436035187069974 0 0.086129458663546724 -0.022279563941164583 0 0.086296220665076112 -0.022746057838015438 0 0.08600620880447564 -0.020159320853704411 0 0.085655935243803757 -0.019252780760812795 0 0.085937173200748479 -0.022436035187069974 0 0.086296220665076112 -0.022746057838015438 0 0.086046273113123503 -0.022898607488906712 0 0.086481416453811868 -0.022132612906374485 0 0.086129458663546724 -0.022279563941164583 0 0.086586560231944429 -0.022598431102200771 0 0.087093586549305685 -0.022400231870240053 0 0.086481416453811868 -0.022132612906374485 0 0.086586560231944429 -0.022598431102200771 0 0.087093586549305685 -0.022400231870240053 0 0.086586560231944429 -0.022598431102200771 0 0.086608277804515438 -0.023095565637492141 0 0.086296220665076112 -0.022746057838015438 0 0.086046273113123503 -0.022898607488906712 0 0.086265514956809633 -0.022990176810212919 0 0.084045602223703997 -0.015349575375616951 0 0.085655935243803757 -0.019252780760812795 0 0.08697050026710397 -0.023838928496632661 0 0.087212191491102417 -0.023720380131353028 0 0.086608277804515438 -0.023095565637492141 0 0.086457607104260703 -0.023102994957134072 0 0.086296220665076112 -0.022746057838015438 0 0.086265514956809633 -0.022990176810212919 0 0.085373585072014174 -0.019499579782407558 0 0.084045602223703997 -0.015349575375616951 0 0.086256691520504303 -0.023208126487935545 0 0.086457607104260703 -0.023102994957134072 0 0.086265514956809633 -0.022990176810212919 0 0.085373585072014174 -0.019499579782407558 0 0.085654181001495314 -0.022269388935967444 0 0.084650413123859472 -0.022879418772655577 0 0.085654181001495314 -0.022269388935967444 0 0.086256691520504303 -0.023208126487935545 0 0.086046273113123503 -0.022898607488906712 0 0.086265514956809633 -0.022990176810212919 0 0.086362451990636233 -0.018779447006889854 0 0.085259240407714584 -0.019335970413029129 0 0.086868249407633755 -0.021951401828836686 0 0.086961101759748818 -0.028548271674493125 0 0.086598744566196248 -0.026292555720619282 0 0.085294883807294705 -0.027615644162727968 0 0.085294883807294705 -0.027615644162727968 0 0.084832476122578077 -0.026154588955199846 0 0.083697720276735721 -0.027786795096179946 0 0.085294883807294705 -0.027615644162727968 0 0.084832476122578077 -0.026154588955199846 0 0.085701678182617702 -0.026366977400881772 0 0.086158108186199678 -0.025590395159332792 0 0.084832476122578077 -0.026154588955199846 0 0.085701678182617702 -0.026366977400881772 0 0.086598744566196248 -0.026292555720619282 0 0.085294883807294705 -0.027615644162727968 0 0.085701678182617702 -0.026366977400881772 0 0.086158108186199678 -0.025590395159332792 0 0.086598744566196248 -0.026292555720619282 0 0.085701678182617702 -0.026366977400881772 0 0.085721804871324025 -0.022408755795552335 0 0.085654181001495314 -0.022269388935967444 0 0.083046759040140361 -0.026592540599187038 0 0.080805375559428072 -0.025988111874944493 0 0.083600195121511553 -0.024736378646992362 0 0.084832476122578077 -0.026154588955199846 0 0.083046759040140361 -0.026592540599187038 0 0.083697720276735721 -0.027786795096179946 0 0.084832476122578077 -0.026154588955199846 0 0.083046759040140361 -0.026592540599187038 0 0.083600195121511553 -0.024736378646992362 0 0.082294996241121757 -0.028300982033069546 0 0.083046759040140361 -0.026592540599187038 0 0.083697720276735721 -0.027786795096179946 0 0.082294996241121757 -0.028300982033069546 0 0.083046759040140361 -0.026592540599187038 0 0.080805375559428072 -0.025988111874944493 0 0.080420411894022506 -0.02902183451184305 0 0.082294996241121757 -0.028300982033069546 0 0.080805375559428072 -0.025988111874944493 0 0.080420411894022506 -0.02902183451184305 0 0.080805375559428072 -0.025988111874944493 0 0.077704745600129563 -0.026507484320927702 0 0.080805375559428072 -0.025988111874944493 0 0.082183297605513336 -0.023266727283861498 0 0.0797289036240756 -0.023046910875848169 0 0.080805375559428072 -0.025988111874944493 0 0.083600195121511553 -0.024736378646992362 0 0.082183297605513336 -0.023266727283861498 0 0.084716784328216208 -0.023035225722694119 0 0.083600195121511553 -0.024736378646992362 0 0.082183297605513336 -0.023266727283861498 0 0.084716784328216208 -0.023035225722694119 0 0.082183297605513336 -0.023266727283861498 0 0.083686482849953392 -0.021857292133418669 0 0.082183297605513336 -0.023266727283861498 0 0.083686482849953392 -0.021857292133418669 0 0.081452532393544039 -0.021196301384653199 0 0.083686482849953392 -0.021857292133418669 0 0.082899846439999203 -0.019212267333870044 0 0.081452532393544039 -0.021196301384653199 0 0.081038707507509175 -0.015614594449898109 0 0.077826982081822607 -0.017013829711764746 0 0.082899846439999203 -0.019212267333870044 0 0.081452532393544039 -0.021196301384653199 0 0.078949033912992073 -0.018650553039926146 0 0.0797289036240756 -0.023046910875848169 0 0.081452532393544039 -0.021196301384653199 0 0.078949033912992073 -0.018650553039926146 0 0.082183297605513336 -0.023266727283861498 0 0.0797289036240756 -0.023046910875848169 0 0.081452532393544039 -0.021196301384653199 0 0.0797289036240756 -0.023046910875848169 0 0.077248662083183706 -0.022556294405385143 0 0.078949033912992073 -0.018650553039926146 0 0.074999989482960522 -0.0210693899196331 0 0.077248662083183706 -0.022556294405385143 0 0.078949033912992073 -0.018650553039926146 0 0.074999989482960522 -0.0210693899196331 0 0.074999985770241084 -0.018063875106767293 0 0.078949033912992073 -0.018650553039926146 0 0.074999989482960522 -0.0210693899196331 0 0.077248662083183706 -0.022556294405385143 0 0.074999993822504885 -0.024074796334803653 0 0.075002475805704363 -0.024077184794748283 0 0.077352255962307701 -0.026217815378625654 0 0.077248662083183706 -0.022556294405385143 0 0.074999993822504885 -0.024074796334803653 0 0.077704745600129563 -0.026507484320927702 0 0.080805375559428072 -0.025988111874944493 0 0.0797289036240756 -0.023046910875848169 0 0.077704745600129563 -0.026507484320927702 0 0.0797289036240756 -0.023046910875848169 0 0.077248662083183706 -0.022556294405385143 0 0.077704745600129563 -0.026507484320927702 0 0.078646091627233281 -0.027396519074353292 0 0.077352255962307701 -0.026217815378625654 0 0.077267882450767017 -0.028673204025949008 0 0.080420411894022506 -0.02902183451184305 0 0.077720157945650015 -0.026587544956360547 0 0.07499998970098605 -0.024074975489052602 0 0.077720157945650015 -0.026587544956360547 0 0.074999987046196967 -0.028116275452909911 0 0.077267882450767017 -0.028673204025949008 0 0.077720157945650015 -0.026587544956360547 0 0.074999987046196967 -0.028116275452909911 0 0.076988619553257504 -0.01078334688674964 0 0.074999944269496438 -0.010371332428931042 0 0.076571573055657927 -0.012393257088316833 0 0.076988619553257504 -0.01078334688674964 0 0.078099290769679572 -0.011912297704637946 0 0.076571573055657927 -0.012393257088316833 0 0.076988619553257504 -0.01078334688674964 0 0.076535723509598932 -0.0093938502022766004 0 0.077674154175232338 -0.0097097098357701722 0 0.076988619553257504 -0.01078334688674964 0 0.074999944269496438 -0.010371332428931042 0 0.076535723509598932 -0.0093938502022766004 0 0.079381116217343534 -0.010915282196752588 0 0.078099290769679572 -0.011912297704637946 0 0.080559507468347322 -0.012229940263203754 0 0.081287370460868744 -0.0098520161503869736 0 0.078401102260985095 -0.0087810169836442693 0 0.078497157240048673 -0.0092404713317669508 0 0.076988619553257504 -0.01078334688674964 0 0.077674154175232338 -0.0097097098357701722 0 0.078153151209384153 -0.010561448941688678 0 0.077674154175232338 -0.0097097098357701722 0 0.078358264559459323 -0.0098993381678275233 0 0.078497157240048673 -0.0092404713317669508 0 0.077674154175232338 -0.0097097098357701722 0 0.078358264559459323 -0.0098993381678275233 0 0.078153151209384153 -0.010561448941688678 0 0.078358264559459323 -0.0098993381678275233 0 0.079108522001814313 -0.010093961864837683 0 0.078497157240048673 -0.0092404713317669508 0 0.078358264559459323 -0.0098993381678275233 0 0.079108522001814313 -0.010093961864837683 0 0.078153151209384153 -0.010561448941688678 0 0.079108522001814313 -0.010093961864837683 0 0.079381116217343534 -0.010915282196752588 0 0.078153151209384153 -0.010561448941688678 0 0.079381116217343534 -0.010915282196752588 0 0.078153151209384153 -0.010561448941688678 0 0.078099290769679572 -0.011912297704637946 0 0.076988619553257504 -0.01078334688674964 0 0.078153151209384153 -0.010561448941688678 0 0.078099290769679572 -0.011912297704637946 0 0.077181507784056358 -0.014148807266811742 0 0.079220177338260991 -0.011589942481695975 0 0.076063046687042238 -0.013974846334780595 0 0.077442311589162649 -0.013289494120073691 0 0.077504998593592098 -0.011481814163680949 0 0.078099290769679572 -0.011912297704637946 0 0.076571573055657927 -0.012393257088316833 0 0.07780731810245016 -0.014483540662257917 0 0.078099290769679572 -0.011912297704637946 0 0.07780731810245016 -0.014483540662257917 0 0.080559507468347322 -0.012229940263203754 0 0.074999947974468947 -0.013612505653817603 0 0.076571573055657927 -0.012393257088316833 0 0.07780731810245016 -0.014483540662257917 0 0.074999944269496438 -0.010371332428931042 0 0.074999947974468947 -0.013612505653817603 0 0.076571573055657927 -0.012393257088316833 0 0.07499886550896305 -0.016854448962915373 0 0.076064873399468158 -0.016016431998237265 0 0.076063046687042238 -0.013974846334780595 0 0.074999947974468947 -0.013612505653817603 0 0.075000004956120456 -0.016853650449514812 0 0.07780731810245016 -0.014483540662257917 0 0.075001958418821735 -0.016850199591309557 0 0.077181507784056358 -0.014148807266811742 0 0.07499886550896305 -0.016854448962915373 0 0.075000199623009037 -0.018060828861656646 0 0.076064873399468158 -0.016016431998237265 0 0.075000199623009037 -0.018060828861656646 0 0.076064873399468158 -0.016016431998237265 0 0.076815018618219794 -0.016438959296834681 0 0.075002389539190029 -0.018061568042340621 0 0.077826982081822607 -0.017013829711764746 0 0.076064873399468158 -0.016016431998237265 0 0.076815018618219794 -0.016438959296834681 0 0.077603376285435802 -0.014741208235907301 0 0.076063046687042238 -0.013974846334780595 0 0.077442311589162649 -0.013289494120073691 0 0.077603376285435802 -0.014741208235907301 0 0.076064873399468158 -0.016016431998237265 0 0.076063046687042238 -0.013974846334780595 0 0.077603376285435802 -0.014741208235907301 0 0.077442311589162649 -0.013289494120073691 0 0.077603376285435802 -0.014741208235907301 0 0.078677719667896648 -0.012911520252827425 0 0.079026727569458222 -0.016292288288084395 0 0.076815018618219794 -0.016438959296834681 0 0.077603376285435802 -0.014741208235907301 0 0.079026727569458222 -0.016292288288084395 0 0.079409346140899437 -0.014115442808599834 0 0.080222708675595486 -0.01493672751671889 0 0.079026727569458222 -0.016292288288084395 0 0.077603376285435802 -0.014741208235907301 0 0.079409346140899437 -0.014115442808599834 0 0.077603376285435802 -0.014741208235907301 0 0.079409346140899437 -0.014115442808599834 0 0.078677719667896648 -0.012911520252827425 0 0.079409346140899437 -0.014115442808599834 0 0.079827743425315498 -0.012253870214998469 0 0.080457129509653669 -0.012887597961969244 0 0.079409346140899437 -0.014115442808599834 0 0.078677719667896648 -0.012911520252827425 0 0.079827743425315498 -0.012253870214998469 0 0.078677719667896648 -0.012911520252827425 0 0.079827743425315498 -0.012253870214998469 0 0.07913539404507304 -0.01127040351949552 0 0.078677719667896648 -0.012911520252827425 0 0.07913539404507304 -0.01127040351949552 0 0.077504998593592098 -0.011481814163680949 0 0.079827743425315498 -0.012253870214998469 0 0.07913539404507304 -0.01127040351949552 0 0.080308325742635633 -0.010508169697789324 0 0.077442311589162649 -0.013289494120073691 0 0.078677719667896648 -0.012911520252827425 0 0.077504998593592098 -0.011481814163680949 0 0.081287370460868744 -0.0098520161503869736 0 0.084153137406531575 -0.0095508752144968807 0 0.080565420831843079 -0.0076678451146202737 0 0.078920448890149208 -0.0081532659337949023 0 0.077575573382823615 -0.0074019742180127983 0 0.079108522001814313 -0.010093961864837683 0 0.081287370460868744 -0.0098520161503869736 0 0.078497157240048673 -0.0092404713317669508 0 0.080559507468347322 -0.012229940263203754 0 0.081287370460868744 -0.0098520161503869736 0 0.084153137406531575 -0.0095508752144968807 0 0.079381116217343534 -0.010915282196752588 0 0.080559507468347322 -0.012229940263203754 0 0.081287370460868744 -0.0098520161503869736 0 0.079108522001814313 -0.010093961864837683 0 0.079381116217343534 -0.010915282196752588 0 0.081287370460868744 -0.0098520161503869736 0 0.079220177338260991 -0.011589942481695975 0 0.081183282501834445 -0.0089986983530931965 0 0.07913539404507304 -0.01127040351949552 0 0.077504998593592098 -0.011481814163680949 0 0.079347284187995762 -0.0091543424644588388 0 0.07913539404507304 -0.01127040351949552 0 0.079347284187995762 -0.0091543424644588388 0 0.080308325742635633 -0.010508169697789324 0 0.080887804479917447 -0.0089697018463972076 0 0.081618392819382782 -0.0097514580539761822 0 0.080308325742635633 -0.010508169697789324 0 0.079347284187995762 -0.0091543424644588388 0 0.080887804479917447 -0.0089697018463972076 0 0.080308325742635633 -0.010508169697789324 0 0.081618392819382782 -0.0097514580539761822 0 0.083049663255166647 -0.0089317093507392635 0 0.081892553653742803 -0.0082404053067557884 0 0.080887804479917447 -0.0089697018463972076 0 0.081618392819382782 -0.0097514580539761822 0 0.081892553653742803 -0.0082404053067557884 0 0.081618392819382782 -0.0097514580539761822 0 0.082511560046323443 -0.011021064562330415 0 0.083049663255166647 -0.0089317093507392635 0 0.081618392819382782 -0.0097514580539761822 0 0.082511560046323443 -0.011021064562330415 0 0.081150359404392441 -0.01157334142207608 0 0.082511560046323443 -0.011021064562330415 0 0.081930112555403903 -0.011988684356399265 0 0.082470845289221981 -0.012541076420623494 0 0.082511560046323443 -0.011021064562330415 0 0.081150359404392441 -0.01157334142207608 0 0.081930112555403903 -0.011988684356399265 0 0.081150359404392441 -0.01157334142207608 0 0.081261586075534048 -0.012614824857968727 0 0.081930112555403903 -0.011988684356399265 0 0.081618392819382782 -0.0097514580539761822 0 0.081150359404392441 -0.01157334142207608 0 0.080308325742635633 -0.010508169697789324 0 0.079827743425315498 -0.012253870214998469 0 0.081150359404392441 -0.01157334142207608 0 0.080308325742635633 -0.010508169697789324 0 0.079827743425315498 -0.012253870214998469 0 0.081150359404392441 -0.01157334142207608 0 0.080457129509653669 -0.012887597961969244 0 0.080457129509653669 -0.012887597961969244 0 0.081261586075534048 -0.012614824857968727 0 0.080689133139841593 -0.013766008711329656 0 0.081150359404392441 -0.01157334142207608 0 0.080457129509653669 -0.012887597961969244 0 0.081261586075534048 -0.012614824857968727 0 0.080689133139841593 -0.013766008711329656 0 0.081185440068864356 -0.014332457370755914 0 0.081678368692033196 -0.013392524238073999 0 0.081261586075534048 -0.012614824857968727 0 0.080689133139841593 -0.013766008711329656 0 0.081678368692033196 -0.013392524238073999 0 0.079409346140899437 -0.014115442808599834 0 0.080457129509653669 -0.012887597961969244 0 0.080689133139841593 -0.013766008711329656 0 0.080689133139841593 -0.013766008711329656 0 0.080222708675595486 -0.01493672751671889 0 0.081185440068864356 -0.014332457370755914 0 0.081761877340629507 -0.01661339944715981 0 0.080222708675595486 -0.01493672751671889 0 0.081490337356355261 -0.015132133436799346 0 0.079409346140899437 -0.014115442808599834 0 0.080689133139841593 -0.013766008711329656 0 0.080222708675595486 -0.01493672751671889 0 0.080222708675595486 -0.01493672751671889 0 0.081185440068864356 -0.014332457370755914 0 0.081490337356355261 -0.015132133436799346 0 0.081185440068864356 -0.014332457370755914 0 0.081490337356355261 -0.015132133436799346 0 0.081900165203269301 -0.014384303383647518 0 0.083007295616798718 -0.015847891132826291 0 0.082270252608399846 -0.015034326909310959 0 0.082808742546291322 -0.01403992687692791 0 0.084944162603648954 -0.010146363433061797 0 0.08499913607650994 -0.010177657198921296 0 0.081761877340629507 -0.01661339944715981 0 0.081490337356355261 -0.015132133436799346 0 0.082270252608399846 -0.015034326909310959 0 0.082270252608399846 -0.015034326909310959 0 0.081900165203269301 -0.014384303383647518 0 0.082808742546291322 -0.01403992687692791 0 0.081490337356355261 -0.015132133436799346 0 0.082270252608399846 -0.015034326909310959 0 0.081900165203269301 -0.014384303383647518 0 0.081185440068864356 -0.014332457370755914 0 0.081900165203269301 -0.014384303383647518 0 0.081678368692033196 -0.013392524238073999 0 0.081900165203269301 -0.014384303383647518 0 0.082808742546291322 -0.01403992687692791 0 0.082183537690033961 -0.013603643005784236 0 0.082808742546291322 -0.01403992687692791 0 0.082183537690033961 -0.013603643005784236 0 0.082470845289221981 -0.012541076420623494 0 0.08499913607650994 -0.010177657198921296 0 0.084939521962567863 -0.010544620101712678 0 0.0825496179721249 -0.013229393505712126 0 0.082470845289221981 -0.012541076420623494 0 0.083299207771189376 -0.012719529144666491 0 0.081900165203269301 -0.014384303383647518 0 0.082183537690033961 -0.013603643005784236 0 0.081678368692033196 -0.013392524238073999 0 0.082183537690033961 -0.013603643005784236 0 0.081678368692033196 -0.013392524238073999 0 0.082470845289221981 -0.012541076420623494 0 0.081678368692033196 -0.013392524238073999 0 0.081930112555403903 -0.011988684356399265 0 0.082470845289221981 -0.012541076420623494 0 0.081261586075534048 -0.012614824857968727 0 0.081678368692033196 -0.013392524238073999 0 0.081930112555403903 -0.011988684356399265 0 0.082511560046323443 -0.011021064562330415 0 0.082470845289221981 -0.012541076420623494 0 0.083655717384264403 -0.011819034621105529 0 0.083655717384264403 -0.011819034621105529 0 0.083299207771189376 -0.012719529144666491 0 0.084659500881813676 -0.013387004111367085 0 0.082470845289221981 -0.012541076420623494 0 0.083655717384264403 -0.011819034621105529 0 0.083299207771189376 -0.012719529144666491 0 0.0825496179721249 -0.013229393505712126 0 0.083299207771189376 -0.012719529144666491 0 0.084659500881813676 -0.013387004111367085 0 0.084944162603648954 -0.010146363433061797 0 0.085208690354569655 -0.0089548408301192151 0 0.08499913607650994 -0.010177657198921296 0 0.085208690354569655 -0.0089548408301192151 0 0.084911670239267295 -0.0096434411738790509 0 0.084898253088624615 -0.0095459470457680082 0 0.085042789725046586 -0.0095565969232437268 0 0.08149712133899327 0.0055632822388092589 0 0.08065010789440849 0.0056467824923034501 0 0.082104914154098166 0.0066178400128092275 0 0.082439726986840933 0.0055992234081853358 0 0.082104914154098166 0.0066178400128092275 0 0.083948732291126593 0.0064810440452000885 0 0.085208690354569655 -0.0089548408301192151 0 0.085387703488856603 -0.0050872820370662852 0 0.082439726986840933 0.0055992234081853358 0 0.08149712133899327 0.0055632822388092589 0 0.082104914154098166 0.0066178400128092275 0 0.085208690354569655 -0.0089548408301192151 0 0.085182802747624978 -0.0099806906285493657 0 0.084659500881813676 -0.013387004111367085 0 0.085147453571182599 -0.010978366800279197 0 0.087172098221566671 -0.011581344920710904 0 0.083655717384264403 -0.011819034621105529 0 0.084659500881813676 -0.013387004111367085 0 0.085147453571182599 -0.010978366800279197 0 0.085147453571182599 -0.010978366800279197 0 0.083800043142725419 -0.010352294226374695 0 0.084728069234010758 -0.0089807970074498172 0 0.085147453571182599 -0.010978366800279197 0 0.084728069234010758 -0.0089807970074498172 0 0.086332129251135467 -0.0091541220445321564 0 0.083655717384264403 -0.011819034621105529 0 0.085147453571182599 -0.010978366800279197 0 0.083800043142725419 -0.010352294226374695 0 0.082511560046323443 -0.011021064562330415 0 0.083800043142725419 -0.010352294226374695 0 0.083049663255166647 -0.0089317093507392635 0 0.082511560046323443 -0.011021064562330415 0 0.083655717384264403 -0.011819034621105529 0 0.083800043142725419 -0.010352294226374695 0 0.083049663255166647 -0.0089317093507392635 0 0.084728069234010758 -0.0089807970074498172 0 0.084307435736856617 -0.0070400566719261782 0 0.083800043142725419 -0.010352294226374695 0 0.083049663255166647 -0.0089317093507392635 0 0.084728069234010758 -0.0089807970074498172 0 0.084728069234010758 -0.0089807970074498172 0 0.08581101555761797 -0.007004381315962145 0 0.084307435736856617 -0.0070400566719261782 0 0.084728069234010758 -0.0089807970074498172 0 0.08581101555761797 -0.007004381315962145 0 0.086332129251135467 -0.0091541220445321564 0 0.08581101555761797 -0.007004381315962145 0 0.08472184547489435 -0.0046964967327279405 0 0.086308924392031014 -0.0041090471529774322 0 0.08581101555761797 -0.007004381315962145 0 0.084307435736856617 -0.0070400566719261782 0 0.08472184547489435 -0.0046964967327279405 0 0.084307435736856617 -0.0070400566719261782 0 0.083413197048810173 -0.0050745992513091523 0 0.082310420143313426 -0.0058619445116533716 0 0.083049663255166647 -0.0089317093507392635 0 0.084307435736856617 -0.0070400566719261782 0 0.082846707655294727 -0.0074048122128239306 0 0.083243794385321743 -0.0070268636433898427 0 0.082729635813206942 -0.0069332822197270671 0 0.083413197048810173 -0.0050745992513091523 0 0.08233498343574866 -0.0043687232907672581 0 0.082310420143313426 -0.0058619445116533716 0 0.084307435736856617 -0.0070400566719261782 0 0.083413197048810173 -0.0050745992513091523 0 0.08472184547489435 -0.0046964967327279405 0 0.083413197048810173 -0.0050745992513091523 0 0.083445708949294123 -0.0032965718198875249 0 0.08472184547489435 -0.0046964967327279405 0 0.083413197048810173 -0.0050745992513091523 0 0.083445708949294123 -0.0032965718198875249 0 0.08233498343574866 -0.0043687232907672581 0 0.083445708949294123 -0.0032965718198875249 0 0.08472184547489435 -0.0046964967327279405 0 0.08491385355176051 -0.0024443506550833219 0 0.08472184547489435 -0.0046964967327279405 0 0.08491385355176051 -0.0024443506550833219 0 0.086308924392031014 -0.0041090471529774322 0 0.08491385355176051 -0.0024443506550833219 0 0.084056942812870572 -0.00052016215854662679 0 0.086507958478758307 -0.0014681366068845763 0 0.085202020574659781 0.00092539971964365579 0 0.084056942812870572 -0.00052016215854662679 0 0.086507958478758307 -0.0014681366068845763 0 0.083445708949294123 -0.0032965718198875249 0 0.084056942812870572 -0.00052016215854662679 0 0.081486291380158227 -0.0029942144729860334 0 0.083445708949294123 -0.0032965718198875249 0 0.08491385355176051 -0.0024443506550833219 0 0.084056942812870572 -0.00052016215854662679 0 0.084056942812870572 -0.00052016215854662679 0 0.081486291380158227 -0.0029942144729860334 0 0.080927212385418709 -0.001206921332940483 0 0.083149116327433242 0.0014958850560691686 0 0.084056942812870572 -0.00052016215854662679 0 0.082018548933121882 -6.1507567809471742e-05 0 0.082853644511896668 -0.00057158933430644207 0 0.081475328886735768 -0.0006872898157562219 0 0.081475328886735768 -0.0006872898157562219 0 0.079213223747858039 -0.00089591268878961303 0 0.081486291380158227 -0.0029942144729860334 0 0.080927212385418709 -0.001206921332940483 0 0.079699802486664459 -0.0027247018440878122 0 0.080927212385418709 -0.001206921332940483 0 0.079699802486664459 -0.0027247018440878122 0 0.078745063037681709 -0.0015482578809826245 0 0.081486291380158227 -0.0029942144729860334 0 0.079699802486664459 -0.0027247018440878122 0 0.080351981120524496 -0.0038408171272084997 0 0.080351981120524496 -0.0038408171272084997 0 0.080792680344883822 -0.0048268447206967066 0 0.078760446581352631 -0.0039009655544219061 0 0.080351981120524496 -0.0038408171272084997 0 0.081166334035469814 -0.0046539548230246103 0 0.080792680344883822 -0.0048268447206967066 0 0.083445708949294123 -0.0032965718198875249 0 0.081486291380158227 -0.0029942144729860334 0 0.08233498343574866 -0.0043687232907672581 0 0.081486291380158227 -0.0029942144729860334 0 0.080351981120524496 -0.0038408171272084997 0 0.081166334035469814 -0.0046539548230246103 0 0.081486291380158227 -0.0029942144729860334 0 0.08233498343574866 -0.0043687232907672581 0 0.081166334035469814 -0.0046539548230246103 0 0.082729635813206942 -0.0069332822197270671 0 0.082033800768853582 -0.0068643982332488359 0 0.081166334035469814 -0.0046539548230246103 0 0.082310420143313426 -0.0058619445116533716 0 0.080633636465865383 -0.0050664890310820132 0 0.082846707655294727 -0.0074048122128239306 0 0.081892553653742803 -0.0082404053067557884 0 0.08127671223519066 -0.0072258376089686755 0 0.082040591590712988 -0.0068135570459682869 0 0.082033800768853582 -0.0068643982332488359 0 0.08233498343574866 -0.0043687232907672581 0 0.081166334035469814 -0.0046539548230246103 0 0.082310420143313426 -0.0058619445116533716 0 0.083049663255166647 -0.0089317093507392635 0 0.082846707655294727 -0.0074048122128239306 0 0.081892553653742803 -0.0082404053067557884 0 0.082033800768853582 -0.0068643982332488359 0 0.080456234785530545 -0.0054664133841029871 0 0.081183282501834445 -0.0089986983530931965 0 0.082033800768853582 -0.0068643982332488359 0 0.079347284187995762 -0.0091543424644588388 0 0.080887804479917447 -0.0089697018463972076 0 0.08127671223519066 -0.0072258376089686755 0 0.080887804479917447 -0.0089697018463972076 0 0.081892553653742803 -0.0082404053067557884 0 0.08127671223519066 -0.0072258376089686755 0 0.084153137406531575 -0.0095508752144968807 0 0.088155898738006028 -0.0063137193997290786 0 0.082599419580086902 -0.0049427664622678658 0 0.084153137406531575 -0.0095508752144968807 0 0.080565420831843079 -0.0076678451146202737 0 0.082599419580086902 -0.0049427664622678658 0 0.080565420831843079 -0.0076678451146202737 0 0.079080013917183181 -0.0057258238841394766 0 0.082599419580086902 -0.0049427664622678658 0 0.081287370460868744 -0.0098520161503869736 0 0.080565420831843079 -0.0076678451146202737 0 0.07698469271454729 -0.0079320083280545392 0 0.080565420831843079 -0.0076678451146202737 0 0.079080013917183181 -0.0057258238841394766 0 0.078231129897016402 -0.0066944858793290324 0 0.080456234785530545 -0.0054664133841029871 0 0.078727832461647079 -0.0047652519550520885 0 0.079080013917183181 -0.0057258238841394766 0 0.082599419580086902 -0.0049427664622678658 0 0.07679363996851242 -0.0034437690811822907 0 0.078760446581352631 -0.0039009655544219061 0 0.078239906637234818 -0.0027426562645317541 0 0.07679363996851242 -0.0034437690811822907 0 0.079699802486664459 -0.0027247018440878122 0 0.080351981120524496 -0.0038408171272084997 0 0.078760446581352631 -0.0039009655544219061 0 0.079699802486664459 -0.0027247018440878122 0 0.078760446581352631 -0.0039009655544219061 0 0.078239906637234818 -0.0027426562645317541 0 0.079699802486664459 -0.0027247018440878122 0 0.078745063037681709 -0.0015482578809826245 0 0.078239906637234818 -0.0027426562645317541 0 0.080063697221614591 0.0019773107756536862 0 0.082018548933121882 -6.1507567809471742e-05 0 0.07972124067102436 -0.00029502268372149612 0 0.07972124067102436 -0.00029502268372149612 0 0.076536884276482448 -0.0011317082978883554 0 0.077474606298193083 0.00011094064346980696 0 0.078235463537604022 0.0013848008781070251 0 0.07972124067102436 -0.00029502268372149612 0 0.077474606298193083 0.00011094064346980696 0 0.080063697221614591 0.0019773107756536862 0 0.078235463537604022 0.0013848008781070251 0 0.07972124067102436 -0.00029502268372149612 0 0.079213223747858039 -0.00089591268878961303 0 0.077775142335515399 -0.0010255855784909694 0 0.078745063037681709 -0.0015482578809826245 0 0.078239906637234818 -0.0027426562645317541 0 0.077026423805102912 -0.0022276319578719665 0 0.078745063037681709 -0.0015482578809826245 0 0.077026423805102912 -0.0022276319578719665 0 0.076536884276482448 -0.0011317082978883554 0 0.076536884276482448 -0.0011317082978883554 0 0.075948030156115107 -0.0005584458054378981 0 0.076189788206281944 -0.003104524041354615 0 0.076611740430171119 -0.0014187705743077853 0 0.077095213790625561 -0.0044348731083098877 0 0.077026423805102912 -0.0022276319578719665 0 0.076536884276482448 -0.0011317082978883554 0 0.076189788206281944 -0.003104524041354615 0 0.076536884276482448 -0.0011317082978883554 0 0.077474606298193083 0.00011094064346980696 0 0.075948030156115107 -0.0005584458054378981 0 0.07681412878184915 0.0011744104121664679 0 0.077474606298193083 0.00011094064346980696 0 0.075948030156115107 -0.0005584458054378981 0 0.078235463537604022 0.0013848008781070251 0 0.07681412878184915 0.0011744104121664679 0 0.077474606298193083 0.00011094064346980696 0 0.075695739181730656 0.0023578488884059418 0 0.07681412878184915 0.0011744104121664679 0 0.075948030156115107 -0.0005584458054378981 0 0.076186829374375403 0.0012477235200225761 0 0.076611740430171119 -0.0014187705743077853 0 0.074999978855169708 0.0017236128880675319 0 0.077229629390534918 -0.0019104434462176197 0 0.074999993831394718 -0.0027034172004719061 0 0.074999993831394718 -0.0027034172004719061 0 0.076641054736741321 -0.003799408844713192 0 0.074999995996418212 -0.0071301634332809304 0 0.077229629390534918 -0.0019104434462176197 0 0.076641054736741321 -0.003799408844713192 0 0.077873812557046118 -0.0053417417983760368 0 0.077229629390534918 -0.0019104434462176197 0 0.074999993831394718 -0.0027034172004719061 0 0.076641054736741321 -0.003799408844713192 0 0.076641054736741321 -0.003799408844713192 0 0.077873812557046118 -0.0053417417983760368 0 0.074999995996418212 -0.0071301634332809304 0 0.078239906637234818 -0.0027426562645317541 0 0.077026423805102912 -0.0022276319578719665 0 0.07679363996851242 -0.0034437690811822907 0 0.077026423805102912 -0.0022276319578719665 0 0.07679363996851242 -0.0034437690811822907 0 0.076189788206281944 -0.003104524041354615 0 0.079080013917183181 -0.0057258238841394766 0 0.07679363996851242 -0.0034437690811822907 0 0.077373199325184355 -0.005333488705255315 0 0.076189788206281944 -0.003104524041354615 0 0.077373199325184355 -0.005333488705255315 0 0.077173266922539369 -0.0060628464559399154 0 0.07679363996851242 -0.0034437690811822907 0 0.076189788206281944 -0.003104524041354615 0 0.077373199325184355 -0.005333488705255315 0 0.080565420831843079 -0.0076678451146202737 0 0.078231129897016402 -0.0066944858793290324 0 0.07698469271454729 -0.0079320083280545392 0 0.076189788206281944 -0.003104524041354615 0 0.077173266922539369 -0.0060628464559399154 0 0.07698469271454729 -0.0079320083280545392 0 0.077095213790625561 -0.0044348731083098877 0 0.077575573382823615 -0.0074019742180127983 0 0.079080013917183181 -0.0057258238841394766 0 0.077373199325184355 -0.005333488705255315 0 0.078231129897016402 -0.0066944858793290324 0 0.077173266922539369 -0.0060628464559399154 0 0.078231129897016402 -0.0066944858793290324 0 0.07698469271454729 -0.0079320083280545392 0 0.077373199325184355 -0.005333488705255315 0 0.077173266922539369 -0.0060628464559399154 0 0.078231129897016402 -0.0066944858793290324 0 0.077575573382823615 -0.0074019742180127983 0 0.077583787736488635 -0.0074320208360656873 0 0.076535723509598932 -0.0093938502022766004 0 0.077674154175232338 -0.0097097098357701722 0 0.078423917973539856 -0.0087813897178346291 0 0.077674154175232338 -0.0097097098357701722 0 0.078423917973539856 -0.0087813897178346291 0 0.078497157240048673 -0.0092404713317669508 0 0.074999944269496438 -0.010371332428931042 0 0.076535723509598932 -0.0093938502022766004 0 0.07499999619028741 -0.0071303186466614701 0 0.077575573382823615 -0.0074019742180127983 0 0.075003169583513468 -0.0071300805537640732 0 0.077873812557046118 -0.0053417417983760368 0 0.078514981092305272 -0.0087541996546191859 0 0.074999995996418212 -0.0071301634332809304 0 0.076535723509598932 -0.0093938502022766004 0 0.078423917973539856 -0.0087813897178346291 0 0.07499999619028741 -0.0071303186466614701 0 0.085773124403796877 0.0029805309145887111 0 0.086623270727747476 0.0012050677941923022 0 0.085347926525176782 0.0018098118175020343 0 0.085773124403796877 0.0029805309145887111 0 0.084284815355284912 0.0031028654496088855 0 0.084888137776814102 0.0040487470393279412 0 0.085773124403796877 0.0029805309145887111 0 0.085347926525176782 0.0018098118175020343 0 0.084284815355284912 0.0031028654496088855 0 0.085773124403796877 0.0029805309145887111 0 0.086746466557809418 0.00256268528934383 0 0.086623270727747476 0.0012050677941923022 0 0.085773124403796877 0.0029805309145887111 0 0.086746466557809418 0.00256268528934383 0 0.086437567833773515 0.0036398769910603824 0 0.086623270727747476 0.0012050677941923022 0 0.085347926525176782 0.0018098118175020343 0 0.085804855866223023 0.00027832560050013383 0 0.085347926525176782 0.0018098118175020343 0 0.084018240158307764 0.00085585844744042968 0 0.085804855866223023 0.00027832560050013383 0 0.084018240158307764 0.00085585844744042968 0 0.084162857923837847 0.0020789783941286381 0 0.082862930427368711 0.0025551208314799389 0 0.085347926525176782 0.0018098118175020343 0 0.084018240158307764 0.00085585844744042968 0 0.084162857923837847 0.0020789783941286381 0 0.084018240158307764 0.00085585844744042968 0 0.082229951024302458 0.0014974273879485563 0 0.082862930427368711 0.0025551208314799389 0 0.082229951024302458 0.0014974273879485563 0 0.081569019846738144 0.00054892325002503192 0 0.08065254212649535 0.0015988885290395909 0 0.084018240158307764 0.00085585844744042968 0 0.082229951024302458 0.0014974273879485563 0 0.082829269484816059 0.00044580047132512031 0 0.082229951024302458 0.0014974273879485563 0 0.081569019846738144 0.00054892325002503192 0 0.082829269484816059 0.00044580047132512031 0 0.082229951024302458 0.0014974273879485563 0 0.081095424758822643 0.0027010869775153279 0 0.082862930427368711 0.0025551208314799389 0 0.082229951024302458 0.0014974273879485563 0 0.081095424758822643 0.0027010869775153279 0 0.08065254212649535 0.0015988885290395909 0 0.081095424758822643 0.0027010869775153279 0 0.082862930427368711 0.0025551208314799389 0 0.081204308433013003 0.0037365375371078654 0 0.082862930427368711 0.0025551208314799389 0 0.081204308433013003 0.0037365375371078654 0 0.082628313837688414 0.0039212038672514337 0 0.085347926525176782 0.0018098118175020343 0 0.084162857923837847 0.0020789783941286381 0 0.084284815355284912 0.0031028654496088855 0 0.084162857923837847 0.0020789783941286381 0 0.082862930427368711 0.0025551208314799389 0 0.084284815355284912 0.0031028654496088855 0 0.082862930427368711 0.0025551208314799389 0 0.084284815355284912 0.0031028654496088855 0 0.082628313837688414 0.0039212038672514337 0 0.084284815355284912 0.0031028654496088855 0 0.083862739042636719 0.0042960553609001856 0 0.084888137776814102 0.0040487470393279412 0 0.084284815355284912 0.0031028654496088855 0 0.083862739042636719 0.0042960553609001856 0 0.082628313837688414 0.0039212038672514337 0 0.083862739042636719 0.0042960553609001856 0 0.08280162409416611 0.0054206419358456253 0 0.084388578397691594 0.0048540208323655243 0 0.083862739042636719 0.0042960553609001856 0 0.084388578397691594 0.0048540208323655243 0 0.084888137776814102 0.0040487470393279412 0 0.081204308433013003 0.0037365375371078654 0 0.081223456984588521 0.0045199461692295145 0 0.082628313837688414 0.0039212038672514337 0 0.083862739042636719 0.0042960553609001856 0 0.082628313837688414 0.0039212038672514337 0 0.08280162409416611 0.0054206419358456253 0 0.081223456984588521 0.0045199461692295145 0 0.082628313837688414 0.0039212038672514337 0 0.08280162409416611 0.0054206419358456253 0 0.081223456984588521 0.0045199461692295145 0 0.08280162409416611 0.0054206419358456253 0 0.080541244060881673 0.0054367295076405775 0 0.084349333479172117 0.0088871912971634579 0 0.08280162409416611 0.0054206419358456253 0 0.081008522967303445 0.0073812822075329607 0 0.08280162409416611 0.0054206419358456253 0 0.081008522967303445 0.0073812822075329607 0 0.080541244060881673 0.0054367295076405775 0 0.080610080815822688 0.0052234457910582286 0 0.081295854112383367 0.0057045981003936118 0 0.084757131652330564 0.00522590748111994 0 0.08280162409416611 0.0054206419358456253 0 0.084239873385841019 0.0051688678682337546 0 0.08280162409416611 0.0054206419358456253 0 0.084388578397691594 0.0048540208323655243 0 0.084239873385841019 0.0051688678682337546 0 0.084388578397691594 0.0048540208323655243 0 0.084239873385841019 0.0051688678682337546 0 0.084886057758593175 0.0050520583631469499 0 0.084757131652330564 0.00522590748111994 0 0.084239873385841019 0.0051688678682337546 0 0.084886057758593175 0.0050520583631469499 0 0.084886057758593175 0.0050520583631469499 0 0.085408677768538985 0.0048727185395947194 0 0.085208445757932183 0.004630899204901868 0 0.085408677768538985 0.0048727185395947194 0 0.085208445757932183 0.004630899204901868 0 0.085807470539671776 0.0046632537167010466 0 0.085208445757932183 0.004630899204901868 0 0.085770708524023728 0.0041027851038484119 0 0.085807470539671776 0.0046632537167010466 0 0.084388578397691594 0.0048540208323655243 0 0.084886057758593175 0.0050520583631469499 0 0.085208445757932183 0.004630899204901868 0 0.084388578397691594 0.0048540208323655243 0 0.085208445757932183 0.004630899204901868 0 0.084888137776814102 0.0040487470393279412 0 0.085773124403796877 0.0029805309145887111 0 0.084888137776814102 0.0040487470393279412 0 0.085770708524023728 0.0041027851038484119 0 0.085208445757932183 0.004630899204901868 0 0.084888137776814102 0.0040487470393279412 0 0.085770708524023728 0.0041027851038484119 0 0.085773124403796877 0.0029805309145887111 0 0.086437567833773515 0.0036398769910603824 0 0.085770708524023728 0.0041027851038484119 0 0.086437567833773515 0.0036398769910603824 0 0.085770708524023728 0.0041027851038484119 0 0.086248299215753457 0.0043641655669167867 0 0.085770708524023728 0.0041027851038484119 0 0.086248299215753457 0.0043641655669167867 0 0.085807470539671776 0.0046632537167010466 0 0.086159515690539673 0.0047319043393528777 0 0.086248299215753457 0.0043641655669167867 0 0.085807470539671776 0.0046632537167010466 0 0.086159515690539673 0.0047319043393528777 0 0.086248299215753457 0.0043641655669167867 0 0.086521895617631489 0.0046004195748832405 0 0.086248299215753457 0.0043641655669167867 0 0.086521895617631489 0.0046004195748832405 0 0.086680530626216432 0.0040666073977220583 0 0.086521895617631489 0.0046004195748832405 0 0.087092623293724816 0.0041219251205347899 0 0.086680530626216432 0.0040666073977220583 0 0.086521895617631489 0.0046004195748832405 0 0.086810015386522013 0.0045145650625682413 0 0.087092623293724816 0.0041219251205347899 0 0.086521895617631489 0.0046004195748832405 0 0.086573848370903067 0.0047494262883590347 0 0.086810015386522013 0.0045145650625682413 0 0.086290027133405681 0.0048060444572864949 0 0.086521895617631489 0.0046004195748832405 0 0.086573848370903067 0.0047494262883590347 0 0.086099300920655597 0.0049846448301883702 0 0.086573848370903067 0.0047494262883590347 0 0.087144000310578826 0.0045336982752045641 0 0.086573848370903067 0.0047494262883590347 0 0.087144000310578826 0.0045336982752045641 0 0.087091731521878407 0.0045356300543254137 0 0.086573848370903067 0.0047494262883590347 0 0.086810015386522013 0.0045145650625682413 0 0.087091731521878407 0.0045356300543254137 0 0.084911503135163338 -0.0002081080941015362 0 0.084869098273580246 -0.0020692185935331786 0 0.086099300920655597 0.0049846448301883702 0 0.086000295965905263 0.0063127366440369941 0 0.084880404633930581 0.0056825713857081373 0 0.084869098273580246 -0.0020692185935331786 0 0.084885350608474602 -0.0020554155666901212 0 0.086810015386522013 0.0045145650625682413 0 0.087091731521878407 0.0045356300543254137 0 0.087092623293724816 0.0041219251205347899 0 0.087294308528635692 0.004517894698222568 0 0.087091731521878407 0.0045356300543254137 0 0.087092623293724816 0.0041219251205347899 0 0.084869098273580246 -0.0020692185935331786 0 0.087051826729915321 -0.0036478564558021899 0 0.087294308528635692 0.004517894698222568 0 0.087092623293724816 0.0041219251205347899 0 0.08831520985250095 0.0029663705642799035 0 0.087092623293724816 0.0041219251205347899 0 0.087221594104585562 0.0032913167672221988 0 0.08831520985250095 0.0029663705642799035 0 0.090363248375542868 -0.013789031538128176 0 0.088836625604700764 -0.012209917004822133 0 0.09026020047076759 -0.01105265276846204 0 0.086746466557809418 0.00256268528934383 0 0.086437567833773515 0.0036398769910603824 0 0.087221594104585562 0.0032913167672221988 0 0.086437567833773515 0.0036398769910603824 0 0.086248299215753457 0.0043641655669167867 0 0.086680530626216432 0.0040666073977220583 0 0.086437567833773515 0.0036398769910603824 0 0.087221594104585562 0.0032913167672221988 0 0.086680530626216432 0.0040666073977220583 0 0.087092623293724816 0.0041219251205347899 0 0.087221594104585562 0.0032913167672221988 0 0.086680530626216432 0.0040666073977220583 0 0.083976311283234642 0.0054487483950958196 0 0.082439726986840933 0.0055992234081853358 0 0.083948732291126593 0.0064810440452000885 0 0.086000295965905263 0.0063127366440369941 0 0.083948732291126593 0.0064810440452000885 0 0.084880404633930581 0.0056825713857081373 0 0.084869098273580246 -0.0020692185935331786 0 0.085387703488856603 -0.0050872820370662852 0 0.090363248375542868 -0.013789031538128176 0 0.08742377845154034 -0.013534763799161117 0 0.088836625604700764 -0.012209917004822133 0 0.083976311283234642 0.0054487483950958196 0 0.083948732291126593 0.0064810440452000885 0 0.084880404633930581 0.0056825713857081373 0 0.08455747426051187 -0.013273919758339602 0 0.08742377845154034 -0.013534763799161117 0 0.087172098221566671 -0.011581344920710904 0 0.08742377845154034 -0.013534763799161117 0 0.088836625604700764 -0.012209917004822133 0 0.087172098221566671 -0.011581344920710904 0 0.085147453571182599 -0.010978366800279197 0 0.087172098221566671 -0.011581344920710904 0 0.086332129251135467 -0.0091541220445321564 0 0.087172098221566671 -0.011581344920710904 0 0.088390523911386631 -0.009835655507301545 0 0.086332129251135467 -0.0091541220445321564 0 0.088836625604700764 -0.012209917004822133 0 0.087172098221566671 -0.011581344920710904 0 0.088390523911386631 -0.009835655507301545 0 0.088390523911386631 -0.009835655507301545 0 0.09026020047076759 -0.01105265276846204 0 0.090114529862205722 -0.0080837157736695017 0 0.088836625604700764 -0.012209917004822133 0 0.088390523911386631 -0.009835655507301545 0 0.09026020047076759 -0.01105265276846204 0 0.088390523911386631 -0.009835655507301545 0 0.090114529862205722 -0.0080837157736695017 0 0.087666264625563317 -0.0065911475103163477 0 0.088390523911386631 -0.009835655507301545 0 0.086332129251135467 -0.0091541220445321564 0 0.087666264625563317 -0.0065911475103163477 0 0.08581101555761797 -0.007004381315962145 0 0.086332129251135467 -0.0091541220445321564 0 0.087666264625563317 -0.0065911475103163477 0 0.086746466557809418 0.00256268528934383 0 0.087221594104585562 0.0032913167672221988 0 0.087620368942674345 0.0018333555717626264 0 0.08831520985250095 0.0029663705642799035 0 0.088882128859240031 0.0010122208434937038 0 0.087620368942674345 0.0018333555717626264 0 0.087051826729915321 -0.0036478564558021899 0 0.088092323748700921 -0.003494642354337594 0 0.087221594104585562 0.0032913167672221988 0 0.08831520985250095 0.0029663705642799035 0 0.087620368942674345 0.0018333555717626264 0 0.088882128859240031 0.0010122208434937038 0 0.087620368942674345 0.0018333555717626264 0 0.087897769850479909 -0.0001849458733885907 0 0.086623270727747476 0.0012050677941923022 0 0.087620368942674345 0.0018333555717626264 0 0.087897769850479909 -0.0001849458733885907 0 0.086746466557809418 0.00256268528934383 0 0.086623270727747476 0.0012050677941923022 0 0.087620368942674345 0.0018333555717626264 0 0.088092323748700921 -0.003494642354337594 0 0.088468199921845972 -0.0029617380759607162 0 0.088882128859240031 0.0010122208434937038 0 0.087897769850479909 -0.0001849458733885907 0 0.088897246264263971 -0.00077582302243951306 0 0.087897769850479909 -0.0001849458733885907 0 0.088267912691691583 -0.0013337473856563612 0 0.088897246264263971 -0.00077582302243951306 0 0.088267912691691583 -0.0013337473856563612 0 0.088897246264263971 -0.00077582302243951306 0 0.088433606184656885 -0.0017838608818976295 0 0.088468199921845972 -0.0029617380759607162 0 0.088504844768111046 -0.0025845189026602973 0 0.087897769850479909 -0.0001849458733885907 0 0.088267912691691583 -0.0013337473856563612 0 0.08779258284355658 -0.0013789026087648831 0 0.087897769850479909 -0.0001849458733885907 0 0.08779258284355658 -0.0013789026087648831 0 0.087025304606790491 -0.00063617292463585134 0 0.08581101555761797 -0.007004381315962145 0 0.087666264625563317 -0.0065911475103163477 0 0.086308924392031014 -0.0041090471529774322 0 0.090114529862205722 -0.0080837157736695017 0 0.089673034582582689 -0.0048793282350760026 0 0.087666264625563317 -0.0065911475103163477 0 0.089673034582582689 -0.0048793282350760026 0 0.087838649135900143 -0.0034372055062859008 0 0.088433606184656885 -0.0017838608818976295 0 0.089673034582582689 -0.0048793282350760026 0 0.087666264625563317 -0.0065911475103163477 0 0.087838649135900143 -0.0034372055062859008 0 0.087666264625563317 -0.0065911475103163477 0 0.087838649135900143 -0.0034372055062859008 0 0.086308924392031014 -0.0041090471529774322 0 0.08491385355176051 -0.0024443506550833219 0 0.086308924392031014 -0.0041090471529774322 0 0.086507958478758307 -0.0014681366068845763 0 0.087838649135900143 -0.0034372055062859008 0 0.086308924392031014 -0.0041090471529774322 0 0.086507958478758307 -0.0014681366068845763 0 0.087838649135900143 -0.0034372055062859008 0 0.086507958478758307 -0.0014681366068845763 0 0.088433606184656885 -0.0017838608818976295 0 0.087116755700829232 0.00023254827996689137 0 0.086507958478758307 -0.0014681366068845763 0 0.088433606184656885 -0.0017838608818976295 0 0.08800513348414947 -0.00042266641395097179 0 0.087116755700829232 0.00023254827996689137 0 0.088433606184656885 -0.0017838608818976295 0 0.087116755700829232 0.00023254827996689137 0 0.085202020574659781 0.00092539971964365579 0 0.086507958478758307 -0.0014681366068845763 0 0.08779258284355658 -0.0013789026087648831 0 0.088097909316420156 -0.0017196707558222557 0 0.087461072089317624 -0.0020064871562895576 0 0.088267912691691583 -0.0013337473856563612 0 0.08779258284355658 -0.0013789026087648831 0 0.088097909316420156 -0.0017196707558222557 0 0.088097909316420156 -0.0017196707558222557 0 0.087848216222405476 -0.0018881373665537088 0 0.087461072089317624 -0.0020064871562895576 0 0.088267912691691583 -0.0013337473856563612 0 0.088097909316420156 -0.0017196707558222557 0 0.088433606184656885 -0.0017838608818976295 0 0.08800513348414947 -0.00042266641395097179 0 0.088097909316420156 -0.0017196707558222557 0 0.088433606184656885 -0.0017838608818976295 0 0.08800513348414947 -0.00042266641395097179 0 0.088097909316420156 -0.0017196707558222557 0 0.087848216222405476 -0.0018881373665537088 0 0.087793943691185608 -0.00077631315328767004 0 0.087848216222405476 -0.0018881373665537088 0 0.087839114985332853 -0.0020789822062716773 0 0.087848216222405476 -0.0018881373665537088 0 0.087839114985332853 -0.0020789822062716773 0 0.087453397731739241 -0.0028075841953174598 0 0.087839114985332853 -0.0020789822062716773 0 0.087761161054920558 -0.003289006941454013 0 0.087453397731739241 -0.0028075841953174598 0 0.088227817883714837 -0.0015966147680559139 0 0.087839114985332853 -0.0020789822062716773 0 0.087761161054920558 -0.003289006941454013 0 0.087761161054920558 -0.003289006941454013 0 0.087453397731739241 -0.0028075841953174598 0 0.087004363460290862 -0.0036116367733793659 0 0.087453397731739241 -0.0028075841953174598 0 0.086730501189667561 -0.0024656220052762926 0 0.087461072089317624 -0.0020064871562895576 0 0.087453397731739241 -0.0028075841953174598 0 0.086730501189667561 -0.0024656220052762926 0 0.087004363460290862 -0.0036116367733793659 0 0.087848216222405476 -0.0018881373665537088 0 0.087453397731739241 -0.0028075841953174598 0 0.087461072089317624 -0.0020064871562895576 0 0.08779258284355658 -0.0013789026087648831 0 0.087461072089317624 -0.0020064871562895576 0 0.087025304606790491 -0.00063617292463585134 0 0.087461072089317624 -0.0020064871562895576 0 0.086335249955793572 -0.0012579106945574026 0 0.087025304606790491 -0.00063617292463585134 0 0.086730501189667561 -0.0024656220052762926 0 0.087461072089317624 -0.0020064871562895576 0 0.086335249955793572 -0.0012579106945574026 0 0.086730501189667561 -0.0024656220052762926 0 0.086335249955793572 -0.0012579106945574026 0 0.085674860699173822 -0.0018082243567010736 0 0.086335249955793572 -0.0012579106945574026 0 0.085003712096106271 -0.00047940755145449676 0 0.085674860699173822 -0.0018082243567010736 0 0.086335249955793572 -0.0012579106945574026 0 0.085804855866223023 0.00027832560050013383 0 0.085003712096106271 -0.00047940755145449676 0 0.086335249955793572 -0.0012579106945574026 0 0.085804855866223023 0.00027832560050013383 0 0.087025304606790491 -0.00063617292463585134 0 0.086623270727747476 0.0012050677941923022 0 0.085804855866223023 0.00027832560050013383 0 0.087025304606790491 -0.00063617292463585134 0 0.086623270727747476 0.0012050677941923022 0 0.087897769850479909 -0.0001849458733885907 0 0.087025304606790491 -0.00063617292463585134 0 0.082415228571898924 -0.00040113645047457666 0 0.083232941213698217 -0.0014335209061406102 0 0.08181269903388512 -0.0014297194866307128 0 0.082415228571898924 -0.00040113645047457666 0 0.083718137581808141 -0.0003709776491219523 0 0.083232941213698217 -0.0014335209061406102 0 0.082415228571898924 -0.00040113645047457666 0 0.08181269903388512 -0.0014297194866307128 0 0.080873217323259403 -0.00056722119376339966 0 0.082415228571898924 -0.00040113645047457666 0 0.081569019846738144 0.00054892325002503192 0 0.080873217323259403 -0.00056722119376339966 0 0.082415228571898924 -0.00040113645047457666 0 0.082829269484816059 0.00044580047132512031 0 0.083718137581808141 -0.0003709776491219523 0 0.082415228571898924 -0.00040113645047457666 0 0.081569019846738144 0.00054892325002503192 0 0.082829269484816059 0.00044580047132512031 0 0.084018240158307764 0.00085585844744042968 0 0.082829269484816059 0.00044580047132512031 0 0.083718137581808141 -0.0003709776491219523 0 0.084018240158307764 0.00085585844744042968 0 0.085804855866223023 0.00027832560050013383 0 0.085003712096106271 -0.00047940755145449676 0 0.084018240158307764 0.00085585844744042968 0 0.085003712096106271 -0.00047940755145449676 0 0.083718137581808141 -0.0003709776491219523 0 0.083718137581808141 -0.0003709776491219523 0 0.084562297864230446 -0.0013003146351864476 0 0.083232941213698217 -0.0014335209061406102 0 0.085003712096106271 -0.00047940755145449676 0 0.083718137581808141 -0.0003709776491219523 0 0.084562297864230446 -0.0013003146351864476 0 0.084562297864230446 -0.0013003146351864476 0 0.083985627276718822 -0.0028321043708640003 0 0.083232941213698217 -0.0014335209061406102 0 0.085003712096106271 -0.00047940755145449676 0 0.084562297864230446 -0.0013003146351864476 0 0.085674860699173822 -0.0018082243567010736 0 0.084562297864230446 -0.0013003146351864476 0 0.085674860699173822 -0.0018082243567010736 0 0.085618376634945911 -0.0027925178387431201 0 0.086730501189667561 -0.0024656220052762926 0 0.085674860699173822 -0.0018082243567010736 0 0.085618376634945911 -0.0027925178387431201 0 0.084562297864230446 -0.0013003146351864476 0 0.083985627276718822 -0.0028321043708640003 0 0.085618376634945911 -0.0027925178387431201 0 0.082720613302025792 -0.0023657303932317175 0 0.083985627276718822 -0.0028321043708640003 0 0.083232941213698217 -0.0014335209061406102 0 0.082720613302025792 -0.0023657303932317175 0 0.083985627276718822 -0.0028321043708640003 0 0.081583223183104139 -0.0034902458153304346 0 0.082720613302025792 -0.0023657303932317175 0 0.083232941213698217 -0.0014335209061406102 0 0.08181269903388512 -0.0014297194866307128 0 0.08181269903388512 -0.0014297194866307128 0 0.081583223183104139 -0.0034902458153304346 0 0.080189957744887783 -0.0020113389436638793 0 0.082720613302025792 -0.0023657303932317175 0 0.08181269903388512 -0.0014297194866307128 0 0.081583223183104139 -0.0034902458153304346 0 0.083985627276718822 -0.0028321043708640003 0 0.083617368957028759 -0.0044518104957398342 0 0.085726007571617149 -0.0039765294318540841 0 0.083985627276718822 -0.0028321043708640003 0 0.081583223183104139 -0.0034902458153304346 0 0.083617368957028759 -0.0044518104957398342 0 0.081583223183104139 -0.0034902458153304346 0 0.083617368957028759 -0.0044518104957398342 0 0.081734896102587884 -0.0059065835341456192 0 0.086730501189667561 -0.0024656220052762926 0 0.085618376634945911 -0.0027925178387431201 0 0.087004363460290862 -0.0036116367733793659 0 0.083985627276718822 -0.0028321043708640003 0 0.085618376634945911 -0.0027925178387431201 0 0.085726007571617149 -0.0039765294318540841 0 0.085726007571617149 -0.0039765294318540841 0 0.087004363460290862 -0.0036116367733793659 0 0.087394619692204759 -0.0048912230023479882 0 0.085618376634945911 -0.0027925178387431201 0 0.085726007571617149 -0.0039765294318540841 0 0.087004363460290862 -0.0036116367733793659 0 0.08506174588475017 -0.01174269332959646 0 0.087394619692204759 -0.0048912230023479882 0 0.084407805867301261 -0.0072544083552334186 0 0.087761161054920558 -0.003289006941454013 0 0.087004363460290862 -0.0036116367733793659 0 0.087394619692204759 -0.0048912230023479882 0 0.085726007571617149 -0.0039765294318540841 0 0.087394619692204759 -0.0048912230023479882 0 0.084407805867301261 -0.0072544083552334186 0 0.088942723345372968 -0.002684991153532709 0 0.087761161054920558 -0.003289006941454013 0 0.087394619692204759 -0.0048912230023479882 0 0.081734896102587884 -0.0059065835341456192 0 0.084407805867301261 -0.0072544083552334186 0 0.081410126560739912 -0.0082284711386634429 0 0.083617368957028759 -0.0044518104957398342 0 0.085726007571617149 -0.0039765294318540841 0 0.084407805867301261 -0.0072544083552334186 0 0.083617368957028759 -0.0044518104957398342 0 0.081734896102587884 -0.0059065835341456192 0 0.084407805867301261 -0.0072544083552334186 0 0.082412862702670009 -0.0096108186883321536 0 0.084407805867301261 -0.0072544083552334186 0 0.081410126560739912 -0.0082284711386634429 0 0.082412862702670009 -0.0096108186883321536 0 0.080919687723621028 -0.010371854784090908 0 0.081410126560739912 -0.0082284711386634429 0 0.081410126560739912 -0.0082284711386634429 0 0.079700585945439453 -0.0092464998607860571 0 0.079372948785891434 -0.007393137764751468 0 0.080919687723621028 -0.010371854784090908 0 0.081410126560739912 -0.0082284711386634429 0 0.079700585945439453 -0.0092464998607860571 0 0.081734896102587884 -0.0059065835341456192 0 0.081410126560739912 -0.0082284711386634429 0 0.079372948785891434 -0.007393137764751468 0 0.079372948785891434 -0.007393137764751468 0 0.076366876168986825 -0.0081457747012595675 0 0.078152382141157883 -0.0059249035123257179 0 0.079700585945439453 -0.0092464998607860571 0 0.079372948785891434 -0.007393137764751468 0 0.077661252681242451 -0.0097741973154331224 0 0.074665292901167593 -0.010703506304062768 0 0.076366876168986825 -0.0081457747012595675 0 0.07249167640259889 -0.0087979125439631954 0 0.074665292901167593 -0.010703506304062768 0 0.077661252681242451 -0.0097741973154331224 0 0.076366876168986825 -0.0081457747012595675 0 0.076366876168986825 -0.0081457747012595675 0 0.075277361152556191 -0.0062207479339508086 0 0.07249167640259889 -0.0087979125439631954 0 0.079372948785891434 -0.007393137764751468 0 0.077661252681242451 -0.0097741973154331224 0 0.076366876168986825 -0.0081457747012595675 0 0.076366876168986825 -0.0081457747012595675 0 0.075277361152556191 -0.0062207479339508086 0 0.078152382141157883 -0.0059249035123257179 0 0.075277361152556191 -0.0062207479339508086 0 0.077086316341144948 -0.0046883864562788308 0 0.075868587140759988 -0.0035456725371065482 0 0.075277361152556191 -0.0062207479339508086 0 0.077086316341144948 -0.0046883864562788308 0 0.078152382141157883 -0.0059249035123257179 0 0.077086316341144948 -0.0046883864562788308 0 0.078152382141157883 -0.0059249035123257179 0 0.079352147364310885 -0.0037205470926676512 0 0.08011406297617997 -0.0052297123359471938 0 0.078152382141157883 -0.0059249035123257179 0 0.079352147364310885 -0.0037205470926676512 0 0.081583223183104139 -0.0034902458153304346 0 0.08011406297617997 -0.0052297123359471938 0 0.079352147364310885 -0.0037205470926676512 0 0.081583223183104139 -0.0034902458153304346 0 0.081734896102587884 -0.0059065835341456192 0 0.08011406297617997 -0.0052297123359471938 0 0.081734896102587884 -0.0059065835341456192 0 0.079372948785891434 -0.007393137764751468 0 0.08011406297617997 -0.0052297123359471938 0 0.079372948785891434 -0.007393137764751468 0 0.08011406297617997 -0.0052297123359471938 0 0.078152382141157883 -0.0059249035123257179 0 0.068678810567638221 -0.01175652982771426 0 0.068889599479226835 -0.0090933169218306159 0 0.07249167640259889 -0.0087979125439631954 0 0.068889599479226835 -0.0090933169218306159 0 0.07249167640259889 -0.0087979125439631954 0 0.070676673805231932 -0.0074706347274848131 0 0.075277361152556191 -0.0062207479339508086 0 0.07249167640259889 -0.0087979125439631954 0 0.072496315305250525 -0.005419309309323563 0 0.07249167640259889 -0.0087979125439631954 0 0.072496315305250525 -0.005419309309323563 0 0.070676673805231932 -0.0074706347274848131 0 0.075277361152556191 -0.0062207479339508086 0 0.072496315305250525 -0.005419309309323563 0 0.075868587140759988 -0.0035456725371065482 0 0.072496315305250525 -0.005419309309323563 0 0.070676673805231932 -0.0074706347274848131 0 0.068896153070313063 -0.0064891043864101815 0 0.068889599479226835 -0.0090933169218306159 0 0.070676673805231932 -0.0074706347274848131 0 0.068896153070313063 -0.0064891043864101815 0 0.068889599479226835 -0.0090933169218306159 0 0.068896153070313063 -0.0064891043864101815 0 0.066377143584538223 -0.0083556714490695908 0 0.068896153070313063 -0.0064891043864101815 0 0.070193009623097463 -0.0031729438681368629 0 0.065214643896129951 -0.0061073286898785653 0 0.072496315305250525 -0.005419309309323563 0 0.068896153070313063 -0.0064891043864101815 0 0.070193009623097463 -0.0031729438681368629 0 0.070193009623097463 -0.0031729438681368629 0 0.07405169798205824 -0.0027331637460183988 0 0.073112737855979298 -0.00054551501072560204 0 0.072496315305250525 -0.005419309309323563 0 0.070193009623097463 -0.0031729438681368629 0 0.07405169798205824 -0.0027331637460183988 0 0.072496315305250525 -0.005419309309323563 0 0.07405169798205824 -0.0027331637460183988 0 0.075868587140759988 -0.0035456725371065482 0 0.07405169798205824 -0.0027331637460183988 0 0.073112737855979298 -0.00054551501072560204 0 0.075390315986166342 -0.00087398771008323527 0 0.075128302497153063 0.00058483039098707686 0 0.073112737855979298 -0.00054551501072560204 0 0.075390315986166342 -0.00087398771008323527 0 0.075128302497153063 0.00058483039098707686 0 0.073112737855979298 -0.00054551501072560204 0 0.072532228207875971 0.0014889407105785971 0 0.073112737855979298 -0.00054551501072560204 0 0.070402375509739934 -0.00046941385656978544 0 0.072532228207875971 0.0014889407105785971 0 0.070193009623097463 -0.0031729438681368629 0 0.070402375509739934 -0.00046941385656978544 0 0.066142112846617029 -0.0013334879000087569 0 0.070193009623097463 -0.0031729438681368629 0 0.073112737855979298 -0.00054551501072560204 0 0.070402375509739934 -0.00046941385656978544 0 0.07840890373615314 -0.0025453427009992269 0 0.080189957744887783 -0.0020113389436638793 0 0.079075424511410475 -0.00074151962476887601 0 0.07840890373615314 -0.0025453427009992269 0 0.077167457871178846 -0.0018571846438351323 0 0.079075424511410475 -0.00074151962476887601 0 0.081583223183104139 -0.0034902458153304346 0 0.080189957744887783 -0.0020113389436638793 0 0.079352147364310885 -0.0037205470926676512 0 0.07840890373615314 -0.0025453427009992269 0 0.080189957744887783 -0.0020113389436638793 0 0.079352147364310885 -0.0037205470926676512 0 0.077086316341144948 -0.0046883864562788308 0 0.07840890373615314 -0.0025453427009992269 0 0.079352147364310885 -0.0037205470926676512 0 0.077086316341144948 -0.0046883864562788308 0 0.07840890373615314 -0.0025453427009992269 0 0.075868587140759988 -0.0035456725371065482 0 0.07405169798205824 -0.0027331637460183988 0 0.075868587140759988 -0.0035456725371065482 0 0.077167457871178846 -0.0018571846438351323 0 0.07840890373615314 -0.0025453427009992269 0 0.075868587140759988 -0.0035456725371065482 0 0.077167457871178846 -0.0018571846438351323 0 0.077167457871178846 -0.0018571846438351323 0 0.077359711009669638 9.8328949875229346e-05 0 0.079075424511410475 -0.00074151962476887601 0 0.077167457871178846 -0.0018571846438351323 0 0.075390315986166342 -0.00087398771008323527 0 0.077359711009669638 9.8328949875229346e-05 0 0.07405169798205824 -0.0027331637460183988 0 0.077167457871178846 -0.0018571846438351323 0 0.075390315986166342 -0.00087398771008323527 0 0.075128302497153063 0.00058483039098707686 0 0.077359711009669638 9.8328949875229346e-05 0 0.076551547258701835 0.0011046045778974876 0 0.075128302497153063 0.00058483039098707686 0 0.075390315986166342 -0.00087398771008323527 0 0.077359711009669638 9.8328949875229346e-05 0 0.077359711009669638 9.8328949875229346e-05 0 0.078745398760489804 0.00061235858717585234 0 0.079075424511410475 -0.00074151962476887601 0 0.078745398760489804 0.00061235858717585234 0 0.079075424511410475 -0.00074151962476887601 0 0.080077046474560251 0.00050799004991000456 0 0.08181269903388512 -0.0014297194866307128 0 0.080189957744887783 -0.0020113389436638793 0 0.080873217323259403 -0.00056722119376339966 0 0.080189957744887783 -0.0020113389436638793 0 0.079075424511410475 -0.00074151962476887601 0 0.080873217323259403 -0.00056722119376339966 0 0.081569019846738144 0.00054892325002503192 0 0.080873217323259403 -0.00056722119376339966 0 0.080077046474560251 0.00050799004991000456 0 0.079075424511410475 -0.00074151962476887601 0 0.080873217323259403 -0.00056722119376339966 0 0.080077046474560251 0.00050799004991000456 0 0.081569019846738144 0.00054892325002503192 0 0.080077046474560251 0.00050799004991000456 0 0.08065254212649535 0.0015988885290395909 0 0.080077046474560251 0.00050799004991000456 0 0.08065254212649535 0.0015988885290395909 0 0.079172931014940773 0.0016391675952078871 0 0.078745398760489804 0.00061235858717585234 0 0.080077046474560251 0.00050799004991000456 0 0.079172931014940773 0.0016391675952078871 0 0.078745398760489804 0.00061235858717585234 0 0.079172931014940773 0.0016391675952078871 0 0.077792512734388128 0.001306247376281551 0 0.079172931014940773 0.0016391675952078871 0 0.079660288322384337 0.0026145486034828622 0 0.077987524310882683 0.002642268801369359 0 0.081095424758822643 0.0027010869775153279 0 0.08065254212649535 0.0015988885290395909 0 0.079660288322384337 0.0026145486034828622 0 0.08065254212649535 0.0015988885290395909 0 0.079172931014940773 0.0016391675952078871 0 0.079660288322384337 0.0026145486034828622 0 0.081095424758822643 0.0027010869775153279 0 0.081204308433013003 0.0037365375371078654 0 0.079935218954805945 0.0035053676685950479 0 0.081095424758822643 0.0027010869775153279 0 0.079660288322384337 0.0026145486034828622 0 0.079935218954805945 0.0035053676685950479 0 0.079660288322384337 0.0026145486034828622 0 0.079935218954805945 0.0035053676685950479 0 0.078771409254690478 0.0034196829401889782 0 0.079660288322384337 0.0026145486034828622 0 0.078771409254690478 0.0034196829401889782 0 0.077987524310882683 0.002642268801369359 0 0.079935218954805945 0.0035053676685950479 0 0.078960667152389544 0.0041465745958425273 0 0.07990878403176821 0.0043047972243430224 0 0.079935218954805945 0.0035053676685950479 0 0.078771409254690478 0.0034196829401889782 0 0.078960667152389544 0.0041465745958425273 0 0.078771409254690478 0.0034196829401889782 0 0.078960667152389544 0.0041465745958425273 0 0.078048703695121013 0.0044379877620563026 0 0.078960667152389544 0.0041465745958425273 0 0.078048703695121013 0.0044379877620563026 0 0.078891291049101225 0.0048480045474823923 0 0.078960667152389544 0.0041465745958425273 0 0.07990878403176821 0.0043047972243430224 0 0.078891291049101225 0.0048480045474823923 0 0.081204308433013003 0.0037365375371078654 0 0.079935218954805945 0.0035053676685950479 0 0.07990878403176821 0.0043047972243430224 0 0.07676085265362563 0.004167413851484939 0 0.076722699034833849 0.0049211861070097493 0 0.078048703695121013 0.0044379877620563026 0 0.07676085265362563 0.004167413851484939 0 0.076722699034833849 0.0049211861070097493 0 0.075606678676348293 0.0043893652920133303 0 0.076722699034833849 0.0049211861070097493 0 0.075606678676348293 0.0043893652920133303 0 0.075658916006883722 0.0050501433784850523 0 0.076722699034833849 0.0049211861070097493 0 0.075658916006883722 0.0050501433784850523 0 0.076217434367251091 0.0055780613128915517 0 0.076722699034833849 0.0049211861070097493 0 0.078048703695121013 0.0044379877620563026 0 0.078348243478099391 0.0055687677894899913 0 0.07676085265362563 0.004167413851484939 0 0.078048703695121013 0.0044379877620563026 0 0.077396728232118683 0.0035770470707052527 0 0.078771409254690478 0.0034196829401889782 0 0.077396728232118683 0.0035770470707052527 0 0.077987524310882683 0.002642268801369359 0 0.078771409254690478 0.0034196829401889782 0 0.078048703695121013 0.0044379877620563026 0 0.077396728232118683 0.0035770470707052527 0 0.077396728232118683 0.0035770470707052527 0 0.076786336315026682 0.0028938781320031596 0 0.077987524310882683 0.002642268801369359 0 0.077396728232118683 0.0035770470707052527 0 0.075911798599086464 0.0034742720011403513 0 0.076786336315026682 0.0028938781320031596 0 0.07676085265362563 0.004167413851484939 0 0.077396728232118683 0.0035770470707052527 0 0.075911798599086464 0.0034742720011403513 0 0.07676085265362563 0.004167413851484939 0 0.075911798599086464 0.0034742720011403513 0 0.075606678676348293 0.0043893652920133303 0 0.075911798599086464 0.0034742720011403513 0 0.076786336315026682 0.0028938781320031596 0 0.075292927347632488 0.0023412144932921882 0 0.076802158468387879 0.002062166808874475 0 0.076551547258701835 0.0011046045778974876 0 0.075292927347632488 0.0023412144932921882 0 0.076786336315026682 0.0028938781320031596 0 0.076802158468387879 0.002062166808874475 0 0.075292927347632488 0.0023412144932921882 0 0.079172931014940773 0.0016391675952078871 0 0.077987524310882683 0.002642268801369359 0 0.077792512734388128 0.001306247376281551 0 0.076802158468387879 0.002062166808874475 0 0.077987524310882683 0.002642268801369359 0 0.077792512734388128 0.001306247376281551 0 0.076786336315026682 0.0028938781320031596 0 0.076802158468387879 0.002062166808874475 0 0.077987524310882683 0.002642268801369359 0 0.077359711009669638 9.8328949875229346e-05 0 0.078745398760489804 0.00061235858717585234 0 0.077792512734388128 0.001306247376281551 0 0.077359711009669638 9.8328949875229346e-05 0 0.077792512734388128 0.001306247376281551 0 0.076551547258701835 0.0011046045778974876 0 0.076802158468387879 0.002062166808874475 0 0.077792512734388128 0.001306247376281551 0 0.076551547258701835 0.0011046045778974876 0 0.075128302497153063 0.00058483039098707686 0 0.076551547258701835 0.0011046045778974876 0 0.075292927347632488 0.0023412144932921882 0 0.075128302497153063 0.00058483039098707686 0 0.072532228207875971 0.0014889407105785971 0 0.075292927347632488 0.0023412144932921882 0 0.072532228207875971 0.0014889407105785971 0 0.075292927347632488 0.0023412144932921882 0 0.073508036502451982 0.0033078126942200801 0 0.072532228207875971 0.0014889407105785971 0 0.070604979861177711 0.003895761336252 0 0.073508036502451982 0.0033078126942200801 0 0.070402375509739934 -0.00046941385656978544 0 0.072532228207875971 0.0014889407105785971 0 0.069281116911575513 0.0012475355036097237 0 0.072532228207875971 0.0014889407105785971 0 0.069281116911575513 0.0012475355036097237 0 0.070604979861177711 0.003895761336252 0 0.070604979861177711 0.003895761336252 0 0.070470624938052798 0.0065521549234660442 0 0.066260877692690484 0.0062453322802786346 0 0.070604979861177711 0.003895761336252 0 0.073837681332869456 0.0048724534607108693 0 0.070470624938052798 0.0065521549234660442 0 0.073837681332869456 0.0048724534607108693 0 0.075041643838489921 0.0065025137045257447 0 0.070470624938052798 0.0065521549234660442 0 0.075911798599086464 0.0034742720011403513 0 0.075292927347632488 0.0023412144932921882 0 0.074779985412465902 0.0038405783833778974 0 0.074779985412465902 0.0038405783833778974 0 0.073508036502451982 0.0033078126942200801 0 0.073837681332869456 0.0048724534607108693 0 0.075292927347632488 0.0023412144932921882 0 0.074779985412465902 0.0038405783833778974 0 0.073508036502451982 0.0033078126942200801 0 0.075911798599086464 0.0034742720011403513 0 0.074779985412465902 0.0038405783833778974 0 0.075606678676348293 0.0043893652920133303 0 0.070604979861177711 0.003895761336252 0 0.073508036502451982 0.0033078126942200801 0 0.073837681332869456 0.0048724534607108693 0 0.074779985412465902 0.0038405783833778974 0 0.073837681332869456 0.0048724534607108693 0 0.075606678676348293 0.0043893652920133303 0 0.073837681332869456 0.0048724534607108693 0 0.075606678676348293 0.0043893652920133303 0 0.075658916006883722 0.0050501433784850523 0 0.073837681332869456 0.0048724534607108693 0 0.075658916006883722 0.0050501433784850523 0 0.074936108268390464 0.0054535866813991696 0 0.073837681332869456 0.0048724534607108693 0 0.074936108268390464 0.0054535866813991696 0 0.075041643838489921 0.0065025137045257447 0 0.075658916006883722 0.0050501433784850523 0 0.075274232519150122 0.0058357418318958345 0 0.076217434367251091 0.0055780613128915517 0 0.075658916006883722 0.0050501433784850523 0 0.074936108268390464 0.0054535866813991696 0 0.075274232519150122 0.0058357418318958345 0 0.075274232519150122 0.0058357418318958345 0 0.075041643838489921 0.0065025137045257447 0 0.076217434367251091 0.0055780613128915517 0 0.074936108268390464 0.0054535866813991696 0 0.075274232519150122 0.0058357418318958345 0 0.075041643838489921 0.0065025137045257447 0 0.058106755356355733 -0.011365526564874006 0 0.055654919566402783 -0.012189234691404606 0 0.040724969474666903 -0.03093518563452162 0 0.039621472796690468 -0.030257300121203395 0 0.038725090167340756 -0.031228088517724999 0 0.040724969474666903 -0.03093518563452162 0 0.040415961006187336 -0.029969634635207982 0 0.041017677336036742 -0.029459087299996332 0 0.040724969474666903 -0.03093518563452162 0 0.039621472796690468 -0.030257300121203395 0 0.040415961006187336 -0.029969634635207982 0 0.038725090167340756 -0.031228088517724999 0 0.038447785657998917 -0.029698596175395546 0 0.037332353671350432 -0.03010397370587398 0 0.039621472796690468 -0.030257300121203395 0 0.038725090167340756 -0.031228088517724999 0 0.038447785657998917 -0.029698596175395546 0 0.038447785657998917 -0.029698596175395546 0 0.038805235547961038 -0.028832860040162403 0 0.039974432542009858 -0.029243845136125868 0 0.039621472796690468 -0.030257300121203395 0 0.038447785657998917 -0.029698596175395546 0 0.039974432542009858 -0.029243845136125868 0 0.038447785657998917 -0.029698596175395546 0 0.038805235547961038 -0.028832860040162403 0 0.037399743372070804 -0.029009286425611205 0 0.040415961006187336 -0.029969634635207982 0 0.039974432542009858 -0.029243845136125868 0 0.041017677336036742 -0.029459087299996332 0 0.039621472796690468 -0.030257300121203395 0 0.040415961006187336 -0.029969634635207982 0 0.039974432542009858 -0.029243845136125868 0 0.039974432542009858 -0.029243845136125868 0 0.041017677336036742 -0.029459087299996332 0 0.041160031693353125 -0.028257333867529988 0 0.041017677336036742 -0.029459087299996332 0 0.042172626379410653 -0.028922150566928314 0 0.041160031693353125 -0.028257333867529988 0 0.040724969474666903 -0.03093518563452162 0 0.041017677336036742 -0.029459087299996332 0 0.042172626379410653 -0.028922150566928314 0 0.07474305497937786 0.0025654659059516755 0 0.078565790919262302 0.0029606187854873079 0 0.078226762287525523 0.0051338977891899522 0 0.073719599910001793 -0.00018256051821294636 0 0.07474305497937786 0.0025654659059516755 0 0.078565790919262302 0.0029606187854873079 0 0.081008522967303445 0.0073812822075329607 0 0.078226762287525523 0.0051338977891899522 0 0.080541244060881673 0.0054367295076405775 0 0.077980640952091757 0.0037004973869472733 0 0.078154413790804803 0.0040823671984158661 0 0.081223456984588521 0.0045199461692295145 0 0.080541244060881673 0.0054367295076405775 0 0.079620102333614232 0.0048425922009654714 0 0.078226762287525523 0.0051338977891899522 0 0.080541244060881673 0.0054367295076405775 0 0.079620102333614232 0.0048425922009654714 0 0.081223456984588521 0.0045199461692295145 0 0.079620102333614232 0.0048425922009654714 0 0.07990878403176821 0.0043047972243430224 0 0.081204308433013003 0.0037365375371078654 0 0.081223456984588521 0.0045199461692295145 0 0.07990878403176821 0.0043047972243430224 0 0.078226762287525523 0.0051338977891899522 0 0.079620102333614232 0.0048425922009654714 0 0.078891291049101225 0.0048480045474823923 0 0.079620102333614232 0.0048425922009654714 0 0.07990878403176821 0.0043047972243430224 0 0.078891291049101225 0.0048480045474823923 0 0.078226762287525523 0.0051338977891899522 0 0.078891291049101225 0.0048480045474823923 0 0.078348243478099391 0.0055687677894899913 0 0.078048703695121013 0.0044379877620563026 0 0.078891291049101225 0.0048480045474823923 0 0.078348243478099391 0.0055687677894899913 0 0.058106755356355733 -0.011365526564874006 0 0.059194137561309292 -0.013171149269998446 0 0.079462306980733366 0.0057559289223687096 0 0.078565790919262302 0.0029606187854873079 0 0.078226762287525523 0.0051338977891899522 0 0.079462306980733366 0.0057559289223687096 0 0.078226762287525523 0.0051338977891899522 0 0.078348243478099391 0.0055687677894899913 0 0.076722699034833849 0.0049211861070097493 0 0.078348243478099391 0.0055687677894899913 0 0.076217434367251091 0.0055780613128915517 0 0.075041643838489921 0.0065025137045257447 0 0.078348243478099391 0.0055687677894899913 0 0.076217434367251091 0.0055780613128915517 0 0.058106755356355733 -0.011365526564874006 0 0.063330793632756566 -0.0097614779308832292 0 0.048758888027716663 -0.026187855618585189 0 0.042717526490791677 -0.023352394015818265 0 0.052197780141579178 -0.020241936265686249 0 0.048758888027716663 -0.026187855618585189 0 0.042717526490791677 -0.023352394015818265 0 0.044688790157124507 -0.029972484072857936 0 0.042717526490791677 -0.023352394015818265 0 0.052197780141579178 -0.020241936265686249 0 0.043708086448480475 -0.016176660793691996 0 0.052197780141579178 -0.020241936265686249 0 0.058086581151419799 -0.0203300911411269 0 0.060692657458110796 -0.012805623125082667 0 0.058086581151419799 -0.0203300911411269 0 0.063032697267349183 -0.020125742798964404 0 0.060692657458110796 -0.012805623125082667 0 0.063032697267349183 -0.020125742798964404 0 0.05645284734583482 -0.027886772294420749 0 0.065628422821543672 -0.02944951743467979 0 0.058086581151419799 -0.0203300911411269 0 0.063032697267349183 -0.020125742798964404 0 0.05645284734583482 -0.027886772294420749 0 0.052197780141579178 -0.020241936265686249 0 0.058086581151419799 -0.0203300911411269 0 0.05645284734583482 -0.027886772294420749 0 0.048758888027716663 -0.026187855618585189 0 0.052197780141579178 -0.020241936265686249 0 0.05645284734583482 -0.027886772294420749 0 0.05645284734583482 -0.027886772294420749 0 0.048296027982277112 -0.032349693953388818 0 0.053812742287075666 -0.039539884468217802 0 0.05645284734583482 -0.027886772294420749 0 0.060944577059118259 -0.035436710231620032 0 0.053812742287075666 -0.039539884468217802 0 0.05645284734583482 -0.027886772294420749 0 0.060944577059118259 -0.035436710231620032 0 0.065628422821543672 -0.02944951743467979 0 0.045345161571519854 -0.036922884269057779 0 0.048296027982277112 -0.032349693953388818 0 0.053812742287075666 -0.039539884468217802 0 0.045345161571519854 -0.036922884269057779 0 0.048296027982277112 -0.032349693953388818 0 0.043742360481261996 -0.034238043870348601 0 0.048758888027716663 -0.026187855618585189 0 0.048296027982277112 -0.032349693953388818 0 0.044688790157124507 -0.029972484072857936 0 0.048758888027716663 -0.026187855618585189 0 0.05645284734583482 -0.027886772294420749 0 0.048296027982277112 -0.032349693953388818 0 0.042717526490791677 -0.023352394015818265 0 0.044688790157124507 -0.029972484072857936 0 0.041021764179327527 -0.033590332680514416 0 0.048296027982277112 -0.032349693953388818 0 0.044688790157124507 -0.029972484072857936 0 0.043742360481261996 -0.034238043870348601 0 0.044688790157124507 -0.029972484072857936 0 0.041021764179327527 -0.033590332680514416 0 0.043742360481261996 -0.034238043870348601 0 0.041021764179327527 -0.033590332680514416 0 0.043742360481261996 -0.034238043870348601 0 0.041408649435516427 -0.038155190353825523 0 0.045345161571519854 -0.036922884269057779 0 0.043742360481261996 -0.034238043870348601 0 0.041408649435516427 -0.038155190353825523 0 0.045345161571519854 -0.036922884269057779 0 0.041408649435516427 -0.038155190353825523 0 0.043737112970065849 -0.041790889133791087 0 0.040076634633396974 -0.029108213744603283 0 0.037291031477813444 -0.033060616561196791 0 0.039317485913631267 -0.037794867679020593 0 0.037711316862652895 -0.03674862695063983 0 0.037984509132508296 -0.041514859220501688 0 0.042717526490791677 -0.023352394015818265 0 0.036486438888939314 -0.029491116304042574 0 0.036526491903199627 -0.028736604233935772 0 0.042717526490791677 -0.023352394015818265 0 0.037711316862652895 -0.03674862695063983 0 0.032833848238845151 -0.039731291594518478 0 0.042717526490791677 -0.023352394015818265 0 0.041021764179327527 -0.033590332680514416 0 0.037711316862652895 -0.03674862695063983 0 0.041021764179327527 -0.033590332680514416 0 0.039317485913631267 -0.037794867679020593 0 0.037711316862652895 -0.03674862695063983 0 0.041021764179327527 -0.033590332680514416 0 0.041408649435516427 -0.038155190353825523 0 0.039317485913631267 -0.037794867679020593 0 0.037711316862652895 -0.03674862695063983 0 0.032833848238845151 -0.039731291594518478 0 0.03554627726082589 -0.040647195434936396 0 0.038447785657998917 -0.029698596175395546 0 0.037399743372070804 -0.029009286425611205 0 0.037351846437423147 -0.029407727499090239 0 0.036526491903199627 -0.028736604233935772 0 0.037399743372070804 -0.029009286425611205 0 0.037351846437423147 -0.029407727499090239 0 0.036486438888939314 -0.029491116304042574 0 0.036526491903199627 -0.028736604233935772 0 0.037399743372070804 -0.029009286425611205 0 0.036526491903199627 -0.028736604233935772 0 0.037351846437423147 -0.029407727499090239 0 0.037332353671350432 -0.03010397370587398 0 0.038447785657998917 -0.029698596175395546 0 0.037351846437423147 -0.029407727499090239 0 0.037332353671350432 -0.03010397370587398 0 0.038725090167340756 -0.031228088517724999 0 0.037332353671350432 -0.03010397370587398 0 0.03672432586426181 -0.03146261350684694 0 0.051004103117096126 -0.02180343235185582 0 0.055410891842265428 -0.012780019107304572 0 0.055654919566402783 -0.012189234691404606 0 0.055410891842265428 -0.012780019107304572 0 0.036526491903199627 -0.028736604233935772 0 0.037332353671350432 -0.03010397370587398 0 0.03672432586426181 -0.03146261350684694 0 0.042717526490791677 -0.023352394015818265 0 0.034542151413250823 -0.018690769589498498 0 0.043708086448480475 -0.016176660793691996 0 0.042717526490791677 -0.023352394015818265 0 0.036526491903199627 -0.028736604233935772 0 0.034542151413250823 -0.018690769589498498 0 0.061467695869467591 -0.0090946177905734046 0 0.061078554940424155 -0.009404298978366846 0 0.06132802655473437 -0.009514258141245277 0 0.061467695869467591 -0.0090946177905734046 0 0.061078554940424155 -0.009404298978366846 0 0.06116686390432604 -0.0086319123370857866 0 0.055410891842265428 -0.012780019107304572 0 0.055240839177127528 -0.012836094252092574 0 0.070604979861177711 0.003895761336252 0 0.066260877692690484 0.0062453322802786346 0 0.066489510850642294 0.002352357108729487 0 0.055410891842265428 -0.012780019107304572 0 0.058910752578609664 -0.0066261806661957919 0 0.069281116911575513 0.0012475355036097237 0 0.066489510850642294 0.002352357108729487 0 0.066142112846617029 -0.0013334879000087569 0 0.069281116911575513 0.0012475355036097237 0 0.070604979861177711 0.003895761336252 0 0.066489510850642294 0.002352357108729487 0 0.061467695869467591 -0.0090946177905734046 0 0.06116686390432604 -0.0086319123370857866 0 0.061793545806962766 -0.0080593743786153641 0 0.06116686390432604 -0.0086319123370857866 0 0.061793545806962766 -0.0080593743786153641 0 0.062162430870780647 -0.0070847493435398185 0 0.061467695869467591 -0.0090946177905734046 0 0.061793545806962766 -0.0080593743786153641 0 0.061842761720405225 -0.0082508232442753231 0 0.061842761720405225 -0.0082508232442753231 0 0.061807129739384938 -0.008575981483031847 0 0.061504681889724612 -0.0090922427648249069 0 0.061842761720405225 -0.0082508232442753231 0 0.061807129739384938 -0.008575981483031847 0 0.062115787781800012 -0.0077730293428000382 0 0.061807129739384938 -0.008575981483031847 0 0.061504681889724612 -0.0090922427648249069 0 0.061449511023290319 -0.009629716376231166 0 0.061467695869467591 -0.0090946177905734046 0 0.061842761720405225 -0.0082508232442753231 0 0.061504681889724612 -0.0090922427648249069 0 0.052197780141579178 -0.020241936265686249 0 0.043708086448480475 -0.016176660793691996 0 0.060692657458110796 -0.012805623125082667 0 0.061467695869467591 -0.0090946177905734046 0 0.06116279394838238 -0.0099378829939054756 0 0.06132802655473437 -0.009514258141245277 0 0.055240839177127528 -0.012836094252092574 0 0.057294032075181779 -0.012686268275358802 0 0.061467695869467591 -0.0090946177905734046 0 0.061504681889724612 -0.0090922427648249069 0 0.06116279394838238 -0.0099378829939054756 0 0.06116279394838238 -0.0099378829939054756 0 0.06132802655473437 -0.009514258141245277 0 0.060692657458110796 -0.012805623125082667 0 0.061504681889724612 -0.0090922427648249069 0 0.06116279394838238 -0.0099378829939054756 0 0.061449511023290319 -0.009629716376231166 0 0.063032697267349183 -0.020125742798964404 0 0.060692657458110796 -0.012805623125082667 0 0.062935685536508412 -0.009171175919675716 0 0.06116279394838238 -0.0099378829939054756 0 0.060692657458110796 -0.012805623125082667 0 0.061449511023290319 -0.009629716376231166 0 0.060692657458110796 -0.012805623125082667 0 0.061449511023290319 -0.009629716376231166 0 0.062935685536508412 -0.009171175919675716 0 0.0052714102054893268 -0.022594742165448743 0 0.0054664961508374948 -0.024963700169252499 0 0.0062520217295127514 -0.026138833232849549 0 0.032856378238363716 -0.019180618469340532 0 0.031947431328142276 -0.01819534042667308 0 0.061807129739384938 -0.008575981483031847 0 0.062935685536508412 -0.009171175919675716 0 0.062208187408753314 -0.0078189606337002414 0 0.0052714102054893268 -0.022594742165448743 0 0.0049274378277344632 -0.024555553079642377 0 0.0054664961508374948 -0.024963700169252499 0 0.061807129739384938 -0.008575981483031847 0 0.061449511023290319 -0.009629716376231166 0 0.062935685536508412 -0.009171175919675716 0 0.0049274378277344632 -0.024555553079642377 0 0.0054664961508374948 -0.024963700169252499 0 0.0055097836385585436 -0.026460790799994069 0 0.0055097836385585436 -0.026460790799994069 0 0.0062520217295127514 -0.026138833232849549 0 0.0059507834944809122 -0.029037397937886941 0 0.0060550076909988721 -0.027468872667322106 0 0.0054820598258421187 -0.02828491621229811 0 0.0042395925087243807 -0.027338671848193073 0 0.0054664961508374948 -0.024963700169252499 0 0.0055097836385585436 -0.026460790799994069 0 0.0062520217295127514 -0.026138833232849549 0 0.061807129739384938 -0.008575981483031847 0 0.062208187408753314 -0.0078189606337002414 0 0.062115787781800012 -0.0077730293428000382 0 0.061842761720405225 -0.0082508232442753231 0 0.062115787781800012 -0.0077730293428000382 0 0.062311611762307963 -0.0073406079711694798 0 0.062370090449905907 -0.0072372268538613864 0 0.062311611762307963 -0.0073406079711694798 0 0.062557899466060232 -0.0069506262462852939 0 0.062115787781800012 -0.0077730293428000382 0 0.062370090449905907 -0.0072372268538613864 0 0.062311611762307963 -0.0073406079711694798 0 0.062208187408753314 -0.0078189606337002414 0 0.062115787781800012 -0.0077730293428000382 0 0.062370090449905907 -0.0072372268538613864 0 0.062208187408753314 -0.0078189606337002414 0 0.062370090449905907 -0.0072372268538613864 0 0.062528663388007846 -0.0067213502019690561 0 0.0062520217295127514 -0.026138833232849549 0 0.0059507834944809122 -0.029037397937886941 0 0.0060207547866357736 -0.029183561971564562 0 0.0060550076909988721 -0.027468872667322106 0 0.0059507834944809122 -0.029037397937886941 0 0.0058569735135112974 -0.028768265842565297 0 0.0052448472550722398 -0.026407149874355676 0 0.0059613610622634566 -0.027461423306567694 0 0.031947431328142276 -0.01819534042667308 0 0.03021491626272 -0.019306856592559749 0 0.062370090449905907 -0.0072372268538613864 0 0.06253254184465408 -0.0069129009027237278 0 0.062528663388007846 -0.0067213502019690561 0 0.062370090449905907 -0.0072372268538613864 0 0.06253254184465408 -0.0069129009027237278 0 0.062557899466060232 -0.0069506262462852939 0 0.06253254184465408 -0.0069129009027237278 0 0.062528663388007846 -0.0067213502019690561 0 0.06274731954482006 -0.0067889717597210955 0 0.0059507834944809122 -0.029037397937886941 0 0.0058075642316442197 -0.029109022617832582 0 0.0058343661554706387 -0.029151815199220481 0 0.0059507834944809122 -0.029037397937886941 0 0.0060207547866357736 -0.029183561971564562 0 0.0058343661554706387 -0.029151815199220481 0 0.0059507834944809122 -0.029037397937886941 0 0.0058075642316442197 -0.029109022617832582 0 0.0058569735135112974 -0.028768265842565297 0 0.0058075642316442197 -0.029109022617832582 0 0.0058569735135112974 -0.028768265842565297 0 0.0056919593548845444 -0.029189268984394508 0 0.0060550076909988721 -0.027468872667322106 0 0.0058569735135112974 -0.028768265842565297 0 0.0057819671052191553 -0.028700246479039241 0 0.0058569735135112974 -0.028768265842565297 0 0.0057819671052191553 -0.028700246479039241 0 0.0056919593548845444 -0.029189268984394508 0 0.0055516755656724228 -0.029498582671622055 0 0.0057819671052191553 -0.028700246479039241 0 0.0056919593548845444 -0.029189268984394508 0 0.0055516755656724228 -0.029498582671622055 0 0.0054820598258421187 -0.02828491621229811 0 0.0057819671052191553 -0.028700246479039241 0 0.0060550076909988721 -0.027468872667322106 0 0.0054820598258421187 -0.02828491621229811 0 0.0057819671052191553 -0.028700246479039241 0 0.058910752578609664 -0.0066261806661957919 0 0.060851597633394865 -0.0060260189073721403 0 0.070402375509739934 -0.00046941385656978544 0 0.069281116911575513 0.0012475355036097237 0 0.066142112846617029 -0.0013334879000087569 0 0.061793545806962766 -0.0080593743786153641 0 0.062162430870780647 -0.0070847493435398185 0 0.062311611762307963 -0.0073406079711694798 0 0.062162430870780647 -0.0070847493435398185 0 0.062311611762307963 -0.0073406079711694798 0 0.063013439730482429 -0.0066298512791161841 0 0.061793545806962766 -0.0080593743786153641 0 0.061842761720405225 -0.0082508232442753231 0 0.062311611762307963 -0.0073406079711694798 0 0.062557899466060232 -0.0069506262462852939 0 0.06274731954482006 -0.0067889717597210955 0 0.063013439730482429 -0.0066298512791161841 0 0.062311611762307963 -0.0073406079711694798 0 0.062557899466060232 -0.0069506262462852939 0 0.063013439730482429 -0.0066298512791161841 0 0.06253254184465408 -0.0069129009027237278 0 0.062557899466060232 -0.0069506262462852939 0 0.06274731954482006 -0.0067889717597210955 0 0.062528663388007846 -0.0067213502019690561 0 0.062876208849816442 -0.0068207721569454767 0 0.063322582068175634 -0.0072350092027183401 0 0.06274731954482006 -0.0067889717597210955 0 0.063098959732722379 -0.0067549516059875634 0 0.063013439730482429 -0.0066298512791161841 0 0.062528663388007846 -0.0067213502019690561 0 0.06274731954482006 -0.0067889717597210955 0 0.062876208849816442 -0.0068207721569454767 0 0.06274731954482006 -0.0067889717597210955 0 0.062876208849816442 -0.0068207721569454767 0 0.063098959732722379 -0.0067549516059875634 0 0.062876208849816442 -0.0068207721569454767 0 0.063098959732722379 -0.0067549516059875634 0 0.063322582068175634 -0.0072350092027183401 0 0.063843811030879605 -0.0066396259658517203 0 0.063013439730482429 -0.0066298512791161841 0 0.065214643896129951 -0.0061073286898785653 0 0.063098959732722379 -0.0067549516059875634 0 0.063843811030879605 -0.0066396259658517203 0 0.063013439730482429 -0.0066298512791161841 0 0.062162430870780647 -0.0070847493435398185 0 0.063013439730482429 -0.0066298512791161841 0 0.065214643896129951 -0.0061073286898785653 0 0.070193009623097463 -0.0031729438681368629 0 0.066142112846617029 -0.0013334879000087569 0 0.065214643896129951 -0.0061073286898785653 0 0.060851597633394865 -0.0060260189073721403 0 0.061529181137255744 -0.0064827591720785765 0 0.068896153070313063 -0.0064891043864101815 0 0.066377143584538223 -0.0083556714490695908 0 0.065214643896129951 -0.0061073286898785653 0 0.063843811030879605 -0.0066396259658517203 0 0.065214643896129951 -0.0061073286898785653 0 0.064711064368025442 -0.0075670185404562527 0 0.066377143584538223 -0.0083556714490695908 0 0.064711064368025442 -0.0075670185404562527 0 0.064069381125649305 -0.0087921500815103665 0 0.066377143584538223 -0.0083556714490695908 0 0.065214643896129951 -0.0061073286898785653 0 0.064711064368025442 -0.0075670185404562527 0 0.0060207547866357736 -0.029183561971564562 0 0.0049165698556749918 -0.0289533466097266 0 0.0055672095712783016 -0.029102972434132374 0 0.062528663388007846 -0.0067213502019690561 0 0.063322582068175634 -0.0072350092027183401 0 0.063725371477069248 -0.0089856085164456197 0 0.063828956350449884 -0.0079709951686722392 0 0.063322582068175634 -0.0072350092027183401 0 0.063725371477069248 -0.0089856085164456197 0 0.03021491626272 -0.019306856592559749 0 0.025059710010849792 -0.0201618484435966 0 0.064711064368025442 -0.0075670185404562527 0 0.063828956350449884 -0.0079709951686722392 0 0.064069381125649305 -0.0087921500815103665 0 0.064711064368025442 -0.0075670185404562527 0 0.063828956350449884 -0.0079709951686722392 0 0.063841980798234804 -0.007298081732788668 0 0.063843811030879605 -0.0066396259658517203 0 0.064711064368025442 -0.0075670185404562527 0 0.063841980798234804 -0.007298081732788668 0 0.063828956350449884 -0.0079709951686722392 0 0.063841980798234804 -0.007298081732788668 0 0.063322582068175634 -0.0072350092027183401 0 0.063098959732722379 -0.0067549516059875634 0 0.063843811030879605 -0.0066396259658517203 0 0.063322582068175634 -0.0072350092027183401 0 0.063843811030879605 -0.0066396259658517203 0 0.063841980798234804 -0.007298081732788668 0 0.063322582068175634 -0.0072350092027183401 0 0.0049165698556749918 -0.0289533466097266 0 0.0053392530298771472 -0.029038372367843315 0 0.0055672095712783016 -0.029102972434132374 0 0.0049165698556749918 -0.0289533466097266 0 0.0053392530298771472 -0.029038372367843315 0 0.0050429269072779052 -0.028817479016617891 0 0.063828956350449884 -0.0079709951686722392 0 0.063725371477069248 -0.0089856085164456197 0 0.064069381125649305 -0.0087921500815103665 0 0.063618638989998047 -0.0093101748336130059 0 0.064069381125649305 -0.0087921500815103665 0 0.065651518343963253 -0.010504269070758224 0 0.025059710010849792 -0.0201618484435966 0 0.025619786735946216 -0.019697143627500167 0 0.0295416473971927 -0.019480570780367627 0 0.025059710010849792 -0.0201618484435966 0 0.06577823612212623 -0.012761852044912906 0 0.063618638989998047 -0.0093101748336130059 0 0.065651518343963253 -0.010504269070758224 0 0.066377143584538223 -0.0083556714490695908 0 0.064069381125649305 -0.0087921500815103665 0 0.065651518343963253 -0.010504269070758224 0 0.068678810567638221 -0.01175652982771426 0 0.068889599479226835 -0.0090933169218306159 0 0.065651518343963253 -0.010504269070758224 0 0.068889599479226835 -0.0090933169218306159 0 0.066377143584538223 -0.0083556714490695908 0 0.065651518343963253 -0.010504269070758224 0 0.0055552220472106133 -0.029205929264154964 0 0.0055805204457732094 -0.029327112769586439 0 0.0053140771413985261 -0.029031886070160353 0 0.0055516755656724228 -0.029498582671622055 0 0.0055805204457732094 -0.029327112769586439 0 0.0056919593548845444 -0.029189268984394508 0 0.0055552220472106133 -0.029205929264154964 0 0.0055805204457732094 -0.029327112769586439 0 0.0056919593548845444 -0.029189268984394508 0 0.0058075642316442197 -0.029109022617832582 0 0.0056919593548845444 -0.029189268984394508 0 0.0056311015169961572 -0.029169502367031697 0 0.0055552220472106133 -0.029205929264154964 0 0.0056919593548845444 -0.029189268984394508 0 0.0056311015169961572 -0.029169502367031697 0 0.0058075642316442197 -0.029109022617832582 0 0.0056311015169961572 -0.029169502367031697 0 0.0058343661554706387 -0.029151815199220481 0 0.0060207547866357736 -0.029183561971564562 0 0.0058343661554706387 -0.029151815199220481 0 0.0055672095712783016 -0.029102972434132374 0 0.0056311015169961572 -0.029169502367031697 0 0.0058343661554706387 -0.029151815199220481 0 0.0055672095712783016 -0.029102972434132374 0 0.0056311015169961572 -0.029169502367031697 0 0.0053392530298771472 -0.029038372367843315 0 0.0053140771413985261 -0.029031886070160353 0 0.0056311015169961572 -0.029169502367031697 0 0.0053392530298771472 -0.029038372367843315 0 0.0055672095712783016 -0.029102972434132374 0 0.0055552220472106133 -0.029205929264154964 0 0.0056311015169961572 -0.029169502367031697 0 0.0053140771413985261 -0.029031886070160353 0 0.0046040894917683288 -0.028148487481139243 0 0.0053140771413985261 -0.029031886070160353 0 0.0050429269072779052 -0.028817479016617891 0 0.0046040894917683288 -0.028148487481139243 0 0.0049165698556749918 -0.0289533466097266 0 0.0050429269072779052 -0.028817479016617891 0 0.0046040894917683288 -0.028148487481139243 0 0.0053140771413985261 -0.029031886070160353 0 0.0053402808718184648 -0.028785363543281983 0 0.0053392530298771472 -0.029038372367843315 0 0.0053140771413985261 -0.029031886070160353 0 0.0050429269072779052 -0.028817479016617891 0 0.0055805204457732094 -0.029327112769586439 0 0.0053140771413985261 -0.029031886070160353 0 0.0053402808718184648 -0.028785363543281983 0 0.0055805204457732094 -0.029327112769586439 0 0.0053402808718184648 -0.028785363543281983 0 0.0060771134685777698 -0.029192044927732145 0 0.0055805204457732094 -0.029327112769586439 0 0.0060771134685777698 -0.029192044927732145 0 0.0063516673795217058 -0.029751229569947284 0 0.0055516755656724228 -0.029498582671622055 0 0.0055805204457732094 -0.029327112769586439 0 0.0063516673795217058 -0.029751229569947284 0 0.0063516673795217058 -0.029751229569947284 0 0.006643878446365257 -0.030176742942704764 0 0.0064648694469029155 -0.030472461886692611 0 0.0067479818596319248 -0.029135202800790506 0 0.0060771134685777698 -0.029192044927732145 0 0.006643878446365257 -0.030176742942704764 0 0.0060771134685777698 -0.029192044927732145 0 0.0063516673795217058 -0.029751229569947284 0 0.006643878446365257 -0.030176742942704764 0 0.006643878446365257 -0.030176742942704764 0 0.0070618601318429104 -0.029966407106531506 0 0.0057864977462547332 -0.032281099829736357 0 0.0067479818596319248 -0.029135202800790506 0 0.006643878446365257 -0.030176742942704764 0 0.0070618601318429104 -0.029966407106531506 0 0.0070618601318429104 -0.029966407106531506 0 0.0085192718309686551 -0.030095490663002999 0 0.0057864977462547332 -0.032281099829736357 0 0.0081973738209164346 -0.029104651501636693 0 0.0070618601318429104 -0.029966407106531506 0 0.0085192718309686551 -0.030095490663002999 0 0.0042263516345833058 -0.033264083500011962 0 0.0045478516822092113 -0.032929586791048619 0 0.0032540449417024914 -0.038565908866274402 0 0.0057864977462547332 -0.032281099829736357 0 0.001338625919836347 -0.034356905735460741 0 0.0057864977462547332 -0.032281099829736357 0 0.001338625919836347 -0.034356905735460741 0 0.0019168463120701905 -0.030409893196827693 0 0.0057864977462547332 -0.032281099829736357 0 0.0064648694469029155 -0.030472461886692611 0 0.0019168463120701905 -0.030409893196827693 0 0.006643878446365257 -0.030176742942704764 0 0.0057864977462547332 -0.032281099829736357 0 0.0064648694469029155 -0.030472461886692611 0 0.0064648694469029155 -0.030472461886692611 0 0.0048039046843134647 -0.027564374338589395 0 0.0068834949651780932 -0.029797198162190348 0 0.00051777061320645358 -0.027430451380047682 0 0.0033960866527301451 -0.028544495160414553 0 0.0064648694469029155 -0.030472461886692611 0 0.0048039046843134647 -0.027564374338589395 0 0.0019168463120701905 -0.030409893196827693 0 -0.0021088047031094241 -0.027310357273986563 0 -0.0060049087688720951 -0.025849231589585936 0 -0.0033902410944057445 -0.023849794862484827 0 -0.0021088047031094241 -0.027310357273986563 0 0.0018392363517934784 -0.028659031368985722 0 0.00015998939502844523 -0.024420491157135179 0 0.0025165660205634173 -0.026117602318311662 0 0.0042395925087243807 -0.027338671848193073 0 0.0018392363517934784 -0.028659031368985722 0 0.0025165660205634173 -0.026117602318311662 0 0.0018392363517934784 -0.028659031368985722 0 0.00015998939502844523 -0.024420491157135179 0 0.0060550076909988721 -0.027468872667322106 0 0.0042395925087243807 -0.027338671848193073 0 0.0038152391782381263 -0.023982308637319989 0 0.0025165660205634173 -0.026117602318311662 0 0.0042395925087243807 -0.027338671848193073 0 0.0038152391782381263 -0.023982308637319989 0 0.0055516755656724228 -0.029498582671622055 0 0.0054820598258421187 -0.02828491621229811 0 0.0042395925087243807 -0.027338671848193073 0 0.0055516755656724228 -0.029498582671622055 0 0.0042395925087243807 -0.027338671848193073 0 0.0018392363517934784 -0.028659031368985722 0 0.0055516755656724228 -0.029498582671622055 0 0.0063516673795217058 -0.029751229569947284 0 0.0068834949651780932 -0.029797198162190348 0 0.0044916960774192072 -0.028961888115122448 0 0.0033960866527301451 -0.028544495160414553 0 0.0063516673795217058 -0.029751229569947284 0 0.0064648694469029155 -0.030472461886692611 0 0.0068834949651780932 -0.029797198162190348 0 -0.016467707537227642 -0.032122660869325026 0 -0.012568724582985998 -0.037094099168810547 0 -0.012127797918809245 -0.030006122109889916 0 -0.012048563438589963 -0.039974910666940172 0 -0.014753380757664742 -0.039531854897516462 0 -0.012568724582985998 -0.037094099168810547 0 -0.012568724582985998 -0.037094099168810547 0 -0.0079738111958617599 -0.034025452664893902 0 -0.0061580895535780387 -0.039875776768960119 0 -0.0072780990282043804 -0.034768670659379788 0 -0.0039192745339020037 -0.034956091846287306 0 -0.012048563438589963 -0.039974910666940172 0 -0.012568724582985998 -0.037094099168810547 0 -0.008114832936811818 -0.039468191387925101 0 -0.012568724582985998 -0.037094099168810547 0 -0.0079738111958617599 -0.034025452664893902 0 -0.012127797918809245 -0.030006122109889916 0 -0.0079738111958617599 -0.034025452664893902 0 -0.0029363820062417402 -0.034137120992085442 0 -0.0058001842813627897 -0.029631882987482597 0 -0.0079738111958617599 -0.034025452664893902 0 -0.0029363820062417402 -0.034137120992085442 0 -0.0061580895535780387 -0.039875776768960119 0 -0.0029363820062417402 -0.034137120992085442 0 -0.0061580895535780387 -0.039875776768960119 0 -0.00085142403654867439 -0.038010625041670396 0 0.00077215071621915753 -0.043135915364064928 0 0.0032540449417024914 -0.038565908866274402 0 -0.00085142403654867439 -0.038010625041670396 0 0.0032540449417024914 -0.038565908866274402 0 -0.00085142403654867439 -0.038010625041670396 0 0.001338625919836347 -0.034356905735460741 0 -0.0029363820062417402 -0.034137120992085442 0 0.001338625919836347 -0.034356905735460741 0 0.0019168463120701905 -0.030409893196827693 0 -0.0029363820062417402 -0.034137120992085442 0 -0.00085142403654867439 -0.038010625041670396 0 0.001338625919836347 -0.034356905735460741 0 0.0019168463120701905 -0.030409893196827693 0 -0.0015902004580634998 -0.025292867132952281 0 -0.0058001842813627897 -0.029631882987482597 0 0.00051777061320645358 -0.027430451380047682 0 -0.0033330337051396051 -0.026105149143571475 0 0.0048039046843134647 -0.027564374338589395 0 0.0019168463120701905 -0.030409893196827693 0 -0.0015902004580634998 -0.025292867132952281 0 -0.0033330337051396051 -0.026105149143571475 0 -0.0057701562837801342 -0.025361876718382675 0 -0.0015902004580634998 -0.025292867132952281 0 -0.0058001842813627897 -0.029631882987482597 0 -0.009491210721679395 -0.024512313663660214 0 -0.0029363820062417402 -0.034137120992085442 0 0.0019168463120701905 -0.030409893196827693 0 -0.0058001842813627897 -0.029631882987482597 0 -0.0079738111958617599 -0.034025452664893902 0 -0.0058001842813627897 -0.029631882987482597 0 -0.012127797918809245 -0.030006122109889916 0 -0.0058001842813627897 -0.029631882987482597 0 -0.012127797918809245 -0.030006122109889916 0 -0.009491210721679395 -0.024512313663660214 0 -0.017126364748811677 -0.028295761243267114 0 -0.012127797918809245 -0.030006122109889916 0 -0.014516629073613034 -0.024989572680814781 0 -0.012127797918809245 -0.030006122109889916 0 -0.014516629073613034 -0.024989572680814781 0 -0.009491210721679395 -0.024512313663660214 0 -0.012860228323249824 -0.021172251648490143 0 -0.009491210721679395 -0.024512313663660214 0 -0.0095747763442969053 -0.019389850535889191 0 -0.016278756351157792 -0.021968130777935899 0 -0.012860228323249824 -0.021172251648490143 0 -0.014516629073613034 -0.024989572680814781 0 -0.016278756351157792 -0.021968130777935899 0 -0.015415007483449452 -0.01902340158800387 0 -0.012860228323249824 -0.021172251648490143 0 -0.012860228323249824 -0.021172251648490143 0 -0.014516629073613034 -0.024989572680814781 0 -0.009491210721679395 -0.024512313663660214 0 -0.009491210721679395 -0.024512313663660214 0 -0.0070762454600044409 -0.02238205415925398 0 -0.0095747763442969053 -0.019389850535889191 0 -0.0070762454600044409 -0.02238205415925398 0 -0.0068550571055311909 -0.019381304658601568 0 -0.0095747763442969053 -0.019389850535889191 0 -0.0060049087688720951 -0.025849231589585936 0 -0.009491210721679395 -0.024512313663660214 0 -0.0070762454600044409 -0.02238205415925398 0 -0.0060049087688720951 -0.025849231589585936 0 -0.0070762454600044409 -0.02238205415925398 0 -0.0033902410944057445 -0.023849794862484827 0 -0.0070762454600044409 -0.02238205415925398 0 -0.0045229876190625356 -0.020669446235758917 0 -0.0033902410944057445 -0.023849794862484827 0 -0.0070762454600044409 -0.02238205415925398 0 -0.0045229876190625356 -0.020669446235758917 0 -0.0068550571055311909 -0.019381304658601568 0 -0.0045229876190625356 -0.020669446235758917 0 -0.005009695402545083 -0.017819690046459641 0 -0.0068550571055311909 -0.019381304658601568 0 -0.005009695402545083 -0.017819690046459641 0 -0.0030654640610456828 -0.016623162651142661 0 -0.0053162496428673742 -0.014992251662631094 0 -0.005009695402545083 -0.017819690046459641 0 -0.008134564349950732 -0.016598617771158168 0 -0.0053162496428673742 -0.014992251662631094 0 -0.008134564349950732 -0.016598617771158168 0 -0.0076651465836012015 -0.014413807183575085 0 -0.0053162496428673742 -0.014992251662631094 0 -0.008134564349950732 -0.016598617771158168 0 -0.010724010787090859 -0.014217593151817505 0 -0.0076651465836012015 -0.014413807183575085 0 -0.005009695402545083 -0.017819690046459641 0 -0.008134564349950732 -0.016598617771158168 0 -0.0068550571055311909 -0.019381304658601568 0 -0.008134564349950732 -0.016598617771158168 0 -0.0068550571055311909 -0.019381304658601568 0 -0.0095747763442969053 -0.019389850535889191 0 -0.008134564349950732 -0.016598617771158168 0 -0.0095747763442969053 -0.019389850535889191 0 -0.012464016771967939 -0.016778653834459357 0 -0.012860228323249824 -0.021172251648490143 0 -0.0095747763442969053 -0.019389850535889191 0 -0.012464016771967939 -0.016778653834459357 0 -0.008134564349950732 -0.016598617771158168 0 -0.012464016771967939 -0.016778653834459357 0 -0.010724010787090859 -0.014217593151817505 0 -0.015735267891845792 -0.015461950889791761 0 -0.014424952649211622 -0.013158037674380242 0 -0.012464016771967939 -0.016778653834459357 0 -0.015415007483449452 -0.01902340158800387 0 -0.012860228323249824 -0.021172251648490143 0 -0.012464016771967939 -0.016778653834459357 0 -0.015735267891845792 -0.015461950889791761 0 -0.015415007483449452 -0.01902340158800387 0 -0.012464016771967939 -0.016778653834459357 0 0.00095030573350952366 -0.020689276395692405 0 0.0032770527862891869 -0.021411498839409338 0 0.0034540545583209565 -0.023715765187407558 0 0.00095030573350952366 -0.020689276395692405 0 0.0038152391782381263 -0.023982308637319989 0 0.00015998939502844523 -0.024420491157135179 0 0.0022807066529244992 -0.022729657572851763 0 0.0035017060343872572 -0.024174515498746114 0 0.0052714102054893268 -0.022594742165448743 0 0.0032770527862891869 -0.021411498839409338 0 0.0035575552324877175 -0.020634966524451608 0 0.0052714102054893268 -0.022594742165448743 0 0.0041232952699713351 -0.02282988819349693 0 0.0044982427557570259 -0.023550257345501334 0 0.0052714102054893268 -0.022594742165448743 0 0.0032770527862891869 -0.021411498839409338 0 0.0041232952699713351 -0.02282988819349693 0 0.0032770527862891869 -0.021411498839409338 0 0.0041232952699713351 -0.02282988819349693 0 0.0034540545583209565 -0.023715765187407558 0 0.0049274378277344632 -0.024555553079642377 0 0.0055097836385585436 -0.026460790799994069 0 0.0034540545583209565 -0.023715765187407558 0 0.0052448472550722398 -0.026407149874355676 0 0.0035017060343872572 -0.024174515498746114 0 0.0049274378277344632 -0.024555553079642377 0 0.0034540545583209565 -0.023715765187407558 0 0.0044982427557570259 -0.023550257345501334 0 0.0041232952699713351 -0.02282988819349693 0 0.0034540545583209565 -0.023715765187407558 0 0.0044982427557570259 -0.023550257345501334 0 0.0052714102054893268 -0.022594742165448743 0 0.0049274378277344632 -0.024555553079642377 0 0.0044982427557570259 -0.023550257345501334 0 0.0025165660205634173 -0.026117602318311662 0 0.0038152391782381263 -0.023982308637319989 0 0.00015998939502844523 -0.024420491157135179 0 -0.0021088047031094241 -0.027310357273986563 0 0.00015998939502844523 -0.024420491157135179 0 -0.0033902410944057445 -0.023849794862484827 0 0.00015998939502844523 -0.024420491157135179 0 -0.0033902410944057445 -0.023849794862484827 0 -0.0015742325785715204 -0.021154730306037317 0 -0.0045229876190625356 -0.020669446235758917 0 -0.0033902410944057445 -0.023849794862484827 0 -0.0015742325785715204 -0.021154730306037317 0 0.00095030573350952366 -0.020689276395692405 0 0.00015998939502844523 -0.024420491157135179 0 -0.0015742325785715204 -0.021154730306037317 0 0.00095030573350952366 -0.020689276395692405 0 -0.0015742325785715204 -0.021154730306037317 0 0.00024701059220049701 -0.018864153987273945 0 -0.0015742325785715204 -0.021154730306037317 0 0.00024701059220049701 -0.018864153987273945 0 -0.0024584885089401366 -0.018566695387676833 0 0.00024701059220049701 -0.018864153987273945 0 -0.0024584885089401366 -0.018566695387676833 0 -0.0011679679317105898 -0.01701188744359081 0 -0.0045229876190625356 -0.020669446235758917 0 -0.0015742325785715204 -0.021154730306037317 0 -0.0024584885089401366 -0.018566695387676833 0 -0.0045229876190625356 -0.020669446235758917 0 -0.005009695402545083 -0.017819690046459641 0 -0.0024584885089401366 -0.018566695387676833 0 -0.0030654640610456828 -0.016623162651142661 0 -0.0014225111344666154 -0.014883182751900636 0 -0.0053162496428673742 -0.014992251662631094 0 -0.005009695402545083 -0.017819690046459641 0 -0.0024584885089401366 -0.018566695387676833 0 -0.0030654640610456828 -0.016623162651142661 0 -0.0024584885089401366 -0.018566695387676833 0 -0.0030654640610456828 -0.016623162651142661 0 -0.0011679679317105898 -0.01701188744359081 0 -0.0030654640610456828 -0.016623162651142661 0 -0.0011679679317105898 -0.01701188744359081 0 -0.0014225111344666154 -0.014883182751900636 0 0.00024701059220049701 -0.018864153987273945 0 -0.0011679679317105898 -0.01701188744359081 0 0.00073491670903040541 -0.016533170872841171 0 0.0073836895926955026 -0.021655995258177581 0 0.015365808150688619 -0.027243440465299671 0 -0.0011679679317105898 -0.01701188744359081 0 0.00073491670903040541 -0.016533170872841171 0 -0.0014225111344666154 -0.014883182751900636 0 0.072459735617335624 -0.024584928715879872 0 0.073440252148361376 -0.03553613625240791 0 0.082957267706249671 -0.042882737154361965 0 0.034177023434759125 -0.024623162717900819 0 0.033203943421866576 -0.032436339512629919 0 0.00024701059220049701 -0.018864153987273945 0 0.00073491670903040541 -0.016533170872841171 0 0.002872863016344688 -0.018380486577056761 0 0.002872863016344688 -0.018380486577056761 0 0.0034499482198391152 -0.018757308340809246 0 0.002340981477125323 -0.016891659697455607 0 0.001931864268512836 -0.017670568681173157 0 0.002872863016344688 -0.018380486577056761 0 0.002340981477125323 -0.016891659697455607 0 0.0073836895926955026 -0.021655995258177581 0 0.0056530219748127811 -0.020442863634117282 0 0.00095030573350952366 -0.020689276395692405 0 0.0032770527862891869 -0.021411498839409338 0 0.0023066795508099392 -0.01980570418103678 0 0.00024701059220049701 -0.018864153987273945 0 0.002872863016344688 -0.018380486577056761 0 0.0023066795508099392 -0.01980570418103678 0 0.002872863016344688 -0.018380486577056761 0 0.0023066795508099392 -0.01980570418103678 0 0.0034499482198391152 -0.018757308340809246 0 0.0032770527862891869 -0.021411498839409338 0 0.0023066795508099392 -0.01980570418103678 0 0.0035575552324877175 -0.020634966524451608 0 0.00095030573350952366 -0.020689276395692405 0 0.00024701059220049701 -0.018864153987273945 0 0.0023066795508099392 -0.01980570418103678 0 0.032856378238363716 -0.019180618469340532 0 0.034177023434759125 -0.024623162717900819 0 0.063032697267349183 -0.020125742798964404 0 0.062935685536508412 -0.009171175919675716 0 0.072459735617335624 -0.024584928715879872 0 0.0052714102054893268 -0.022594742165448743 0 0.0035575552324877175 -0.020634966524451608 0 0.0034499482198391152 -0.018757308340809246 0 0.0023066795508099392 -0.01980570418103678 0 0.0035575552324877175 -0.020634966524451608 0 0.0034499482198391152 -0.018757308340809246 0 0.063032697267349183 -0.020125742798964404 0 0.072459735617335624 -0.024584928715879872 0 0.065628422821543672 -0.02944951743467979 0 0.072459735617335624 -0.024584928715879872 0 0.065628422821543672 -0.02944951743467979 0 0.073440252148361376 -0.03553613625240791 0 0.060944577059118259 -0.035436710231620032 0 0.06560723367933971 -0.036252066560732876 0 0.062402719730580716 -0.044622037547724654 0 0.073440252148361376 -0.03553613625240791 0 0.06560723367933971 -0.036252066560732876 0 0.062402719730580716 -0.044622037547724654 0 0.060944577059118259 -0.035436710231620032 0 0.065628422821543672 -0.02944951743467979 0 0.06560723367933971 -0.036252066560732876 0 0.065628422821543672 -0.02944951743467979 0 0.073440252148361376 -0.03553613625240791 0 0.06560723367933971 -0.036252066560732876 0 0.073440252148361376 -0.03553613625240791 0 0.082957267706249671 -0.042882737154361965 0 0.062402719730580716 -0.044622037547724654 0 0.033203943421866576 -0.032436339512629919 0 0.047251522010362396 -0.038287625649761702 0 0.042917394337825474 -0.049886949223233328 0 0.042895514394228118 -0.049783602740567902 0 0.042153412483766653 -0.048243723991746285 0 0.042188884658934805 -0.049097627251136464 0 0.042917394337825474 -0.049886949223233328 0 0.042153412483766653 -0.048243723991746285 0 0.042917394337825474 -0.049886949223233328 0 0.04245166666486265 -0.049967284492129158 0 0.043021656791412607 -0.050527287511062433 0 0.042188884658934805 -0.049097627251136464 0 0.04245166666486265 -0.049967284492129158 0 0.041702158106186285 -0.049796407732151812 0 0.042188884658934805 -0.049097627251136464 0 0.042917394337825474 -0.049886949223233328 0 0.04245166666486265 -0.049967284492129158 0 0.042917394337825474 -0.049886949223233328 0 0.042651524706067881 -0.050610865274938847 0 0.043567990204522559 -0.050619412849999684 0 0.04151272521440888 -0.051996271774197932 0 0.041221196998142008 -0.052646768250370179 0 0.042917394337825474 -0.049886949223233328 0 0.042895514394228118 -0.049783602740567902 0 0.042651524706067881 -0.050610865274938847 0 0.042895514394228118 -0.049783602740567902 0 0.04318748081045886 -0.049206933797005574 0 0.042153412483766653 -0.048243723991746285 0 0.042895514394228118 -0.049783602740567902 0 0.04318748081045886 -0.049206933797005574 0 0.042651524706067881 -0.050610865274938847 0 0.043136149069755693 -0.05431601335826592 0 0.041387708113506665 -0.054379342087638394 0 0.041216831969795344 -0.053282955758208107 0 0.001931864268512836 -0.017670568681173157 0 0.002340981477125323 -0.016891659697455607 0 0.0010865006166830152 -0.017103812891354393 0 0.033203943421866576 -0.032436339512629919 0 0.015365808150688619 -0.027243440465299671 0 0.015365808150688619 -0.027243440465299671 0 0.0050079479802927242 -0.025387723873919636 0 -0.0012366862585739768 -0.014736137969044865 0 -0.0053162496428673742 -0.014992251662631094 0 -0.0054543342739443081 -0.01198615483027521 0 0.041387708113506665 -0.054379342087638394 0 0.041216831969795344 -0.053282955758208107 0 0.039759125315955816 -0.053209914941635211 0 0.015365808150688619 -0.027243440465299671 0 0.016898387253382104 -0.031563793524852814 0 0.041216831969795344 -0.053282955758208107 0 0.04028982716702223 -0.052843401602215602 0 0.039759125315955816 -0.053209914941635211 0 0.041216831969795344 -0.053282955758208107 0 0.042119920327480076 -0.05200593109967605 0 0.04028982716702223 -0.052843401602215602 0 0.033203943421866576 -0.032436339512629919 0 0.040022420645076391 -0.045259437776302716 0 0.04318748081045886 -0.049206933797005574 0 0.042651524706067881 -0.050610865274938847 0 0.042119920327480076 -0.05200593109967605 0 0.042651524706067881 -0.050610865274938847 0 0.042119920327480076 -0.05200593109967605 0 0.041934995968978185 -0.052018782021970723 0 0.043136149069755693 -0.05431601335826592 0 0.041216831969795344 -0.053282955758208107 0 0.042119920327480076 -0.05200593109967605 0 0.042119920327480076 -0.05200593109967605 0 0.041869746422941861 -0.051904800626274242 0 0.041934995968978185 -0.052018782021970723 0 0.042119920327480076 -0.05200593109967605 0 0.041869746422941861 -0.051904800626274242 0 0.041296509355555497 -0.052078912639857908 0 0.041869746422941861 -0.051904800626274242 0 0.041296509355555497 -0.052078912639857908 0 0.041690198207623659 -0.051564605727296577 0 0.042119920327480076 -0.05200593109967605 0 0.04028982716702223 -0.052843401602215602 0 0.041296509355555497 -0.052078912639857908 0 0.041296509355555497 -0.052078912639857908 0 0.040495915044934119 -0.051839846741060465 0 0.041690198207623659 -0.051564605727296577 0 0.04028982716702223 -0.052843401602215602 0 0.041296509355555497 -0.052078912639857908 0 0.040495915044934119 -0.051839846741060465 0 0.04028982716702223 -0.052843401602215602 0 0.040495915044934119 -0.051839846741060465 0 0.039038072703220385 -0.053489874573635181 0 0.038821462461937545 -0.055660464344963516 0 0.039860664126517162 -0.055124411132754216 0 0.035645867962594044 -0.055278345732755092 0 0.036149678769844734 -0.058432714788138565 0 0.031006329080447117 -0.058020363812443292 0 0.036149678769844734 -0.058432714788138565 0 0.031006329080447117 -0.058020363812443292 0 0.035286663496799153 -0.061596495130930747 0 0.038821462461937545 -0.055660464344963516 0 0.037218946708528086 -0.057281377672437871 0 0.035645867962594044 -0.055278345732755092 0 0.036149678769844734 -0.058432714788138565 0 0.038161364578692979 -0.055932230115246707 0 0.039065804319562594 -0.056010706414798744 0 0.039031957349054895 -0.056150435294403181 0 0.039505318125898553 -0.056038755316893965 0 0.039860664126517162 -0.055124411132754216 0 0.04012480784622819 -0.055086902662359306 0 0.041869746422941861 -0.051904800626274242 0 0.041690198207623659 -0.051564605727296577 0 0.042164065723688117 -0.051561974416918926 0 0.038560494985383137 -0.056256232978662106 0 0.039065804319562594 -0.056010706414798744 0 0.039031957349054895 -0.056150435294403181 0 0.037218946708528086 -0.057281377672437871 0 0.038586423047136102 -0.057879291849299887 0 0.039065804319562594 -0.056010706414798744 0 0.039505318125898553 -0.056038755316893965 0 0.039573670788519227 -0.055758699531956779 0 0.043917282487279358 -0.052471663750253243 0 0.042580020536345471 -0.052173655246262433 0 0.043206000685685315 -0.051353631839604723 0 0.04012480784622819 -0.055086902662359306 0 0.038586423047136102 -0.057879291849299887 0 0.043917282487279358 -0.052471663750253243 0 0.04190313614721889 -0.053879319065644485 0 0.042580020536345471 -0.052173655246262433 0 0.043890565316120005 -0.054106461501090261 0 0.040892576557269557 -0.054860317251082515 0 0.043561400839442647 -0.055513536223279758 0 0.04012480784622819 -0.055086902662359306 0 0.040534843283938485 -0.054837909119434994 0 0.04190313614721889 -0.053879319065644485 0 0.042580020536345471 -0.052173655246262433 0 0.040954634232496068 -0.052155637884175016 0 0.042580020536345471 -0.052173655246262433 0 0.042286647312828309 -0.050962669067543487 0 0.043206000685685315 -0.051353631839604723 0 0.042286647312828309 -0.050962669067543487 0 0.043021656791412607 -0.050527287511062433 0 0.043206000685685315 -0.051353631839604723 0 0.042580020536345471 -0.052173655246262433 0 0.042286647312828309 -0.050962669067543487 0 0.040954634232496068 -0.052155637884175016 0 0.04245166666486265 -0.049967284492129158 0 0.042286647312828309 -0.050962669067543487 0 0.041702158106186285 -0.049796407732151812 0 0.04245166666486265 -0.049967284492129158 0 0.042286647312828309 -0.050962669067543487 0 0.043021656791412607 -0.050527287511062433 0 0.04012480784622819 -0.055086902662359306 0 0.041221196998142008 -0.052646768250370179 0 0.041869746422941861 -0.051904800626274242 0 0.042164065723688117 -0.051561974416918926 0 0.041934995968978185 -0.052018782021970723 0 0.042917394337825474 -0.049886949223233328 0 0.043021656791412607 -0.050527287511062433 0 0.043567990204522559 -0.050619412849999684 0 0.043021656791412607 -0.050527287511062433 0 0.043567990204522559 -0.050619412849999684 0 0.043206000685685315 -0.051353631839604723 0 0.043917282487279358 -0.052471663750253243 0 0.043567990204522559 -0.050619412849999684 0 0.043206000685685315 -0.051353631839604723 0 -0.014424952649211622 -0.013158037674380242 0 -0.013878532450160731 -0.010836984183779579 0 -0.011577609217254875 -0.011456390811339211 0 -0.014424952649211622 -0.013158037674380242 0 -0.010724010787090859 -0.014217593151817505 0 -0.011577609217254875 -0.011456390811339211 0 -0.014424952649211622 -0.013158037674380242 0 -0.012464016771967939 -0.016778653834459357 0 -0.010724010787090859 -0.014217593151817505 0 -0.010724010787090859 -0.014217593151817505 0 -0.011577609217254875 -0.011456390811339211 0 -0.0086296271044632306 -0.012362667328982977 0 -0.011577609217254875 -0.011456390811339211 0 -0.0086296271044632306 -0.012362667328982977 0 -0.0095893168073828416 -0.0098132729549006981 0 -0.0086296271044632306 -0.012362667328982977 0 -0.0054543342739443081 -0.01198615483027521 0 -0.0095893168073828416 -0.0098132729549006981 0 0.039759125315955816 -0.053209914941635211 0 0.039768626782457565 -0.053131385538195318 0 0.039899077793402578 -0.053251114282722195 0 0.016898387253382104 -0.031563793524852814 0 0.014518369006419854 -0.032529893845271142 0 -0.0086296271044632306 -0.012362667328982977 0 -0.0076651465836012015 -0.014413807183575085 0 -0.0054543342739443081 -0.01198615483027521 0 -0.010724010787090859 -0.014217593151817505 0 -0.0086296271044632306 -0.012362667328982977 0 -0.0076651465836012015 -0.014413807183575085 0 -0.0076651465836012015 -0.014413807183575085 0 -0.0053162496428673742 -0.014992251662631094 0 -0.0054543342739443081 -0.01198615483027521 0 0.04028982716702223 -0.052843401602215602 0 0.039759125315955816 -0.053209914941635211 0 0.039768626782457565 -0.053131385538195318 0 0.04028982716702223 -0.052843401602215602 0 0.039768626782457565 -0.053131385538195318 0 0.039038072703220385 -0.053489874573635181 0 0.039768626782457565 -0.053131385538195318 0 0.039038072703220385 -0.053489874573635181 0 0.04016201750572293 -0.053136453156291528 0 0.039038072703220385 -0.053489874573635181 0 0.038161364578692979 -0.055932230115246707 0 0.04016201750572293 -0.053136453156291528 0 0.038821462461937545 -0.055660464344963516 0 0.039046591359833578 -0.055377840185639376 0 0.035645867962594044 -0.055278345732755092 0 0.039038072703220385 -0.053489874573635181 0 0.038161364578692979 -0.055932230115246707 0 0.038161364578692979 -0.055932230115246707 0 0.039538542789129869 -0.058053758117347073 0 0.04016201750572293 -0.053136453156291528 0 0.036149678769844734 -0.058432714788138565 0 0.038161364578692979 -0.055932230115246707 0 0.039538542789129869 -0.058053758117347073 0 0.036149678769844734 -0.058432714788138565 0 0.039538542789129869 -0.058053758117347073 0 0.037995866722242137 -0.060600652290771384 0 0.034705471137405908 -0.058181446443271931 0 0.03327047273623622 -0.061503091815463741 0 0.039538542789129869 -0.058053758117347073 0 0.04016201750572293 -0.053136453156291528 0 0.043643916461278236 -0.059575752869057474 0 0.039768626782457565 -0.053131385538195318 0 0.039899077793402578 -0.053251114282722195 0 0.04016201750572293 -0.053136453156291528 0 0.039899077793402578 -0.053251114282722195 0 0.04016201750572293 -0.053136453156291528 0 0.039178767898837855 -0.053797457058979606 0 0.014518369006419854 -0.032529893845271142 0 0.011336643186337916 -0.033942287338102034 0 -0.011577609217254875 -0.011456390811339211 0 -0.0095893168073828416 -0.0098132729549006981 0 -0.013080424313532391 -0.0083182916755477846 0 0.039899077793402578 -0.053251114282722195 0 0.03940280841434881 -0.053695425279603956 0 0.039178767898837855 -0.053797457058979606 0 -0.014887868356899737 -0.0097200561471184888 0 -0.013878532450160731 -0.010836984183779579 0 -0.013080424313532391 -0.0083182916755477846 0 -0.013878532450160731 -0.010836984183779579 0 -0.011577609217254875 -0.011456390811339211 0 -0.013080424313532391 -0.0083182916755477846 0 0.039226669867953437 -0.054872550874573989 0 0.039003844052050665 -0.054731919215203172 0 0.038843280271882712 -0.055271362892459881 0 0.039003844052050665 -0.054731919215203172 0 0.038841233334612389 -0.055054974248154261 0 0.038843280271882712 -0.055271362892459881 0 0.039226669867953437 -0.054872550874573989 0 0.039003844052050665 -0.054731919215203172 0 0.039230273180745241 -0.054263308907884535 0 0.039507214497812762 -0.054342550351954011 0 0.039226669867953437 -0.054872550874573989 0 0.039230273180745241 -0.054263308907884535 0 0.039507214497812762 -0.054342550351954011 0 0.03940280841434881 -0.053695425279603956 0 0.039230273180745241 -0.054263308907884535 0 0.03940280841434881 -0.053695425279603956 0 0.039230273180745241 -0.054263308907884535 0 0.039178767898837855 -0.053797457058979606 0 0.039003844052050665 -0.054731919215203172 0 0.039230273180745241 -0.054263308907884535 0 0.039178767898837855 -0.053797457058979606 0 0.027657670375408335 -0.072949529254893078 0 0.03327047273623622 -0.061503091815463741 0 0.039003844052050665 -0.054731919215203172 0 0.038737439527198991 -0.054866417907708985 0 0.039178767898837855 -0.053797457058979606 0 0.046254870949740283 -0.066918804013419458 0 0.044265788691555293 -0.06514026402281084 0 0.043643916461278236 -0.059575752869057474 0 0.039003844052050665 -0.054731919215203172 0 0.038737439527198991 -0.054866417907708985 0 0.038841233334612389 -0.055054974248154261 0 0.046254870949740283 -0.066918804013419458 0 0.04540844944617381 -0.067066763756234715 0 0.04505884631300866 -0.066453425120117968 0 0.046254870949740283 -0.066918804013419458 0 0.04540844944617381 -0.067066763756234715 0 0.044821317588507645 -0.068243275983700932 0 0.04540844944617381 -0.067066763756234715 0 0.044414986932359117 -0.066845420186963975 0 0.044821317588507645 -0.068243275983700932 0 0.04540844944617381 -0.067066763756234715 0 0.044414986932359117 -0.066845420186963975 0 0.04505884631300866 -0.066453425120117968 0 0.046254870949740283 -0.066918804013419458 0 0.04505884631300866 -0.066453425120117968 0 0.044265788691555293 -0.06514026402281084 0 0.044414986932359117 -0.066845420186963975 0 0.04505884631300866 -0.066453425120117968 0 0.044265788691555293 -0.06514026402281084 0 0.043299926958482789 -0.066212725195972905 0 0.043257145836538294 -0.067663322316300914 0 0.040934638593120604 -0.067231171114998836 0 0.044414986932359117 -0.066845420186963975 0 0.043299926958482789 -0.066212725195972905 0 0.044265788691555293 -0.06514026402281084 0 0.044414986932359117 -0.066845420186963975 0 0.043299926958482789 -0.066212725195972905 0 0.043257145836538294 -0.067663322316300914 0 0.044414986932359117 -0.066845420186963975 0 0.043257145836538294 -0.067663322316300914 0 0.044821317588507645 -0.068243275983700932 0 0.040934638593120604 -0.067231171114998836 0 0.04183966859629977 -0.06512360490624905 0 0.039402350064630477 -0.065103549400990016 0 0.043299926958482789 -0.066212725195972905 0 0.040934638593120604 -0.067231171114998836 0 0.04183966859629977 -0.06512360490624905 0 0.04183966859629977 -0.06512360490624905 0 0.041098896011623323 -0.061779231699410728 0 0.039402350064630477 -0.065103549400990016 0 0.043299926958482789 -0.066212725195972905 0 0.04183966859629977 -0.06512360490624905 0 0.044265788691555293 -0.06514026402281084 0 0.04183966859629977 -0.06512360490624905 0 0.044265788691555293 -0.06514026402281084 0 0.041098896011623323 -0.061779231699410728 0 0.039538542789129869 -0.058053758117347073 0 0.043643916461278236 -0.059575752869057474 0 0.041098896011623323 -0.061779231699410728 0 0.044265788691555293 -0.06514026402281084 0 0.043643916461278236 -0.059575752869057474 0 0.041098896011623323 -0.061779231699410728 0 0.041098896011623323 -0.061779231699410728 0 0.038119638566047567 -0.063174845081931733 0 0.039402350064630477 -0.065103549400990016 0 0.041098896011623323 -0.061779231699410728 0 0.037995866722242137 -0.060600652290771384 0 0.038119638566047567 -0.063174845081931733 0 0.039538542789129869 -0.058053758117347073 0 0.041098896011623323 -0.061779231699410728 0 0.037995866722242137 -0.060600652290771384 0 0.037995866722242137 -0.060600652290771384 0 0.038119638566047567 -0.063174845081931733 0 0.035286663496799153 -0.061596495130930747 0 0.036673759751783892 -0.066572436143724142 0 0.035534899209255413 -0.069154744574676671 0 0.038119638566047567 -0.063174845081931733 0 0.037602850426337361 -0.066803459755456152 0 0.035001622352644729 -0.069341965880335879 0 0.038119638566047567 -0.063174845081931733 0 0.039402350064630477 -0.065103549400990016 0 0.037602850426337361 -0.066803459755456152 0 0.040934638593120604 -0.067231171114998836 0 0.039402350064630477 -0.065103549400990016 0 0.037602850426337361 -0.066803459755456152 0 0.037602850426337361 -0.066803459755456152 0 0.03603303401879436 -0.07124654161877593 0 0.035001622352644729 -0.069341965880335879 0 0.037602850426337361 -0.066803459755456152 0 0.039435163201102137 -0.069961480468782408 0 0.035915046329641896 -0.072986139405124703 0 0.035798632961464419 -0.070668520052865544 0 0.035122303945810555 -0.072983070213708479 0 0.040934638593120604 -0.067231171114998836 0 0.037602850426337361 -0.066803459755456152 0 0.039435163201102137 -0.069961480468782408 0 0.039435163201102137 -0.069961480468782408 0 0.035915046329641896 -0.072986139405124703 0 0.040180836260882674 -0.073053689452011739 0 0.034575598504203296 -0.07893989422826031 0 0.035915046329641896 -0.072986139405124703 0 0.038285447918393931 -0.076309932915163095 0 0.035915046329641896 -0.072986139405124703 0 0.038285447918393931 -0.076309932915163095 0 0.040180836260882674 -0.073053689452011739 0 0.038285447918393931 -0.076309932915163095 0 0.040180836260882674 -0.073053689452011739 0 0.042899883409113652 -0.075951899559694572 0 0.040180836260882674 -0.073053689452011739 0 0.042899883409113652 -0.075951899559694572 0 0.043684643751920667 -0.072049861963440945 0 0.043684643751920667 -0.072049861963440945 0 0.042382810053909252 -0.069852960028832636 0 0.045278518207767356 -0.069830980221340086 0 0.039435163201102137 -0.069961480468782408 0 0.040180836260882674 -0.073053689452011739 0 0.042382810053909252 -0.069852960028832636 0 0.040180836260882674 -0.073053689452011739 0 0.043684643751920667 -0.072049861963440945 0 0.042382810053909252 -0.069852960028832636 0 0.043257145836538294 -0.067663322316300914 0 0.040934638593120604 -0.067231171114998836 0 0.042382810053909252 -0.069852960028832636 0 0.040934638593120604 -0.067231171114998836 0 0.039435163201102137 -0.069961480468782408 0 0.042382810053909252 -0.069852960028832636 0 0.043257145836538294 -0.067663322316300914 0 0.042382810053909252 -0.069852960028832636 0 0.044821317588507645 -0.068243275983700932 0 0.042382810053909252 -0.069852960028832636 0 0.045278518207767356 -0.069830980221340086 0 0.044821317588507645 -0.068243275983700932 0 0.02802601151268256 -0.076434515698965214 0 0.02715946765400758 -0.07402967727047724 0 0.026660743799442319 -0.074485482498727815 0 0.027657670375408335 -0.072949529254893078 0 0.024728464652549971 -0.081547259784184006 0 0.046254870949740283 -0.066918804013419458 0 0.045278518207767356 -0.069830980221340086 0 0.047646272599976495 -0.071552589138990291 0 0.046254870949740283 -0.066918804013419458 0 0.045278518207767356 -0.069830980221340086 0 0.044821317588507645 -0.068243275983700932 0 0.027657670375408335 -0.072949529254893078 0 0.025751516542381298 -0.077537434009232839 0 0.038737439527198991 -0.054866417907708985 0 0.038841233334612389 -0.055054974248154261 0 0.038795293575144281 -0.055312024535503108 0 0.024728464652549971 -0.081547259784184006 0 0.025751516542381298 -0.077537434009232839 0 0.043684643751920667 -0.072049861963440945 0 0.045278518207767356 -0.069830980221340086 0 0.047646272599976495 -0.071552589138990291 0 0.0080608440610103072 -0.10834527113886233 0 0.010739913897869076 -0.11443408864308635 0 0.011349544691442576 -0.11019508646198919 0 0.015222727703055841 -0.11061057981293719 0 0.010739913897869076 -0.11443408864308635 0 0.011349544691442576 -0.11019508646198919 0 0.042899883409113652 -0.075951899559694572 0 0.043684643751920667 -0.072049861963440945 0 0.047646272599976495 -0.071552589138990291 0 0.02592439948157671 -0.087463289917222534 0 0.024728464652549971 -0.081547259784184006 0 0.0080608440610103072 -0.10834527113886233 0 0.009684771371356234 -0.11298472492775155 0 0.0072138416291253485 -0.11106894065798091 0 0.024045496990767537 -0.095595745040305491 0 0.024728464652549971 -0.081547259784184006 0 0.0203709695726032 -0.081148400627389664 0 0.025751516542381298 -0.077537434009232839 0 0.0050489086922157703 -0.10837118634836489 0 0.0065216763852846095 -0.10845460552385942 0 0.0072138416291253485 -0.11106894065798091 0 0.012934906281021719 -0.082004093205169812 0 0.0203709695726032 -0.081148400627389664 0 0.039302923534215765 -0.055814840714540376 0 0.038690335746339552 -0.056583352456371631 0 0.038798802635633595 -0.055930053726546552 0 0.039302923534215765 -0.055814840714540376 0 0.038798802635633595 -0.055930053726546552 0 0.038843280271882712 -0.055271362892459881 0 0.039302923534215765 -0.055814840714540376 0 0.039226669867953437 -0.054872550874573989 0 0.038843280271882712 -0.055271362892459881 0 0.038798802635633595 -0.055930053726546552 0 0.03830309013865385 -0.055685920035209113 0 0.038843280271882712 -0.055271362892459881 0 0.009684771371356234 -0.11298472492775155 0 0.0072138416291253485 -0.11106894065798091 0 0.0090436936378843636 -0.11356273438540115 0 0.038690335746339552 -0.056583352456371631 0 0.038798802635633595 -0.055930053726546552 0 0.03830309013865385 -0.055685920035209113 0 0.038841233334612389 -0.055054974248154261 0 0.038795293575144281 -0.055312024535503108 0 0.038843280271882712 -0.055271362892459881 0 0.025751516542381298 -0.077537434009232839 0 0.027393578474226278 -0.075767772471581021 0 0.028172748711098185 -0.064590008088527051 0 0.025354945868061335 -0.06665553377109093 0 0.027578844104273432 -0.068968544595437345 0 0.035310328431687896 -0.063486228412528711 0 0.038586423047136102 -0.057879291849299887 0 0.028172748711098185 -0.064590008088527051 0 0.031309214312196812 -0.065312743508006241 0 0.027578844104273432 -0.068968544595437345 0 0.028172748711098185 -0.064590008088527051 0 0.025354945868061335 -0.06665553377109093 0 0.026688480403188705 -0.060481135292855578 0 0.044538317125068602 -0.059839900255335032 0 0.041469471306225462 -0.058895384481727875 0 0.042108798404927317 -0.056321281916938699 0 0.044538317125068602 -0.059839900255335032 0 0.041469471306225462 -0.058895384481727875 0 0.0408096921104108 -0.061224179392534106 0 0.040892576557269557 -0.054860317251082515 0 0.04121267469941696 -0.056764316447131036 0 0.043561400839442647 -0.055513536223279758 0 0.044538317125068602 -0.059839900255335032 0 0.042108798404927317 -0.056321281916938699 0 0.045750421572402708 -0.054427870797679904 0 0.040301104061355043 -0.057077723774868971 0 0.038586423047136102 -0.057879291849299887 0 0.028172748711098185 -0.064590008088527051 0 0.026688480403188705 -0.060481135292855578 0 0.030197942405813073 -0.061716875247175826 0 0.031006329080447117 -0.058020363812443292 0 0.026688480403188705 -0.060481135292855578 0 0.030197942405813073 -0.061716875247175826 0 0.030197942405813073 -0.061716875247175826 0 0.035286663496799153 -0.061596495130930747 0 0.031309214312196812 -0.065312743508006241 0 0.031006329080447117 -0.058020363812443292 0 0.030197942405813073 -0.061716875247175826 0 0.035286663496799153 -0.061596495130930747 0 0.038119638566047567 -0.063174845081931733 0 0.035286663496799153 -0.061596495130930747 0 0.035146946388416624 -0.065607976222841632 0 0.036149678769844734 -0.058432714788138565 0 0.037995866722242137 -0.060600652290771384 0 0.035286663496799153 -0.061596495130930747 0 0.033972096250005079 -0.064687355131600843 0 0.03271826209006895 -0.066296144420769754 0 0.038119638566047567 -0.063174845081931733 0 0.035146946388416624 -0.065607976222841632 0 0.036056693429600016 -0.0689099878938111 0 0.035286663496799153 -0.061596495130930747 0 0.035146946388416624 -0.065607976222841632 0 0.032637621049717729 -0.065884347865339449 0 0.028172748711098185 -0.064590008088527051 0 0.030197942405813073 -0.061716875247175826 0 0.031309214312196812 -0.065312743508006241 0 0.035146946388416624 -0.065607976222841632 0 0.032637621049717729 -0.065884347865339449 0 0.033795894370381739 -0.0681259252540347 0 0.03271826209006895 -0.066296144420769754 0 0.031148751622313835 -0.068870415318400144 0 0.033795894370381739 -0.0681259252540347 0 0.033185554790731618 -0.070366452940724036 0 0.030527980306240047 -0.069407164585126566 0 0.032637621049717729 -0.065884347865339449 0 0.033795894370381739 -0.0681259252540347 0 0.030527980306240047 -0.069407164585126566 0 0.033795894370381739 -0.0681259252540347 0 0.036056693429600016 -0.0689099878938111 0 0.033185554790731618 -0.070366452940724036 0 0.035146946388416624 -0.065607976222841632 0 0.033795894370381739 -0.0681259252540347 0 0.036056693429600016 -0.0689099878938111 0 0.033374610413625015 -0.073596514284889766 0 0.035076098900407034 -0.074384707281533458 0 0.03603303401879436 -0.07124654161877593 0 0.033950278694142529 -0.072748457205887671 0 0.035534899209255413 -0.069154744574676671 0 0.034044604106176213 -0.073335750829000221 0 0.036056693429600016 -0.0689099878938111 0 0.033185554790731618 -0.070366452940724036 0 0.033374610413625015 -0.073596514284889766 0 0.03603303401879436 -0.07124654161877593 0 0.035001622352644729 -0.069341965880335879 0 0.033628465198330217 -0.077681688282346464 0 0.035122303945810555 -0.072983070213708479 0 0.034044604106176213 -0.073335750829000221 0 0.033185554790731618 -0.070366452940724036 0 0.032762811171114854 -0.072374692694710446 0 0.033185554790731618 -0.070366452940724036 0 0.031356379095167218 -0.071925369414655924 0 0.030527980306240047 -0.069407164585126566 0 0.033185554790731618 -0.070366452940724036 0 0.032762811171114854 -0.072374692694710446 0 0.031356379095167218 -0.071925369414655924 0 0.032241989189678626 -0.073429739842922198 0 0.032762811171114854 -0.072374692694710446 0 0.031356379095167218 -0.071925369414655924 0 0.031148751622313835 -0.068870415318400144 0 0.032179205992782678 -0.069623614683155227 0 0.031356379095167218 -0.071925369414655924 0 0.030527980306240047 -0.069407164585126566 0 0.028889963429770675 -0.072319056475349613 0 0.031156052652635102 -0.074151982933522292 0 0.031356379095167218 -0.071925369414655924 0 0.028889963429770675 -0.072319056475349613 0 0.025354945868061335 -0.06665553377109093 0 0.027578844104273432 -0.068968544595437345 0 0.024013284881423767 -0.072589796687028918 0 0.044538317125068602 -0.059839900255335032 0 0.04334162609295724 -0.065689501254647287 0 0.0408096921104108 -0.061224179392534106 0 0.035310328431687896 -0.063486228412528711 0 0.032179205992782678 -0.069623614683155227 0 0.04334162609295724 -0.065689501254647287 0 0.038099466478714983 -0.063683715646225422 0 0.036711975005659321 -0.067129636063898296 0 0.038099466478714983 -0.063683715646225422 0 0.036711975005659321 -0.067129636063898296 0 0.034143746431719448 -0.063995385643707381 0 0.032344247586322164 -0.068549251095187266 0 0.036711975005659321 -0.067129636063898296 0 0.034143746431719448 -0.063995385643707381 0 0.038099466478714983 -0.063683715646225422 0 0.036704667367688598 -0.0606805154668019 0 0.034143746431719448 -0.063995385643707381 0 0.04334162609295724 -0.065689501254647287 0 0.038099466478714983 -0.063683715646225422 0 0.0408096921104108 -0.061224179392534106 0 0.038099466478714983 -0.063683715646225422 0 0.036704667367688598 -0.0606805154668019 0 0.0408096921104108 -0.061224179392534106 0 0.040301104061355043 -0.057077723774868971 0 0.039940163859362637 -0.057295043555276523 0 0.036704667367688598 -0.0606805154668019 0 0.0408096921104108 -0.061224179392534106 0 0.0385109105663725 -0.058229208374197122 0 0.041469471306225462 -0.058895384481727875 0 0.042108798404927317 -0.056321281916938699 0 0.0385109105663725 -0.058229208374197122 0 0.041469471306225462 -0.058895384481727875 0 0.0408096921104108 -0.061224179392534106 0 0.0385109105663725 -0.058229208374197122 0 0.036704667367688598 -0.0606805154668019 0 0.0385109105663725 -0.058229208374197122 0 0.035977027235014176 -0.057840020581616455 0 0.0385109105663725 -0.058229208374197122 0 0.035977027235014176 -0.057840020581616455 0 0.037912432046360869 -0.055501660743804325 0 0.035977027235014176 -0.057840020581616455 0 0.037912432046360869 -0.055501660743804325 0 0.034790348475256305 -0.055722776762474002 0 0.040892576557269557 -0.054860317251082515 0 0.037912432046360869 -0.055501660743804325 0 0.03957454609640141 -0.056319636200923485 0 0.04121267469941696 -0.056764316447131036 0 0.0385109105663725 -0.058229208374197122 0 0.03957454609640141 -0.056319636200923485 0 0.0385109105663725 -0.058229208374197122 0 0.037912432046360869 -0.055501660743804325 0 0.03957454609640141 -0.056319636200923485 0 0.040534843283938485 -0.054837909119434994 0 0.039650635371850727 -0.055047511637831233 0 0.040892576557269557 -0.054860317251082515 0 0.04121267469941696 -0.056764316447131036 0 0.03957454609640141 -0.056319636200923485 0 0.032250211576707419 -0.056399284588788776 0 0.034790348475256305 -0.055722776762474002 0 0.033317683544721519 -0.054019179772237642 0 0.032250211576707419 -0.056399284588788776 0 0.034790348475256305 -0.055722776762474002 0 0.032792478680465864 -0.059718806996435274 0 0.035977027235014176 -0.057840020581616455 0 0.034790348475256305 -0.055722776762474002 0 0.032792478680465864 -0.059718806996435274 0 0.036704667367688598 -0.0606805154668019 0 0.035977027235014176 -0.057840020581616455 0 0.032792478680465864 -0.059718806996435274 0 0.032250211576707419 -0.056399284588788776 0 0.032792478680465864 -0.059718806996435274 0 0.031270836293747967 -0.058327151997657721 0 0.031305223030232643 -0.061115520712334392 0 0.030228871735895703 -0.062362196762128695 0 0.032792478680465864 -0.059718806996435274 0 0.03103998762601879 -0.059564780190658209 0 0.031270836293747967 -0.058327151997657721 0 0.032792478680465864 -0.059718806996435274 0 0.034143746431719448 -0.063995385643707381 0 0.028224562937943121 -0.065138103990987725 0 0.036704667367688598 -0.0606805154668019 0 0.032792478680465864 -0.059718806996435274 0 0.034143746431719448 -0.063995385643707381 0 0.032344247586322164 -0.068549251095187266 0 0.034143746431719448 -0.063995385643707381 0 0.028224562937943121 -0.065138103990987725 0 0.028803983734435285 -0.064338608351824617 0 0.030228871735895703 -0.062362196762128695 0 0.030136758920919993 -0.059079181273945465 0 0.03103998762601879 -0.059564780190658209 0 0.029979620552765533 -0.059023825688603204 0 0.029979620552765533 -0.059023825688603204 0 0.03029280380606128 -0.058744108343188731 0 0.029189124943666614 -0.058653535596683563 0 0.03103998762601879 -0.059564780190658209 0 0.03029280380606128 -0.058744108343188731 0 0.031270836293747967 -0.058327151997657721 0 0.03103998762601879 -0.059564780190658209 0 0.029979620552765533 -0.059023825688603204 0 0.03029280380606128 -0.058744108343188731 0 0.030459020298157665 -0.058616475706437118 0 0.03001836650694624 -0.058753668524320138 0 0.030592660521711858 -0.058778391019689152 0 0.030139117362325798 -0.058753520867601862 0 0.029979620552765533 -0.059023825688603204 0 0.03013030350991026 -0.058807877400694576 0 0.030459020298157665 -0.058616475706437118 0 0.03013030350991026 -0.058807877400694576 0 0.03001836650694624 -0.058753668524320138 0 0.029979620552765533 -0.059023825688603204 0 0.03013030350991026 -0.058807877400694576 0 0.03001836650694624 -0.058753668524320138 0 0.029979620552765533 -0.059023825688603204 0 0.03001836650694624 -0.058753668524320138 0 0.029189124943666614 -0.058653535596683563 0 0.03001836650694624 -0.058753668524320138 0 0.030067621709031059 -0.058867772854758117 0 0.029189124943666614 -0.058653535596683563 0 0.03001836650694624 -0.058753668524320138 0 0.03033904660798897 -0.058869074186109489 0 0.030592660521711858 -0.058778391019689152 0 0.030067621709031059 -0.058867772854758117 0 0.03033904660798897 -0.058869074186109489 0 0.030455916705557584 -0.05909298675750542 0 0.03001836650694624 -0.058753668524320138 0 0.030067621709031059 -0.058867772854758117 0 0.03033904660798897 -0.058869074186109489 0 0.030703272615229177 -0.059004843689235954 0 0.03033904660798897 -0.058869074186109489 0 0.030455916705557584 -0.05909298675750542 0 0.030703272615229177 -0.059004843689235954 0 0.03033904660798897 -0.058869074186109489 0 0.030592660521711858 -0.058778391019689152 0 0.033853879102515284 -0.060395644997218494 0 0.03037822346121655 -0.060575094893495073 0 0.031593274922074276 -0.059256035669948609 0 0.038848636136816272 -0.046497846628461757 0 0.038196189644276304 -0.047340041861025896 0 0.030430633265394549 -0.059727321813546744 0 0.031593274922074276 -0.059256035669948609 0 0.030455916705557584 -0.05909298675750542 0 0.030067621709031059 -0.058867772854758117 0 0.030430633265394549 -0.059727321813546744 0 0.030455916705557584 -0.05909298675750542 0 0.029189124943666614 -0.058653535596683563 0 0.028267488977292254 -0.057015099738509566 0 0.029143090016170492 -0.056619711462374926 0 0.038848636136816272 -0.046497846628461757 0 0.036045878073307266 -0.048021162891816536 0 0.030067621709031059 -0.058867772854758117 0 0.030430633265394549 -0.059727321813546744 0 0.029189124943666614 -0.058653535596683563 0 0.026592392841076697 -0.057614866320048287 0 0.029189124943666614 -0.058653535596683563 0 0.028267488977292254 -0.057015099738509566 0 0.038848636136816272 -0.046497846628461757 0 0.036914298188130155 -0.041624013696149507 0 0.026592392841076697 -0.057614866320048287 0 0.028267488977292254 -0.057015099738509566 0 0.02806877094751925 -0.055370631805748451 0 0.028267488977292254 -0.057015099738509566 0 0.029143090016170492 -0.056619711462374926 0 0.02806877094751925 -0.055370631805748451 0 0.042817051139655178 -0.022067523236632629 0 0.043385237820117939 -0.023242551412903243 0 0.042610510039606475 -0.023682301796944565 0 0.042817051139655178 -0.022067523236632629 0 0.042610510039606475 -0.023682301796944565 0 0.041405881843944899 -0.02363652583944062 0 0.043385237820117939 -0.023242551412903243 0 0.043405234567874436 -0.023895457176441932 0 0.042610510039606475 -0.023682301796944565 0 0.031270836293747967 -0.058327151997657721 0 0.030088308646507696 -0.057681091521327159 0 0.030493348169744472 -0.056183997227743955 0 0.03029280380606128 -0.058744108343188731 0 0.031270836293747967 -0.058327151997657721 0 0.030088308646507696 -0.057681091521327159 0 0.03029280380606128 -0.058744108343188731 0 0.029189124943666614 -0.058653535596683563 0 0.030088308646507696 -0.057681091521327159 0 0.029189124943666614 -0.058653535596683563 0 0.030088308646507696 -0.057681091521327159 0 0.029143090016170492 -0.056619711462374926 0 0.029143090016170492 -0.056619711462374926 0 0.030493348169744472 -0.056183997227743955 0 0.029237287893329526 -0.054714011623796285 0 0.030088308646507696 -0.057681091521327159 0 0.029143090016170492 -0.056619711462374926 0 0.030493348169744472 -0.056183997227743955 0 0.029143090016170492 -0.056619711462374926 0 0.029237287893329526 -0.054714011623796285 0 0.02806877094751925 -0.055370631805748451 0 0.032250211576707419 -0.056399284588788776 0 0.030493348169744472 -0.056183997227743955 0 0.031374340447799499 -0.054719788236742214 0 0.032250211576707419 -0.056399284588788776 0 0.031270836293747967 -0.058327151997657721 0 0.030493348169744472 -0.056183997227743955 0 0.030493348169744472 -0.056183997227743955 0 0.031374340447799499 -0.054719788236742214 0 0.029237287893329526 -0.054714011623796285 0 0.031374340447799499 -0.054719788236742214 0 0.029237287893329526 -0.054714011623796285 0 0.031634157634210326 -0.051816675693904149 0 0.030467937838648131 -0.052924886453104621 0 0.031970460872130207 -0.051415023045552774 0 0.029237287893329526 -0.054714011623796285 0 0.028677944454622871 -0.052546880116483771 0 0.02806877094751925 -0.055370631805748451 0 0.035645985810192071 -0.039209481926029445 0 0.036914298188130155 -0.041624013696149507 0 0.039887446414086453 -0.02518479571538253 0 0.041405881843944899 -0.02363652583944062 0 0.041167123336790012 -0.024982497923084782 0 0.039887446414086453 -0.02518479571538253 0 0.040772910555104326 -0.025983759290500327 0 0.039847919106754261 -0.026593707624461213 0 0.039887446414086453 -0.02518479571538253 0 0.040772910555104326 -0.025983759290500327 0 0.041167123336790012 -0.024982497923084782 0 0.029237287893329526 -0.054714011623796285 0 0.028677944454622871 -0.052546880116483771 0 0.030554008919393642 -0.052031738804410685 0 0.028677944454622871 -0.052546880116483771 0 0.030554008919393642 -0.052031738804410685 0 0.029740494040899863 -0.048105765378045694 0 0.043097713633295245 -0.024489698658770528 0 0.043405234567874436 -0.023895457176441932 0 0.042610510039606475 -0.023682301796944565 0 0.043097713633295245 -0.024489698658770528 0 0.042048264856128684 -0.024603992136896735 0 0.042750928477941416 -0.025266547619155779 0 0.043097713633295245 -0.024489698658770528 0 0.042610510039606475 -0.023682301796944565 0 0.042048264856128684 -0.024603992136896735 0 0.042048264856128684 -0.024603992136896735 0 0.041405881843944899 -0.02363652583944062 0 0.041167123336790012 -0.024982497923084782 0 0.042610510039606475 -0.023682301796944565 0 0.042048264856128684 -0.024603992136896735 0 0.041405881843944899 -0.02363652583944062 0 0.040772910555104326 -0.025983759290500327 0 0.041710383205938992 -0.025545159101187331 0 0.041579596545769558 -0.026457088022696831 0 0.040772910555104326 -0.025983759290500327 0 0.041167123336790012 -0.024982497923084782 0 0.041710383205938992 -0.025545159101187331 0 0.042048264856128684 -0.024603992136896735 0 0.041710383205938992 -0.025545159101187331 0 0.042750928477941416 -0.025266547619155779 0 0.042048264856128684 -0.024603992136896735 0 0.041167123336790012 -0.024982497923084782 0 0.041710383205938992 -0.025545159101187331 0 0.041710383205938992 -0.025545159101187331 0 0.042750928477941416 -0.025266547619155779 0 0.042518808463239494 -0.026307937987468905 0 0.043550031898377035 -0.025748956176302434 0 0.042750928477941416 -0.025266547619155779 0 0.042518808463239494 -0.026307937987468905 0 0.04350885850830611 -0.024988620436915267 0 0.043097713633295245 -0.024489698658770528 0 0.042750928477941416 -0.025266547619155779 0 0.043550031898377035 -0.025748956176302434 0 0.04350885850830611 -0.024988620436915267 0 0.042750928477941416 -0.025266547619155779 0 0.043486237532017816 -0.027080188401878331 0 0.043550031898377035 -0.025748956176302434 0 0.042518808463239494 -0.026307937987468905 0 0.043486237532017816 -0.027080188401878331 0 0.042518808463239494 -0.026307937987468905 0 0.041983453097827104 -0.027346714476304448 0 0.042518808463239494 -0.026307937987468905 0 0.041579596545769558 -0.026457088022696831 0 0.041983453097827104 -0.027346714476304448 0 0.041710383205938992 -0.025545159101187331 0 0.042518808463239494 -0.026307937987468905 0 0.041579596545769558 -0.026457088022696831 0 0.040772910555104326 -0.025983759290500327 0 0.041579596545769558 -0.026457088022696831 0 0.040886200566139091 -0.027117694091298432 0 0.041579596545769558 -0.026457088022696831 0 0.041983453097827104 -0.027346714476304448 0 0.040886200566139091 -0.027117694091298432 0 0.042172626379410653 -0.028922150566928314 0 0.041160031693353125 -0.028257333867529988 0 0.041983453097827104 -0.027346714476304448 0 0.041160031693353125 -0.028257333867529988 0 0.041983453097827104 -0.027346714476304448 0 0.040886200566139091 -0.027117694091298432 0 0.058973072357438476 -0.015744578263807301 0 0.059194137561309292 -0.013171149269998446 0 0.043486237532017816 -0.027080188401878331 0 0.042172626379410653 -0.028922150566928314 0 0.041983453097827104 -0.027346714476304448 0 0.073719599910001793 -0.00018256051821294636 0 0.074879363974216226 -0.0029782037247884753 0 0.078565790919262302 0.0029606187854873079 0 0.035645985810192071 -0.039209481926029445 0 0.03550113259830296 -0.036852758410022037 0 0.039887446414086453 -0.02518479571538253 0 0.038146674383721484 -0.026867633491981978 0 0.039847919106754261 -0.026593707624461213 0 0.038146674383721484 -0.026867633491981978 0 0.039847919106754261 -0.026593707624461213 0 0.0395440007614467 -0.027858760451597023 0 0.040772910555104326 -0.025983759290500327 0 0.039847919106754261 -0.026593707624461213 0 0.040886200566139091 -0.027117694091298432 0 0.039847919106754261 -0.026593707624461213 0 0.040886200566139091 -0.027117694091298432 0 0.0395440007614467 -0.027858760451597023 0 0.039974432542009858 -0.029243845136125868 0 0.041160031693353125 -0.028257333867529988 0 0.0395440007614467 -0.027858760451597023 0 0.041160031693353125 -0.028257333867529988 0 0.040886200566139091 -0.027117694091298432 0 0.0395440007614467 -0.027858760451597023 0 0.038146674383721484 -0.026867633491981978 0 0.0395440007614467 -0.027858760451597023 0 0.038022787287359319 -0.028300568657860854 0 0.038805235547961038 -0.028832860040162403 0 0.039974432542009858 -0.029243845136125868 0 0.0395440007614467 -0.027858760451597023 0 0.038805235547961038 -0.028832860040162403 0 0.0395440007614467 -0.027858760451597023 0 0.038022787287359319 -0.028300568657860854 0 0.038805235547961038 -0.028832860040162403 0 0.037399743372070804 -0.029009286425611205 0 0.038022787287359319 -0.028300568657860854 0 0.037291031477813444 -0.033060616561196791 0 0.03550113259830296 -0.036852758410022037 0 0.036486438888939314 -0.029491116304042574 0 0.037399743372070804 -0.029009286425611205 0 0.038022787287359319 -0.028300568657860854 0 0.036486438888939314 -0.029491116304042574 0 0.038146674383721484 -0.026867633491981978 0 0.038022787287359319 -0.028300568657860854 0 0.032833848238845151 -0.039731291594518478 0 0.029740494040899863 -0.048105765378045694 0 0.034496760708483426 -0.044080415223921476 0 0.029740494040899863 -0.048105765378045694 0 0.034561526601911814 -0.048183705102163299 0 0.034496760708483426 -0.044080415223921476 0 0.031970460872130207 -0.051415023045552774 0 0.035511714074251605 -0.048097407829642343 0 0.030554008919393642 -0.052031738804410685 0 0.029740494040899863 -0.048105765378045694 0 0.034561526601911814 -0.048183705102163299 0 0.034405409266234921 -0.048678515961561308 0 0.041617249420224052 -0.044486940849184711 0 0.039110929014159988 -0.048818003067869133 0 0.034405409266234921 -0.048678515961561308 0 0.039110929014159988 -0.048818003067869133 0 0.037076542855404723 -0.051142809416875629 0 0.034405409266234921 -0.048678515961561308 0 0.041617249420224052 -0.044486940849184711 0 0.043737112970065849 -0.041790889133791087 0 0.035511714074251605 -0.048097407829642343 0 0.038697215553734302 -0.045265788116131953 0 0.034561526601911814 -0.048183705102163299 0 0.034496760708483426 -0.044080415223921476 0 0.037984509132508296 -0.041514859220501688 0 0.034561526601911814 -0.048183705102163299 0 0.037984509132508296 -0.041514859220501688 0 0.043737112970065849 -0.041790889133791087 0 0.034496760708483426 -0.044080415223921476 0 0.03554627726082589 -0.040647195434936396 0 0.037984509132508296 -0.041514859220501688 0 0.032833848238845151 -0.039731291594518478 0 0.034496760708483426 -0.044080415223921476 0 0.03554627726082589 -0.040647195434936396 0 0.037711316862652895 -0.03674862695063983 0 0.03554627726082589 -0.040647195434936396 0 0.037984509132508296 -0.041514859220501688 0 0.041408649435516427 -0.038155190353825523 0 0.039317485913631267 -0.037794867679020593 0 0.037984509132508296 -0.041514859220501688 0 0.041617249420224052 -0.044486940849184711 0 0.043737112970065849 -0.041790889133791087 0 0.053812742287075666 -0.039539884468217802 0 0.041408649435516427 -0.038155190353825523 0 0.037984509132508296 -0.041514859220501688 0 0.043737112970065849 -0.041790889133791087 0 0.045345161571519854 -0.036922884269057779 0 0.043737112970065849 -0.041790889133791087 0 0.053812742287075666 -0.039539884468217802 0 0.045361036595680061 -0.040066270501593101 0 0.047251522010362396 -0.038287625649761702 0 0.041617249420224052 -0.044486940849184711 0 0.042153412483766653 -0.048243723991746285 0 0.041609085373957203 -0.047954611511263234 0 0.041617249420224052 -0.044486940849184711 0 0.062402719730580716 -0.044622037547724654 0 0.053812742287075666 -0.039539884468217802 0 0.060944577059118259 -0.035436710231620032 0 0.062402719730580716 -0.044622037547724654 0 0.053812742287075666 -0.039539884468217802 0 0.041609085373957203 -0.047954611511263234 0 0.041702158106186285 -0.049796407732151812 0 0.039957784781979422 -0.050775784067950268 0 0.042188884658934805 -0.049097627251136464 0 0.042153412483766653 -0.048243723991746285 0 0.041609085373957203 -0.047954611511263234 0 0.042188884658934805 -0.049097627251136464 0 0.041609085373957203 -0.047954611511263234 0 0.041702158106186285 -0.049796407732151812 0 0.041617249420224052 -0.044486940849184711 0 0.041609085373957203 -0.047954611511263234 0 0.039110929014159988 -0.048818003067869133 0 0.041609085373957203 -0.047954611511263234 0 0.039110929014159988 -0.048818003067869133 0 0.039957784781979422 -0.050775784067950268 0 0.039957784781979422 -0.050775784067950268 0 0.040954634232496068 -0.052155637884175016 0 0.038102509692041056 -0.053103376319338993 0 0.039110929014159988 -0.048818003067869133 0 0.039957784781979422 -0.050775784067950268 0 0.037076542855404723 -0.051142809416875629 0 0.039957784781979422 -0.050775784067950268 0 0.038102509692041056 -0.053103376319338993 0 0.037076542855404723 -0.051142809416875629 0 0.042286647312828309 -0.050962669067543487 0 0.041702158106186285 -0.049796407732151812 0 0.041271994420594968 -0.050930419779341075 0 0.041702158106186285 -0.049796407732151812 0 0.039957784781979422 -0.050775784067950268 0 0.041271994420594968 -0.050930419779341075 0 0.039957784781979422 -0.050775784067950268 0 0.041271994420594968 -0.050930419779341075 0 0.040954634232496068 -0.052155637884175016 0 0.042286647312828309 -0.050962669067543487 0 0.041271994420594968 -0.050930419779341075 0 0.040954634232496068 -0.052155637884175016 0 0.04190313614721889 -0.053879319065644485 0 0.037912432046360869 -0.055501660743804325 0 0.040954634232496068 -0.052155637884175016 0 0.037912432046360869 -0.055501660743804325 0 0.040954634232496068 -0.052155637884175016 0 0.038102509692041056 -0.053103376319338993 0 0.037912432046360869 -0.055501660743804325 0 0.034790348475256305 -0.055722776762474002 0 0.038102509692041056 -0.053103376319338993 0 0.034790348475256305 -0.055722776762474002 0 0.035598810052947898 -0.053189210204511075 0 0.033317683544721519 -0.054019179772237642 0 0.034790348475256305 -0.055722776762474002 0 0.038102509692041056 -0.053103376319338993 0 0.035598810052947898 -0.053189210204511075 0 0.035598810052947898 -0.053189210204511075 0 0.033317683544721519 -0.054019179772237642 0 0.034346151012439839 -0.051902966035971179 0 0.031374340447799499 -0.054719788236742214 0 0.031634157634210326 -0.051816675693904149 0 0.033317683544721519 -0.054019179772237642 0 0.032250211576707419 -0.056399284588788776 0 0.031374340447799499 -0.054719788236742214 0 0.033317683544721519 -0.054019179772237642 0 0.031634157634210326 -0.051816675693904149 0 0.034405409266234921 -0.048678515961561308 0 0.034346151012439839 -0.051902966035971179 0 0.031634157634210326 -0.051816675693904149 0 0.033317683544721519 -0.054019179772237642 0 0.034346151012439839 -0.051902966035971179 0 0.034405409266234921 -0.048678515961561308 0 0.037076542855404723 -0.051142809416875629 0 0.034346151012439839 -0.051902966035971179 0 0.035598810052947898 -0.053189210204511075 0 0.037076542855404723 -0.051142809416875629 0 0.034346151012439839 -0.051902966035971179 0 0.038102509692041056 -0.053103376319338993 0 0.035598810052947898 -0.053189210204511075 0 0.037076542855404723 -0.051142809416875629 0 
</DataArray>
</PointData>
<CellData Scalars="region_id,cross_section_updated," Vectors="" Tensors="stress,">
<DataArray type="Float64" Name="region_id" format="ascii">
5 5 5 5 5 6 5 5 5 5 5 5 5 6 5 5 5 5 6 5 5 6 5 5 5 5 6 5 5 5 5 6 5 5 5 5 5 5 5 5 5 5 5 5 5 6 5 5 6 5 5 5 5 5 6 5 5 5 5 5 5 5 6 5 5 5 5 6 5 5 5 5 5 5 5 5 5 6 5 5 6 5 5 6 5 5 5 5 6 5 5 5 5 5 5 5 6 6 6 5 5 6 5 5 5 5 5 6 5 5 5 5 5 5 5 5 5 5 5 5 5 6 5 5 5 6 5 5 5 5 5 5 6 5 5 5 5 5 5 5 5 5 5 5 5 5 5 5 5 5 5 5 5 5 5 5 5 5 6 5 5 5 6 5 5 6 5 5 5 5 5 5 5 5 5 5 5 6 5 5 5 5 5 5 5 5 6 5 5 5 5 5 5 5 5 6 5 5 5 5 5 5 5 5 5 6 5 5 5 5 5 5 5 5 5 5 5 5 5 5 5 5 5 5 5 5 5 5 5 6 5 5 5 6 5 6 5 6 5 5 6 5 5 5 6 5 6 5 6 5 6 6 5 6 5 5 6 5 6 5 5 5 6 5 6 6 5 5 6 5 5 5 6 5 6 6 6 5 6 5 5 5 6 5 6 6 6 5 5 6 6 5 5 5 5 6 5 6 5 5 6 5 5 5 6 5 6 6 6 5 5 5 6 5 6 6 6 6 5 5 5 6 6 5 5 6 6 6 5 6 5 5 5 5 6 5 5 5 5 5 5 5 6 5 5 5 5 5 5 6 6 5 5 5 6 5 5 5 6 5 6 5 6 6 5 5 5 5 6 5 5 6 5 5 5 5 6 5 6 5 5 5 5 5 6 6 5 5 5 5 5 5 5 5 6 5 5 5 6 5 5 6 5 6 5 5 5 5 5 5 5 5 5 5 5 6 5 6 5 6 5 5 5 6 5 6 5 6 5 5 5 5 5 5 6 5 6 5 5 5 6 5 5 5 6 5 6 6 5 5 5 5 6 5 5 5 5 6 6 5 5 6 5 6 5 6 6 5 5 5 6 5 5 5 5 6 5 5 5 5 5 5 5 5 5 5 5 6 5 5 5 5 6 5 5 5 6 5 6 6 6 5 5 5 6 6 5 6 5 5 6 5 5 5 5 6 5 5 5 5 5 5 5 5 5 5 5 6 6 5 5 6 5 5 5 6 5 5 5 5 5 5 6 5 5 5 6 5 5 5 6 5 5 5 5 5 5 5 5 5 5 5 6 5 5 5 6 5 5 5 5 5 5 5 6 5 5 5 5 5 6 5 5 5 5 5 5 5 5 5 5 5 5 5 5 5 5 5 5 5 6 5 5 5 5 6 5 5 6 5 5 5 5 5 5 5 6 5 5 5 5 5 5 5 5 6 5 6 5 5 6 5 5 5 6 5 5 6 5 5 5 6 5 6 5 5 6 5 6 5 5 5 5 5 5 5 5 5 5 5 5 5 5 5 5 5 5 5 5 5 5 6 5 6 5 6 5 5 5 5 5 5 5 5 5 5 5 5 5 5 5 6 5 5 5 5 5 5 5 5 5 6 5 5 5 5 5 5 5 5 5 5 5 5 5 5 5 5 5 5 5 5 5 5 5 5 5 5 5 5 5 6 5 5 6 5 5 5 6 6 5 6 5 5 5 5 5 6 5 5 5 5 5 6 5 5 5 5 5 5 5 5 5 5 5 5 5 5 5 5 5 5 5 5 5 5 5 5 5 5 5 5 5 5 5 5 5 5 5 5 5 5 5 5 5 5 5 5 5 5 5 5 5 6 5 5 5 5 5 5 5 5 5 5 5 5 5 5 5 6 5 5 5 5 6 5 5 5 5 5 5 5 5 5 5 5 5 5 5 5 5 5 5 5 5 5 5 5 5 5 5 5 6 5 5 6 5 6 6 6 6 5 5 6 5 5 5 5 5 5 5 5 5 5 5 5 5 5 5 5 5 6 5 5 6 5 6 5 5 5 5 6 5 6 5 5 5 5 6 5 5 5 6 5 5 5 5 5 6 5 6 5 5 6 6 5 6 5 5 5 5 5 5 5 5 5 5 5 6 5 5 5 6 5 5 5 6 5 5 6 6 6 5 5 5 5 5 5 5 5 5 5 5 6 5 5 5 5 5 5 5 5 6 6 6 5 5 5 5 5 5 5 5 6 6 5 5 5 6 5 5 6 5 5 5 5 5 5 5 5 5 5 5 6 5 5 5 5 5 5 5 5 6 5 5 5 5 5 5 5 5 5 5 6 5 6 6 6 5 5 5 5 5 5 5 6 6 5 6 5 5 5 5 5 6 5 6 6 5 5 5 6 5 6 5 5 5 5 6 5 5 5 5 5 5 5 5 5 5 5 5 5 5 5 5 5 6 5 5 5 6 5 5 5 5 5 6 5 5 5 5 5 5 6 5 6 5 5 5 5 5 5 5 5 6 5 5 5 6 5 5 5 5 5 5 5 5 5 5 5 5 5 5 5 5 5 5 5 5 5 5 5 5 5 6 6 6 5 5 5 5 6 5 5 5 5 6 5 5 5 5 5 5 5 6 5 5 5 5 5 5 5 5 6 5 5 5 5 5 5 5 5 5 5 5 5 6 5 5 5 5 5 5 6 5 5 5 5 5 5 5 5 6 5 5 5 6 5 5 5 5 5 5 5 5 5 5 5 5 6 5 5 5 5 5 5 5 5 5 5 5 5 5 5 5 5 5 5 5 5 5 5 5 5 5 5 5 5 5 5 5 5 5 5 5 5 5 5 5 5 5 5 5 5 5 5 5 6 5 5 5 5 5 5 5 5 5 5 5 5 5 5 5 5 5 5 5 5 5 5 5 5 6 5 5 5 5 5 5 5 5 5 5 6 5 5 6 5 5 5 5 5 5 5 5 5 6 5 6 5 5 5 5 6 5 5 6 5 6 5 5 5 5 5 6 5 5 5 5 5 5 5 5 6 5 5 5 5 5 5 5 5 5 5 5 5 5 5 6 5 6 6 5 5 5 5 5 6 5 5 5 5 5 5 5 5 5 5 5 5 5 5 5 6 5 5 5 5 5 5 5 5 5 5 5 5 5 5 5 5 6 5 5 5 5 5 6 6 5 5 6 5 5 5 5 5 5 5 5 5 5 6 5 5 5 5 5 5 5 5 5 6 5 6 5 5 5 5 5 6 5 5 5 5 6 5 5 5 6 5 5 5 6 5 5 6 5 5 5 5 5 5 5 5 5 5 5 5 5 5 5 5 6 5 5 5 5 5 5 5 6 5 5 5 5 5 5 5 5 5 5 5 5 5 5 5 5 5 5 5 5 5 5 5 5 5 5 5 6 5 5 5 5 6 5 5 5 6 5 5 5 5 5 5 5 5 5 6 5 6 5 5 5 5 5 5 5 5 5 5 5 5 5 5 5 5 5 5 6 6 5 5 5 6 5 5 6 5 5 6 5 5 5 6 5 5 6 5 5 5 5 5 5 5 5 5 5 5 5 5 5 5 5 5 5 5 5 6 5 6 5 5 5 5 5 5 5 5 5 5 5 6 5 6 5 5 5 6 5 5 5 5 5 6 5 5 5 5 5 5 6 5 5 5 5 5 5 5 5 5 5 5 6 5 5 5 5 5 5 5 5 6 5 5 5 6 5 5 6 5 5 5 5 5 6 5 5 5 5 5 5 5 5 5 6 5 5 6 5 6 5 6 6 6 5 6 5 5 5 5 5 5 6 5 5 5 5 5 5 6 5 5 5 5 5 5 5 6 5 5 5 5 6 5 5 5 5 5 6 5 6 5 5 5 5 5 5 5 5 5 5 6 5 5 5 5 5 5 5 6 5 5 5 5 5 5 5 6 5 6 5 5 5 5 5 5 5 5 6 5 5 5 6 6 5 5 5 5 5 6 6 5 6 5 5 6 5 5 6 5 5 5 5 5 5 5 5 6 5 5 5 5 5 6 5 5 5 5 6 5 5 6 5 5 5 5 5 5 5 5 5 5 5 5 5 5 5 5 5 5 5 5 5 5 5 5 5 5 5 5 5 5 5 5 5 5 5 5 5 5 5 5 5 6 5 5 6 5 5 5 5 5 6 5 5 5 5 6 5 5 5 5 5 5 5 5 5 5 5 5 5 5 5 5 5 5 5 5 5 5 5 5 6 5 5 5 6 5 5 5 5 5 5 6 5 5 5 5 5 5 5 5 5 5 5 6 5 6 6 5 5 6 5 5 5 5 5 5 5 5 5 5 5 6 5 5 6 5 5 5 5 5 5 5 5 5 5 5 5 5 5 5 6 5 5 5 5 5 5 5 6 5 6 5 5 5 5 6 5 6 5 5 5 5 5 5 5 5 5 6 5 5 5 5 5 5 5 5 5 5 5 5 5 5 5 5 5 6 5 5 5 5 5 5 5 5 5 5 5 5 5 5 5 5 5 5 5 5 5 5 5 5 5 6 6 5 5 5 5 5 5 5 5 5 5 5 6 5 5 5 5 6 5 5 5 5 6 5 5 5 5 5 5 5 5 6 5 5 5 5 5 5 5 5 5 6 5 5 5 5 5 5 5 5 5 5 5 5 5 5 5 5 5 5 5 5 6 5 5 5 5 5 5 5 5 5 5 5 5 5 5 6 5 6 5 5 5 5 5 5 5 5 6 5 5 6 5 5 5 5 5 5 5 5 5 5 5 5 5 5 5 5 5 5 5 5 5 5 5 5 5 5 5 5 5 5 5 5 5 5 5 5 6 5 5 6 5 5 5 5 6 5 6 5 5 6 5 6 5 5 5 5 5 6 5 5 5 5 5 5 5 5 5 5 5 5 6 5 5 5 6 5 5 5 5 5 5 5 5 5 6 5 5 5 5 6 6 5 5 5 5 5 5 5 5 6 5 5 5 5 5 6 5 5 5 6 5 5 5 6 5 5 5 5 6 5 5 5 5 5 5 5 5 5 5 5 5 5 5 6 5 5 5 5 5 5 6 5 6 6 5 6 5 6 5 5 5 5 6 5 5 5 5 6 5 5 5 5 5 5 5 5 5 6 5 5 5 5 5 5 5 5 5 5 5 5 5 5 6 5 5 5 6 5 5 5 6 5 6 5 5 5 5 5 5 5 5 5 5 5 5 5 5 5 5 6 5 5 5 5 5 5 6 5 5 5 5 5 5 5 5 5 5 5 5 5 5 5 5 5 5 6 5 5 5 5 5 5 5 5 5 5 5 5 5 5 5 5 5 5 5 5 5 5 5 5 5 5 5 5 5 5 5 5 5 5 6 5 5 5 5 6 5 5 5 5 5 5 5 6 5 5 5 5 5 5 5 5 5 6 5 5 6 5 5 5 5 5 6 5 5 5 6 5 5 6 5 5 5 5 5 5 5 5 5 5 5 5 5 5 5 5 5 5 5 5 6 5 5 5 5 5 5 5 5 5 5 6 6 5 6 5 5 5 5 5 6 5 5 5 5 6 5 5 5 5 5 6 5 6 5 5 6 5 5 5 5 5 5 5 5 6 5 5 5 5 5 5 6 5 5 5 5 5 5 6 5 5 5 5 6 5 5 6 5 6 5 5 6 5 5 5 5 5 5 6 5 5 5 5 6 5 5 5 5 5 5 5 5 6 6 5 5 5 5 5 5 5 5 6 5 5 5 5 5 5 6 5 5 5 5 5 5 5 6 5 5 5 6 5 5 5 5 5 5 5 5 5 5 5 5 6 5 5 5 5 6 5 5 6 5 5 5 5 6 5 5 5 6 6 5 5 5 6 5 5 5 6 5 5 5 5 5 5 5 5 5 6 5 5 5 6 5 5 5 5 5 5 5 5 5 5 5 5 6 5 6 5 5 6 5 5 6 5 5 5 5 5 5 5 6 5 5 5 5 5 6 5 6 5 5 5 6 6 5 6 6 5 6 5 5 5 5 5 5 6 5 6 5 5 5 5 5 5 5 5 5 5 5 5 5 6 5 5 6 5 6 5 5 6 5 5 5 6 6 5 5 6 5 5 5 5 5 5 5 5 5 5 5 5 5 5 5 5 5 5 5 5 5 5 5 6 6 5 6 5 6 5 5 6 6 5 5 6 5 5 6 5 5 6 5 6 5 5 5 5 6 5 5 5 5 6 5 6 6 5 6 5 5 6 6 5 5 5 6 5 5 5 5 6 6 5 5 5 5 5 6 5 5 5 5 5 5 5 5 5 5 5 6 5 6 5 6 5 5 6 5 6 5 5 5 5 5 5 5 5 6 5 5 6 5 5 5 5 6 5 5 5 5 5 5 5 5 5 5 5 5 6 5 5 5 5 5 5 5 5 5 5 5 6 5 5 5 5 5 5 6 5 6 5 5 6 5 5 5 5 5 5 5 5 5 5 5 5 5 5 5 5 5 6 6 5 5 5 6 5 5 6 5 5 5 5 5 5 5 5 5 5 5 5 5 5 5 5 5 5 5 5 5 5 5 5 5 6 6 5 5 5 5 5 5 5 5 5 5 5 6 5 5 5 5 5 5 5 5 5 5 5 5 5 5 5 5 5 5 5 5 5 5 5 5 5 5 5 5 5 5 5 5 5 6 5 5 5 5 5 6 5 5 6 5 5 6 6 5 5 5 5 5 5 5 5 5 5 5 5 5 6 5 5 6 5 5 5 5 5 5 6 5 5 6 5 5 5 5 5 5 5 5 5 5 5 5 5 6 5 5 5 5 5 5 5 6 5 5 5 5 5 5 5 5 5 5 5 5 6 5 5 6 5 5 5 5 5 5 5 5 5 5 5 5 5 5 5 5 5 5 5 5 6 5 5 6 5 6 5 5 5 6 5 5 6 5 6 5 5 5 6 5 5 5 5 6 5 5 5 5 5 5 5 6 5 5 5 6 5 5 5 5 5 5 5 5 5 5 5 5 6 5 5 5 5 5 5 5 5 6 5 5 5 5 5 5 5 5 5 5 5 6 5 5 5 5 5 5 5 5 5 5 5 5 5 5 5 5 5 5 5 6 6 5 5 5 6 5 5 5 5 5 5 5 5 5 5 5 5 6 5 5 5 5 5 5 5 5 5 6 5 5 5 5 5 5 5 5 5 5 5 5 5 5 5 5 6 5 6 5 5 5 5 5 6 5 5 5 5 6 5 5 5 6 5 5 5 6 5 5 5 5 5 5 5 5 5 6 5 5 5 6 5 5 6 5 5 5 5 5 5 6 5 5 5 5 5 5 5 5 6 5 5 5 6 5 5 5 5 5 5 5 5 5 5 5 5 5 5 5 5 5 5 5 5 5 5 5 5 5 5 5 6 5 5 5 5 5 5 5 6 5 5 5 5 5 5 5 5 5 5 5 5 5 5 5 5 5 5 5 5 5 5 5 5 5 6 5 6 5 5 5 5 5 5 6 5 5 5 6 5 5 6 5 5 5 5 5 5 5 5 5 5 5 5 6 5 5 5 5 5 6 5 5 5 5 5 5 5 5 5 5 5 5 5 6 5 5 5 6 5 5 5 5 5 5 5 5 5 5 5 5 6 6 5 5 5 5 6 5 5 5 5 5 5 5 5 5 6 6 5 5 5 5 5 6 5 5 5 5 5 6 5 5 5 5 5 6 5 6 5 5 5 5 6 5 6 5 6 6 5 5 5 5 5 5 5 6 6 5 5 5 5 5 5 6 6 6 5 6 6 5 5 5 6 5 5 5 5 5 6 6 6 5 6 5 5 5 6 5 6 6 5 5 5 5 5 5 5 6 6 5 5 6 6 6 5 5 5 5 5 5 5 5 5 5 5 5 5 5 5 5 5 5 5 5 5 5 5 5 5 5 5 5 5 5 5 5 5 5 5 5 5 5 5 5 6 5 5 5 5 5 5 5 5 5 5 6 5 5 5 5 5 5 6 5 5 6 5 5 5 5 5 5 5 5 5 5 5 5 5 6 5 6 5 5 5 5 6 5 5 5 6 5 5 6 5 5 5 6 5 5 6 5 5 5 5 5 6 5 5 5 5 5 5 5 6 5 5 5 5 5 5 5 6 5 5 6 5 5 5 5 6 5 6 5 5 5 5 5 6 5 5 5 5 6 5 5 5 5 5 5 6 6 5 5 5 5 5 6 5 5 6 5 5 5 5 5 5 5 5 5 5 6 5 5 5 5 5 5 5 5 5 5 5 5 5 5 5 5 5 5 6 5 5 5 5 5 5 6 5 5 5 5 5 5 5 6 6 5 5 5 5 6 5 5 5 5 5 5 5 6 5 5 6 5 6 6 6 5 5 5 5 5 5 6 5 5 5 5 5 6 5 5 5 5 6 5 5 5 6 5 5 5 6 5 5 5 5 5 5 5 5 5 5 5 5 5 5 5 5 5 5 5 5 5 5 5 5 5 6 5 5 5 5 5 5 5 6 5 6 5 5 5 5 5 5 6 5 5 6 5 5 5 6 5 5 6 5 5 5 5 5 6 5 5 5 6 6 5 5 5 5 5 5 5 5 5 5 5 5 6 5 5 5 5 5 5 5 5 5 6 5 5 5 5 5 6 6 5 5 5 5 5 5 5 5 5 6 5 5 5 5 5 5 5 5 6 5 5 5 5 5 5 5 5 5 5 5 5 5 5 5 5 5 5 6 5 5 5 5 6 5 6 5 6 5 5 5 5 5 5 5 5 5 5 5 5 5 5 5 5 5 6 5 5 5 5 5 6 5 5 5 6 6 5 5 5 5 5 6 5 5 5 5 6 5 5 5 5 5 5 5 5 6 5 5 5 5 5 5 5 6 5 5 5 5 5 5 5 5 5 6 5 5 5 5 5 5 5 5 5 5 5 5 5 5 5 5 5 5 6 5 5 5 5 5 5 5 5 5 5 5 5 5 6 5 5 5 5 5 5 6 5 5 6 5 5 6 5 5 5 5 5 5 5 5 5 5 5 5 5 5 5 5 5 5 5 5 5 5 5 5 5 5 6 5 6 5 6 6 5 5 5 6 5 5 5 5 5 5 5 5 5 6 6 5 6 5 5 5 5 5 5 5 5 5 5 5 5 5 5 6 5 6 6 5 6 5 5 5 5 5 5 5 5 5 6 6 5 5 5 5 5 5 5 5 5 5 5 5 5 5 5 5 5 5 5 5 5 5 6 5 5 5 5 5 6 5 5 5 5 5 6 5 5 5 6 5 5 5 5 5 5 5 5 5 6 5 5 5 5 6 5 5 5 5 5 5 6 5 5 5 5 5 5 5 6 5 5 5 5 6 5 5 5 5 5 5 5 5 5 5 6 5 5 5 5 6 5 5 5 6 5 5 5 5 5 6 5 5 5 5 5 5 5 5 5 5 5 5 5 5 6 6 5 5 6 5 5 5 5 5 5 5 6 5 5 5 5 5 5 6 5 5 5 5 5 5 5 5 5 5 5 5 5 5 5 5 5 5 5 5 5 5 5 6 5 5 5 5 5 5 5 5 6 5 5 5 5 6 5 5 5 5 5 6 5 6 5 6 5 5 5 5 5 5 5 6 5 5 5 6 5 5 5 5 5 6 5 5 5 5 5 6 5 6 5 5 6 5 6 5 5 5 5 5 6 5 5 5 6 5 5 5 5 5 5 5 5 5 5 6 5 5 5 5 5 5 5 5 5 5 5 5 5 5 5 5 5 5 5 5 5 5 6 5 5 5 5 5 5 5 5 5 5 5 5 5 5 5 5 5 5 6 5 5 5 6 5 5 5 5 5 5 6 5 5 5 6 6 5 6 5 6 6 5 6 5 5 6 5 5 6 6 5 5 5 5 5 5 5 5 6 5 6 5 5 5 5 5 5 5 5 5 5 5 5 5 5 5 5 5 5 5 5 5 5 6 5 5 5 5 5 5 5 5 6 5 5 6 5 5 6 6 5 5 6 5 5 5 5 5 5 5 5 5 5 5 5 5 5 5 5 5 5 5 5 5 5 5 5 5 5 5 5 5 5 5 5 5 5 5 5 5 5 5 6 5 6 5 5 5 5 5 5 5 5 5 5 5 5 5 5 5 5 5 5 5 5 5 5 5 5 5 5 5 5 5 5 5 5 5 5 5 5 5 5 5 5 6 5 5 6 5 5 5 5 5 6 5 6 5 5 6 5 5 5 5 5 5 6 5 5 5 5 5 5 5 5 5 5 5 6 5 5 6 6 5 6 5 5 6 5 5 5 5 6 5 5 5 5 5 5 5 5 5 6 5 6 5 5 5 5 5 5 5 6 5 6 5 5 5 5 5 5 5 5 5 6 5 6 5 5 5 5 5 5 5 5 5 5 6 5 5 5 6 5 5 6 5 5 6 5 5 5 5 6 5 5 5 6 5 5 5 5 5 5 5 5 5 5 5 5 5 5 6 5 5 5 5 5 5 6 5 6 5 6 5 5 5 6 5 5 5 5 5 5 5 5 6 5 5 5 5 5 6 5 5 6 5 5 5 5 5 5 5 5 5 6 5 5 5 6 5 5 5 5 5 5 6 5 5 5 5 5 5 5 5 5 5 5 5 5 5 5 5 5 5 5 5 5 5 5 5 5 5 5 5 5 5 5 6 5 5 5 5 5 6 5 5 6 6 5 5 5 5 6 5 5 5 5 5 6 5 5 5 5 5 5 5 5 5 5 5 5 5 5 5 5 6 5 5 5 5 5 5 5 5 6 6 5 5 5 5 5 5 6 5 5 5 5 6 5 5 5 5 5 5 5 5 5 5 5 5 5 5 5 5 5 5 5 5 5 5 5 5 6 5 5 6 5 5 5 5 5 5 5 5 5 5 5 5 5 5 5 5 5 5 5 5 5 5 5 5 5 5 5 6 5 6 5 5 5 5 5 6 5 5 5 5 5 5 5 5 5 5 5 5 5 5 5 5 5 5 5 5 6 6 5 6 5 5 5 5 5 5 5 5 5 5 5 5 5 5 5 5 6 5 5 5 6 5 5 5 5 5 5 5 5 5 5 5 5 5 6 5 5 5 5 5 5 5 5 5 5 5 5 5 5 5 5 5 5 5 5 5 5 6 5 5 5 5 5 5 5 5 5 5 5 5 5 6 5 6 5 5 6 6 5 5 5 5 5 5 5 5 5 5 5 5 5 5 5 5 5 5 5 5 6 5 5 6 5 5 5 6 5 5 5 5 5 5 6 5 5 5 6 5 5 5 5 5 5 5 5 6 5 5 6 5 5 6 5 6 5 5 5 5 6 6 5 5 6 6 5 5 6 5 5 5 5 6 5 5 6 6 5 6 5 5 5 5 5 5 5 5 5 5 5 5 5 5 5 5 5 5 5 5 6 5 5 5 5 6 5 5 5 5 6 6 5 5 5 5 5 5 5 5 5 5 5 5 6 5 5 5 6 5 5 5 5 5 5 5 6 5 5 5 6 5 5 6 6 5 5 5 6 5 5 5 6 5 5 5 5 5 5 5 5 5 5 5 5 5 5 5 5 5 5 6 5 5 5 5 5 5 5 5 5 5 5 5 5 5 5 5 5 5 6 6 5 5 5 5 5 6 6 5 6 5 5 5 5 5 5 5 5 5 6 5 5 5 6 5 5 5 5 5 5 5 5 5 5 5 5 5 5 6 5 5 5 5 5 5 5 6 5 5 6 5 5 5 5 5 5 6 5 5 5 5 6 5 5 5 5 5 5 6 5 5 5 5 5 5 5 5 6 6 5 5 5 6 6 5 5 5 5 5 6 5 5 5 5 5 5 6 5 5 5 5 6 5 5 5 5 5 6 5 5 5 5 6 5 5 5 5 5 5 5 5 5 5 5 5 5 5 5 5 5 5 5 5 5 5 5 5 5 6 5 5 5 5 6 5 6 5 6 5 5 6 5 5 6 5 5 6 5 5 5 5 5 5 6 5 5 6 5 6 6 6 5 5 6 5 6 6 5 5 5 6 5 6 5 5 5 5 5 5 6 5 5 5 6 5 5 5 5 5 5 5 6 5 5 5 6 5 6 6 5 5 5 5 5 5 5 6 5 5 5 5 5 5 5 5 6 6 5 5 5 5 6 5 5 6 5 5 5 6 5 5 5 6 6 5 5 5 5 6 5 5 5 5 5 6 6 5 5 5 5 5 5 5 5 5 5 5 5 5 5 5 5 5 5 5 5 5 5 5 5 5 5 5 5 5 5 5 6 5 5 5 6 5 5 5 5 5 5 5 5 5 5 5 5 5 5 5 6 5 6 6 5 5 6 5 5 5 5 5 5 5 5 5 5 5 5 5 5 5 5 5 5 5 5 5 5 5 6 5 5 6 6 5 5 5 5 5 5 5 6 5 5 5 6 5 5 5 5 6 6 5 5 5 5 5 5 5 6 5 5 5 5 6 5 5 5 5 6 5 5 5 5 5 5 5 5 5 5 5 5 5 5 5 5 5 5 5 6 5 5 5 5 5 5 5 5 5 5 5 5 5 5 5 5 6 5 5 5 6 5 5 5 5 5 5 5 5 5 6 5 5 5 5 5 5 5 5 5 5 5 5 5 5 5 5 5 5 5 5 5 6 5 5 5 5 5 5 5 5 5 5 5 5 5 5 5 5 5 6 5 5 5 5 5 6 5 5 5 5 5 5 5 5 5 5 5 5 5 5 5 5 5 5 5 5 5 5 5 5 5 5 5 6 5 5 6 5 5 5 6 5 5 5 5 5 5 5 5 5 5 5 5 5 5 5 6 5 6 5 5 5 5 5 5 5 5 5 6 5 5 5 5 5 5 5 5 5 6 6 5 5 5 5 5 5 5 5 5 5 5 5 5 5 5 5 5 5 5 5 5 5 5 5 5 5 5 5 5 5 5 5 5 5 5 5 5 5 5 5 5 5 5 5 5 5 5 5 5 5 5 5 5 5 5 5 5 5 5 5 5 5 5 5 5 5 5 5 5 5 5 6 5 5 5 5 5 5 6 5 5 5 5 5 5 5 5 5 6 5 6 5 5 5 5 5 5 5 5 5 5 5 5 5 5 5 5 5 5 5 5 5 5 5 5 5 5 5 5 5 5 5 5 5 5 6 5 5 5 6 6 5 5 5 5 5 5 5 5 5 5 5 5 5 5 5 5 5 5 5 5 5 5 6 6 5 5 5 5 5 5 5 5 6 5 5 5 5 5 5 6 5 5 5 5 5 6 5 5 5 5 6 5 5 5 6 5 5 5 6 5 5 6 5 5 5 5 5 5 5 5 5 5 5 5 5 6 5 5 5 5 5 5 5 5 6 5 5 5 5 5 5 5 5 5 5 5 6 5 5 5 6 5 5 5 5 6 5 5 5 5 5 5 5 5 6 5 6 5 5 6 5 5 5 5 5 6 5 5 5 5 5 5 5 5 5 5 5 5 6 5 5 5 5 5 5 5 5 5 6 5 5 5 5 5 5 6 5 5 5 5 5 5 5 6 5 5 5 5 5 6 5 5 5 5 5 5 5 5 5 5 5 5 5 5 5 5 5 5 5 5 5 5 5 5 5 5 5 5 5 5 5 5 5 5 5 5 5 5 5 5 5 5 5 5 5 5 5 6 5 6 5 5 5 5 5 5 5 5 5 5 5 5 5 5 6 5 5 5 5 5 5 5 5 5 5 5 5 5 5 5 6 5 5 6 5 6 5 5 5 5 5 6 5 5 5 5 5 5 5 5 5 5 5 5 5 5 5 5 5 5 5 5 6 5 5 5 5 5 5 5 5 5 5 5 6 5 6 5 5 6 5 6 5 5 5 5 5 5 5 6 5 6 5 5 5 5 6 5 5 5 5 6 6 5 5 6 5 5 5 5 5 5 5 5 5 5 5 5 5 5 5 5 6 5 5 5 5 5 5 5 5 5 5 5 5 5 5 6 5 6 5 5 5 5 5 5 5 6 5 6 5 5 5 5 5 5 5 5 5 6 6 5 5 5 6 5 5 5 5 6 5 6 5 5 6 5 6 6 6 5 5 6 5 5 5 6 6 6 5 5 5 5 5 5 5 5 5 5 5 6 5 5 5 5 5 5 6 5 5 5 6 5 5 5 5 5 5 5 5 6 5 5 5 6 5 5 5 5 5 5 5 5 5 5 5 5 5 5 5 5 5 5 5 5 5 5 5 5 5 5 5 5 5 5 5 5 5 5 5 5 5 5 5 5 5 5 5 5 5 5 5 5 5 5 5 5 5 5 5 5 5 5 5 5 6 5 5 5 5 5 6 5 5 5 5 6 5 5 5 6 5 5 5 5 5 5 5 5 5 5 5 5 5 5 5 5 5 5 5 5 5 5 5 5 5 5 5 5 5 5 5 5 5 5 5 5 5 5 5 5 6 5 5 6 5 5 5 5 5 5 5 6 5 5 5 5 5 5 5 5 5 5 5 6 5 5 6 5 6 5 5 5 6 5 5 5 5 5 5 5 5 6 5 5 5 5 6 5 5 5 5 6 5 6 5 5 5 5 5 5 5 5 5 5 5 5 6 5 6 5 5 5 5 5 5 5 5 5 5 5 5 5 6 5 5 5 5 5 5 5 5 5 6 5 5 5 6 5 5 5 5 5 5 5 5 5 5 5 5 5 5 5 5 5 5 5 5 5 5 5 5 5 5 5 5 5 5 5 5 5 5 5 6 5 5 6 5 5 5 5 6 5 5 5 5 5 5 5 5 5 5 5 5 5 5 5 6 5 5 5 5 5 5 5 5 5 6 5 6 5 5 5 5 5 5 5 6 5 5 5 5 5 5 5 5 5 5 5 5 5 5 6 5 5 5 5 5 5 5 5 5 5 5 6 5 5 5 5 5 5 5 5 5 5 5 5 5 5 5 5 5 5 5 5 5 5 5 6 5 6 5 5 5 5 5 5 6 5 6 5 5 5 6 5 5 5 6 5 5 5 6 5 5 6 5 5 5 5 5 5 5 6 5 5 5 5 5 5 5 6 5 5 5 5 5 5 5 5 5 5 5 5 5 6 5 5 5 5 5 5 5 5 6 5 5 5 5 5 5 5 5 5 5 5 5 5 5 5 5 5 5 5 5 6 5 5 5 5 5 5 5 5 5 5 5 5 5 5 5 5 5 5 5 5 5 5 5 5 5 5 5 5 5 5 5 5 5 5 5 5 5 5 5 5 5 5 5 5 5 5 5 5 5 5 6 5 6 5 5 5 6 5 5 6 6 5 6 5 5 5 5 5 5 5 5 5 5 5 5 5 5 5 5 5 5 5 5 5 5 5 5 5 5 5 5 5 5 5 5 5 5 5 6 5 5 5 5 6 5 5 6 5 5 5 6 5 5 5 5 6 5 6 6 5 5 5 5 6 5 5 5 6 5 5 5 6 5 5 5 5 5 5 6 5 5 5 5 5 5 5 5 5 5 5 5 5 5 5 5 5 5 5 5 6 5 5 5 5 5 5 5 5 5 5 5 5 5 5 5 5 5 5 6 5 5 6 5 5 6 5 5 5 5 5 5 5 5 5 5 5 6 5 5 5 5 6 5 5 5 5 6 5 5 5 6 5 5 5 5 5 5 5 5 5 5 5 5 5 5 5 5 5 5 5 5 5 5 5 5 5 6 5 5 5 5 5 5 5 5 6 5 5 5 6 5 5 5 5 5 5 5 5 5 5 5 5 5 5 5 5 5 5 5 5 5 5 5 5 6 5 5 5 6 5 5 5 5 5 5 5 5 6 5 5 6 5 5 5 5 6 5 5 5 5 5 5 5 6 5 6 5 5 6 5 5 6 6 5 5 5 5 5 5 5 5 5 5 5 5 5 5 5 5 5 5 5 5 5 6 5 5 5 5 6 5 5 5 5 5 5 5 5 5 5 5 5 5 6 5 5 6 5 5 5 5 5 5 5 5 5 5 5 5 5 5 5 5 5 5 5 5 5 5 5 5 5 5 5 5 5 5 5 5 5 5 5 5 5 5 5 5 5 5 5 5 5 5 5 5 5 5 5 5 5 5 5 5 5 5 5 5 5 5 5 5 5 5 5 5 5 5 5 5 5 5 5 5 5 5 5 5 5 5 5 5 5 5 5 5 5 5 5 5 5 5 5 5 5 5 5 5 5 5 5 5 5 5 5 5 5 5 5 5 5 5 5 5 5 5 5 5 5 5 5 5 5 5 5 5 6 5 5 5 5 5 5 5 6 5 5 5 5 5 5 5 5 5 6 5 6 5 5 5 6 5 5 6 5 5 5 5 5 5 5 5 5 5 5 5 5 5 5 5 5 5 5 5 5 5 5 5 5 5 5 5 5 5 5 5 5 5 5 5 5 6 5 5 6 6 5 5 6 5 5 6 5 5 5 6 5 5 5 5 5 5 5 5 5 6 5 5 5 5 5 5 6 5 5 5 5 5 5 5 5 5 5 5 5 5 5 5 5 5 5 5 5 5 5 5 5 5 5 5 5 5 5 5 6 5 5 5 5 5 5 5 5 5 5 5 5 5 5 5 5 5 5 5 5 5 5 5 5 5 5 5 5 5 5 5 5 5 5 5 5 5 5 5 5 5 5 5 5 5 5 6 5 6 5 5 5 5 6 5 5 5 5 6 5 5 5 5 6 5 5 5 5 5 5 5 5 6 5 5 6 5 6 5 5 5 5 6 5 5 6 6 5 5 5 5 5 5 6 5 5 5 5 5 5 5 5 5 5 6 6 5 5 5 5 5 6 5 5 6 5 5 5 5 6 5 5 6 5 5 5 5 5 5 5 5 5 5 5 5 5 5 5 5 5 5 5 5 5 5 5 5 5 5 5 5 5 6 5 6 5 5 5 5 5 5 5 5 5 5 5 5 5 6 5 5 5 5 6 6 5 5 5 5 5 5 5 5 5 5 5 5 5 5 5 5 5 5 5 5 5 5 5 5 5 5 5 5 5 5 5 5 5 5 5 5 5 5 5 5 5 5 6 5 5 5 6 5 5 5 5 5 5 5 5 5 5 5 5 5 5 5 5 5 5 5 5 6 5 5 6 5 5 5 5 5 5 5 5 5 6 5 5 5 5 5 6 5 5 5 5 5 6 5 6 5 5 5 5 5 5 5 5 5 5 5 5 5 6 5 5 5 6 6 5 5 5 5 5 5 5 5 6 5 5 6 5 5 6 6 5 5 5 5 5 6 5 5 5 5 5 5 5 6 5 5 6 6 5 5 5 5 5 5 6 6 5 5 5 6 5 5 5 5 5 5 5 6 5 5 5 5 5 5 5 5 5 5 5 5 5 5 5 5 5 5 5 5 5 5 5 5 5 5 6 5 5 5 5 5 5 5 6 5 5 5 5 5 5 5 5 5 5 5 6 5 5 5 5 5 5 5 5 6 5 5 5 5 5 5 5 5 5 5 5 5 5 5 5 5 6 5 5 5 6 5 5 5 5 5 6 5 5 5 5 5 5 5 5 5 5 5 5 5 5 6 5 5 5 5 6 5 5 6 5 5 5 5 5 6 5 5 5 5 5 5 5 5 5 5 5 5 5 5 6 5 6 5 5 5 6 5 6 5 6 5 5 5 5 5 5 6 6 5 5 5 5 5 5 6 5 6 5 5 5 5 5 5 5 5 5 5 5 5 5 5 5 5 5 6 5 5 5 6 6 5 5 5 5 5 6 5 5 6 6 5 5 5 5 5 5 5 5 5 5 5 5 5 5 5 5 5 5 5 5 5 5 5 5 5 5 5 5 5 5 5 5 5 5 5 5 5 5 5 5 5 5 5 5 6 5 5 6 6 6 5 5 5 5 5 5 6 5 5 5 5 5 5 5 5 5 6 5 5 5 6 5 5 5 5 5 5 5 5 5 5 5 5 5 5 5 5 5 5 5 5 6 5 5 5 5 6 5 5 5 5 5 5 5 5 5 5 5 5 5 5 5 5 5 5 5 5 5 5 5 5 5 5 5 5 5 5 5 5 5 5 6 5 6 5 5 5 5 5 5 5 5 6 5 5 5 6 5 6 5 5 5 5 5 5 5 5 6 5 5 5 5 6 5 5 5 5 6 5 5 5 5 5 5 5 6 5 5 5 5 6 5 5 5 5 5 5 5 5 5 5 5 5 5 5 5 5 5 5 5 5 5 5 5 5 5 5 5 5 5 5 5 5 5 5 5 5 5 5 5 5 5 5 5 5 5 5 6 5 5 5 5 6 6 5 5 6 6 5 5 5 5 5 5 5 5 5 5 5 5 5 5 5 5 5 5 5 6 5 5 5 6 6 5 5 5 5 5 5 5 5 5 5 5 5 5 5 5 5 5 5 5 5 5 5 5 5 5 5 5 6 5 5 5 5 5 5 5 6 5 5 5 5 5 5 5 5 5 5 5 5 5 5 5 6 5 5 5 5 5 5 5 5 6 5 6 6 5 5 5 5 5 5 5 5 5 5 5 5 6 5 5 5 5 5 5 5 5 5 5 5 5 5 5 5 5 5 5 6 5 5 5 6 5 5 5 5 5 5 5 5 6 5 5 5 5 5 5 5 5 5 5 5 5 5 5 5 6 5 5 5 6 5 5 5 5 5 5 5 5 5 5 5 5 5 5 5 5 5 5 5 5 5 5 5 5 5 5 5 5 5 5 5 5 5 6 5 6 5 5 5 5 5 5 5 5 6 5 5 5 5 5 5 5 5 5 6 5 5 6 5 5 5 5 5 6 5 5 5 5 6 5 5 5 5 6 5 5 5 6 5 6 5 5 6 5 5 5 5 5 5 5 5 5 5 5 5 5 5 6 5 5 6 5 6 5 5 5 6 5 5 6 5 5 5 5 6 5 6 5 5 5 5 5 5 6 5 6 5 5 5 5 5 6 5 5 5 5 6 5 5 5 5 5 5 6 5 5 5 5 5 5 5 5 5 5 5 5 5 5 5 5 5 5 5 5 5 5 5 5 5 5 5 5 5 5 5 5 5 6 6 5 5 5 5 5 5 5 5 5 5 6 5 5 6 6 5 6 5 5 5 5 5 5 5 6 5 5 5 5 5 5 5 5 5 5 5 5 6 5 5 5 5 6 5 5 5 5 5 5 5 5 5 5 5 5 6 5 5 5 5 5 5 5 5 5 5 5 5 5 5 5 5 5 6 5 5 5 5 5 6 5 5 5 6 5 5 5 5 5 5 6 5 6 5 5 5 6 5 5 5 5 5 5 5 5 5 6 5 5 6 5 5 5 5 5 5 5 6 5 5 5 5 5 5 5 5 5 5 5 5 5 6 5 5 6 5 5 5 5 5 5 6 5 5 5 5 5 5 6 5 5 5 5 5 5 5 6 5 5 5 5 5 5 5 5 5 5 5 5 5 5 5 5 5 5 5 5 5 5 6 5 5 5 5 5 5 5 5 5 5 6 5 5 5 5 6 6 5 5 5 5 6 5 5 5 5 5 5 5 5 5 6 5 5 5 5 5 5 5 5 5 5 5 6 5 5 5 6 5 5 5 6 5 5 5 5 5 5 5 5 5 5 5 5 6 5 5 5 5 5 6 5 5 6 5 5 5 5 5 5 5 5 5 5 5 5 5 5 6 5 5 5 5 5 5 5 6 5 5 5 6 5 5 5 5 5 6 5 5 5 5 5 5 5 5 5 6 5 5 5 5 5 5 5 5 6 5 5 5 5 5 6 5 5 5 5 5 5 5 6 5 5 5 5 5 5 5 5 5 5 5 5 5 5 5 5 5 5 5 5 5 5 5 5 5 5 5 5 5 5 5 5 5 5 5 5 5 5 5 5 5 5 5 5 5 5 5 5 6 5 5 5 5 5 5 5 6 5 5 5 5 5 5 5 5 5 5 5 5 5 5 5 5 5 5 5 5 5 5 6 6 5 5 6 6 5 5 5 5 5 5 5 6 5 5 5 5 5 5 5 5 5 5 5 5 5 5 6 5 5 5 5 5 5 5 5 6 5 5 6 5 5 5 6 5 5 5 5 5 5 5 5 5 5 5 5 5 5 5 5 5 5 5 5 5 5 5 5 5 5 5 5 6 5 5 5 5 5 5 5 5 6 5 5 5 5 5 5 6 6 5 5 5 5 6 5 5 6 5 5 6 5 5 5 5 5 5 6 5 5 5 5 5 5 5 5 6 5 5 5 5 5 5 5 5 5 5 5 6 5 5 6 5 5 5 5 5 5 5 6 5 5 5 6 5 6 5 6 5 5 5 5 5 5 5 5 5 5 5 5 5 5 5 5 5 6 5 6 5 5 5 5 5 5 5 5 5 5 6 5 5 5 5 5 5 5 6 5 5 5 6 5 6 6 5 5 6 5 5 5 5 6 5 5 5 6 5 5 5 6 5 6 6 5 5 5 5 5 5 6 5 5 5 5 5 5 5 5 6 6 6 5 6 5 5 6 6 5 5 6 5 5 5 5 5 5 5 5 5 5 5 6 5 5 5 5 5 5 5 5 5 5 5 5 5 6 6 5 5 5 5 6 5 5 5 6 5 5 5 5 5 6 6 5 5 5 6 5 5 5 5 5 5 5 5 5 5 5 5 5 5 5 6 5 5 5 6 5 5 5 6 5 5 5 5 5 5 6 5 5 5 5 5 6 5 5 5 5 5 5 5 5 6 5 5 5 5 5 5 5 5 5 6 5 5 5 5 6 5 6 5 5 6 5 6 5 5 5 5 5 5 6 5 6 6 5 5 5 5 5 5 5 5 6 5 6 5 6 5 6 5 5 5 5 5 5 5 5 5 5 5 6 5 5 5 6 5 5 5 5 5 5 5 5 6 5 5 5 5 5 5 5 5 5 6 5 5 5 5 6 5 5 6 5 5 5 5 5 5 5 5 5 6 5 5 5 6 5 5 5 5 5 5 5 5 5 5 5 5 5 5 5 5 5 5 5 6 5 5 5 5 5 5 5 5 5 5 6 5 5 5 5 5 5 5 5 5 5 5 5 5 5 5 5 5 5 5 5 5 5 5 5 5 5 5 5 5 5 5 5 5 5 5 5 5 5 5 5 5 5 5 5 5 6 6 5 5 5 5 5 5 5 5 5 5 5 5 5 6 6 5 5 5 6 5 5 6 5 5 5 6 5 5 5 6 5 5 5 5 5 5 5 5 6 5 5 6 5 6 6 5 5 5 5 5 5 6 5 6 6 6 5 5 6 5 5 6 6 5 5 5 5 5 5 5 5 5 5 5 5 5 5 5 5 5 5 5 5 5 6 5 5 5 5 5 5 5 5 5 6 5 5 5 5 5 5 5 6 6 5 5 5 5 5 5 5 5 5 5 5 5 5 5 5 5 5 5 5 5 5 5 5 6 5 6 5 5 5 5 5 5 5 6 5 5 5 6 6 5 5 6 5 5 5 5 6 5 5 5 6 5 5 5 6 5 5 5 5 5 5 5 5 5 6 6 5 5 5 5 5 6 5 5 6 6 6 5 5 5 5 5 6 5 5 5 5 5 5 5 5 5 6 5 6 5 5 5 5 5 5 5 5 5 5 5 5 5 5 5 5 5 5 5 5 5 5 5 5 6 5 5 5 5 6 6 5 5 5 6 5 5 5 5 5 5 5 5 5 5 5 5 5 5 5 5 6 5 5 5 6 5 5 6 5 5 5 5 5 5 5 5 5 5 5 5 5 6 5 5 6 5 5 5 6 5 6 5 6 5 6 6 6 5 5 5 5 5 5 5 5 6 5 5 5 5 5 5 5 5 6 5 5 6 5 5 5 5 5 5 5 5 5 5 5 5 5 5 5 5 5 5 5 5 5 6 5 5 5 5 5 5 5 5 5 5 6 5 6 5 5 6 5 6 5 6 5 5 6 5 6 5 5 6 5 5 5 6 5 5 5 5 5 5 5 5 5 5 5 5 5 5 5 5 5 5 5 5 5 5 5 5 5 5 5 5 5 5 5 5 5 5 5 5 5 5 5 5 5 5 5 5 5 5 5 5 5 5 5 5 5 5 5 5 5 5 5 5 5 6 5 5 6 5 5 5 5 5 5 6 6 5 5 5 5 5 5 5 5 5 5 5 5 5 5 5 5 5 5 6 5 5 5 6 5 5 5 5 5 5 5 5 5 5 5 5 5 5 5 5 6 5 5 5 5 5 5 5 6 5 5 5 5 5 5 5 5 6 5 6 5 5 5 5 5 5 5 5 5 5 5 5 5 5 5 5 6 5 5 5 5 5 5 5 6 5 5 5 5 6 5 5 5 5 5 5 5 6 5 5 6 6 5 5 6 5 5 5 5 5 5 6 5 5 5 5 5 5 5 5 5 6 5 5 6 5 5 6 5 5 6 5 5 5 5 5 6 5 5 5 5 5 5 5 5 6 5 5 5 5 5 5 5 6 5 5 5 5 5 5 5 5 5 5 5 5 6 5 5 5 5 5 5 5 6 6 5 6 5 6 5 5 5 5 5 5 5 5 5 5 5 5 5 5 5 6 5 6 5 5 5 5 5 5 5 5 6 5 6 5 6 5 6 5 6 5 5 6 5 5 5 5 5 6 5 5 5 5 5 5 5 5 6 5 5 5 5 5 6 5 5 6 5 6 6 5 5 5 5 5 5 5 5 6 5 5 5 5 5 5 5 5 5 5 5 5 5 6 5 5 5 5 5 5 5 6 5 5 5 6 5 5 5 5 5 5 5 5 5 5 5 5 5 5 5 5 5 6 5 5 5 5 5 5 5 6 5 5 6 5 5 5 5 5 5 5 5 5 5 5 5 5 5 5 6 5 5 5 5 6 5 5 5 5 5 5 5 5 5 5 5 5 5 5 5 5 5 5 5 5 5 5 5 5 5 6 5 5 5 5 5 5 6 5 5 5 5 5 5 5 5 5 6 6 5 5 5 6 5 6 5 5 5 5 5 5 5 5 5 5 5 5 5 5 5 6 5 5 5 5 5 5 5 5 5 5 5 5 6 6 5 5 5 5 5 5 5 5 6 5 5 6 5 5 6 6 5 5 5 5 5 5 5 6 5 5 5 5 5 5 5 5 5 6 5 5 5 6 5 5 5 5 5 6 5 5 5 5 5 5 5 5 5 5 5 5 6 5 5 5 6 5 5 5 6 5 5 5 5 5 5 5 5 5 5 5 5 5 5 5 5 5 5 5 5 5 5 5 5 5 5 5 5 5 5 5 5 6 5 5 5 5 5 5 5 5 5 5 5 5 5 5 5 5 5 5 5 5 5 5 5 5 6 5 6 5 5 6 5 5 5 5 5 5 5 5 5 6 5 5 5 5 5 5 5 5 5 5 5 5 5 5 6 5 5 5 5 6 5 5 5 6 5 5 5 5 5 5 5 5 5 5 5 5 5 5 5 5 5 5 5 5 5 5 5 5 5 5 5 5 5 5 5 5 5 5 5 5 5 5 5 5 5 5 5 5 5 5 5 5 5 5 5 5 5 5 5 5 5 5 5 5 5 5 5 5 5 5 5 5 5 5 5 5 5 5 5 5 5 5 5 5 5 5 5 5 5 5 5 5 5 5 5 5 5 5 5 5 5 5 5 5 5 5 5 5 5 5 5 5 5 5 5 5 5 5 5 5 5 5 5 5 5 5 5 5 5 5 5 5 5 5 5 5 5 5 5 5 5 5 5 5 5 5 5 5 5 5 5 5 5 5 5 5 5 5 5 5 5 5 5 5 5 5 5 5 5 5 5 5 5 5 5 5 5 5 5 5 5 5 5 5 5 5 5 5 5 5 5 5 5 6 5 5 5 5 5 5 5 5 5 5 5 5 5 5 5 5 6 5 5 5 5 5 5 5 5 6 5 5 5 5 6 5 5 5 5 5 5 5 5 5 5 5 5 5 5 5 5 5 5 5 5 5 5 6 5 5 5 5 5 5 5 5 5 5 5 5 5 6 6 5 5 5 5 5 6 5 6 5 5 5 5 5 5 5 5 5 5 5 6 5 5 5 5 5 5 5 6 5 5 5 5 5 5 5 5 5 5 5 5 5 5 5 6 6 5 5 5 5 5 5 5 5 5 5 5 5 6 5 5 5 5 5 5 5 5 5 5 5 5 5 5 5 5 6 5 5 5 5 5 5 5 6 5 5 5 5 5 5 5 5 5 5 6 6 5 5 5 5 5 5 5 5 5 5 5 5 5 5 5 5 5 5 5 5 5 5 5 5 5 5 5 5 5 5 6 5 5 5 5 5 6 5 5 5 5 5 5 5 5 5 5 6 5 5 5 5 6 5 5 5 5 5 5 5 5 5 5 6 5 6 5 5 5 5 5 5 5 5 5 5 5 5 5 5 5 5 5 5 5 5 5 5 5 5 5 5 5 5 5 5 5 6 5 5 5 5 5 6 5 5 5 5 5 5 5 5 5 5 5 5 5 5 5 5 5 5 6 5 5 6 5 5 5 6 5 5 5 5 5 6 5 5 5 5 5 5 5 5 5 5 6 5 5 5 5 5 5 6 5 5 5 5 5 6 6 5 5 6 5 5 6 5 5 5 5 5 5 5 5 5 5 6 5 5 6 5 5 6 5 5 6 5 5 6 5 5 6 5 5 5 5 5 5 6 5 5 5 5 5 5 5 5 5 5 5 6 5 5 5 5 5 5 5 6 5 5 5 5 6 5 5 5 6 5 5 5 5 5 5 5 5 5 5 5 6 5 5 5 5 5 5 5 5 5 5 5 5 5 5 5 5 5 5 5 5 5 5 5 5 6 5 5 5 5 5 6 5 5 5 5 5 5 5 5 5 5 5 5 5 5 6 5 5 6 5 6 5 5 5 5 6 5 6 6 5 6 5 5 5 5 5 5 5 6 5 6 5 5 5 5 5 5 6 5 5 5 5 5 5 6 5 5 5 5 6 5 5 5 5 5 6 5 5 6 5 5 5 5 6 5 5 5 5 6 5 5 5 5 5 5 6 5 5 5 5 5 5 5 5 5 6 5 5 5 5 5 5 6 5 5 5 5 6 5 5 5 5 5 5 5 5 5 5 5 5 5 5 5 5 6 5 5 5 6 5 5 6 5 5 5 5 5 5 5 5 5 5 5 5 5 5 5 5 6 5 6 5 5 5 5 5 5 5 5 5 5 5 5 5 5 5 5 5 5 5 5 5 5 5 5 5 5 6 5 5 6 5 5 5 5 5 5 5 5 5 5 6 5 5 5 5 6 5 5 5 5 6 5 5 5 5 5 5 5 5 5 6 5 5 5 5 5 5 5 5 5 5 5 5 5 5 5 5 5 5 5 5 5 5 5 5 5 5 5 5 
</DataArray>
<DataArray type="Float64" Name="stress" NumberOfComponents="9" format="ascii">
3230870505.4215469 -3236876852.9876747 0 -3236876852.9876747 -2310300.7240829468 0 0 0 0 1513580002.7286987 -3797175985.3974876 0 -3797175985.3974876 914138493.23768616 0 0 0 0 741002.80265045166 -3268659931.4341278 0 -3268659931.4341278 2323099509.0997925 0 0 0 0 1145473753.0381927 -2367539586.0872612 0 -2367539586.0872612 2909600854.7815552 0 0 0 0 997103272.99499512 -2995978673.1560822 0 -2995978673.1560822 2895243297.6293259 0 0 0 0 7786303.0389077067 -526995.17078549415 0 -526995.17078549415 797298.92360901088 0 0 0 0 111479339.41299438 541839809.88117218 0 541839809.88117218 -609211615.57312012 0 0 0 0 1392771915.8313293 -79307194.023857117 0 -79307194.023857117 -336783480.1965332 0 0 0 0 3943653938.8189392 -3007852041.4651604 0 -3007852041.4651604 1100897732.32827 0 0 0 0 3235850288.5713501 -3750089838.9510918 0 -3750089838.9510918 3669603756.1459808 0 0 0 0 1193611103.2425079 -1194567444.1352692 0 -1194567444.1352692 600433234.66394424 0 0 0 0 4919147417.8491058 -2378514310.4697495 0 -2378514310.4697495 253194343.59353638 0 0 0 0 -3289067.9773864746 -15752284.884357452 0 -15752284.884357452 -3770.2402648925781 0 0 0 0 3652524.3669224679 -334078.28155054711 0 -334078.28155054711 2521078.0088028163 0 0 0 0 8275764.5048027039 -15856158.861690521 0 -15856158.861690521 1198224.8475646973 0 0 0 0 9666060.9107818604 -15481974.107879639 0 -15481974.107879639 -2453.4297856552093 0 0 0 0 6368822.1269073486 -10673074.403694153 0 -10673074.403694153 -847965.49458312988 0 0 0 0 11860831.33807373 -16823885.168334961 0 -16823885.168334961 527481.25008964539 0 0 0 0 8089243.6338340938 -3720246.5232426021 0 -3720246.5232426021 3083455.9015916586 0 0 0 0 7219533.734375 -17440480.453186035 0 -17440480.453186035 10504633.542526245 0 0 0 0 9111683.325592041 -13585933.504325867 0 -13585933.504325867 2515205.6435394287 0 0 0 0 -2179035.7122035921 -14114898.521437012 0 -14114898.521437012 4579530.7785801217 0 0 0 0 -153316418.68257141 59635307.159477234 0 59635307.159477234 -38414773.670349121 0 0 0 0 -305924449.20057678 31861629.500152588 0 31861629.500152588 84368083.242675781 0 0 0 0 -113546886.48371887 -808778.56150817871 0 -808778.56150817871 4332914.4637145996 0 0 0 0 -264453727.92352295 -279371086.71408844 0 -279371086.71408844 -217563730.44174194 0 0 0 0 22370478.977407463 -22321154.181483541 0 -22321154.181483541 7542988.790216893 0 0 0 0 75277233.374908447 -314593386.56079102 0 -314593386.56079102 -218210707.45198059 0 0 0 0 -42787052.095123291 -113283800.00416565 0 -113283800.00416565 7961813.751083374 0 0 0 0 -149848287.75859451 -80675917.428478241 0 -80675917.428478241 124215789.79730225 0 0 0 0 307519550.61230469 -87189314.911148071 0 -87189314.911148071 -747342132.40390778 0 0 0 0 23007763.029116333 -5941625.843151994 0 -5941625.843151994 -337422.40054722503 0 0 0 0 1401687092.6166153 -1007877587.8455696 0 -1007877587.8455696 719317794.67192078 0 0 0 0 182085707.32897949 -73139452.257019043 0 -73139452.257019043 126074417.19801331 0 0 0 0 -8808358.4159851074 -351593098.7065239 0 -351593098.7065239 199563478.20724487 0 0 0 0 355056991.27365112 -502399632.27688599 0 -502399632.27688599 -379095033.42551422 0 0 0 0 -174670122.53954107 -138846646.73437941 0 -138846646.73437941 555027824.4393158 0 0 0 0 -16669107.112670898 21167420.825687408 0 21167420.825687408 564817680.41345215 0 0 0 0 -67227039.459655762 -214404216.52084351 0 -214404216.52084351 479701550.51295471 0 0 0 0 -65989264.393310547 -238250873.11102295 0 -238250873.11102295 484063570.08361816 0 0 0 0 -175110971.44601774 -243600021.60666007 0 -243600021.60666007 510356096.9586792 0 0 0 0 77954536.911743164 -201128583.64001465 0 -201128583.64001465 166741422.12875366 0 0 0 0 331559605.53912354 136430067.51135254 0 136430067.51135254 606382032.1809082 0 0 0 0 496810507.05799866 -317583530.59894943 0 -317583530.59894943 167832566.19094849 0 0 0 0 -54287417.977722168 -80687934.708694458 0 -80687934.708694458 694041591.59266663 0 0 0 0 -283821.50213438272 -1833998.6961215436 0 -1833998.6961215436 148091.37568551302 0 0 0 0 417292217.24673462 -377777549.03785706 0 -377777549.03785706 278647578.72180176 0 0 0 0 360614665.01251221 242357267.94236374 0 242357267.94236374 268241509.19729614 0 0 0 0 23452.406201638281 -658125.1852478832 0 -658125.1852478832 -894769.79409641027 0 0 0 0 118465462.80435181 -337406128.15145874 0 -337406128.15145874 64201528.82043457 0 0 0 0 -62319966.903259277 -236801231.95267487 0 -236801231.95267487 451070100.60424805 0 0 0 0 -155237039.42675781 -416413224.35058594 0 -416413224.35058594 977094015.90020752 0 0 0 0 -65923855.114135742 -209675291.10870361 0 -209675291.10870361 452138218.61967468 0 0 0 0 -6162860.202911377 985742.86795043945 0 985742.86795043945 5290617.6792449951 0 0 0 0 2153859.7423378713 -5927740.385153465 0 -5927740.385153465 -5697070.9525512308 0 0 0 0 -101912783.50366211 -18930321.311576843 0 -18930321.311576843 97318605.612136841 0 0 0 0 48843921.951812744 30923278.480392456 0 30923278.480392456 67261616.643043518 0 0 0 0 59496541.807058334 -74853937.704025745 0 -74853937.704025745 86786577.228851318 0 0 0 0 13516331.557167053 -91262842.719654083 0 -91262842.719654083 213476437.65313721 0 0 0 0 -55669810.836334229 -101474051.53436279 0 -101474051.53436279 229967797.26596069 0 0 0 0 -502279573.37475586 -343495000.67189789 0 -343495000.67189789 69177347.952911377 0 0 0 0 -66361927.065299988 -144263187.56286621 0 -144263187.56286621 10850410.33404541 0 0 0 0 21330584.362442955 -25380468.542297632 0 -25380468.542297632 8901630.483070001 0 0 0 0 -233005953.83166504 -69995455.887069702 0 -69995455.887069702 -40416986.014343262 0 0 0 0 -359801946.44498444 -68515869.538520813 0 -68515869.538520813 155311973.07641602 0 0 0 0 -54804417.02255249 -176423944.51307678 0 -176423944.51307678 119430840.07980347 0 0 0 0 111156021.21789551 137884613.07263947 0 137884613.07263947 -5926970.3891296387 0 0 0 0 -3712862.7705964893 -2387526.1620661169 0 -2387526.1620661169 2765833.9557650834 0 0 0 0 -48267931.512817383 106395274.4597168 0 106395274.4597168 191168732.66182709 0 0 0 0 59075899.686889648 25859758.635559082 0 25859758.635559082 116534480.64968872 0 0 0 0 -185824142.58729553 -122836048.45220184 0 -122836048.45220184 7671459.1948852539 0 0 0 0 -278606890.71957397 -79672566.14666748 0 -79672566.14666748 45477540.965423584 0 0 0 0 -302689563.52672577 -33497604.713825226 0 -33497604.713825226 14507613.461975098 0 0 0 0 -307254851.75820923 -46960716.181816101 0 -46960716.181816101 25671493.558349609 0 0 0 0 -158486281.85141754 110083499.77275085 0 110083499.77275085 72518619.088607788 0 0 0 0 -268831634.36680603 -57479585.580101013 0 -57479585.580101013 54338453.516937256 0 0 0 0 85425692.429077148 -63727322.180358887 0 -63727322.180358887 -82153740.129837036 0 0 0 0 -6590515.5257779956 -4794309.2592918873 0 -4794309.2592918873 1245712.2306109369 0 0 0 0 -5540558.7986526489 -10424614.802846909 0 -10424614.802846909 -2942033.6202087402 0 0 0 0 -2147103.357925415 -4514194.6658706665 0 -4514194.6658706665 -4640511.1594848633 0 0 0 0 -1386235.4428905547 -7096113.178595677 0 -7096113.178595677 -446793.17544964841 0 0 0 0 -73486108.26663208 -36512139.854804993 0 -36512139.854804993 104359422.27244568 0 0 0 0 -9498646.1926631927 -20590190.005861282 0 -20590190.005861282 39512554.235565186 0 0 0 0 -15470126.459958836 -12398636.254254073 0 -12398636.254254073 4954025.6565305414 0 0 0 0 8687725.1782226562 125891664.39102936 0 125891664.39102936 29256930.283668518 0 0 0 0 -6920713.9153137207 -11074878.681213379 0 -11074878.681213379 -4829507.5451660156 0 0 0 0 11763017.84765625 -25592397.616752625 0 -25592397.616752625 -18664855.293441772 0 0 0 0 -26343400.765975952 14934628.50919342 0 14934628.50919342 -11810840.59777832 0 0 0 0 1520343.3410380669 -7750511.4295438603 0 -7750511.4295438603 -4346031.6119229198 0 0 0 0 14749241.372955322 3450207.4587287903 0 3450207.4587287903 -23521861.965766907 0 0 0 0 338341.19306945801 -14280274.232711792 0 -14280274.232711792 11659336.839323044 0 0 0 0 5724501.669342041 -12534280.178161621 0 -12534280.178161621 -8761159.2602310181 0 0 0 0 -938570.10861206055 -8354445.428024292 0 -8354445.428024292 13637538.083190918 0 0 0 0 -1332839.0744781494 -9307932.422164917 0 -9307932.422164917 16116537.402984619 0 0 0 0 1021630927.4577332 -1214460411.8233643 0 -1214460411.8233643 1301536135.0654755 0 0 0 0 11282900.99294281 3614378.0721263885 0 3614378.0721263885 -18797923.007125854 0 0 0 0 1126877.8099226952 1104512.7725146115 0 1104512.7725146115 1141335.9422829971 0 0 0 0 -55175.177105464041 -369266.9614180848 0 -369266.9614180848 200094.81948165596 0 0 0 0 -1608918.3654643446 -5093635.4655588344 0 -5093635.4655588344 3916422.8798545003 0 0 0 0 6358174.1997375488 -7663201.6042175293 0 -7663201.6042175293 5181461.2390289307 0 0 0 0 3672553.033416748 -5907853.523223877 0 -5907853.523223877 6273715.6267471313 0 0 0 0 -1765675.6171727106 -6425553.2939422429 0 -6425553.2939422429 4340387.3717006892 0 0 0 0 9071797.2752685547 -12547767.712585449 0 -12547767.712585449 541505.82051086426 0 0 0 0 7834207.8706970215 -21716943.265274048 0 -21716943.265274048 2759857.3185119629 0 0 0 0 1859513.6528167725 16553646.313140869 0 16553646.313140869 6656108.4553527832 0 0 0 0 5117550.073425293 -17292704.568511963 0 -17292704.568511963 25369554.278564453 0 0 0 0 14427076.776092529 -20616608.366912842 0 -20616608.366912842 -9541002.4560852051 0 0 0 0 -1330076.0165844858 1092806.9536185712 0 1092806.9536185712 2953870.3816384748 0 0 0 0 8921822.2448730469 4101644.5545120239 0 4101644.5545120239 -62313650.746688843 0 0 0 0 1748167.5426177979 -1409543047.2672501 0 -1409543047.2672501 2229128898.710762 0 0 0 0 716463459.04816437 -1416289028.8604393 0 -1416289028.8604393 1753900648.8864746 0 0 0 0 1183914897.0252686 -2036856164.0952606 0 -2036856164.0952606 1667281892.9286127 0 0 0 0 1909333.2604022841 -2192973692.813715 0 -2192973692.813715 2254505099.0302124 0 0 0 0 1167897647.9078217 -1863106616.7695236 0 -1863106616.7695236 1054263833.4034424 0 0 0 0 2649160184.5997009 -2902155333.3326492 0 -2902155333.3326492 1324783292.8948364 0 0 0 0 2940397194.1059055 -1390842439.0896702 0 -1390842439.0896702 180809425.54743958 0 0 0 0 897850206.17630005 -457546614.10317993 0 -457546614.10317993 186967375.93026149 0 0 0 0 250585999.20414543 -537949569.51549244 0 -537949569.51549244 529120920.78668213 0 0 0 0 312638317.74130249 110485694.68469238 0 110485694.68469238 169327160.04544067 0 0 0 0 75390051.376953125 -196744617.72064209 0 -196744617.72064209 500203068.4119873 0 0 0 0 862614961.36859131 -377621488.88841248 0 -377621488.88841248 248458743.61885071 0 0 0 0 -767100.90669330955 -370081.76828224212 0 -370081.76828224212 1665184.3561252952 0 0 0 0 525048489.22024536 -890733226.2252655 0 -890733226.2252655 958618098.17982483 0 0 0 0 788785647.2277832 -770175860.54467773 0 -770175860.54467773 795824167.65625 0 0 0 0 1956972560.3677826 -1390594074.335556 0 -1390594074.335556 536909654.3243103 0 0 0 0 -9508764.0632115416 -6652875.1779215895 0 -6652875.1779215895 -266493.64947995543 0 0 0 0 216113543.66731358 78032745.804549217 0 78032745.804549217 -524209568.7833252 0 0 0 0 32528806.218955994 -73325775.757316589 0 -73325775.757316589 26067096.68825531 0 0 0 0 -15929037.241428375 -47591901.083716393 0 -47591901.083716393 14666639.917236328 0 0 0 0 -15059189.609069824 -57819319.828125 0 -57819319.828125 82503402.482391357 0 0 0 0 -9337822.0973892212 -128912843.32995224 0 -128912843.32995224 -34174778.824920654 0 0 0 0 35649764.915493011 -60647507.81155777 0 -60647507.81155777 34531840.941711426 0 0 0 0 -3093499.7680625012 -87191.279830127954 0 -87191.279830127954 -43396.418829068542 0 0 0 0 293934089.0515976 -72394191.202087402 0 -72394191.202087402 -143580212.04139709 0 0 0 0 -549272423.3345356 -560931461.00350857 0 -560931461.00350857 -445308298.04205322 0 0 0 0 -468539266.47839928 -457083111.20402241 0 -457083111.20402241 -138260887.58007812 0 0 0 0 -481927745.17324257 -550148771.48462009 0 -550148771.48462009 -322575420.77423096 0 0 0 0 -199354066.5318222 -257790024.91770935 0 -257790024.91770935 -660641.69845581055 0 0 0 0 92483818.960678101 -260643616.87625122 0 -260643616.87625122 -309187900.04856873 0 0 0 0 -32131194.636054993 -131181449.47357178 0 -131181449.47357178 -33102562.507263184 0 0 0 0 -89044822.570472717 -156687315.18115234 0 -156687315.18115234 -5104932.8557434082 0 0 0 0 -35925729.0206604 -169923321.35938263 0 -169923321.35938263 -148869721.31472778 0 0 0 0 -134962215.8282547 -184255461.78976059 0 -184255461.78976059 36041.127960205078 0 0 0 0 -165780771.57852173 -247386177.83556366 0 -247386177.83556366 -127663067.21881104 0 0 0 0 -163349672.71214294 -116910482.39170837 0 -116910482.39170837 -82476815.996322632 0 0 0 0 -198193488.86519623 -156381149.21095276 0 -156381149.21095276 74524385.600646973 0 0 0 0 -85904915.215805054 -178089759.16648865 0 -178089759.16648865 -110303619.26352692 0 0 0 0 -88358054.315299988 -88209235.836212158 0 -88209235.836212158 71238912.259033203 0 0 0 0 -87357993.029411316 -19959766.94278717 0 -19959766.94278717 162613783.81161499 0 0 0 0 -72597349.486373901 -45354607.10836792 0 -45354607.10836792 90352065.621101379 0 0 0 0 -121076543.04869843 -89549056.969970703 0 -89549056.969970703 121285170.89257812 0 0 0 0 -55888066.99432373 -89804437.774169922 0 -89804437.774169922 61948339.634521484 0 0 0 0 -72661549.998245239 -130974533.5091095 0 -130974533.5091095 -14033161.244781494 0 0 0 0 -43692456.172821045 -88534455.14982605 0 -88534455.14982605 59128309.358222961 0 0 0 0 -44865519.839543104 -25693626.977009058 0 -25693626.977009058 103534091.02294922 0 0 0 0 -29942294.085403442 -21009485.557098389 0 -21009485.557098389 93802301.669052124 0 0 0 0 -29295755.641952515 -17048611.362533569 0 -17048611.362533569 34450049.507247925 0 0 0 0 -16279321.926055908 42575283.751358032 0 42575283.751358032 88660178.720916748 0 0 0 0 -1482039.0142808482 -1649467.8917992432 0 -1649467.8917992432 -978206.23949599266 0 0 0 0 12129477.192596436 22515263.207641602 0 22515263.207641602 -52920363.068255424 0 0 0 0 6449876.7341995239 91797293.167694092 0 91797293.167694092 188230052.4147644 0 0 0 0 149146949.65924835 -150474899.9510994 0 -150474899.9510994 108115896.27764893 0 0 0 0 -40421.82479184866 -4257145.2942979485 0 -4257145.2942979485 -851304.71326886863 0 0 0 0 108071170.14544678 -78620475.790611267 0 -78620475.790611267 123027218.69015503 0 0 0 0 58492981.811798096 -239315747.52548218 0 -239315747.52548218 106428105.43328857 0 0 0 0 -1294145.5108718872 -2682934.4845253378 0 -2682934.4845253378 2273564.410071969 0 0 0 0 -38179838.331497192 50660727.053230286 0 50660727.053230286 234818442.71264648 0 0 0 0 45003412.637054443 -76402498.286491394 0 -76402498.286491394 243888301.16778564 0 0 0 0 82062011.588516235 -166940519.26186371 0 -166940519.26186371 182719901.79272461 0 0 0 0 -139455110.88824463 -106319309.26075745 0 -106319309.26075745 242239086.5947876 0 0 0 0 -36234219.642486572 -236934858.08406067 0 -236934858.08406067 186444958.05474854 0 0 0 0 -82793829.046920776 -38222003.141174316 0 -38222003.141174316 256657744.9471283 0 0 0 0 -7327995.5955886841 -29103390.241168976 0 -29103390.241168976 215940845.92370605 0 0 0 0 -63453019.890274048 -5297345.793838501 0 -5297345.793838501 164527959.74365234 0 0 0 0 -75367243.228637695 -11732989.434082031 0 -11732989.434082031 271412954.0861969 0 0 0 0 -120638695.59671021 -108570851.73890686 0 -108570851.73890686 185287272.28206635 0 0 0 0 -11250652.960899353 -99562397.420722961 0 -99562397.420722961 -63348488.899536133 0 0 0 0 643135.51172048599 -2047346.6446537003 0 -2047346.6446537003 -312532.62546246499 0 0 0 0 -32923589.611755371 -76613811.999786377 0 -76613811.999786377 -184976053.93326569 0 0 0 0 65927394.903747559 -323939707.09959412 0 -323939707.09959412 100419030.92063904 0 0 0 0 -47593399.383605957 -55273765.003723145 0 -55273765.003723145 -116993.32226378526 0 0 0 0 -103646569.33226013 -113091259.77060699 0 -113091259.77060699 -45529271.778167725 0 0 0 0 -133332663.20850372 -158978419.4107666 0 -158978419.4107666 -116396480.92123413 0 0 0 0 12012944.957855225 -17374336.952804565 0 -17374336.952804565 -111169208.89472198 0 0 0 0 12155210.617493689 2170341.2736063004 0 2170341.2736063004 -24034569.17539978 0 0 0 0 -17844100.527496338 -49530883.93132019 0 -49530883.93132019 -42160854.959915161 0 0 0 0 476839.52320706844 -4094688.045886673 0 -4094688.045886673 421717.31831938401 0 0 0 0 384879.56910705566 -14667827.086761475 0 -14667827.086761475 -3710329.5720977783 0 0 0 0 31495716.870223999 -81287643.900398254 0 -81287643.900398254 -229838049.1945343 0 0 0 0 -37258418.165161133 163844468.91519165 0 163844468.91519165 677803885.93933105 0 0 0 0 -15628429.190002441 59951124.039535522 0 59951124.039535522 107694203.86553192 0 0 0 0 5536707.7562141418 -7119871.9655189514 0 -7119871.9655189514 -2223591.1128540039 0 0 0 0 3136287.943107605 -19788230.9585495 0 -19788230.9585495 -9831.2515869140625 0 0 0 0 8510934.9737243652 -18122063.023017883 0 -18122063.023017883 -4961482.7323150635 0 0 0 0 7122468.756729126 -15852716.512878418 0 -15852716.512878418 8400674.1647872925 0 0 0 0 -1232789.0831678584 -6236870.5209144652 0 -6236870.5209144652 2435427.8290053755 0 0 0 0 -203176306.11913681 -316627978.45197868 0 -316627978.45197868 286448406.67266846 0 0 0 0 795640878.63897705 295125129.56298828 0 295125129.56298828 -280583814.84750366 0 0 0 0 403274049.35394287 -279915170.66841125 0 -279915170.66841125 44515018.428283691 0 0 0 0 -455441670.97709656 48522072.914337158 0 48522072.914337158 625810471.61309814 0 0 0 0 -329822334.73001099 -265678305.19361877 0 -265678305.19361877 223964996.58828735 0 0 0 0 -91458616.948730469 -19381985.63458252 0 -19381985.63458252 380213868.56484985 0 0 0 0 20975451.710784912 20489552.035430908 0 20489552.035430908 259344448.99810791 0 0 0 0 449069508.56988525 63040841.997695923 0 63040841.997695923 7321999.0982971191 0 0 0 0 -105632763.12890625 320707987.80697632 0 320707987.80697632 578148473.18473053 0 0 0 0 -129567.1198285073 -1374883.4535311386 0 -1374883.4535311386 2930.0311239659786 0 0 0 0 112391866.53924561 17965685.816680908 0 17965685.816680908 14210985.061340332 0 0 0 0 37197315.236877441 -8475218.5180358887 0 -8475218.5180358887 109086670.73672485 0 0 0 0 48759651.415275574 -39755823.4961586 0 -39755823.4961586 -34484060.903289795 0 0 0 0 17777601.213134766 24085387.884429932 0 24085387.884429932 -55311692.596313477 0 0 0 0 60134679.265655518 19174495.895584106 0 19174495.895584106 -34710058.946136475 0 0 0 0 100902037.64453125 29879010.223129272 0 29879010.223129272 -47857214.797363281 0 0 0 0 150721120.77223206 -7905962.1068725586 0 -7905962.1068725586 -67139415.53692627 0 0 0 0 86983010.142181396 -87424226.72644043 0 -87424226.72644043 -57788496.370582581 0 0 0 0 23044028.607795715 -226149582.62718964 0 -226149582.62718964 38620109.93927002 0 0 0 0 316137696.58706665 -68503939.954162598 0 -68503939.954162598 -62864551.081436157 0 0 0 0 13254175.838142395 -55064442.308227539 0 -55064442.308227539 -38254960.974639893 0 0 0 0 39219396.022766113 -58679207.247772217 0 -58679207.247772217 -52019150.320892334 0 0 0 0 43786373.526809692 -35043200.891616821 0 -35043200.891616821 -37915817.154693604 0 0 0 0 52174671.148361206 3696451.5734062195 0 3696451.5734062195 -28526216.032806396 0 0 0 0 98382948.043151855 -18184556.257843018 0 -18184556.257843018 -57805833.684143066 0 0 0 0 62002803.807327271 -17754249.692977905 0 -17754249.692977905 -32262834.928833008 0 0 0 0 50081557.22366333 -10446497.925994873 0 -10446497.925994873 -11645560.079467773 0 0 0 0 51153647.69152832 -34270020.554122925 0 -34270020.554122925 -53087003.387306213 0 0 0 0 36712145.850139618 -44881530.663539886 0 -44881530.663539886 -44259469.270446777 0 0 0 0 23827794.162231445 -37876744.074127197 0 -37876744.074127197 -18244628.206741333 0 0 0 0 40241519.41998291 -31976760.18989563 0 -31976760.18989563 -29009436.362762451 0 0 0 0 51454480.837280273 -32410528.826904297 0 -32410528.826904297 -34185061.980480194 0 0 0 0 48120983.194473267 -35354123.099006653 0 -35354123.099006653 -2220580.48828125 0 0 0 0 378322.63224044442 -828846.18544558436 0 -828846.18544558436 -1727797.4366612099 0 0 0 0 35887922.231521606 -34546146.773834229 0 -34546146.773834229 -30522913.580230713 0 0 0 0 22717383.991325378 -10370897.027107239 0 -10370897.027107239 -31831200.859436035 0 0 0 0 -506754.07167053223 -74166480.484436035 0 -74166480.484436035 -38589337.880142212 0 0 0 0 20590173.735830359 -29386518.861123789 0 -29386518.861123789 8115732.9627236426 0 0 0 0 11218788.114089966 -46881976.270217896 0 -46881976.270217896 -24615010.352050781 0 0 0 0 -945289.91485482454 -12075819.597102106 0 -12075819.597102106 944817.6427571075 0 0 0 0 -99591426.484283447 -180238456.16911316 0 -180238456.16911316 -157137758.88495684 0 0 0 0 15948252.845087603 -23296893.013925232 0 -23296893.013925232 -7815636.3118718714 0 0 0 0 -35181345.854660034 -86397104.736206055 0 -86397104.736206055 -28094579.830459595 0 0 0 0 -30127737.167541504 -68665108.21181488 0 -68665108.21181488 -29663004.866639137 0 0 0 0 -22296816.14158088 -24542067.905914485 0 -24542067.905914485 3216387.4971436858 0 0 0 0 -56982079.913986206 -71742817.32460022 0 -71742817.32460022 20399290.780288696 0 0 0 0 6302849.4293441772 -19409023.553947449 0 -19409023.553947449 -6760580.8161773682 0 0 0 0 11784839.427307129 -20783217.389347076 0 -20783217.389347076 -3413119.6376342773 0 0 0 0 12765641.104814488 -16216183.899584897 0 -16216183.899584897 -2341851.6357087642 0 0 0 0 8126843.1246337891 -20286729.202819824 0 -20286729.202819824 7084839.2000579834 0 0 0 0 10425529.480954856 -19179039.357755449 0 -19179039.357755449 -12086421.067983221 0 0 0 0 -2827768.599609375 -11293694.202148438 0 -11293694.202148438 -1445843.2783126831 0 0 0 0 26463.511572480202 -23252149.027713448 0 -23252149.027713448 -4931714.7736850381 0 0 0 0 -5635956.4083251953 -13914238.858459473 0 -13914238.858459473 3065502.3305664062 0 0 0 0 6671404.16461014 -23737464.920041893 0 -23737464.920041893 -6634938.5667224079 0 0 0 0 11194263.133918382 -23206830.319935575 0 -23206830.319935575 -1638304.0225348333 0 0 0 0 -4103654.8507461548 -20644426.983734131 0 -20644426.983734131 -1429748.3757019043 0 0 0 0 3800204.7094788402 -16460783.149480484 0 -16460783.149480484 -4790985.9110636842 0 0 0 0 4818428.0207519531 -22304449.422733307 0 -22304449.422733307 -2814424.2895355225 0 0 0 0 9910074.0692138672 -18313135.646820068 0 -18313135.646820068 -4960667.1597075462 0 0 0 0 7100671.1258850545 -21975237.188223876 0 -21975237.188223876 -9214925.8512316253 0 0 0 0 9466731.8159637451 -21550573.133674622 0 -21550573.133674622 -3500387.2333679199 0 0 0 0 6711946.651318498 -17992894.627164915 0 -17992894.627164915 -311995.91649466008 0 0 0 0 11568268.510498047 -17355833.667373657 0 -17355833.667373657 3509546.9112854004 0 0 0 0 5822356.4769897461 -16998922.183792114 0 -16998922.183792114 -9159320.2035017014 0 0 0 0 2148402.3991546631 -21403008.202213287 0 -21403008.202213287 1288916.115234375 0 0 0 0 -4060489.6080920622 -18558976.128974903 0 -18558976.128974903 -9900231.7879647613 0 0 0 0 2881611.9680023193 -16225960.28216362 0 -16225960.28216362 -6481735.1236343384 0 0 0 0 -1805304.2219800502 -17217581.952187516 0 -17217581.952187516 -5179477.4326521605 0 0 0 0 -29551.872721038759 -14392734.765032984 0 -14392734.765032984 -287560.12714769971 0 0 0 0 -1166183.0947647095 -17490428.452461243 0 -17490428.452461243 -10427291.526168823 0 0 0 0 -132832.04518127441 -16178257.696517944 0 -16178257.696517944 -9989354.591835022 0 0 0 0 103056.14840517938 -12959010.534628123 0 -12959010.534628123 2615306.357749179 0 0 0 0 -106780.23769760132 -15977682.587661743 0 -15977682.587661743 -8567909.0072631836 0 0 0 0 5708883.4207763672 -14040458.478729248 0 -14040458.478729248 -4203551.9392089844 0 0 0 0 3329493.7809143066 -16608228.368125916 0 -16608228.368125916 -3758673.3580498695 0 0 0 0 1229020.8998997249 -14089885.439978935 0 -14089885.439978935 -6902772.7106643021 0 0 0 0 2071811.5404281616 -16070533.357414246 0 -16070533.357414246 -10362349.336166382 0 0 0 0 16956481.17396047 -16211372.967998162 0 -16211372.967998162 -11147029.397000432 0 0 0 0 8103502.7482273988 -11545232.67127794 0 -11545232.67127794 -7434752.3822196126 0 0 0 0 -1884625.1136042736 -10850106.326502802 0 -10850106.326502802 -4171954.0737838596 0 0 0 0 4054902.3262939453 -8867237.2639770508 0 -8867237.2639770508 -2018342.8088226318 0 0 0 0 4240305.8994351253 -11042137.288812019 0 -11042137.288812019 -4313109.270563079 0 0 0 0 -26490062.611679077 -33388029.893615723 0 -33388029.893615723 -1900218.1077041626 0 0 0 0 -1408790.0216712952 -11420707.180511475 0 -11420707.180511475 -3328333.6570892334 0 0 0 0 1126522.100933075 -9379150.4468307495 0 -9379150.4468307495 -3592833.7761383057 0 0 0 0 510443.97424708679 -3259257.8114939742 0 -3259257.8114939742 -3002472.3653259128 0 0 0 0 5642331.2929992676 -14502241.852935791 0 -14502241.852935791 -11081776.10269165 0 0 0 0 4476382.4337126557 -11483287.725210302 0 -11483287.725210302 -4571582.4911778569 0 0 0 0 -7515133.8360614628 -13183297.916920785 0 -13183297.916920785 1938094.7603846639 0 0 0 0 -1403119.8382399604 -8286382.1873915568 0 -8286382.1873915568 -6721019.7787760496 0 0 0 0 -4395596.2965087891 -59232207.654006958 0 -59232207.654006958 -62017150.56634903 0 0 0 0 -18414558.133171082 -14560590.984970093 0 -14560590.984970093 -34233422.12902832 0 0 0 0 -4334250.777675949 -18481930.056325659 0 -18481930.056325659 5681442.9582335036 0 0 0 0 -5046490.6292919219 -15264509.435607865 0 -15264509.435607865 -263802.99194420129 0 0 0 0 -25980929.24307251 -26048258.847625732 0 -26048258.847625732 40338681.466430664 0 0 0 0 -4095996.7818908691 -11770843.718994141 0 -11770843.718994141 -520958.13787078857 0 0 0 0 -4230770.8603515625 -21952617.528038025 0 -21952617.528038025 -9086153.9156188965 0 0 0 0 21349352.083297729 -61318892.945037842 0 -61318892.945037842 37432488.537475586 0 0 0 0 -10158887.561781898 -19883560.642346986 0 -19883560.642346986 -2272080.1226424128 0 0 0 0 -1209171.6932296753 -25882881.429695129 0 -25882881.429695129 -175319.3360748291 0 0 0 0 -2380633.9698186694 -6035935.9623936005 0 -6035935.9623936005 1231761.5616080463 0 0 0 0 -27125783.423325539 -19861094.747014999 0 -19861094.747014999 42902723.196029663 0 0 0 0 2015555.7103424072 -27260832.82888031 0 -27260832.82888031 -515441.04277038574 0 0 0 0 -1805002.9805980395 -13549930.640422091 0 -13549930.640422091 -3426032.842252925 0 0 0 0 137952.67424964905 -28027747.005403519 0 -28027747.005403519 -472499.7546081543 0 0 0 0 -10756510.84588623 -18052314.502471924 0 -18052314.502471924 -11161418.010803223 0 0 0 0 -2407234.4311523438 -12871373.698028564 0 -12871373.698028564 -3893121.4255065918 0 0 0 0 -6472615.2619634718 -10585742.605097378 0 -10585742.605097378 -4634885.5046686232 0 0 0 0 -5019676.6717224121 -17460547.9634552 0 -17460547.9634552 -9011758.4815063477 0 0 0 0 -4629007.1149572432 -14097716.588415697 0 -14097716.588415697 -10150361.084169999 0 0 0 0 -4704351.427135773 -12689910.671411986 0 -12689910.671411986 -6600259.6407079473 0 0 0 0 -4838742.0424889587 -12429969.690954035 0 -12429969.690954035 -8379386.5269949138 0 0 0 0 -4550461.9046630859 -10687254.143295288 0 -10687254.143295288 -9099408.9134979248 0 0 0 0 2097596.3260955811 -14693940.984954834 0 -14693940.984954834 -3383823.232208252 0 0 0 0 -13203314.605712891 -15779928.275146484 0 -15779928.275146484 -4701683.9904575348 0 0 0 0 -3253516.7070733905 -14612068.408360399 0 -14612068.408360399 76182.046771489084 0 0 0 0 -3049595.807434082 -15119999.160415649 0 -15119999.160415649 -4055426.3885498047 0 0 0 0 -5850003.5404022485 -17202224.479629662 0 -17202224.479629662 -7789866.4188200384 0 0 0 0 3776722.3601650139 -20342080.108403206 0 -20342080.108403206 -9824109.1909153163 0 0 0 0 -686713.51465668529 -21078613.076633245 0 -21078613.076633245 -5924247.7485134033 0 0 0 0 2240142.9621944726 -17506775.845037848 0 -17506775.845037848 3247825.1431697309 0 0 0 0 -179023.4596862793 -24141093.413116455 0 -24141093.413116455 1352701.8203430176 0 0 0 0 7086686.5837402344 -28122119.702423096 0 -28122119.702423096 -5820870.2641448975 0 0 0 0 -6820535.6198120117 -31235370.943725586 0 -31235370.943725586 11712928.548095703 0 0 0 0 -19312677.765855901 -21401552.95852403 0 -21401552.95852403 6213191.2889510617 0 0 0 0 -315519.697668273 -428365.57449480146 0 -428365.57449480146 -335568.04215655476 0 0 0 0 -3630892.4713134766 -8574135.1875 0 -8574135.1875 -9919617.8317871094 0 0 0 0 -4696872.7372741699 -10229763.037864685 0 -10229763.037864685 -1828298.9753417969 0 0 0 0 -15666032.45202576 -16572355.813126057 0 -16572355.813126057 2516851.7812206149 0 0 0 0 2699182.6964923572 -10978017.962561861 0 -10978017.962561861 -6386564.4240107685 0 0 0 0 -6348631.5578748584 -22059732.401068546 0 -22059732.401068546 -2746666.8016577866 0 0 0 0 -621982.09582519531 -30662096.663314819 0 -30662096.663314819 -8066787.5442504883 0 0 0 0 -3031628.3271162063 -22233286.922771588 0 -22233286.922771588 -4482284.5682188841 0 0 0 0 13603216.924346924 -33297836.207931519 0 -33297836.207931519 -14109573.49597168 0 0 0 0 -11736148.800926208 -30136331.878173828 0 -30136331.878173828 -6295158.5788269043 0 0 0 0 -16464397.08253479 -30539977.982818604 0 -30539977.982818604 5646183.366027832 0 0 0 0 -53909175.397785187 -36469334.270460129 0 -36469334.270460129 16460092.836608887 0 0 0 0 -1908704.0555076487 -1119085.9407706186 0 -1119085.9407706186 -604389.40565287322 0 0 0 0 12537156.385887146 -37547870.062446594 0 -37547870.062446594 -9600815.4699401855 0 0 0 0 6622107.4084777832 -43266434.435623169 0 -43266434.435623169 -2550903.9690322876 0 0 0 0 6785376.4669647217 -42743030.437301636 0 -42743030.437301636 -6463588.1143798828 0 0 0 0 20451597.493927002 -46387159.498718262 0 -46387159.498718262 -8974540.7973327637 0 0 0 0 11887251.619277954 -38993650.234603882 0 -38993650.234603882 -5272846.1904602051 0 0 0 0 1198171.7592468262 -36383157.712371826 0 -36383157.712371826 -11583870.035507202 0 0 0 0 8354409.633102417 -45859575.987861633 0 -45859575.987861633 -2986655.8696594238 0 0 0 0 -5242485.1693194881 -24758245.113018282 0 -24758245.113018282 -5518816.8441892033 0 0 0 0 23757644.728240967 -24409040.054229736 0 -24409040.054229736 6391919.4691772461 0 0 0 0 3601995.8713760376 -35399884.316650391 0 -35399884.316650391 -10496740.119384766 0 0 0 0 -1152949.1234817505 -37236332.988395691 0 -37236332.988395691 -10099698.431396484 0 0 0 0 -21669923.929702759 -20713174.851959229 0 -20713174.851959229 -16647567.976608276 0 0 0 0 38323066.396636963 -35123979.682800293 0 -35123979.682800293 -1506019.8211364746 0 0 0 0 -47828339.762756348 2128341.1395874023 0 2128341.1395874023 36588454.142822266 0 0 0 0 -11361608.259754164 -25745967.513262678 0 -25745967.513262678 6108750.9911328405 0 0 0 0 -1289337.0674558729 -330022.96295282617 0 -330022.96295282617 1052592.7009834647 0 0 0 0 -4318277.6355133057 -33236433.07913208 0 -33236433.07913208 9288542.7291870117 0 0 0 0 -20857111.512414932 -34895740.986906052 0 -34895740.986906052 13777546.186645508 0 0 0 0 -9971047.3352491856 -25710070.983823299 0 -25710070.983823299 18806306.012634277 0 0 0 0 -6100976.4887513146 -25548408.15141131 0 -25548408.15141131 -4994809.3928737696 0 0 0 0 -8193767.0004272461 -26747521.32649231 0 -26747521.32649231 -4685628.8530378342 0 0 0 0 -11050643.032211304 -37041758.279983521 0 -37041758.279983521 -6208828.7678222656 0 0 0 0 -42280463.996078491 -10832342.253768921 0 -10832342.253768921 16530391.469299316 0 0 0 0 -1794923.8464281922 -3808774.7671515197 0 -3808774.7671515197 -1337937.6113290787 0 0 0 0 24009312.310588837 -40744654.999786377 0 -40744654.999786377 -12663020.847198486 0 0 0 0 -8041678.9686785154 -18426995.440767694 0 -18426995.440767694 644715.37596185564 0 0 0 0 23460799.948396206 -50091399.615707397 0 -50091399.615707397 -40692692.041809082 0 0 0 0 15676725.144195637 -7121389.0062936693 0 -7121389.0062936693 -5205529.5372691704 0 0 0 0 -18152281.157699436 -29085929.56646733 0 -29085929.56646733 7515705.7027084604 0 0 0 0 83444791.603496552 -85868729.53817749 0 -85868729.53817749 -112021217.70169067 0 0 0 0 82163519.196479797 -117622277.24180603 0 -117622277.24180603 -73054628.23387146 0 0 0 0 25315894.310744524 -66888195.834686279 0 -66888195.834686279 100599760.18603516 0 0 0 0 113395926.733284 -14984528.45413208 0 -14984528.45413208 -24833635.928482056 0 0 0 0 -1184022.1557334801 -8737632.3658675477 0 -8737632.3658675477 -902158.40464388183 0 0 0 0 -26945274.829772949 -186211148.80675507 0 -186211148.80675507 309832588.62594604 0 0 0 0 -107360881.10009003 -4169974.3037109375 0 -4169974.3037109375 -494076.6964263916 0 0 0 0 -19102616.350058366 -27726274.967337951 0 -27726274.967337951 6793731.0751548856 0 0 0 0 -19629929.129772186 -23662201.002616882 0 -23662201.002616882 2973393.6579742432 0 0 0 0 -7093123.3782043457 -23955278.637619019 0 -23955278.637619019 2950945.3167314529 0 0 0 0 71319631.864032269 -35372376.993240356 0 -35372376.993240356 3305971.6009521484 0 0 0 0 326183613.20909977 -18976456.181976318 0 -18976456.181976318 -167517523.35675049 0 0 0 0 -4468129.9974543545 -1249154.3451080015 0 -1249154.3451080015 -69416.126183450222 0 0 0 0 293451997.98442459 -80080501.791107178 0 -80080501.791107178 13067660.481567383 0 0 0 0 1750112.324082165 4826.7792922407389 0 4826.7792922407389 -383318.1242621541 0 0 0 0 -5481885.9947891235 -28374541.262908936 0 -28374541.262908936 2114487.3149108887 0 0 0 0 -13678602.44556427 -27773451.892654419 0 -27773451.892654419 6728975.9289398193 0 0 0 0 -227427.37533855438 -29458347.69849968 0 -29458347.69849968 2320806.0944824219 0 0 0 0 -8354806.5152359009 -22583142.204879761 0 -22583142.204879761 8675969.0652770996 0 0 0 0 -10280207.304740906 -25087114.91998291 0 -25087114.91998291 12960056.16166687 0 0 0 0 -21119229.73698492 -29118410.59011998 0 -29118410.59011998 8139045.3413265198 0 0 0 0 -8429640.3126868978 -22603877.075890064 0 -22603877.075890064 -4087085.9309354741 0 0 0 0 -8833027.3413085938 -25970644.014266968 0 -25970644.014266968 8059302.6657409668 0 0 0 0 86457077.595023155 -72678108.22744751 0 -72678108.22744751 -64548352.505126953 0 0 0 0 1982697353.6413879 266468031.8603363 0 266468031.8603363 -684248296.77001953 0 0 0 0 847464586.9318428 -2327552.3519668579 0 -2327552.3519668579 -435464634.75965881 0 0 0 0 1470325264.2313194 -33805402.435447693 0 -33805402.435447693 -523076609.84208679 0 0 0 0 648873581.49077988 221853010.50544357 0 221853010.50544357 -141658170.68536377 0 0 0 0 1842848878.8846092 -412620926.2183075 0 -412620926.2183075 -429372555.73812866 0 0 0 0 -39142679.628890991 -1145065.3686561584 0 -1145065.3686561584 -30334285.486236572 0 0 0 0 -1088942.8955373093 -4111640.3253661497 0 -4111640.3253661497 -996771.83687260747 0 0 0 0 810526173.9092865 -366994391.00830078 0 -366994391.00830078 -777539987.00976562 0 0 0 0 -38363410.48104465 -91254894.009834021 0 -91254894.009834021 -4270967.8294525146 0 0 0 0 -89306148.134529114 17976940.42660141 0 17976940.42660141 220237023.83879089 0 0 0 0 -3747325.378061288 -5346793.1596341189 0 -5346793.1596341189 -2557531.0238746926 0 0 0 0 -96301651.446102142 33622220.136762619 0 33622220.136762619 186153700.40701294 0 0 0 0 48161829.199542999 18525374.858299255 0 18525374.858299255 -115203619.06238556 0 0 0 0 5470203.8930460028 -17104882.097525232 0 -17104882.097525232 -14606801.664843269 0 0 0 0 -40891957.813285828 45445721.456375122 0 45445721.456375122 83913529.173549652 0 0 0 0 440258.1455151327 -1105976.5501894839 0 -1105976.5501894839 -641821.99032885488 0 0 0 0 974537468.68245697 281658219.49472046 0 281658219.49472046 399478425.7494812 0 0 0 0 1614211138.663456 582370765.62125397 0 582370765.62125397 -203005303.081604 0 0 0 0 1517168854.9842491 227474135.71708107 0 227474135.71708107 -553088122.73556519 0 0 0 0 725585095.42282104 -168866321.86734009 0 -168866321.86734009 -105488067.58522034 0 0 0 0 670813475.77998924 -38251789.321308136 0 -38251789.321308136 -414268427.0721283 0 0 0 0 675427584.3286171 -383672988.74633789 0 -383672988.74633789 45994363.281181335 0 0 0 0 409080821.98460197 -683292157.36398697 0 -683292157.36398697 -356099818.65499878 0 0 0 0 660871398.26153183 -346893812.85340881 0 -346893812.85340881 -46730131.776412964 0 0 0 0 270361176.21238708 -383804161.05007553 0 -383804161.05007553 557410005.42262268 0 0 0 0 305755227.26929855 -586498679.63332748 0 -586498679.63332748 308240507.31859589 0 0 0 0 525542207.6685791 -488915982.95952606 0 -488915982.95952606 -77522663.258771896 0 0 0 0 5168342.209679652 -19051963.750186525 0 -19051963.750186525 -9032436.9218247384 0 0 0 0 1040370.1799926758 -12992483.445953369 0 -12992483.445953369 2818817.5360250473 0 0 0 0 -9519556.8863605149 -17522301.574136391 0 -17522301.574136391 -3270932.7764623836 0 0 0 0 -86094643.766475677 49087860.386367798 0 49087860.386367798 77263281.841430664 0 0 0 0 464470.50528599322 -20035424.901099652 0 -20035424.901099652 -9529.6208341494203 0 0 0 0 595080097.67983866 -281049117.09837151 0 -281049117.09837151 176415093.41317749 0 0 0 0 750442214.21562862 -293219275.24333191 0 -293219275.24333191 -13457479.732269287 0 0 0 0 -54620374.921822548 -60442281.26508522 0 -60442281.26508522 -7091139.0944366455 0 0 0 0 -6235020.3730434161 -12566456.288586915 0 -12566456.288586915 -1974830.1131799147 0 0 0 0 -33230707.410293579 -13628109.560256958 0 -13628109.560256958 -2259353.1735687256 0 0 0 0 1654322.3696737438 -172075.90509479865 0 -172075.90509479865 -272118.91874859482 0 0 0 0 -2171759.8240737915 -17953440.550060272 0 -17953440.550060272 -4677872.3739852905 0 0 0 0 -12162888.668940268 -14184011.616742875 0 -14184011.616742875 -2125394.7319015115 0 0 0 0 4650637.9805755615 -16614999.277084351 0 -16614999.277084351 -5791501.1705579758 0 0 0 0 -20767193.989875793 -21297666.853530884 0 -21297666.853530884 2367069.6557159424 0 0 0 0 -17181142.227111816 -12057035.711647034 0 -12057035.711647034 -8770504.3213732243 0 0 0 0 -6118584.5671386719 -23264318.500320435 0 -23264318.500320435 -4499883.3357038498 0 0 0 0 -18062054.214263916 -21835225.727050781 0 -21835225.727050781 -1026981.9589080811 0 0 0 0 4706046.3917999268 -18161170.175071716 0 -18161170.175071716 -9416680.9591064453 0 0 0 0 2405807.2736517824 -14604520.119286623 0 -14604520.119286623 -5130442.6730536669 0 0 0 0 -5642086.082359314 -9291432.4020233154 0 -9291432.4020233154 -3971958.5585021973 0 0 0 0 -9206557.1032875553 -18111850.044550858 0 -18111850.044550858 -5235082.0004134029 0 0 0 0 -26031178.768081665 -38553657.878822327 0 -38553657.878822327 -13692730.048461914 0 0 0 0 1132690.8401899338 -35582083.887782097 0 -35582083.887782097 -15883087.884231567 0 0 0 0 -16002858.874588013 -20243813.828964233 0 -20243813.828964233 -4286966.9467251301 0 0 0 0 3144640.8693999154 -14394392.481874648 0 -14394392.481874648 -3368711.3055296615 0 0 0 0 -41909987.360137939 -32356361.48210144 0 -32356361.48210144 -15780037.26171875 0 0 0 0 -37946070.469314575 -31948144.593322754 0 -31948144.593322754 -15935895.069877625 0 0 0 0 -55145438.604019165 -19673981.998661041 0 -19673981.998661041 -19314731.835021973 0 0 0 0 2144705.8335551154 -18989640.278703384 0 -18989640.278703384 -11020717.805590615 0 0 0 0 -365823.49691772461 -12823208.248214722 0 -12823208.248214722 -3343017.294921875 0 0 0 0 -13590573.20757312 -18081415.833964363 0 -18081415.833964363 -4448017.4925529063 0 0 0 0 -17919846.830765355 -21712648.946715407 0 -21712648.946715407 353995.84504663944 0 0 0 0 -24692298.231292725 -23486002.427238464 0 -23486002.427238464 8410805.0421485901 0 0 0 0 20518794.741851807 -13299660.893051147 0 -13299660.893051147 -20720503.254211426 0 0 0 0 20973556.391242981 113509.86908721924 0 113509.86908721924 -13527097.306427002 0 0 0 0 -72944024.189613342 -17824478.033126831 0 -17824478.033126831 -20966986.098487854 0 0 0 0 -3448120.9516980182 -16066155.971895263 0 -16066155.971895263 -10951654.099968396 0 0 0 0 -63011424.641120911 -17544647.181770325 0 -17544647.181770325 -25350961.153940201 0 0 0 0 -85088571.394477844 -38471892.771255493 0 -38471892.771255493 -48741303.978134155 0 0 0 0 -95524767.775290489 5384440.5812444687 0 5384440.5812444687 7104923.9284515381 0 0 0 0 27015334.252334595 -19489130.679508209 0 -19489130.679508209 751169.40252685547 0 0 0 0 -12029887.434891015 -28141894.178807825 0 -28141894.178807825 -6558733.9492352083 0 0 0 0 -13063296.205405951 -29052126.164184667 0 -29052126.164184667 1696620.1971609723 0 0 0 0 -7284284.2224121094 -14660761.35925293 0 -14660761.35925293 -709806.09390258789 0 0 0 0 -20182438.603683472 -20111060.168563843 0 -20111060.168563843 -3440182.2312774658 0 0 0 0 785063.68986482918 -21823046.135499209 0 -21823046.135499209 -4996443.4736283645 0 0 0 0 -7983778.7305603027 -15074718.406280518 0 -15074718.406280518 -9264981.4610290527 0 0 0 0 -4544521.5808712002 -12908891.008603852 0 -12908891.008603852 -1477507.9607849494 0 0 0 0 15756436.687866211 -30053793.752975464 0 -30053793.752975464 -6274431.1103515625 0 0 0 0 8445177.7705875933 -26724690.535614625 0 -26724690.535614625 -9286806.2351536769 0 0 0 0 5670027.8571328148 -29540150.293551747 0 -29540150.293551747 -7336665.1256301887 0 0 0 0 12620996.597740173 -42773678.869384766 0 -42773678.869384766 -15436150.488677979 0 0 0 0 15679016.965991974 -43914663.855349541 0 -43914663.855349541 -19716087.122436523 0 0 0 0 -47303952.132068634 -44027587.068630219 0 -44027587.068630219 -11095072.007232666 0 0 0 0 -5976758.2076421008 -4072864.5861196555 0 -4072864.5861196555 -2541684.2418585569 0 0 0 0 20491596.968200684 -32735858.786750793 0 -32735858.786750793 -36792662.185338974 0 0 0 0 -36720401.564235687 -48115324.672502518 0 -48115324.672502518 -10012661.796066284 0 0 0 0 -30227291.413410187 -49444599.757516861 0 -49444599.757516861 -9859504.2976379395 0 0 0 0 -4192675.491027832 -41663089.084739685 0 -41663089.084739685 -12194333.690612793 0 0 0 0 -3083780.418162901 -21691693.51499347 0 -21691693.51499347 45747.216779209673 0 0 0 0 -4184938.8114242554 -40881928.278778076 0 -40881928.278778076 -12538984.273269653 0 0 0 0 3306353.6867675781 -42739224.86945343 0 -42739224.86945343 -12448314.364395142 0 0 0 0 6714698.9657287598 -39996318.470825195 0 -39996318.470825195 -17991534.177091122 0 0 0 0 9534666.5682449341 -38644096.668538094 0 -38644096.668538094 -21585714.321044922 0 0 0 0 1463240.080291748 -45815631.911117554 0 -45815631.911117554 -11065522.015274048 0 0 0 0 32310137.666015625 -48434306.706253052 0 -48434306.706253052 -19438668.797122955 0 0 0 0 8086157.2947540283 -48981710.839080811 0 -48981710.839080811 -20417556.443161011 0 0 0 0 15702208.730270386 -43575809.600166321 0 -43575809.600166321 -16831132.815048218 0 0 0 0 11953846.489151001 -57036305.464820862 0 -57036305.464820862 -10126319.079162598 0 0 0 0 -5289633.455291748 -38218436.149330139 0 -38218436.149330139 -14776274.28213501 0 0 0 0 1551356.5921325684 -43019572.719299316 0 -43019572.719299316 -11425251.287597656 0 0 0 0 1048593.7934644893 -2891174.4645473883 0 -2891174.4645473883 -4356550.3695894331 0 0 0 0 -18244690.564483643 -53885612.659065247 0 -53885612.659065247 -6633430.7663459778 0 0 0 0 5157115.6241455078 -21182070.972717285 0 -21182070.972717285 9090929.0648527145 0 0 0 0 -19057800.860778809 -42190058.989112854 0 -42190058.989112854 -3902732.2233123779 0 0 0 0 20101074.496749878 -6569413.1007194519 0 -6569413.1007194519 -43225356.519775391 0 0 0 0 6132852.0866102278 -23073275.881623663 0 -23073275.881623663 -4979783.8922817074 0 0 0 0 10005587.798339844 -20133602.298706055 0 -20133602.298706055 7046168.5664672852 0 0 0 0 4912418.5845947266 -20008380.904724121 0 -20008380.904724121 3464414.1945800781 0 0 0 0 36869271.033086777 -17353451.290168762 0 -17353451.290168762 -37125646.818786621 0 0 0 0 -14978016.77038236 -18237659.716505982 0 -18237659.716505982 -2686106.3393564969 0 0 0 0 -45600719.710571289 -41430976.230865479 0 -41430976.230865479 -1769008.5603637695 0 0 0 0 12163059.409881096 -9804269.4957570583 0 -9804269.4957570583 -1288122.3936791122 0 0 0 0 -14091109.692075573 -24250628.385554194 0 -24250628.385554194 12657116.979897767 0 0 0 0 -772138.01020101458 -1348584.6335819513 0 -1348584.6335819513 670676.3095607236 0 0 0 0 -1237205.9342651367 -19749038.78629303 0 -19749038.78629303 8777133.6693229675 0 0 0 0 -11511842.112876892 -36398583.634586334 0 -36398583.634586334 -11056574.31526947 0 0 0 0 -10566741.376308441 -32100709.360227585 0 -32100709.360227585 -8289381.0700683594 0 0 0 0 -2580076.8571019173 -25405555.957266055 0 -25405555.957266055 2358793.239379406 0 0 0 0 13295666.357517928 -20578586.547559578 0 -20578586.547559578 -7921304.8577135205 0 0 0 0 -6686330.4023590088 -38803984.171333313 0 -38803984.171333313 -10000649.090904236 0 0 0 0 14933611.299508393 -23824370.110971041 0 -23824370.110971041 -3676302.5826392546 0 0 0 0 -14664468.301528931 -48111458.866252899 0 -48111458.866252899 1346039.5339202881 0 0 0 0 16005113.029968262 -36845591.097057343 0 -36845591.097057343 -15576556.134109497 0 0 0 0 9637573.9452330619 -16273629.001790494 0 -16273629.001790494 -5790592.2307097372 0 0 0 0 7510799.708404541 -49285388.487586975 0 -49285388.487586975 -2870464.9274978638 0 0 0 0 24882597.823013306 -1334103.5613899231 0 -1334103.5613899231 -29914174.819671631 0 0 0 0 39184231.313079834 -19977464.895927429 0 -19977464.895927429 -5902708.9727611542 0 0 0 0 49503725.34438324 -12380920.250547409 0 -12380920.250547409 -28809652.808174133 0 0 0 0 21810837.743740141 -24809512.650749058 0 -24809512.650749058 -13575913.862941563 0 0 0 0 43717537.211074829 -17860894.330417633 0 -17860894.330417633 -25484194.415031433 0 0 0 0 42755037.599662781 -22225783.620447159 0 -22225783.620447159 -45113208.099060059 0 0 0 0 94696181.519958496 -45514782.844418526 0 -45514782.844418526 -40723180.646057129 0 0 0 0 66821591.909694672 58514168.20598793 0 58514168.20598793 -39395075.357437134 0 0 0 0 218657154.22216797 90643862.435714722 0 90643862.435714722 -40123152.646820068 0 0 0 0 47442360.52911377 2866753.3352661133 0 2866753.3352661133 -34183096.933873177 0 0 0 0 176174692.11529541 -29966354.848823547 0 -29966354.848823547 -45566133.878860474 0 0 0 0 84855933.71836853 -117686280.33876419 0 -117686280.33876419 17914338.91268158 0 0 0 0 62124435.448410034 -30615668.255916595 0 -30615668.255916595 -46725181.314323425 0 0 0 0 -2743674.2025299072 -42215867.219472885 0 -42215867.219472885 -33155063.004135132 0 0 0 0 39146278.193695068 -59480878.422805786 0 -59480878.422805786 -13021208.632597923 0 0 0 0 14056019.59525682 -28262466.905426867 0 -28262466.905426867 -9059192.601836808 0 0 0 0 -417241.27648939192 -29375631.068785422 0 -29375631.068785422 -9627230.5474192612 0 0 0 0 17129736.342498779 -52880201.967582703 0 -52880201.967582703 -11390867.963776588 0 0 0 0 -7643347.8424377441 -35874264.886470795 0 -35874264.886470795 4047956.8436584473 0 0 0 0 -24377212.619017549 -17017183.879274067 0 -17017183.879274067 6796882.8045791537 0 0 0 0 -16918338.24697876 -35180572.778640747 0 -35180572.778640747 2972257.5081682205 0 0 0 0 -7547196.4021625519 -36420893.685767412 0 -36420893.685767412 -6366270.1995391846 0 0 0 0 -82541287.936019897 -25446651.291007996 0 -25446651.291007996 5885794.2932281494 0 0 0 0 2698504.1814847142 -455433.44941508025 0 -455433.44941508025 -721757.31938318908 0 0 0 0 -5953449.2858695984 -37194382.611660004 0 -37194382.611660004 44030.965408325195 0 0 0 0 -4139004.5166015625 -49463969.127350807 0 -49463969.127350807 -19046267.417694092 0 0 0 0 -6470154.5115890503 -26879974.306257248 0 -26879974.306257248 -407324.88655853271 0 0 0 0 -14561857.41771698 -44006218.637607574 0 -44006218.637607574 -14415038.579297066 0 0 0 0 7969312.9044685364 -27874863.423683167 0 -27874863.423683167 -16227791.996131897 0 0 0 0 11461135.630254745 -13623394.912941933 0 -13623394.912941933 2478876.475402832 0 0 0 0 -2387.8091138387099 -30999915.739139732 0 -30999915.739139732 -13009258.778944176 0 0 0 0 34097682.695236206 -27710476.115615845 0 -27710476.115615845 -8925596.8465538025 0 0 0 0 -68534714.314491272 -46983010.739351273 0 -46983010.739351273 -25402628.965423584 0 0 0 0 -67215373.993528366 -43967741.288511276 0 -43967741.288511276 -19797720.444038391 0 0 0 0 -27796867.210186739 -7052846.2969229762 0 -7052846.2969229762 7114810.0824763104 0 0 0 0 -66757689.798713684 -47533890.187145233 0 -47533890.187145233 -29641898.570281982 0 0 0 0 -26201904.746963501 -15266860.045654297 0 -15266860.045654297 -6786414.946762085 0 0 0 0 -233845766.30778885 -80074790.932785034 0 -80074790.932785034 27493523.993339539 0 0 0 0 2561865.5222180597 -13870167.16575918 0 -13870167.16575918 -10336388.918999448 0 0 0 0 -197517504.7664299 38875835.663383484 0 38875835.663383484 77860445.292572021 0 0 0 0 -65264670.0103302 -45868813.779022217 0 -45868813.779022217 -31911221.106414795 0 0 0 0 -66735346.69317627 -43921442.019226074 0 -43921442.019226074 -34483602.228149414 0 0 0 0 -69423194.586242676 -40145941.552780151 0 -40145941.552780151 -25534692.650970459 0 0 0 0 -71136632.482696533 -35753433.900253296 0 -35753433.900253296 -36754859.666213989 0 0 0 0 -79526530.270141602 -38218161.757801056 0 -38218161.757801056 -21872625.201667786 0 0 0 0 -65057127.402496338 -37117307.319198608 0 -37117307.319198608 -31765087.429855347 0 0 0 0 -85877724.318962097 -31342433.625434875 0 -31342433.625434875 -25691792.116027832 0 0 0 0 -56083053.938842773 -38551761.494941711 0 -38551761.494941711 -30917183.72354126 0 0 0 0 -54544872.222053528 -19722202.357963562 0 -19722202.357963562 -20304136.381717682 0 0 0 0 -39821138.477266312 -27587181.376298428 0 -27587181.376298428 -23703485.848419189 0 0 0 0 4550924.990438832 -26365973.067348845 0 -26365973.067348845 -12944163.462262075 0 0 0 0 -66353676.451771736 -31931062.693569183 0 -31931062.693569183 -12978293.923591614 0 0 0 0 50992899.190979004 -11398602.045303345 0 -11398602.045303345 -50122863.067214966 0 0 0 0 -46912803.979991913 -22112527.496063232 0 -22112527.496063232 -12323627.535198212 0 0 0 0 13851908.762485504 -24486181.438953735 0 -24486181.438953735 -12260396.297000289 0 0 0 0 -44206666.177146912 -36720971.57837677 0 -36720971.57837677 3383711.1031646729 0 0 0 0 -50690795.773578644 -16992147.028167725 0 -16992147.028167725 27303417.344360352 0 0 0 0 -48430431.555610657 -58960380.374778748 0 -58960380.374778748 61804141.980209351 0 0 0 0 -44473907.237537384 -36077638.12436676 0 -36077638.12436676 -19056704.647377014 0 0 0 0 -60506669.546854019 -30446741.950400352 0 -30446741.950400352 -18573552.421356201 0 0 0 0 -30173350.835048676 -27280767.077796936 0 -27280767.077796936 -28611184.656488419 0 0 0 0 -48890914.432406425 -62878965.42837429 0 -62878965.42837429 -49140744.994628906 0 0 0 0 -1320818.5858039632 -3017046.2282734169 0 -3017046.2282734169 -1050647.8207406066 0 0 0 0 -84460661.913535118 -73979105.730462074 0 -73979105.730462074 150164575.4438591 0 0 0 0 789228541.48729324 436201217.12605286 0 436201217.12605286 -101409181.37752056 0 0 0 0 278651236.71838379 84978826.078281403 0 84978826.078281403 -7914591.1951751709 0 0 0 0 471243350.90601349 162275873.32310867 0 162275873.32310867 -34529152.505615234 0 0 0 0 -89943445.907256126 -70509262.212678432 0 -70509262.212678432 -30203009.538848877 0 0 0 0 -8078161.8976676576 -10266137.200604096 0 -10266137.200604096 -2515117.1340847239 0 0 0 0 353444234.84690094 -100359311.80607796 0 -100359311.80607796 -31059850.200531006 0 0 0 0 340623066.38957977 -73538354.985507965 0 -73538354.985507965 -53796035.984161377 0 0 0 0 679790903.24710083 -134318493.62028503 0 -134318493.62028503 -66642527.146636963 0 0 0 0 352797842.2228241 -120279750.07867432 0 -120279750.07867432 -13773443.574752808 0 0 0 0 262173783.92271423 -120716081.6539917 0 -120716081.6539917 -1940959.6172561646 0 0 0 0 604605725.94237518 -314380120.1002655 0 -314380120.1002655 19149456.57383728 0 0 0 0 -41167832.486618042 52358303.573028564 0 52358303.573028564 -28906992.511657715 0 0 0 0 224108681.17515182 -48259270.163410187 0 -48259270.163410187 -8524454.731628418 0 0 0 0 -70357783.008548737 -29888607.606773376 0 -29888607.606773376 -20424383.465072632 0 0 0 0 -9171110.4292297363 51903572.012649536 0 51903572.012649536 16355033.823801041 0 0 0 0 49768586.220321655 -99382307.369239807 0 -99382307.369239807 71865781.093688965 0 0 0 0 271724681.17728424 -200274670.29922485 0 -200274670.29922485 30768002.562011719 0 0 0 0 992744665.91243744 -324158860.25557709 0 -324158860.25557709 173603412.73066711 0 0 0 0 498714191.9324646 65294175.057067871 0 65294175.057067871 32446016.069770813 0 0 0 0 821951705.9141078 -248095430.82407475 0 -248095430.82407475 140328145.62815857 0 0 0 0 855551735.62520599 -234217774.76724243 0 -234217774.76724243 -142197054.05769348 0 0 0 0 763421943.53261232 413198693.45709848 0 413198693.45709848 469198343.93334961 0 0 0 0 48444206.631271362 16059519.231201172 0 16059519.231201172 6209012.2040901184 0 0 0 0 -1291338.1174163818 -147591735.8036499 0 -147591735.8036499 167146081.07373428 0 0 0 0 -1991559.6795412451 -152045.22856418788 0 -152045.22856418788 2540865.8699178733 0 0 0 0 30882407.970790863 -45108402.225022316 0 -45108402.225022316 39647724.640548706 0 0 0 0 -50711924.92010498 15587890.245380402 0 15587890.245380402 -235605725.82862854 0 0 0 0 -46524172.317863464 -1161504.2412624359 0 -1161504.2412624359 -169125209.01828003 0 0 0 0 451546335.42739868 -138449208.27349091 0 -138449208.27349091 -463420438.5161438 0 0 0 0 -2753829.3254957199 1002082.4200319797 0 1002082.4200319797 2173296.1108915135 0 0 0 0 130477963.99475098 109189242.73130417 0 109189242.73130417 -588493105.17271423 0 0 0 0 -99429554.65826416 286608412.44410706 0 286608412.44410706 -17128017.44203186 0 0 0 0 -2816437.7315214723 2021546.1056187823 0 2021546.1056187823 2373965.7342750467 0 0 0 0 139634.5001373291 -37948355.504821777 0 -37948355.504821777 34522029.882675171 0 0 0 0 -98205042.428985596 -10711118.504177094 0 -10711118.504177094 313068600.64779663 0 0 0 0 10748464.57699585 -13622560.173932076 0 -13622560.173932076 5730742.9314422607 0 0 0 0 -77987295.581390381 57996435.052108765 0 57996435.052108765 37981255.383605957 0 0 0 0 -90273169.179428101 -51163108.44758606 0 -51163108.44758606 -7982545.6515960693 0 0 0 0 1294361.7209663391 -78069924.456957817 0 -78069924.456957817 -151338616.37182617 0 0 0 0 166605988.43280029 -179755448.51628876 0 -179755448.51628876 -331644120.60681152 0 0 0 0 -620195.70893016458 -2040457.0560680404 0 -2040457.0560680404 394436.71585029364 0 0 0 0 -18740987.416595459 -18382324.155731201 0 -18382324.155731201 6316729.7514877319 0 0 0 0 -23455775.186599731 -44781658.748008728 0 -44781658.748008728 -7520937.9012145996 0 0 0 0 -11881.09162902832 -44784631.124298096 0 -44784631.124298096 -33425067.399253845 0 0 0 0 -54140.209860811796 -26503530.634312857 0 -26503530.634312857 -5064509.1275634766 0 0 0 0 -6175800.4000549316 -30386224.0652771 0 -30386224.0652771 -3336527.4785652161 0 0 0 0 19164800.821121216 -16730817.001319885 0 -16730817.001319885 -8841480.2967987061 0 0 0 0 12241836.608169556 -4354460.5164299011 0 -4354460.5164299011 1132852.330291748 0 0 0 0 -1865011.7697525024 -35569624.890190125 0 -35569624.890190125 -7682982.4117279053 0 0 0 0 39404.957695931196 -175016.50392944366 0 -175016.50392944366 122836.41240743559 0 0 0 0 -13282818.443260193 17840879.802785873 0 17840879.802785873 -14648837.288146973 0 0 0 0 -823987.91359732673 -4841143.699684523 0 -4841143.699684523 378319.98835590482 0 0 0 0 5333626.2128753662 -17247220.819589615 0 -17247220.819589615 -18265184.379554749 0 0 0 0 21510816.99029541 1222954.4687080383 0 1222954.4687080383 -24890570.601173401 0 0 0 0 4553541.5946221948 -141431.88519124687 0 -141431.88519124687 -967144.52975712379 0 0 0 0 -966796.48091888428 -11032360.186031342 0 -11032360.186031342 1028702.8089599609 0 0 0 0 13598148.663452148 -10397685.645370483 0 -10397685.645370483 -12310272.218080282 0 0 0 0 2878233.6921386719 -7911886.2344779968 0 -7911886.2344779968 2573752.6092224121 0 0 0 0 2252252.6098388433 -1984534.6019283682 0 -1984534.6019283682 -731598.27662611217 0 0 0 0 5899578.3848266602 -20116569.633453369 0 -20116569.633453369 14548136.940208435 0 0 0 0 -1854125.8199653625 29542172.944173336 0 29542172.944173336 -117454169.73085022 0 0 0 0 132011.96661017835 -2850994.7170689777 0 -2850994.7170689777 2935663.3058556803 0 0 0 0 15259478.978912354 -7182528.9024810791 0 -7182528.9024810791 1912661.3744773865 0 0 0 0 1271441.030456543 -9351752.5554866791 0 -9351752.5554866791 -4263229.5978851318 0 0 0 0 5536395.2672424316 -16124396.325309753 0 -16124396.325309753 2693813.3310618401 0 0 0 0 -5630091.8219642267 -12051165.5314379 0 -12051165.5314379 -3373109.1938647106 0 0 0 0 2583101.8408050537 -8466962.1303100586 0 -8466962.1303100586 -4719920.7998329401 0 0 0 0 1420173.7402906567 -7675615.6988948435 0 -7675615.6988948435 -393928.46559878439 0 0 0 0 35306062.019226074 -21052211.875045776 0 -21052211.875045776 -49351652.385513306 0 0 0 0 49201156.524421692 26324683.895528793 0 26324683.895528793 -157146725.38430786 0 0 0 0 439476.05019020848 -575895.28607849777 0 -575895.28607849777 -185471.784255445 0 0 0 0 19454984.075363159 -26838463.793449402 0 -26838463.793449402 -34142578.064575195 0 0 0 0 13320480.973978549 -6656401.2103008032 0 -6656401.2103008032 -3705357.48231031 0 0 0 0 32400895.630554199 -17781152.757850647 0 -17781152.757850647 -50972783.220703125 0 0 0 0 17137168.569091797 -37533236.379367828 0 -37533236.379367828 -26033482.397041321 0 0 0 0 31523901.014770508 -56422680.737327576 0 -56422680.737327576 -3350975.98387146 0 0 0 0 41612165.193481445 -36397625.553833008 0 -36397625.553833008 -62277604.75994873 0 0 0 0 11163515.481079102 5262025.9940719604 0 5262025.9940719604 -59983105.206817627 0 0 0 0 38055670.383850098 -33935894.560623169 0 -33935894.560623169 -49661805.640594482 0 0 0 0 68547721.646575928 -78487650.383033752 0 -78487650.383033752 -10042366.289413452 0 0 0 0 30007982.090240479 -43102832.100082397 0 -43102832.100082397 -57993936.851776123 0 0 0 0 75105015.458433151 -17338675.2512393 0 -17338675.2512393 -90024715.595413208 0 0 0 0 27766723.645843506 -72799947.030265808 0 -72799947.030265808 7302433.7755661011 0 0 0 0 23028696.856658936 -101771113.77417755 0 -101771113.77417755 262842978.13973999 0 0 0 0 16981018.322494507 -76683182.984649658 0 -76683182.984649658 74750014.647064209 0 0 0 0 7539496.1737772822 -33994954.673267804 0 -33994954.673267804 -7189545.8466186523 0 0 0 0 -35463177.83190918 54963277.787410736 0 54963277.787410736 -89425711.63974762 0 0 0 0 -63356958.718383789 -11770104.865585327 0 -11770104.865585327 -202814544.98009491 0 0 0 0 62815185.70401001 35251703.997871399 0 35251703.997871399 -119535624.99374008 0 0 0 0 176556143.65458679 -53097031.495620728 0 -53097031.495620728 -225290579.33511734 0 0 0 0 126173601.46005249 -158800688.38373184 0 -158800688.38373184 30993726.457103729 0 0 0 0 -299169727.00758362 -12872752.595355988 0 -12872752.595355988 120548278.68642426 0 0 0 0 59599058.448482513 -22024670.969481945 0 -22024670.969481945 -96648871.876663208 0 0 0 0 98828449.200027466 -252205265.07546616 0 -252205265.07546616 -192619649.76780701 0 0 0 0 -246096673.47186279 -279022596.15692139 0 -279022596.15692139 -114125006.76031876 0 0 0 0 2805414.7546613514 -2909419.3872928545 0 -2909419.3872928545 -2720209.6908152252 0 0 0 0 -86750016.460533142 -372488647.91942978 0 -372488647.91942978 -321234133.11248779 0 0 0 0 2839933.081125468 -2316338.4433959648 0 -2316338.4433959648 -631035.77922535874 0 0 0 0 10816256.301879883 -19607416.694610596 0 -19607416.694610596 -25854496.795721054 0 0 0 0 465684.2745282203 428348.22853137553 0 428348.22853137553 258615.40806466527 0 0 0 0 10740651.483825684 -14326302.007324219 0 -14326302.007324219 -82541873.430541992 0 0 0 0 11454642.194694519 -8625115.0995121002 0 -8625115.0995121002 -57677476.095108032 0 0 0 0 11409151.503082275 -65317157.893310547 0 -65317157.893310547 -131329979.14927673 0 0 0 0 -11107091.506835938 -44379911.562820435 0 -44379911.562820435 -45311144.954872131 0 0 0 0 -15704757.670608521 -4356240.2810821533 0 -4356240.2810821533 -25080619.604171753 0 0 0 0 -19303897.600857735 -57004213.440712214 0 -57004213.440712214 -60404505.840301514 0 0 0 0 -2932740.4481506348 -10242930.1616745 0 -10242930.1616745 -33061233.675361633 0 0 0 0 -66273588.898040771 -128287105.85298157 0 -128287105.85298157 -80238359.958660126 0 0 0 0 -44773997.192367554 -83321609.584648132 0 -83321609.584648132 4576212.8829116821 0 0 0 0 -413344615.74676514 -12890963.879428864 0 -12890963.879428864 24662952.618431091 0 0 0 0 -218828745.84939575 -465501274.4004097 0 -465501274.4004097 -77543631.816398621 0 0 0 0 -174936990.83505249 -90938552.61397171 0 -90938552.61397171 12174762.918777466 0 0 0 0 -140716575.84704208 78214505.655635834 0 78214505.655635834 17463229.068267822 0 0 0 0 -9587614.2624206543 93650249.406074524 0 93650249.406074524 -47276051.543334961 0 0 0 0 -39386982.708724976 -144828801.93074799 0 -144828801.93074799 -119583430.57507324 0 0 0 0 1667920.7701039761 -1744349.5508103371 0 -1744349.5508103371 -1647152.2785538808 0 0 0 0 229491523.41983032 -188727470.36700821 0 -188727470.36700821 -121750466.81924438 0 0 0 0 -687364252.23318481 -627266247.41411591 0 -627266247.41411591 -345605161.11605835 0 0 0 0 34083762.55871582 -427192833.20300674 0 -427192833.20300674 -426709928.59306335 0 0 0 0 -17683211.684417725 -412832729.3425293 0 -412832729.3425293 -407064137.36032104 0 0 0 0 -19355553.117019653 -372985071.60202026 0 -372985071.60202026 -330053245.99149323 0 0 0 0 -40432230.720375061 -284775110.87011528 0 -284775110.87011528 -155492418.23981476 0 0 0 0 87361829.753829956 -291825755.34289169 0 -291825755.34289169 -372781998.78224945 0 0 0 0 116645872.23991394 -6030057.5658149719 0 -6030057.5658149719 -273671935.09387207 0 0 0 0 43805438.439941406 -158642021.06752777 0 -158642021.06752777 -438075205.81249619 0 0 0 0 1574238.3690852895 -1574835.1450724751 0 -1574835.1450724751 -1533917.9074574113 0 0 0 0 -446224642.46224976 -379354582.86082458 0 -379354582.86082458 -238698667.50230569 0 0 0 0 510321425.83496094 66652086.533042908 0 66652086.533042908 -398005600.58233643 0 0 0 0 328737892.91113281 66379280.412979126 0 66379280.412979126 -268372560.44562149 0 0 0 0 39038138.117645264 -26923496.052318573 0 -26923496.052318573 -1278650825.860836 0 0 0 0 -43093177.958938599 -89043911.265476227 0 -89043911.265476227 -444694923.50278473 0 0 0 0 65868982.701568604 -370359691.63408184 0 -370359691.63408184 -608523547.0838623 0 0 0 0 -21464541.495193481 -292137152.4391861 0 -292137152.4391861 -535734024.90392303 0 0 0 0 -378628.9955291748 -364661188.97502899 0 -364661188.97502899 -638778249.57881165 0 0 0 0 108560.4779510498 -381453108.52362061 0 -381453108.52362061 -408631520.31533051 0 0 0 0 -42930473.952987671 -383914798.54741669 0 -383914798.54741669 -427711153.74297333 0 0 0 0 66325681.534347534 -369967637.15153885 0 -369967637.15153885 -429758022.3653717 0 0 0 0 -22185852.543876648 -349557874.66038132 0 -349557874.66038132 -319713429.03030396 0 0 0 0 29380.810562133789 -350770201.10124207 0 -350770201.10124207 -126381833.4697113 0 0 0 0 76461416.659088135 -305997844.30136871 0 -305997844.30136871 -321435790.3603605 0 0 0 0 35623708.904602051 -358411826.30406475 0 -358411826.30406475 -203440229.22614288 0 0 0 0 129481840.62568665 -278544200.79472733 0 -278544200.79472733 -178379980.26270008 0 0 0 0 78623699.764328003 -179579586.15302277 0 -179579586.15302277 -51258727.06794548 0 0 0 0 -82927352.623428345 -459468468.0872364 0 -459468468.0872364 -326448749.61479187 0 0 0 0 97579456.522964478 -331325606.41732407 0 -331325606.41732407 -407149421.55201626 0 0 0 0 47017456.922981262 -284346344.38857079 0 -284346344.38857079 80228020.425693512 0 0 0 0 209489210.09152222 -307622224.98353577 0 -307622224.98353577 -370598485.4733963 0 0 0 0 198037984.34758282 -430657269.91761661 0 -430657269.91761661 203060802.17019653 0 0 0 0 157629739.0568161 -134895155.3529191 0 -134895155.3529191 162907269.10533905 0 0 0 0 108278892.91271973 -367889580.87846565 0 -367889580.87846565 413898742.88469696 0 0 0 0 46082.883026123047 -313442883.55692863 0 -313442883.55692863 182925833.97480392 0 0 0 0 47463307.813781738 -187915165.1889286 0 -187915165.1889286 430297338.93263245 0 0 0 0 64453254.523880005 -215155606.96164703 0 -215155606.96164703 244049815.10737801 0 0 0 0 5965.6767272949219 -261950472.88096428 0 -261950472.88096428 458176005.46355438 0 0 0 0 49814990.133331299 -136793105.78993988 0 -136793105.78993988 630853156.20128632 0 0 0 0 1669415.5282527208 -1684145.571743913 0 -1684145.571743913 -7902304.1205016002 0 0 0 0 2879.8766784667969 -4783296.0115203857 0 -4783296.0115203857 -3285292.5875701904 0 0 0 0 -2669750.9947814941 -32896909.05847168 0 -32896909.05847168 -120458940.29988861 0 0 0 0 -1599016.4403393865 920691.51562635601 0 920691.51562635601 698540.46011127532 0 0 0 0 53003547.982055664 -36128938.851894379 0 -36128938.851894379 -9015995.576534152 0 0 0 0 44075052.970184326 -17292202.381568909 0 -17292202.381568909 -8341617.145229578 0 0 0 0 -4287598.2557964325 -20016453.488921523 0 -20016453.488921523 -74297129.215988159 0 0 0 0 9259851.9993157238 -785215.79254658148 0 -785215.79254658148 -9023911.6832809616 0 0 0 0 -8196732.6193625778 -4716076.202576533 0 -4716076.202576533 -790401.25912560523 0 0 0 0 8603692.9618453979 -237342906.29389 0 -237342906.29389 445644161.32845306 0 0 0 0 -9615611.5617261082 -3287045.185244374 0 -3287045.185244374 1328761.4269345365 0 0 0 0 186146045.34658813 -139260699.80516243 0 -139260699.80516243 68275634.512401581 0 0 0 0 240514726.86371613 -62955097.599614143 0 -62955097.599614143 -138011025.74815369 0 0 0 0 199548076.20535278 -1400255.7365379333 0 -1400255.7365379333 -68941583.227771759 0 0 0 0 42630176.53503418 -2238123.9130783081 0 -2238123.9130783081 -33936993.554535151 0 0 0 0 57590874.902072906 -23651689.623448849 0 -23651689.623448849 -35109963.843063354 0 0 0 0 10346105.198024258 753871.49944411963 0 753871.49944411963 -9010348.490043126 0 0 0 0 -12553197.430175781 -53178660.610198975 0 -53178660.610198975 -52599308.095549583 0 0 0 0 155096908.16201401 60736516.350716591 0 60736516.350716591 -14592334.442470551 0 0 0 0 155528526.7432251 122517558.86627769 0 122517558.86627769 88141442.143370628 0 0 0 0 158875968.1243782 55711105.780716896 0 55711105.780716896 -110350705.9988327 0 0 0 0 171250558.30496216 263784840.03975868 0 263784840.03975868 111033893.60288429 0 0 0 0 9931086.813540116 1390408.6609759927 0 1390408.6609759927 -8670315.140015617 0 0 0 0 32003643.650817871 5603818.0081596375 0 5603818.0081596375 -40468264.916443825 0 0 0 0 -72216531.940139771 -61316276.22069931 0 -61316276.22069931 11404612.76039505 0 0 0 0 -45274301.97807312 12280430.515693665 0 12280430.515693665 83734046.632452011 0 0 0 0 -54580322.795043945 -132909298.06352615 0 -132909298.06352615 -141290577.96212196 0 0 0 0 93253.740702764713 -72050872.72964038 0 -72050872.72964038 -76680401.66217804 0 0 0 0 -15767815.268371582 -53521108.545501709 0 -53521108.545501709 -97789480.368881226 0 0 0 0 -19492998.884662628 -43462911.582652092 0 -43462911.582652092 -64882813.149681091 0 0 0 0 -9200119.1026306152 -23641898.831363678 0 -23641898.831363678 -52013854.821105957 0 0 0 0 -125611246.78036499 207157248.97603226 0 207157248.97603226 -492646864.19584846 0 0 0 0 -473185824.42813873 187823845.00344324 0 187823845.00344324 -5973582.0345230103 0 0 0 0 -125827583.64620972 115919090.81252289 0 115919090.81252289 -76483587.155578613 0 0 0 0 -364458898.08964539 -199987819.679708 0 -199987819.679708 -135072926.9389267 0 0 0 0 -889518443.04219055 117946074.50615311 0 117946074.50615311 -324013858.05636787 0 0 0 0 -37810351.044677734 -12370143.50186348 0 -12370143.50186348 -78112492.248577118 0 0 0 0 -290666610.30854797 98832573.562250137 0 98832573.562250137 308993242.54795456 0 0 0 0 -124879740.93746948 81636431.050333023 0 81636431.050333023 25745552.744934082 0 0 0 0 -53787327.297439575 242533413.75341797 0 242533413.75341797 -75954181.8620224 0 0 0 0 -193451198.29815674 182698311.30870914 0 182698311.30870914 213835959.43925476 0 0 0 0 -65970074.74395752 117251797.30313492 0 117251797.30313492 239153527.69892502 0 0 0 0 7476776.9812011719 215152122.31831741 0 215152122.31831741 167822197.07454047 0 0 0 0 -19831630.653076172 202686896.30231094 0 202686896.30231094 285046234.80552673 0 0 0 0 71235456.949432373 144005360.04336929 0 144005360.04336929 191568477.60697937 0 0 0 0 28245304.863952637 228682030.76480103 0 228682030.76480103 202572764.10173512 0 0 0 0 17553509.400024414 248653402.82500839 0 248653402.82500839 16540416.918197632 0 0 0 0 -54284643.413665771 171259323.85545349 0 171259323.85545349 168146377.99364746 0 0 0 0 214318126.62982178 125475735.34716988 0 125475735.34716988 152256901.96745682 0 0 0 0 127886540.39989471 233351526.75587082 0 233351526.75587082 28186731.025215149 0 0 0 0 171391998.83029175 101129836.89648819 0 101129836.89648819 -205703993.46532822 0 0 0 0 66128266.33807373 191430466.92031479 0 191430466.92031479 35766077.922591686 0 0 0 0 -11274952.097610474 234294317.69874191 0 234294317.69874191 -223442445.27651978 0 0 0 0 62047741.224609375 115887289.33890152 0 115887289.33890152 -59775268.306985855 0 0 0 0 26563964.866241455 -24004931.799039841 0 -24004931.799039841 -375791137.33397102 0 0 0 0 66511928.450344086 101098259.39451265 0 101098259.39451265 -176083814.72489166 0 0 0 0 203524102.70767212 21123108.912483215 0 21123108.912483215 -331824426.32945633 0 0 0 0 143710718.80007935 -50283323.375951767 0 -50283323.375951767 40134716.553230286 0 0 0 0 83054960.129180908 -191185044.48068237 0 -191185044.48068237 -198297604.31333351 0 0 0 0 -12328250.423568726 -25264336.721511841 0 -25264336.721511841 -274754323.22207642 0 0 0 0 -516617073.47944641 -223977127.69630051 0 -223977127.69630051 -582807661.94970703 0 0 0 0 -439712344.74665833 -337432034.27471352 0 -337432034.27471352 -453131769.10371399 0 0 0 0 -918107163.27615356 -675971739.90049744 0 -675971739.90049744 -322124293.3341217 0 0 0 0 -77716441.22958374 100655987.92963791 0 100655987.92963791 -512267341.10554886 0 0 0 0 -402921583.6005249 -74782193.444389343 0 -74782193.444389343 -410281376.03850079 0 0 0 0 -707138645.75030518 -687772575.1774931 0 -687772575.1774931 -2233134374.2494125 0 0 0 0 -852404344.07565308 -466163939.57579422 0 -466163939.57579422 -654176083.39928818 0 0 0 0 -297819468.98894501 -236530712.42343807 0 -236530712.42343807 -1127252334.2469177 0 0 0 0 -1586614500.3512878 -1256424176.5346527 0 -1256424176.5346527 -615157154.37541962 0 0 0 0 -716710579.50338745 -610282213.26512146 0 -610282213.26512146 -892015231.37312317 0 0 0 0 -1585038049.440979 -557812452.88340378 0 -557812452.88340378 -425572348.97998047 0 0 0 0 -1715161371.0496521 -974614340.75470257 0 -974614340.75470257 239060116.47912598 0 0 0 0 702595.96532037109 -1584036.6270115897 0 -1584036.6270115897 -230380.64102093503 0 0 0 0 -49725294.382049561 -283794605.10574341 0 -283794605.10574341 -706000303.08210754 0 0 0 0 -1442545386.1357117 -378510791.21201611 0 -378510791.21201611 210137005.27651978 0 0 0 0 -860779828.0190773 -130814325.70354939 0 -130814325.70354939 291739926.73925781 0 0 0 0 -1050850955.9039612 -657185016.59626007 0 -657185016.59626007 39726108.138549805 0 0 0 0 -1213778276.4722672 -907043773.23316956 0 -907043773.23316956 -196282045.32711792 0 0 0 0 -960299994.76364136 -507310650.21140671 0 -507310650.21140671 -607527088.37328339 0 0 0 0 -596388400.94967651 -433220460.31453323 0 -433220460.31453323 -139120092.31111145 0 0 0 0 -1050316370.6128407 -667868289.92363381 0 -667868289.92363381 241546157.76141357 0 0 0 0 -975616334.21490479 -945149413.90759468 0 -945149413.90759468 -293518428.23796844 0 0 0 0 -1246989294.7070312 -884383564.45402527 0 -884383564.45402527 139304789.31986237 0 0 0 0 -690801840.67565918 -524616579.56742096 0 -524616579.56742096 21038065.463088989 0 0 0 0 -217265249.01631165 -198113949.64782906 0 -198113949.64782906 -68023738.713012695 0 0 0 0 19302715.526916504 -154285060.19747162 0 -154285060.19747162 52969854.284561157 0 0 0 0 -689005490.64678955 -573060819.08008194 0 -573060819.08008194 165793191.57122803 0 0 0 0 -994683551.49749756 -746865911.19281006 0 -746865911.19281006 142590239.82513428 0 0 0 0 -8490137.6110137552 -2300630.6320950389 0 -2300630.6320950389 1766743.80035045 0 0 0 0 290832569.17170715 -484364277.75820541 0 -484364277.75820541 202358798.48115921 0 0 0 0 122064212.85250854 22670283.035453796 0 22670283.035453796 109051877.27507782 0 0 0 0 -613229829.8649292 -413428190.28897476 0 -413428190.28897476 -105951932.2416935 0 0 0 0 -1091861267.1260986 -376649666.88510513 0 -376649666.88510513 592604415.3637104 0 0 0 0 -4172260.2160506397 -680400.85213465244 0 -680400.85213465244 1328083.1655628569 0 0 0 0 20576664.500717163 -203736155.43998337 0 -203736155.43998337 86210801.132448196 0 0 0 0 300206278.85335541 -356824889.20557404 0 -356824889.20557404 -938840706.78824615 0 0 0 0 -507585575.29171753 -898305814.44782829 0 -898305814.44782829 -604912495.77965927 0 0 0 0 59600013.450195312 -577413756.99329185 0 -577413756.99329185 -452766347.54234314 0 0 0 0 -307655693.50700378 -165408864.60855103 0 -165408864.60855103 -108632794.84381104 0 0 0 0 -34306498.545593262 -311432216.75496674 0 -311432216.75496674 -120404045.84926224 0 0 0 0 198014582.8348999 -104465090.69540405 0 -104465090.69540405 -209766143.45983124 0 0 0 0 -817713396.40978241 98946728.337860107 0 98946728.337860107 -234234232.43533325 0 0 0 0 -498197095.76309204 -664485587.23719025 0 -664485587.23719025 -722327526.38568878 0 0 0 0 -289329066.69946289 -61523363.049545288 0 -61523363.049545288 -705243852.82794762 0 0 0 0 -1092829837.5893555 -463464026.90658188 0 -463464026.90658188 -48912214.698959351 0 0 0 0 -331395684.72097778 -152457245.45689392 0 -152457245.45689392 -129588963.171875 0 0 0 0 -276285826.46755981 93810126.662960052 0 93810126.662960052 -18711362.906814575 0 0 0 0 10452031.909912109 -43274483.792976379 0 -43274483.792976379 -261014174.0592804 0 0 0 0 -105537784.98995972 -26716965.444953918 0 -26716965.444953918 -3533602.421295166 0 0 0 0 134190043.58135986 -67193393.561668396 0 -67193393.561668396 94938739.264198303 0 0 0 0 51001270.587402344 82881308.704780579 0 82881308.704780579 -74961752.514602661 0 0 0 0 194847746.34471512 -93747467.840172768 0 -93747467.840172768 105306846.8656311 0 0 0 0 634924989.56219482 -198529478.59933472 0 -198529478.59933472 65370001.831954956 0 0 0 0 301757227.36053467 -109850990.57601929 0 -109850990.57601929 158387321.67001343 0 0 0 0 669407285.00091553 41372265.106819153 0 41372265.106819153 84620341.117721558 0 0 0 0 280389063.68907166 31982642.537596703 0 31982642.537596703 68779798.804199219 0 0 0 0 375596838.85235596 -161424205.01515198 0 -161424205.01515198 15379660.5768013 0 0 0 0 359711025.94067383 -66706451.045742035 0 -66706451.045742035 214166073.62805176 0 0 0 0 66201038.771911621 -171362480.31955719 0 -171362480.31955719 33110168.351127625 0 0 0 0 517432482.29626465 -64563643.905799866 0 -64563643.905799866 -179391926.94602966 0 0 0 0 287415166.62762451 -257397033.41468811 0 -257397033.41468811 -152494728.53871155 0 0 0 0 1242456.1678493284 -8699270.750725463 0 -8699270.750725463 -3236404.7292741984 0 0 0 0 146984119.61734009 -66589672.612411499 0 -66589672.612411499 40547229.757293701 0 0 0 0 550215925.4079895 -245244840.7537384 0 -245244840.7537384 -88803465.707454681 0 0 0 0 1476497.3647992238 -4890530.2759437412 0 -4890530.2759437412 -4347536.1804283261 0 0 0 0 3036444.827835083 -3113761.6809272766 0 -3113761.6809272766 488927.73921966553 0 0 0 0 417801.50717452168 -15747381.077774208 0 -15747381.077774208 -1200658.859577395 0 0 0 0 7218805.2031020075 -5957494.2121029273 0 -5957494.2121029273 -11255.904906462878 0 0 0 0 -16182748.754126996 -1817721.0583598539 0 -1817721.0583598539 2299678.4543364979 0 0 0 0 -8763920.3146360517 -25792660.993256859 0 -25792660.993256859 -597772.00623257458 0 0 0 0 -56738092.365875244 1236798.9979629517 0 1236798.9979629517 10438279.767303467 0 0 0 0 -39029892.623184204 -34074031.574023247 0 -34074031.574023247 40615800.989219666 0 0 0 0 -3233125.879238151 -2625207.7389975935 0 -2625207.7389975935 1065479.134886153 0 0 0 0 902270916.18862915 -133745497.97561646 0 -133745497.97561646 -37128408.466278076 0 0 0 0 19621750.87940979 -36454460.966442108 0 -36454460.966442108 -3722075.3231048584 0 0 0 0 13505976.352798462 -23262113.809692383 0 -23262113.809692383 -6286520.8892936707 0 0 0 0 -31334127.361251831 -30393997.319900513 0 -30393997.319900513 -1094531.057144165 0 0 0 0 -2533464.0930557251 -32587627.642557144 0 -32587627.642557144 -11366757.067779541 0 0 0 0 -2525483.998046875 -32181560.829843521 0 -32181560.829843521 -6900558.3975982666 0 0 0 0 -16150705.083251953 -23301988.94569397 0 -23301988.94569397 -5507000.2415618896 0 0 0 0 -13584386.470504761 -30708642.133213043 0 -30708642.133213043 -1021431.4491424561 0 0 0 0 -14528519.969573975 -39102691.5766716 0 -39102691.5766716 -13555225.009963989 0 0 0 0 -3630589.8719177246 -28370992.060596466 0 -28370992.060596466 -4803592.2821807861 0 0 0 0 -3648136.367980957 -27488873.602775574 0 -27488873.602775574 -9519788.4154968262 0 0 0 0 -3534365.2282867432 -28291746.990016937 0 -28291746.990016937 -6672009.3705596924 0 0 0 0 -2655912.0461120605 -28142537.963569641 0 -28142537.963569641 -14477217.155569077 0 0 0 0 10189163.106964111 -24498849.991355896 0 -24498849.991355896 1316207.0031814575 0 0 0 0 -18033551.346984863 -28935537.184616089 0 -28935537.184616089 -26478014.283508301 0 0 0 0 9980770.6810302734 -23079583.767250061 0 -23079583.767250061 -10529603.650749207 0 0 0 0 11267077.933639526 -24999615.141983032 0 -24999615.141983032 -7828130.9144439697 0 0 0 0 7743934.2779717892 -14991412.614185872 0 -14991412.614185872 -4105745.5150679424 0 0 0 0 12546563.295501709 -19800536.973434448 0 -19800536.973434448 -5836016.9815444946 0 0 0 0 -17871149.784378052 -29081372.536186218 0 -29081372.536186218 -26884940.595397949 0 0 0 0 9417997.1340884864 -27775080.560737383 0 -27775080.560737383 -2022677.5430768118 0 0 0 0 -7237056.3470458984 -70623996.26108551 0 -70623996.26108551 -42067119.441150188 0 0 0 0 -4043149.7720286399 -33527378.128294084 0 -33527378.128294084 2134460.4640380642 0 0 0 0 9355385.5796203613 10470555.164772034 0 10470555.164772034 -17449912.744641304 0 0 0 0 -3434688.3399810791 -35439049.668937683 0 -35439049.668937683 -465316.35015106201 0 0 0 0 14479153.721984863 -28371152.747161865 0 -28371152.747161865 -8255800.026802063 0 0 0 0 97688877.174316406 -904840.23345947266 0 -904840.23345947266 40035325.469299316 0 0 0 0 26583548.618413731 -16331795.733576922 0 -16331795.733576922 -10113416.399554968 0 0 0 0 74599163.645126343 -60714236.440265656 0 -60714236.440265656 -40154246.944290161 0 0 0 0 9227592.367089957 1556853.1973494776 0 1556853.1973494776 -5843808.4114643186 0 0 0 0 22093865.635681152 -16715302.915611267 0 -16715302.915611267 -11621477.351348877 0 0 0 0 -54284457.46875 81523920.44405365 0 81523920.44405365 -4120661.2006988525 0 0 0 0 6173397.1622428894 -10054744.556732178 0 -10054744.556732178 -3000202.6519393921 0 0 0 0 10442877.419006348 4258852.667514801 0 4258852.667514801 9754762.5353469849 0 0 0 0 6133551.3966317326 158555.84464780614 0 158555.84464780614 -3587831.0382230505 0 0 0 0 -6657516.2138671875 -17242244.041732788 0 -17242244.041732788 10633450.147916317 0 0 0 0 8402250.6876068115 -7264210.6928672791 0 -7264210.6928672791 -23109053.229415894 0 0 0 0 1134336.1804199219 -7167901.4374465942 0 -7167901.4374465942 -3407832.9788703918 0 0 0 0 3431990.765298225 -9862564.3539206386 0 -9862564.3539206386 1335736.8013469651 0 0 0 0 5390889.1725158691 -7382777.1112136841 0 -7382777.1112136841 -4118042.0489501953 0 0 0 0 16916830.137924194 -23617633.925922394 0 -23617633.925922394 16081830.545593262 0 0 0 0 15851433.563293457 -19229677.510940552 0 -19229677.510940552 -1989075.3319473267 0 0 0 0 24524495.807006836 -9798100.6483764648 0 -9798100.6483764648 7732927.9866638184 0 0 0 0 3137985.7493286133 -4475487.7177581787 0 -4475487.7177581787 1760866.5236525536 0 0 0 0 9273475.2521214485 -4215970.8371492736 0 -4215970.8371492736 -7570740.4194014985 0 0 0 0 152898420.51144409 -400170506.03073883 0 -400170506.03073883 237646406.34518433 0 0 0 0 3737589.4536183923 -3285106.8149678409 0 -3285106.8149678409 -2056508.0806015208 0 0 0 0 434893589.40222168 -355767138.65059662 0 -355767138.65059662 63043415.001792908 0 0 0 0 156518418.47166443 -59393671.488826752 0 -59393671.488826752 106528215.70181274 0 0 0 0 3619913.0724826753 -6133286.9544815868 0 -6133286.9544815868 707480.04768203944 0 0 0 0 -1699459.9911065251 -9203287.4737991765 0 -9203287.4737991765 1301246.1501353569 0 0 0 0 2275014.353729248 -8933609.2007789612 0 -8933609.2007789612 2299275.2945404053 0 0 0 0 3441002.9992696941 -5673380.9841485042 0 -5673380.9841485042 -2290897.7098294902 0 0 0 0 4077650.5073852539 -5109033.481048584 0 -5109033.481048584 -3601003.4261360168 0 0 0 0 3118939.5324554443 -6349242.3590564728 0 -6349242.3590564728 -3151851.6779327393 0 0 0 0 201957088.52569771 -39313693.141798496 0 -39313693.141798496 -163553404.17129517 0 0 0 0 218370355.73403168 -71877608.547439575 0 -71877608.547439575 -264978058.67606354 0 0 0 0 168265267.58580589 -265191379.39736938 0 -265191379.39736938 130529512.11734009 0 0 0 0 2481214.052816391 -98175623.005744934 0 -98175623.005744934 -17087497.161457062 0 0 0 0 28129043.567028046 -114565707.28160477 0 -114565707.28160477 -21244695.428263664 0 0 0 0 17892183.385843277 -86459637.781684875 0 -86459637.781684875 -94960502.534851074 0 0 0 0 -23465923.746646881 -71342248.952735901 0 -71342248.952735901 -29701637.233673096 0 0 0 0 9657483.884803772 -76671130.360370636 0 -76671130.360370636 -31619611.677032471 0 0 0 0 -3504892.0601482391 -100918627.79065514 0 -100918627.79065514 11132592.876106262 0 0 0 0 11465879.274739452 -30768296.746733524 0 -30768296.746733524 -6050153.6431600489 0 0 0 0 -29257969.434295654 -71337430.851860046 0 -71337430.851860046 -7973524.5874037743 0 0 0 0 -45578831.372241974 -45502892.985119581 0 -45502892.985119581 -10929237.987586975 0 0 0 0 -36203563.898738861 -55095406.103908539 0 -55095406.103908539 -16337104.690887451 0 0 0 0 17381091.670584038 -28793884.779951766 0 -28793884.779951766 -8161689.2494545653 0 0 0 0 -12586520.362075806 -32343269.981014252 0 -32343269.981014252 -14071727.368114471 0 0 0 0 -29816048.334823608 -49582591.769586563 0 -49582591.769586563 -7606281.8777313232 0 0 0 0 -24515864.24275589 -43010832.354727745 0 -43010832.354727745 6840168.8444976807 0 0 0 0 -3066624.4563586265 -36103370.028802454 0 -36103370.028802454 2157729.5383252664 0 0 0 0 12660271.738540649 -26547776.568599701 0 -26547776.568599701 -36780159.750940323 0 0 0 0 -21792739.16765213 -75522661.28653717 0 -75522661.28653717 13569863.752944946 0 0 0 0 19361255.365765981 -25295137.439980324 0 -25295137.439980324 1532788.3360129148 0 0 0 0 3645030.7973216623 -26509795.928459965 0 -26509795.928459965 -3230531.1950249597 0 0 0 0 918659.36395647377 -6274685.2163370177 0 -6274685.2163370177 -761387.51633247267 0 0 0 0 7002690.0338954926 -44292737.017081261 0 -44292737.017081261 -12308299.302993774 0 0 0 0 27432688.504810333 -74900868.43328476 0 -74900868.43328476 -19646542.496426582 0 0 0 0 43983230.618087769 -26419268.449756622 0 -26419268.449756622 -47916985.620941162 0 0 0 0 79305532.565120697 -30897295.250932693 0 -30897295.250932693 -53314491.749572754 0 0 0 0 153591015.6363802 -32539324.147931099 0 -32539324.147931099 -79927528.572380066 0 0 0 0 83144529.021400452 -141154066.46948814 0 -141154066.46948814 110909880.70937347 0 0 0 0 33465913.900806427 -77427455.604297638 0 -77427455.604297638 90469281.25592041 0 0 0 0 35942016.411117554 -16376279.457923889 0 -16376279.457923889 58967953.026741028 0 0 0 0 21944032.743309021 -49460781.971343994 0 -49460781.971343994 105160501.81349182 0 0 0 0 23693672.431099892 -45382415.278402328 0 -45382415.278402328 47412390.699630737 0 0 0 0 172087474.72613525 15903125.816425323 0 15903125.816425323 -122490654.50627136 0 0 0 0 8300396.2905119443 -6150593.9786311677 0 -6150593.9786311677 -2881005.6737710424 0 0 0 0 104278458.84637308 -42740501.173642874 0 -42740501.173642874 -34936045.928146362 0 0 0 0 109864664.42764282 -96920999.512001038 0 -96920999.512001038 38100807.596061707 0 0 0 0 54413474.778108597 -44014727.788864136 0 -44014727.788864136 -11565462.689147949 0 0 0 0 77989508.245557785 -31552718.579536438 0 -31552718.579536438 -43045935.291145325 0 0 0 0 71218296.562713623 -48409337.912528992 0 -48409337.912528992 -16036832.707824707 0 0 0 0 91229896.681148529 -25295620.50069046 0 -25295620.50069046 -40089206.745613098 0 0 0 0 46826871.504554749 -25647759.89484787 0 -25647759.89484787 -36533344.579162598 0 0 0 0 -20820091.012771606 -35977653.379920959 0 -35977653.379920959 -53737096.261672974 0 0 0 0 24740134.257125262 -24116140.032013416 0 -24116140.032013416 -395880.216040425 0 0 0 0 11781525.802457049 -37153270.121828243 0 -37153270.121828243 2470984.8747712411 0 0 0 0 37018895.757041842 -27700307.413586326 0 -27700307.413586326 -10021101.161031332 0 0 0 0 -57029076.946273804 -95883617.094947815 0 -95883617.094947815 -61177582.151405334 0 0 0 0 137004355.61993408 -543578060.53368378 0 -543578060.53368378 -208348255.74803162 0 0 0 0 845484371.02612305 320585643.10788345 0 320585643.10788345 80914335.083316803 0 0 0 0 -72754147.128387451 -73466471.867328644 0 -73466471.867328644 -195940500.00165939 0 0 0 0 327933226.18432617 415682138.69724274 0 415682138.69724274 -205020876.49947357 0 0 0 0 -366789548.67221069 42749492.408969879 0 42749492.408969879 233833584.10960293 0 0 0 0 -25833564.328811646 -88512587.46654892 0 -88512587.46654892 -44472189.600811005 0 0 0 0 380015598.62243652 -257859257.71444702 0 -257859257.71444702 -349039559.91381073 0 0 0 0 28002116.053407431 -23258257.117542651 0 -23258257.117542651 -6450676.1234917119 0 0 0 0 458098.61248956621 710453.30577743798 0 710453.30577743798 -462516.5363412681 0 0 0 0 -45994472.728271484 150285689.97795105 0 150285689.97795105 -36267448.77487278 0 0 0 0 -12820025.104553223 -43652387.68730545 0 -43652387.68730545 78250816.315093994 0 0 0 0 127218753.68408203 -38444902.256454468 0 -38444902.256454468 -18758033.046691895 0 0 0 0 5947411.629039079 3562927.6157985255 0 3562927.6157985255 -8179363.207287021 0 0 0 0 -3180015.784778595 -94756661.413493991 0 -94756661.413493991 -214933453.37226868 0 0 0 0 700974.51379394531 -48762902.401292801 0 -48762902.401292801 -188729480.34302521 0 0 0 0 6906803.714323774 -1463846.4709749669 0 -1463846.4709749669 -4267103.088888932 0 0 0 0 452915489.93805695 95113266.376424789 0 95113266.376424789 9916984.2397232056 0 0 0 0 -170040037.08602905 -214643705.04209518 0 -214643705.04209518 -138595446.41003609 0 0 0 0 -31541471.740112305 -131562326.07114744 0 -131562326.07114744 -271490818.91875458 0 0 0 0 -32957412.701774597 -139854423.30332947 0 -139854423.30332947 -123366965.7213974 0 0 0 0 -48907271.688537598 -238345450.36999893 0 -238345450.36999893 -293268452.42549133 0 0 0 0 -161447370.98895264 -497155754.27232361 0 -497155754.27232361 -208101196.72323418 0 0 0 0 115371534.61361694 -495191611.37879372 0 -495191611.37879372 -131808282.01920128 0 0 0 0 -55916641.609783173 -250046784.86858273 0 -250046784.86858273 131461828.95339966 0 0 0 0 496948323.32647705 -402717391.92261696 0 -402717391.92261696 -188178414.53858185 0 0 0 0 161528129.41726685 -55463310.248291016 0 -55463310.248291016 -95698999.052043915 0 0 0 0 -67020144.646740437 -353665415.64415723 0 -353665415.64415723 -191002887.93789673 0 0 0 0 2425820.669381693 -469968.27323139459 0 -469968.27323139459 -1596515.8400441296 0 0 0 0 138210158.02722168 -116627033.54281998 0 -116627033.54281998 -324037479.49348736 0 0 0 0 460167468.20358276 -470389494.28001499 0 -470389494.28001499 26876073.079376221 0 0 0 0 -501263906.53875732 -75338822.722320557 0 -75338822.722320557 88803147.806266785 0 0 0 0 -108051601.02923584 -7089751.2830657959 0 -7089751.2830657959 -35183497.946777344 0 0 0 0 -15516836.136810303 -184009491.64692879 0 -184009491.64692879 142022962.46134949 0 0 0 0 211939831.9206543 37081586.007514954 0 37081586.007514954 133512668.38608074 0 0 0 0 587503037.45037842 -259477084.16806221 0 -259477084.16806221 -20167855.834526062 0 0 0 0 177616508.75192261 -211338254.63905334 0 -211338254.63905334 117156566.50723267 0 0 0 0 -1274410.8242611438 -2522732.5966608003 0 -2522732.5966608003 -1534320.5649630558 0 0 0 0 -44206027.615783691 -46395333.114284515 0 -46395333.114284515 33943654.03194046 0 0 0 0 -168267086.2769165 737864.10387802124 0 737864.10387802124 16957275.113681793 0 0 0 0 -38443293.886199951 -7675376.7906017303 0 -7675376.7906017303 -46281653.005931854 0 0 0 0 -128565424.95272827 -69706642.8891716 0 -69706642.8891716 -5816167.1812286377 0 0 0 0 -65840485.587036133 27886113.877754211 0 27886113.877754211 43811789.460083008 0 0 0 0 -203592464.00604248 -35460796.520904541 0 -35460796.520904541 38275693.37130928 0 0 0 0 -349273034.16827393 -144348563.43471146 0 -144348563.43471146 -14398130.58493042 0 0 0 0 -164525390.27563477 -12967391.897132874 0 -12967391.897132874 -23532879.472946167 0 0 0 0 -154160742.82724762 -61329001.133644104 0 -61329001.133644104 -98945192.563354492 0 0 0 0 -209691939.92907715 -177101344.97775269 0 -177101344.97775269 -36439281.566410065 0 0 0 0 6198681.2304720134 -7003131.1859233268 0 -7003131.1859233268 -5244706.7350346949 0 0 0 0 9360872.5083770752 -12211398.944753855 0 -12211398.944753855 -10028711.407217503 0 0 0 0 34017665.593615845 -33202684.668401852 0 -33202684.668401852 -14943229.586066283 0 0 0 0 46751519.056594819 -39480165.877595894 0 -39480165.877595894 -29094435.080156915 0 0 0 0 -4245899.6821378805 -17955249.292247567 0 -17955249.292247567 -10233566.933441892 0 0 0 0 -359300525.91348267 -115943387.56506348 0 -115943387.56506348 30070717.706626892 0 0 0 0 -427202064.95050049 -55504938.012004852 0 -55504938.012004852 -23509425.686355591 0 0 0 0 -22734334.794689178 -34512110.097350121 0 -34512110.097350121 -21036690.088123322 0 0 0 0 -336488866.88708496 -137828194.0363884 0 -137828194.0363884 80166383.256481171 0 0 0 0 -327584121.50976562 -114871808.09720612 0 -114871808.09720612 -78597115.750053406 0 0 0 0 -35791818.27331543 -32220121.434638977 0 -32220121.434638977 -16218754.290252686 0 0 0 0 -562552282.93597412 -327461655.43745422 0 -327461655.43745422 -16336120.125350952 0 0 0 0 27126607.905187063 -37801382.211856864 0 -37801382.211856864 -12414895.638233587 0 0 0 0 -1421855.0662205964 -36042235.269107103 0 -36042235.269107103 4606138.0760570988 0 0 0 0 37311521.100852966 -28483366.029903412 0 -28483366.029903412 24281097.802688599 0 0 0 0 31066311.389000971 -16975106.098214559 0 -16975106.098214559 -14190167.874586172 0 0 0 0 -52423584.002258301 -385392724.37272453 0 -385392724.37272453 -700917420.56454468 0 0 0 0 61662121.936843872 -358313637.27296448 0 -358313637.27296448 -926194846.69167328 0 0 0 0 -300555845.36709595 -1042320055.352581 0 -1042320055.352581 -2006893863.9971275 0 0 0 0 -1961810857.0411072 -252104420.26078987 0 -252104420.26078987 -664411613.29950714 0 0 0 0 62239446.776855469 230227284.5618248 0 230227284.5618248 -983557378.82499886 0 0 0 0 785863.69812221453 -3050808.7661333829 0 -3050808.7661333829 -1938704.6075854488 0 0 0 0 -1931037456.5727234 -362668645.02297211 0 -362668645.02297211 -62282235.780258179 0 0 0 0 -87674.234120503068 -1228996.1722962223 0 -1228996.1722962223 324004.1945358403 0 0 0 0 7524003.1738518625 -2663170.7796210777 0 -2663170.7796210777 -2816836.1352184573 0 0 0 0 4028798.8246765137 -10432547.439472198 0 -10432547.439472198 -7638345.2843017578 0 0 0 0 -232275553.81455994 109383880.39416313 0 109383880.39416313 64072601.366542816 0 0 0 0 -60102383.682434082 -125686879.24466705 0 -125686879.24466705 -237604505.62252045 0 0 0 0 7867741.7844488025 -2693703.2705823639 0 -2693703.2705823639 -1767095.7061665682 0 0 0 0 4009586.0385437012 -25584811.692901611 0 -25584811.692901611 -36075701.817436218 0 0 0 0 8754291.1419547796 -2488685.4361327821 0 -2488685.4361327821 -1633797.234611935 0 0 0 0 134014877.84030151 -28114366.104064941 0 -28114366.104064941 -34226239.420715332 0 0 0 0 -64418285.905151367 -40069499.201210022 0 -40069499.201210022 -92303539.673769951 0 0 0 0 16124443.820800781 24678689.129470825 0 24678689.129470825 -28988321.910797119 0 0 0 0 1457292.5365600586 29641588.779060364 0 29641588.779060364 -30375001.759063721 0 0 0 0 1722638.2108538002 76762.189038962126 0 76762.189038962126 -968894.3374210149 0 0 0 0 -32389513.861816406 -2766019.896697998 0 -2766019.896697998 -15069557.880718231 0 0 0 0 12661646.642425537 -30774660.874458313 0 -30774660.874458313 -278542126.01207733 0 0 0 0 -61737077.47177124 -188746052.37847519 0 -188746052.37847519 -338734248.09426689 0 0 0 0 -53287986.506561279 -86010954.70646286 0 -86010954.70646286 -210167104.31337738 0 0 0 0 77843887.780312538 -131987485.01851487 0 -131987485.01851487 -424087717.68647766 0 0 0 0 -214314363.20629883 -467704639.32595253 0 -467704639.32595253 -600665896.68353844 0 0 0 0 -145302868.12954712 -313698855.68025589 0 -313698855.68025589 -391462149.308918 0 0 0 0 -145545400.2365036 -192488278.25464487 0 -192488278.25464487 -285816078.8687973 0 0 0 0 -451838832.09182739 -231991785.30071449 0 -231991785.30071449 -355187929.55852318 0 0 0 0 -631696893.86956406 -678250257.36179781 0 -678250257.36179781 -356477768.45850372 0 0 0 0 -232793616.33453369 -839469044.90536213 0 -839469044.90536213 -388566042.75865173 0 0 0 0 -223649249.16732788 -795841154.28258038 0 -795841154.28258038 -859621764.51699829 0 0 0 0 -166071129.82397461 -623871130.46488571 0 -623871130.46488571 -361264287.86529922 0 0 0 0 -738361512.82455444 -653290295.18841457 0 -653290295.18841457 -269110659.47272873 0 0 0 0 -475892252.13656616 -572420491.37000847 0 -572420491.37000847 -603403750.63903618 0 0 0 0 -463516323.53715515 -121196380.26248837 0 -121196380.26248837 524630060.28463745 0 0 0 0 148091706.60354614 -296924721.32998848 0 -296924721.32998848 -241708835.9537586 0 0 0 0 -4049356.8143060207 1528132.7204892598 0 1528132.7204892598 1085120.9645286072 0 0 0 0 43189799.091659546 -50977325.832692146 0 -50977325.832692146 38907693.133522034 0 0 0 0 -61897951.453094482 -412267897.39524078 0 -412267897.39524078 650626871.76872826 0 0 0 0 61210945.304199219 4495076.2340040207 0 4495076.2340040207 -24392082.33467865 0 0 0 0 1752123.6348442286 1110339.9494413435 0 1110339.9494413435 -2137347.5929904259 0 0 0 0 2372794.5588989258 -11163637.961118698 0 -11163637.961118698 1343381.0576992035 0 0 0 0 -266824630.79063416 -126640613.52715683 0 -126640613.52715683 -58323852.930002213 0 0 0 0 21914014.473251343 52523872.69587326 0 52523872.69587326 -82145218.133083344 0 0 0 0 86287447.247673035 -25655637.40352869 0 -25655637.40352869 -91708264.022502899 0 0 0 0 -397063764.9289856 30509247.579774857 0 30509247.579774857 89636899.981545448 0 0 0 0 -1961245.4268318564 786427.96660660207 0 786427.96660660207 605012.30463940185 0 0 0 0 -811241998.72651672 -447152668.95604897 0 -447152668.95604897 -101802827.67134476 0 0 0 0 -320251244.07907104 -618710472.45664215 0 -618710472.45664215 -573902414.65530205 0 0 0 0 -206261137.4304657 -428313752.6254921 0 -428313752.6254921 -265559905.08042908 0 0 0 0 -250556935.40200806 -533923494.80504036 0 -533923494.80504036 -315482321.92120743 0 0 0 0 -322002364.17694092 -438367453.99886799 0 -438367453.99886799 -427346089.1964798 0 0 0 0 -210763736.68426514 -164041377.42776012 0 -164041377.42776012 -58109689.471173763 0 0 0 0 1152160.7738700807 1522069.8314209729 0 1522069.8314209729 -1456531.6168992422 0 0 0 0 -58737368.99911499 -91184870.946575165 0 -91184870.946575165 196515047.66548252 0 0 0 0 554232.59382808208 957541.04955094866 0 957541.04955094866 -694471.00740663614 0 0 0 0 -31478405.547145844 3857013.1058542728 0 3857013.1058542728 526965331.02386856 0 0 0 0 -170558253.95051575 -586100509.24014091 0 -586100509.24014091 -674453116.70629692 0 0 0 0 23864353.775177002 -301160183.29918194 0 -301160183.29918194 278101639.2691288 0 0 0 0 -98513069.932403564 -232187983.74699688 0 -232187983.74699688 65730020.99550581 0 0 0 0 -33432891.240890503 -247999417.85075426 0 -247999417.85075426 -205416007.62521362 0 0 0 0 -67668340.510787964 -194615488.8370142 0 -194615488.8370142 -107499351.34417534 0 0 0 0 -14065220.22310257 -161954379.1378088 0 -161954379.1378088 -152524343.27619362 0 0 0 0 17713783.014801025 -56641250.79199028 0 -56641250.79199028 7180313.1612644196 0 0 0 0 -7102409.3986941725 -7610692.8262071535 0 -7610692.8262071535 -3226617.3106991164 0 0 0 0 -112655711.62597322 -69582244.572332561 0 -69582244.572332561 -22838596.83177948 0 0 0 0 -120496368.0826416 -64397955.312911034 0 -64397955.312911034 -25916715.670127869 0 0 0 0 -112017129.93791652 -35507169.06280908 0 -35507169.06280908 -17561826.939346313 0 0 0 0 46016559.830521405 -22176832.577905506 0 -22176832.577905506 -16221827.242030881 0 0 0 0 -133409382.73524475 -38017764.075866699 0 -38017764.075866699 -17852597.893115997 0 0 0 0 -250364214.05059814 -280677023.23408794 0 -280677023.23408794 -164171252.50734329 0 0 0 0 -245768703.74304199 -335535722.58246136 0 -335535722.58246136 -142152115.63380051 0 0 0 0 -159862514.78936768 -514430497.7755661 0 -514430497.7755661 -157701588.35766315 0 0 0 0 -15751309.642608643 -399967830.33923817 0 -399967830.33923817 -287062585.54742432 0 0 0 0 277511787.95547485 -196868891.76179409 0 -196868891.76179409 -228783410.14627457 0 0 0 0 -116538015.95661926 -253002301.86556721 0 -253002301.86556721 -229078388.28794098 0 0 0 0 -97309852.85949707 -462926958.17450905 0 -462926958.17450905 -264931028.79685545 0 0 0 0 -6643711.0148925781 -366482201.78050613 0 -366482201.78050613 -247895869.01573944 0 0 0 0 -209990958.74594116 -620908517.32221031 0 -620908517.32221031 -367651621.92989492 0 0 0 0 -151461265.3540802 -409364832.85721016 0 -409364832.85721016 -308653750.92602539 0 0 0 0 -32852462.226577759 -398859686.12833142 0 -398859686.12833142 -57355569.935417175 0 0 0 0 -25856086.041538239 -423730500.4364171 0 -423730500.4364171 27147812.47659874 0 0 0 0 -268235121.73388672 -468079914.83876133 0 -468079914.83876133 7685983.7278995514 0 0 0 0 -275512796.65484619 -398009203.68512726 0 -398009203.68512726 611933.64403152466 0 0 0 0 -223958886.1361084 -408509820.40734196 0 -408509820.40734196 -24419103.8491745 0 0 0 0 -213126415.26535797 -390183678.89406443 0 -390183678.89406443 -100459327.90486908 0 0 0 0 -412518459.63574219 -385450753.47435284 0 -385450753.47435284 9825990.4677886963 0 0 0 0 -388006343.65748596 -267468738.89913988 0 -267468738.89913988 9162076.0617027283 0 0 0 0 -733105224.78720093 -224805273.25701141 0 -224805273.25701141 138737925.07401848 0 0 0 0 -457321844.26730347 -230112163.73039436 0 -230112163.73039436 98275363.779503822 0 0 0 0 -486401205.12945938 -116475514.23615932 0 -116475514.23615932 -20304581.294656754 0 0 0 0 -268480419.64143372 -11365576.644721985 0 -11365576.644721985 15363446.623575211 0 0 0 0 -333023193.21622086 -148954810.22271347 0 -148954810.22271347 -13440398.285194397 0 0 0 0 -358509800.27905273 -233463940.36983299 0 -233463940.36983299 -81324556.564918518 0 0 0 0 -21558451.299346358 -13952331.301844992 0 -13952331.301844992 -2745845.3179573659 0 0 0 0 -2786009.1013958156 -12261399.204203978 0 -12261399.204203978 3165818.1077285968 0 0 0 0 8812903.4521797746 -17639972.942706697 0 -17639972.942706697 -23595097.337760221 0 0 0 0 183855078.24719238 -110018075.62249374 0 -110018075.62249374 -111438852.36009979 0 0 0 0 11944976.727600098 -11775183.490634918 0 -11775183.490634918 6127407.0248413086 0 0 0 0 -751767638.04601669 -55008061.849962234 0 -55008061.849962234 -334633943.07360458 0 0 0 0 106444013.07662964 87842533.678955078 0 87842533.678955078 542124639.6891098 0 0 0 0 -12628053.214419775 -5226173.6125864983 0 -5226173.6125864983 12090122.11225974 0 0 0 0 -1744059423.1125183 86156747.247892499 0 86156747.247892499 261014297.07423949 0 0 0 0 -1943066010.8256836 -301835649.22935581 0 -301835649.22935581 23045523.369403839 0 0 0 0 -835927715.93243408 959834657.30856705 0 959834657.30856705 -1330567362.8316813 0 0 0 0 -1059073093.1435966 81630346.042631149 0 81630346.042631149 195988336.90782166 0 0 0 0 -11814783.759019364 -11309981.780543663 0 -11309981.780543663 20411542.441248864 0 0 0 0 -725439543.9592762 126511409.16300505 0 126511409.16300505 195168619.72605133 0 0 0 0 -691173365.03898621 -204686750.82238185 0 -204686750.82238185 124016950.7984581 0 0 0 0 -1017660143.1964378 -271945470.04257596 0 -271945470.04257596 111958843.8303566 0 0 0 0 -1191545151.9726562 -164353152.40048027 0 -164353152.40048027 47645167.20136261 0 0 0 0 -893562769.71798706 -701218079.33287907 0 -701218079.33287907 -234751700.86898041 0 0 0 0 -655219524.06906128 -436353502.91982603 0 -436353502.91982603 17324079.385475159 0 0 0 0 -553727854.73064423 -536507638.89836764 0 -536507638.89836764 31520690.583848953 0 0 0 0 -3164116.5311430991 856089.17069020495 0 856089.17069020495 476009.03635480942 0 0 0 0 -1869245116.73172 228827501.19562316 0 228827501.19562316 1727649140.3981478 0 0 0 0 -532684399.07666016 -737459974.75235462 0 -737459974.75235462 -648536726.73646545 0 0 0 0 -1495501833.9365234 -788811674.12903595 0 -788811674.12903595 -247375124.19608498 0 0 0 0 -11006598.586395264 -477542698.17984581 0 -477542698.17984581 -549819853.15252113 0 0 0 0 57290329.797702789 -119733347.19844878 0 -119733347.19844878 100091293.5928421 0 0 0 0 78346546.84274292 -217335408.47047281 0 -217335408.47047281 129677172.21419334 0 0 0 0 13982004.373260498 -432462965.25474644 0 -432462965.25474644 -145696572.19735241 0 0 0 0 -2859257.2241668701 -256147052.62596202 0 -256147052.62596202 451699861.91383028 0 0 0 0 -5160292.0236123502 408095.04528020602 0 408095.04528020602 551255.83407336473 0 0 0 0 -468653685.6339035 -1214696249.3893306 0 -1214696249.3893306 780113586.69008219 0 0 0 0 -114312132.89796448 -673346401.33536983 0 -673346401.33536983 25133185.399654627 0 0 0 0 -14807114.967529297 -1283829156.9443762 0 -1283829156.9443762 -1016584721.7629681 0 0 0 0 -583623333.98501587 -846437278.6042881 0 -846437278.6042881 -1102841213.2050984 0 0 0 0 -1197394411.4486847 -316591058.32347786 0 -316591058.32347786 -228787723.39827216 0 0 0 0 -1835476667.870575 -415069366.19145203 0 -415069366.19145203 -1289040091.0804582 0 0 0 0 -2039033521.5454712 -1014720564.2895775 0 -1014720564.2895775 -805294440.02397776 0 0 0 0 606497474.30729675 -549878434.98949945 0 -549878434.98949945 -202510578.52361155 0 0 0 0 -1365079546.3024292 813065336.82506871 0 813065336.82506871 1134223144.8913569 0 0 0 0 -1594513999.3572998 314942225.93084598 0 314942225.93084598 -135971706.55651188 0 0 0 0 -2020173096.5110474 56157787.067042589 0 56157787.067042589 454129126.42622757 0 0 0 0 -2572358805.1620178 762401687.17764235 0 762401687.17764235 -65955769.284182549 0 0 0 0 149418.21996256709 -3376958.4112411886 0 -3376958.4112411886 -6086214.4035266042 0 0 0 0 -4536514366.8197632 183541896.55421734 0 183541896.55421734 -612914581.62034035 0 0 0 0 -2357139681.9595947 437175431.16511822 0 437175431.16511822 343338512.56996775 0 0 0 0 -2227477955.9788513 1049294776.6175878 0 1049294776.6175878 -600547970.38475609 0 0 0 0 -1860323917.6991272 694755953.70807505 0 694755953.70807505 -567020652.32237434 0 0 0 0 -435873803.30399323 705324866.28048468 0 705324866.28048468 -1040237571.0553398 0 0 0 0 -177563268.33059692 755966226.22784042 0 755966226.22784042 549900170.12092638 0 0 0 0 5714900.6044818088 -1443281.3227420971 0 -1443281.3227420971 -278276.95943715796 0 0 0 0 -258752530.32723999 674253274.05848312 0 674253274.05848312 -1661159930.0246239 0 0 0 0 -74504368.620056152 279402621.75380707 0 279402621.75380707 -607858441.28549194 0 0 0 0 -149627912.53161621 574857217.10865211 0 574857217.10865211 -1119967812.1830978 0 0 0 0 -254727771.12359619 468044915.96117783 0 468044915.96117783 -838156479.88248444 0 0 0 0 -403241757.27770996 629776744.38670349 0 629776744.38670349 -641896842.26747894 0 0 0 0 -410456458.47088623 418216049.56845093 0 418216049.56845093 -94231855.701782227 0 0 0 0 -549320916.72277832 577721637.89494705 0 577721637.89494705 -8704213.8160400391 0 0 0 0 -459661825.9881897 688413278.6740551 0 688413278.6740551 -257812026.36309814 0 0 0 0 -11389126.903001573 -12979398.751026876 0 -12979398.751026876 9414473.8446398601 0 0 0 0 430026573.43530273 -375048395.31763649 0 -375048395.31763649 -268104812.52714539 0 0 0 0 53821252.930282593 -2937390.4938175678 0 -2937390.4938175678 -10290999.902765274 0 0 0 0 -1612293825.6245422 396006699.0949192 0 396006699.0949192 737349446.65509939 0 0 0 0 1970197.8558138534 -10827477.200630039 0 -10827477.200630039 -16124910.297559505 0 0 0 0 -307169727.7270813 -733605766.73968124 0 -733605766.73968124 62300331.2164011 0 0 0 0 -433454923.40498352 -822428551.08114767 0 -822428551.08114767 -167614573.84734654 0 0 0 0 18530676.607345581 -726726464.55583978 0 -726726464.55583978 -1054570393.5136361 0 0 0 0 68585309.384788513 -538925661.86087894 0 -538925661.86087894 -463021171.63939285 0 0 0 0 -41950833.230499268 -448505407.20097637 0 -448505407.20097637 -462970942.56547928 0 0 0 0 -209161712.61727905 -449573058.10927677 0 -449573058.10927677 -151838731.85270023 0 0 0 0 -105489435.47018433 -290137458.0106163 0 -290137458.0106163 -1947997.2804670334 0 0 0 0 -16877841.453872681 -307253967.02489042 0 -307253967.02489042 -49055583.526767731 0 0 0 0 4613306.2589111328 -217002135.0791378 0 -217002135.0791378 135459920.86528206 0 0 0 0 129443518.71434021 -148522965.36985946 0 -148522965.36985946 172146585.96811867 0 0 0 0 168545751.84436035 -240402903.47582698 0 -240402903.47582698 126716302.18391228 0 0 0 0 -295686394.03727722 -410039111.38247275 0 -410039111.38247275 908900697.88319874 0 0 0 0 -2132698.9895387739 211174.72847134899 0 211174.72847134899 160211.99533107458 0 0 0 0 279046509.28181458 -1127457138.5424364 0 -1127457138.5424364 -1928723508.5456586 0 0 0 0 164052757.84798431 -967599097.65852284 0 -967599097.65852284 -977590508.64165604 0 0 0 0 84662305.195617676 -1039808222.2072744 0 -1039808222.2072744 -1011961321.9450433 0 0 0 0 -311588053.21539307 -789908540.92802942 0 -789908540.92802942 -807581822.00606728 0 0 0 0 224052247.34430695 -278232234.98897552 0 -278232234.98897552 -967473036.53722286 0 0 0 0 104718837.17609406 -262632071.10861856 0 -262632071.10861856 -634553717.12828493 0 0 0 0 -7316531.7745361328 -297363267.03703785 0 -297363267.03703785 -509143407.95088041 0 0 0 0 -278606316.87371826 -325029085.09218556 0 -325029085.09218556 -504627113.73347771 0 0 0 0 -116539122.7011261 -381254148.79088712 0 -381254148.79088712 -538684139.32643986 0 0 0 0 62498952.007545471 -309490997.72702241 0 -309490997.72702241 -673110810.75476789 0 0 0 0 -3019643.0086898804 -442621385.09990752 0 -442621385.09990752 -510677563.85982895 0 0 0 0 43641283.718444824 -463116336.44125748 0 -463116336.44125748 -672104085.93544197 0 0 0 0 -9240125.3558082581 -428262175.23987281 0 -428262175.23987281 -525983161.62123489 0 0 0 0 -7326988.4465484619 -390989847.04942226 0 -390989847.04942226 -495623535.98975563 0 0 0 0 -8311095.0192871094 -396576516.03007698 0 -396576516.03007698 -516752052.64517665 0 0 0 0 -35388692.991203308 -423952234.05131817 0 -423952234.05131817 -371254075.70627403 0 0 0 0 -76576933.895324707 -534833890.29865456 0 -534833890.29865456 -686061523.3280983 0 0 0 0 -13625041.269775391 -397190311.06163025 0 -397190311.06163025 -674346384.814538 0 0 0 0 -34044585.371780396 -388928945.02941322 0 -388928945.02941322 -752657020.0656743 0 0 0 0 -11688256.913375854 -409435488.3358345 0 -409435488.3358345 -600829007.34111595 0 0 0 0 2409457.6728515625 -386249148.43221092 0 -386249148.43221092 -563003018.77951562 0 0 0 0 -43882188.938690186 -464500509.78027678 0 -464500509.78027678 -562441179.67777097 0 0 0 0 -48911655.671539307 -457774801.88834715 0 -457774801.88834715 -532603702.62975359 0 0 0 0 -67728355.432312012 -505234363.29014492 0 -505234363.29014492 -587898834.01241922 0 0 0 0 -116652926.59657288 -420631903.38449883 0 -420631903.38449883 -384613569.64824867 0 0 0 0 -57173596.214698792 -478235386.94259238 0 -478235386.94259238 -518549787.65093136 0 0 0 0 -95582564.638549805 -436077538.34840345 0 -436077538.34840345 -410507032.37623692 0 0 0 0 9572089.3166351318 -286912838.47950536 0 -286912838.47950536 -557223511.13197935 0 0 0 0 -29759341.164138794 -199487194.0514434 0 -199487194.0514434 -189509879.45655 0 0 0 0 -171713769.37127686 -291963695.85532951 0 -291963695.85532951 -140715185.77109933 0 0 0 0 -119339788.71934509 -171622860.8933177 0 -171622860.8933177 -147995440.78665447 0 0 0 0 -154082619.48138428 -246750066.30113602 0 -246750066.30113602 -189648345.57441902 0 0 0 0 -240705860.5896225 -230637412.57444131 0 -230637412.57444131 -200417653.07410431 0 0 0 0 -203502860.43302155 -330773333.81215811 0 -330773333.81215811 -328122871.00509262 0 0 0 0 -77194942.819152832 -382718190.49405003 0 -382718190.49405003 -411935019.17387295 0 0 0 0 -63159414.03729248 -431551485.82684469 0 -431551485.82684469 -384678594.17850256 0 0 0 0 -25426289.202133179 -394694425.00906396 0 -394694425.00906396 -412094005.5160675 0 0 0 0 9088399.0857391357 -14959311.208568335 0 -14959311.208568335 -1848409.3679368496 0 0 0 0 -274080086.68984985 -124810413.16274452 0 -124810413.16274452 -120253096.34776306 0 0 0 0 -502354629.52059937 -83914550.921361923 0 -83914550.921361923 -93506377.869381428 0 0 0 0 -306378990.96353149 -176446264.01484728 0 -176446264.01484728 65209170.575128198 0 0 0 0 -310823226.64355469 -228768285.73233509 0 -228768285.73233509 -164451800.66640759 0 0 0 0 -460447378.96835327 -227390050.01280499 0 -227390050.01280499 -168849925.87916279 0 0 0 0 -307863285.90066338 -179686935.07685557 0 -179686935.07685557 -154620412.96110916 0 0 0 0 261751746.25762939 -59443900.977985859 0 -59443900.977985859 5379208.9999786615 0 0 0 0 -663396799.32064819 -245368282.61078453 0 -245368282.61078453 -8220024.4933280945 0 0 0 0 567748.94505310059 -481123011.28322172 0 -481123011.28322172 198888354.01374054 0 0 0 0 695318.51249971613 -2103596.5393592417 0 -2103596.5393592417 -177841.26454989612 0 0 0 0 -460520196.33111572 -364859580.78836441 0 -364859580.78836441 19207526.606962204 0 0 0 0 -199308217.89944458 -428708766.54603004 0 -428708766.54603004 -284199866.86672604 0 0 0 0 215721752.02566528 -428944497.64638901 0 -428944497.64638901 -284604414.58041763 0 0 0 0 -161005181.90322876 -611535806.89333725 0 -611535806.89333725 33841980.127666473 0 0 0 0 -184658933.27282715 -586933843.30878448 0 -586933843.30878448 -307437133.23558772 0 0 0 0 -327629031.04315186 -372100333.89312172 0 -372100333.89312172 -304979404.38210213 0 0 0 0 -377192962.89848328 -306113440.03799129 0 -306113440.03799129 -95220733.035751343 0 0 0 0 -371133002.83511353 -341222215.71903324 0 -341222215.71903324 -275932238.43280888 0 0 0 0 -379214700.89350128 -506633901.56326771 0 -506633901.56326771 -372777090.85818863 0 0 0 0 -259654258.40337372 -401183156.42000198 0 -401183156.42000198 -641535078.23541069 0 0 0 0 -491324961.11181641 -422371066.24520683 0 -422371066.24520683 -642126820.84455311 0 0 0 0 -346418.84451293945 -472096135.88802624 0 -472096135.88802624 -794339664.36202431 0 0 0 0 -215027771.03717041 -497434388.13848019 0 -497434388.13848019 -482473939.91343117 0 0 0 0 -191963310.1890564 -464317053.07137108 0 -464317053.07137108 -510636842.39199162 0 0 0 0 -170515535.39752197 -425965654.94402361 0 -425965654.94402361 -474383283.43804359 0 0 0 0 -301676170.13217163 -370570925.47450829 0 -370570925.47450829 -311505083.43829823 0 0 0 0 -283241440.82318115 -341178204.55169964 0 -341178204.55169964 -341610604.69666862 0 0 0 0 -298045163.59033203 -496683141.05568886 0 -496683141.05568886 -479275708.2658205 0 0 0 0 -351150361.9677124 -408329104.36340904 0 -408329104.36340904 -714938982.61488152 0 0 0 0 -262166358.94758606 -495002285.57897663 0 -495002285.57897663 -697831188.88240433 0 0 0 0 -350066266.79394531 -543877697.31716156 0 -543877697.31716156 -691537756.68343687 0 0 0 0 -197259527.10897827 -508502180.46088886 0 -508502180.46088886 -686121720.03879547 0 0 0 0 -76686998.022735596 -517559502.75936079 0 -517559502.75936079 -1132758405.9808617 0 0 0 0 -36269925.53755188 -300107747.33781719 0 -300107747.33781719 -2377005474.287735 0 0 0 0 -2510520.0456225872 530883.78260800987 0 530883.78260800987 366691.18755008467 0 0 0 0 -41828155.960159302 -137587372.59252214 0 -137587372.59252214 -933140910.10813713 0 0 0 0 2088966.3183441162 -114299856.46949863 0 -114299856.46949863 -1019618968.5520592 0 0 0 0 -18052815.041503906 -353371309.19231606 0 -353371309.19231606 -1091682099.4787769 0 0 0 0 -261095256.99960327 -494288131.75485611 0 -494288131.75485611 -1033203075.1268539 0 0 0 0 -681202812.91442871 -700848367.85954857 0 -700848367.85954857 -1090483799.4751368 0 0 0 0 -457034707.63412476 -189211340.33890343 0 -189211340.33890343 -1119994010.8137736 0 0 0 0 301117.17300415039 -288063098.99414635 0 -288063098.99414635 -1449115796.2840099 0 0 0 0 -393127466.30575562 -797149879.13694191 0 -797149879.13694191 -867993973.66117668 0 0 0 0 -582886273.24196625 -330050769.2436552 0 -330050769.2436552 1890180.6037368774 0 0 0 0 -295827983.79820251 -61584544.799003601 0 -61584544.799003601 -34668042.617134094 0 0 0 0 1130378.7271867096 1928715.2922167908 0 1928715.2922167908 -1452800.2952353964 0 0 0 0 -10550938.178421021 -215392225.3985014 0 -215392225.3985014 -509290738.50053024 0 0 0 0 -541888.31901550293 -117065240.67077827 0 -117065240.67077827 -153768451.42136574 0 0 0 0 -6046120.6749688685 -117027.15137482435 0 -117027.15137482435 465737.66746624652 0 0 0 0 -35255967.964996338 19410001.406179428 0 19410001.406179428 6333879.4164276123 0 0 0 0 69738224.653831482 -86556005.108177662 0 -86556005.108177662 63353806.929603577 0 0 0 0 -295654639.75738525 -51656283.467533112 0 -51656283.467533112 201245093.18225098 0 0 0 0 126510968.53295135 -9589020.9901638031 0 -9589020.9901638031 -111155149.02597809 0 0 0 0 -20671039.742370605 -86821664.498142242 0 -86821664.498142242 -230211937.74723625 0 0 0 0 14999957.066833496 55921557.708625793 0 55921557.708625793 -76854768.393956184 0 0 0 0 -29622299.380729675 -20139592.38487339 0 -20139592.38487339 24275724.42848587 0 0 0 0 82216977.163208008 8561186.12266922 0 8561186.12266922 -52344092.105762482 0 0 0 0 12373632.121704102 -23277472.021003723 0 -23277472.021003723 -60233425.077880859 0 0 0 0 2318821.6524430364 2745504.7795488331 0 2745504.7795488331 -3241301.4936074158 0 0 0 0 -19148980.962898254 -28479818.93210125 0 -28479818.93210125 -2826895.9967803955 0 0 0 0 1963049.3081473261 -418978.35588878579 0 -418978.35588878579 -4281084.1991412751 0 0 0 0 34438458.689300537 164045108.57136154 0 164045108.57136154 348319325.54225922 0 0 0 0 20120222.618309021 -37818175.281673431 0 -37818175.281673431 -27586660.693424225 0 0 0 0 -37429981.644714355 -82127384.827856064 0 -82127384.827856064 -381517931.79994011 0 0 0 0 -14572731.762939453 -5483490.9247894287 0 -5483490.9247894287 4856164.2233047485 0 0 0 0 -7887883.868439585 -2467619.5729622841 0 -2467619.5729622841 -88940.576017186046 0 0 0 0 7871451.8139038086 -59767409.163879395 0 -59767409.163879395 -415087732.27490234 0 0 0 0 174116328.75366211 28208682.054512024 0 28208682.054512024 239571023.20587921 0 0 0 0 1471239.980584383 271889.68326068856 0 271889.68326068856 -4485445.1055928711 0 0 0 0 227421.6884765625 -389653.23234558105 0 -389653.23234558105 -2721708.0096893311 0 0 0 0 5223249.3518341482 -2858787.7824215554 0 -2858787.7824215554 -6416971.5712158009 0 0 0 0 6903436.6953125 244246711.93772125 0 244246711.93772125 355558259.78202438 0 0 0 0 175198492.71026611 134964545.30794144 0 134964545.30794144 329586169.61250305 0 0 0 0 69565865.458251953 117354344.776474 0 117354344.776474 357849201.41903687 0 0 0 0 60081373.157409668 249088659.11177826 0 249088659.11177826 344267998.88860321 0 0 0 0 158484116.90719604 89194236.116697311 0 89194236.116697311 336072946.95562744 0 0 0 0 8858231.1688184589 1275920.0932946391 0 1275920.0932946391 -8263611.4987612255 0 0 0 0 134100478.63409424 137499849.82372284 0 137499849.82372284 353527670.50319672 0 0 0 0 34597198.342224121 160471965.52114105 0 160471965.52114105 312188220.9069767 0 0 0 0 929781.08676147461 184685958.31175995 0 184685958.31175995 340015590.12965393 0 0 0 0 60044741.374328613 219751073.48488617 0 219751073.48488617 281916506.37802887 0 0 0 0 -78305102.233398438 172772692.95237732 0 172772692.95237732 317942466.03656006 0 0 0 0 -100869605.00531006 -91354959.124523163 0 -91354959.124523163 678300526.79664183 0 0 0 0 -79973048.022094727 208804247.98808289 0 208804247.98808289 303369698.06221008 0 0 0 0 -188516359.36737061 27342537.552341461 0 27342537.552341461 689686822.66382217 0 0 0 0 -3355277.5670322925 1030461.2019357868 0 1030461.2019357868 201553.27556428127 0 0 0 0 -18955885.462402344 64221946.549533844 0 64221946.549533844 430067488.77522659 0 0 0 0 -164598264.29055786 107640165.51263428 0 107640165.51263428 490930246.83425903 0 0 0 0 -39910929.413696289 -19976870.67250061 0 -19976870.67250061 519102049.88651466 0 0 0 0 194061680.49560547 -22630669.948150635 0 -22630669.948150635 353494026.12356186 0 0 0 0 34355658.919921875 46803720.702758789 0 46803720.702758789 415730851.92495728 0 0 0 0 94532795.099243164 -28181513.825210571 0 -28181513.825210571 479347478.79659271 0 0 0 0 167052859.64672852 -88553311.381759644 0 -88553311.381759644 434590373.77050018 0 0 0 0 -52832558.386482239 62346776.865913868 0 62346776.865913868 442909104.23439789 0 0 0 0 -40967151.990570068 180717077.17687225 0 180717077.17687225 529966469.63625717 0 0 0 0 -77622462.024963379 28434795.838878632 0 28434795.838878632 318593583.56707811 0 0 0 0 4300136.4621238708 -22256071.123838902 0 -22256071.123838902 -9538868.6617774963 0 0 0 0 958775.62289428711 -5993966.2442140579 0 -5993966.2442140579 -17201374.458363533 0 0 0 0 -10076787.385253906 19368195.787172318 0 19368195.787172318 1381494.1294441223 0 0 0 0 -3590122.3204956055 -5328418.9840660095 0 -5328418.9840660095 -15390894.442982674 0 0 0 0 2095758.3954513967 -437584.74325476587 0 -437584.74325476587 -3143262.3418008117 0 0 0 0 -1006246.2181091309 -5470090.1895656586 0 -5470090.1895656586 -17072973.34907341 0 0 0 0 -1375390.1126020402 -2364959.2202473208 0 -2364959.2202473208 -1645572.7107730103 0 0 0 0 1388911.6749838442 -446112.85117800906 0 -446112.85117800906 -4608237.608957829 0 0 0 0 -11905589.879577637 -19207061.053829193 0 -19207061.053829193 -261222122.84273911 0 0 0 0 19415410.877105713 -157955564.49695492 0 -157955564.49695492 -492833720.32408142 0 0 0 0 -44239724.671478271 -180480088.6157074 0 -180480088.6157074 -318756965.24472857 0 0 0 0 -59369282.950294495 -216264702.27495766 0 -216264702.27495766 -385806643.40341759 0 0 0 0 -32207783.138427734 -250158576.19841766 0 -250158576.19841766 -399192100.36999702 0 0 0 0 754149.32148656249 -7138.9762550145388 0 -7138.9762550145388 -1772906.1750412751 0 0 0 0 -29130032.459274292 -261116722.27196693 0 -261116722.27196693 -387114481.75706863 0 0 0 0 -46660638.103591919 -251845719.37662554 0 -251845719.37662554 -376653195.3186264 0 0 0 0 -43646718.022155762 -262258402.28734398 0 -262258402.28734398 -361531485.20293832 0 0 0 0 3956104.8542633057 -258067340.01764679 0 -258067340.01764679 -482831624.49464035 0 0 0 0 -9935857.7593307495 -273176522.75245619 0 -273176522.75245619 -494126251.97443199 0 0 0 0 38553025.649253845 -252623773.51064157 0 -252623773.51064157 -584819710.44707489 0 0 0 0 27986397.142883301 -269029014.89327431 0 -269029014.89327431 -608942140.72781801 0 0 0 0 54123977.390960693 -281739164.16592598 0 -281739164.16592598 -921226634.47896767 0 0 0 0 -31193201.251678467 -406353111.48952627 0 -406353111.48952627 -659648567.56811714 0 0 0 0 11069925.782928467 -46078888.048770428 0 -46078888.048770428 -616495976.09673309 0 0 0 0 -25252163.674468994 -41800684.384811401 0 -41800684.384811401 -420265150.98647881 0 0 0 0 16218418.751312256 -111484587.68749428 0 -111484587.68749428 -646577281.60736084 0 0 0 0 8305272.3068237305 -140798049.32473183 0 -140798049.32473183 -407751413.73923182 0 0 0 0 -321030570.44669914 153586493.38799381 0 153586493.38799381 1275140972.6176643 0 0 0 0 -109880949.1680336 -50408664.447406769 0 -50408664.447406769 777384796.34928513 0 0 0 0 1613623.3617190011 401991.07427807897 0 401991.07427807897 -1503266.1727473512 0 0 0 0 879066675.24541092 731436871.81298447 0 731436871.81298447 761813801.45839214 0 0 0 0 498128935.38565063 1472738451.805582 0 1472738451.805582 1754371579.4734802 0 0 0 0 -276893704.99129486 129443437.38718414 0 129443437.38718414 1096215968.365181 0 0 0 0 41322271.733680725 59566200.103370667 0 59566200.103370667 820839600.28646088 0 0 0 0 91861645.350371361 535790638.98912144 0 535790638.98912144 1071730490.3937836 0 0 0 0 -157221209.40910339 351861513.30884552 0 351861513.30884552 1493058946.9387293 0 0 0 0 -99376365.606185913 -4194859.7391090393 0 -4194859.7391090393 752010941.41523361 0 0 0 0 -124585029.98571396 313817400.18619919 0 313817400.18619919 487714592.63919067 0 0 0 0 -143131693.32358551 -176140765.94171143 0 -176140765.94171143 142709281.71225739 0 0 0 0 -170615220.65282536 156566718.06884718 0 156566718.06884718 -263403190.95394516 0 0 0 0 -287550755.12420654 218482419.51537704 0 218482419.51537704 934118145.16281891 0 0 0 0 304512581.09412575 -101881681.2514677 0 -101881681.2514677 20606154.830519199 0 0 0 0 -793707337.96348572 -236722581.63725662 0 -236722581.63725662 153441440.42393112 0 0 0 0 706859.7698841095 -391609884.84020424 0 -391609884.84020424 -238535688.76120758 0 0 0 0 -229927253.35810113 -368927522.56469512 0 -368927522.56469512 811008569.65076447 0 0 0 0 -90525331.889167786 -650438073.72985268 0 -650438073.72985268 205398349.96382523 0 0 0 0 740799.18236074317 -3062787.6539031118 0 -3062787.6539031118 -302285.82249259949 0 0 0 0 -1292641046.4618778 188601064.47817516 0 188601064.47817516 1005269939.8213863 0 0 0 0 109415881.01414108 157930266.52536488 0 157930266.52536488 466273273.56253242 0 0 0 0 188117934.56651783 332308480.80826855 0 332308480.80826855 845216967.39385223 0 0 0 0 -167838828.02314949 -45835030.985221863 0 -45835030.985221863 851696333.92012262 0 0 0 0 5279878.4496459961 87700617.040574074 0 87700617.040574074 441199267.17854595 0 0 0 0 2641882.8151833303 -2902461.8687543739 0 -2902461.8687543739 870227.05503581092 0 0 0 0 3150145.9085377865 -1489483.1586251203 0 -1489483.1586251203 -3608105.5972204409 0 0 0 0 -13429700.528867722 120107890.8320145 0 120107890.8320145 -56733408.876221173 0 0 0 0 -526908617.7742691 -341785783.91487122 0 -341785783.91487122 -53853978.954065323 0 0 0 0 2167830.7813782953 -678929.16126220487 0 -678929.16126220487 -653571.03143223189 0 0 0 0 -41443044.582971573 522619160.06858063 0 522619160.06858063 1237733184.905304 0 0 0 0 -480543443.13315582 -512286390.70427561 0 -512286390.70427561 -759450006.24339485 0 0 0 0 -950527185.55054474 -890693812.73768902 0 -890693812.73768902 -1064112693.883749 0 0 0 0 -1048927092.215107 -474339593.8948164 0 -474339593.8948164 -383810656.05091763 0 0 0 0 -1480908851.5189819 -1443839292.0922937 0 -1443839292.0922937 -748598812.19740772 0 0 0 0 -958229278.86413574 -749410280.88176155 0 -749410280.88176155 -698204296.2711693 0 0 0 0 -781598727.52526093 -551833482.20594811 0 -551833482.20594811 -719970124.09247541 0 0 0 0 2123693401.4417295 225917689.69355673 0 225917689.69355673 -443727973.27887821 0 0 0 0 -872779164.00132751 -290953889.93967295 0 -290953889.93967295 -409799578.8325541 0 0 0 0 3111814684.3501205 -1573279515.5619628 0 -1573279515.5619628 1949601602.4320886 0 0 0 0 2345815.9495053478 -1143343.6419210583 0 -1143343.6419210583 -2318846.537057634 0 0 0 0 2248357226.6102524 -956546853.03504395 0 -956546853.03504395 66197312.796254635 0 0 0 0 -1321390769.8051147 -511438443.30222225 0 -511438443.30222225 -170326043.07053566 0 0 0 0 2138285113.9932709 1428095494.3570089 0 1428095494.3570089 -2201974962.6341629 0 0 0 0 3209642585.9379501 -173250791.20285606 0 -173250791.20285606 -539533418.02589464 0 0 0 0 -1019258574.8139193 1162229158.7343845 0 1162229158.7343845 -379489956.93223381 0 0 0 0 -1161283004.9358139 -1441540672.2459631 0 -1441540672.2459631 11149374.105582237 0 0 0 0 -1149076867.1674461 -643269839.7345252 0 -643269839.7345252 -533703907.73168945 0 0 0 0 -1116043508.2704849 -695705370.42394447 0 -695705370.42394447 -537261234.3376236 0 0 0 0 -904704484.61502075 -690992129.96579361 0 -690992129.96579361 -546986042.01741791 0 0 0 0 5834783.1091518831 -3066526.839792477 0 -3066526.839792477 -2667614.7949210154 0 0 0 0 -1232578289.3109436 -709920274.87116432 0 -709920274.87116432 -478834007.9256382 0 0 0 0 -34228758.293657765 -42815829.657024279 0 -42815829.657024279 -22327433.615224853 0 0 0 0 58218921.073093414 -239454096.06050098 0 -239454096.06050098 251033269.66534328 0 0 0 0 -46595188.009185791 -14383123.208654378 0 -14383123.208654378 115779072.83130628 0 0 0 0 68053441.529129028 -205048690.49237329 0 -205048690.49237329 343149740.54098701 0 0 0 0 195194200.34489441 -953923593.36030698 0 -953923593.36030698 1032549773.6063099 0 0 0 0 317146983.38514709 -491841394.38245654 0 -491841394.38245654 436795300.02830219 0 0 0 0 -6663957.5818040827 -5439560.3844948858 0 -5439560.3844948858 -252908.95273744036 0 0 0 0 -22778958.267578125 59340202.761896253 0 59340202.761896253 -110525904.55211973 0 0 0 0 -310501473.07328033 -436337544.57767057 0 -436337544.57767057 578093654.36066866 0 0 0 0 -282170076.19472504 -71936777.975309849 0 -71936777.975309849 355409796.60981148 0 0 0 0 182953889.54558754 -104027470.83569908 0 -104027470.83569908 -44571325.079368591 0 0 0 0 -32612246.053811494 -43307225.065990388 0 -43307225.065990388 -18781762.585444909 0 0 0 0 172112850.34143257 -67876797.144945145 0 -67876797.144945145 -72012203.198249817 0 0 0 0 144792334.82936096 -51281466.91048336 0 -51281466.91048336 -83810001.564529419 0 0 0 0 139620702.06811523 -59896538.585132599 0 -59896538.585132599 9851102.1725463867 0 0 0 0 -24568154.50315664 -15903012.507408954 0 -15903012.507408954 2010402.3762773741 0 0 0 0 745764340.78379822 -1384751336.9669495 0 -1384751336.9669495 -1010996119.4835663 0 0 0 0 -91202959.898197174 -32862350.280630589 0 -32862350.280630589 -157728809.51036215 0 0 0 0 -116358036.79654694 -43494971.831100464 0 -43494971.831100464 10380671.053565979 0 0 0 0 -24642735.044185419 -48138490.030602515 0 -48138490.030602515 -216297.10490754992 0 0 0 0 -126769618.87263107 -373750394.76078224 0 -373750394.76078224 782653091.23274994 0 0 0 0 952262570.67372131 853642553.32526588 0 853642553.32526588 281482475.98785019 0 0 0 0 -32953562.334012009 -7092051.5939372033 0 -7092051.5939372033 1162199.4392948076 0 0 0 0 125761301.60336304 -17368966.463336945 0 -17368966.463336945 -18399184.474668503 0 0 0 0 133882131.19217682 -10096734.153167725 0 -10096734.153167725 -33589199.185943604 0 0 0 0 133587350.38063049 -11299287.655021667 0 -11299287.655021667 -32270231.232406616 0 0 0 0 -1498196696.8066559 -1406013335.9348869 0 -1406013335.9348869 -697702038.40058136 0 0 0 0 -102128667.01353455 1518660936.5865288 0 1518660936.5865288 2620976208.6350098 0 0 0 0 -2178615402.3368835 -1172877152.6841354 0 -1172877152.6841354 257997724.30901337 0 0 0 0 -1807752681.8340912 -777494635.447052 0 -777494635.447052 274960194.50003052 0 0 0 0 -1167168666.5157013 -618131859.22966385 0 -618131859.22966385 275188734.52044678 0 0 0 0 -2110491563.6258698 24175880.061443329 0 24175880.061443329 1025717171.7902222 0 0 0 0 -2561091410.1179352 -628092799.76235962 0 -628092799.76235962 802106631.03549194 0 0 0 0 -1065813385.6104279 -502603212.76700783 0 -502603212.76700783 81162699.857185364 0 0 0 0 -1654198485.843338 -1056798115.5671291 0 -1056798115.5671291 -382311397.75141907 0 0 0 0 -1156056851.006855 -598916787.7304945 0 -598916787.7304945 -347750984.6385231 0 0 0 0 -278416433.985672 -83889648.609562874 0 -83889648.609562874 -86729295.666419983 0 0 0 0 810618766.38100433 -1591502009.5477791 0 -1591502009.5477791 -635857979.43022752 0 0 0 0 -310332711.64936829 -148542116.26442719 0 -148542116.26442719 451810955.43851471 0 0 0 0 4315582.8081075288 -1770812.1176425181 0 -1770812.1176425181 -2297560.2290532421 0 0 0 0 -960151029.76063538 -620822493.37166214 0 -620822493.37166214 -10324986.335617065 0 0 0 0 -344358558.84173584 -334235197.70269394 0 -334235197.70269394 -367251907.25631714 0 0 0 0 -321227697.37319946 -469220908.17178726 0 -469220908.17178726 746749189.08562851 0 0 0 0 -496087095.19250488 -432342082.77623749 0 -432342082.77623749 418501636.56065273 0 0 0 0 -739661852.54632568 -252004157.23250198 0 -252004157.23250198 449933204.03469086 0 0 0 0 -888216864.70906639 -317202099.53962278 0 -317202099.53962278 937641917.56106567 0 0 0 0 -886486038.85101318 -299308049.36933899 0 -299308049.36933899 601001725.91520691 0 0 0 0 -12310391.135815738 -5076111.5888287053 0 -5076111.5888287053 325909.08694536611 0 0 0 0 -1058358650.1045837 -516104169.33823395 0 -516104169.33823395 1209840321.625618 0 0 0 0 -120366631.5866127 -229637975.20782852 0 -229637975.20782852 853197894.4806838 0 0 0 0 -635440776.69807243 -426873955.8148284 0 -426873955.8148284 257192767.65122986 0 0 0 0 -326560194.66268158 9912660.4104728699 0 9912660.4104728699 1133346102.135735 0 0 0 0 -485948139.63088989 -336021586.77526855 0 -336021586.77526855 842892647.6931839 0 0 0 0 -707260734.95385361 -249760927.70233154 0 -249760927.70233154 952346272.48490906 0 0 0 0 -507361142.11359644 -112717630.59479022 0 -112717630.59479022 1326787892.5837708 0 0 0 0 -519002632.71792746 147265308.59450626 0 147265308.59450626 1688144933.6958771 0 0 0 0 -335866844.55102539 258674691.35875702 0 258674691.35875702 1889300986.0705719 0 0 0 0 -340803111.10430908 -248161983.96822739 0 -248161983.96822739 2166878111.9840088 0 0 0 0 -784191759.16888428 283069093.57072449 0 283069093.57072449 830092641.51132202 0 0 0 0 -112827149.49827576 -91853440.735088348 0 -91853440.735088348 1033423116.2230835 0 0 0 0 -1061900402.4158325 -750609649.8199234 0 -750609649.8199234 834773360.01282501 0 0 0 0 -189382138.63199615 574618097.76362991 0 574618097.76362991 2016430923.6248322 0 0 0 0 -697701315.73196411 254165157.65611267 0 254165157.65611267 2978960042.8532372 0 0 0 0 -198485116.40184021 -16867225.395683289 0 -16867225.395683289 1204476771.1280823 0 0 0 0 51526839.530612946 153068961.77528 0 153068961.77528 510462097.10357666 0 0 0 0 -124796273.77438354 119579778.24544525 0 119579778.24544525 1181217786.2209377 0 0 0 0 -120684174.82525635 -37003281.861263275 0 -37003281.861263275 433949917.19909668 0 0 0 0 -49360804.530704498 -42623558.75716877 0 -42623558.75716877 334850062.71820068 0 0 0 0 -107243105.4725647 132019900.61431885 0 132019900.61431885 516059561.35356903 0 0 0 0 -111713467.58741283 59705383.065765858 0 59705383.065765858 11958899.576301575 0 0 0 0 -80900488.564525604 190661568.36884689 0 190661568.36884689 -78371385.076324463 0 0 0 0 -207704669.75613403 85149321.128643036 0 85149321.128643036 176108456.41257858 0 0 0 0 -89859130.501014709 68866756.097352982 0 68866756.097352982 121867760.46166992 0 0 0 0 -230313825.83136177 -13184508.777940273 0 -13184508.777940273 -224175217.73550415 0 0 0 0 -189015077.70637894 162553267.53812027 0 162553267.53812027 -106729713.82787514 0 0 0 0 -7942262.2476552641 -32468139.157604206 0 -32468139.157604206 -21082660.128057122 0 0 0 0 -9226106.8431243896 -89110603.248142242 0 -89110603.248142242 -25947920.499954224 0 0 0 0 -172428353.29618645 125500586.59104824 0 125500586.59104824 -121194985.22840881 0 0 0 0 -116884666.73900223 70450663.054870605 0 70450663.054870605 -72119209.458869934 0 0 0 0 90421691.084609985 24233895.644218445 0 24233895.644218445 11403990.756536484 0 0 0 0 -9573412.746369211 -2268244.2800508849 0 -2268244.2800508849 285012.05036786571 0 0 0 0 107760276.75067139 18432955.694206238 0 18432955.694206238 11619095.127151489 0 0 0 0 -217535121.6446991 -73009016.876033783 0 -73009016.876033783 3499836.3923931122 0 0 0 0 -10095271.453155518 -82835829.5651474 0 -82835829.5651474 -53392722.651672363 0 0 0 0 -5449497.7517938428 -38160764.216437623 0 -38160764.216437623 21055503.982054718 0 0 0 0 -170026237.4740448 37570020.712474823 0 37570020.712474823 39706884.723220825 0 0 0 0 219483399.33731079 -111245936.98237801 0 -111245936.98237801 140231079.77145386 0 0 0 0 179409997.084198 -438474450.33550262 0 -438474450.33550262 -100195433.41477585 0 0 0 0 167344442.97366333 -109955971.22997284 0 -109955971.22997284 -15931860.244522095 0 0 0 0 -14520510.107406616 -58693182.510986328 0 -58693182.510986328 164536786.9269104 0 0 0 0 -27906078.116607666 -127745445.05812836 0 -127745445.05812836 194336361.96686935 0 0 0 0 -191280410.90917969 -161715201.61486816 0 -161715201.61486816 -60239400.139892578 0 0 0 0 -118488662.92224121 -398805483.50776672 0 -398805483.50776672 -45083491.888458252 0 0 0 0 -104036010.84338379 -192776592.24715805 0 -192776592.24715805 -147105819.18995667 0 0 0 0 5054639.7647432946 -29615089.762373336 0 -29615089.762373336 21410326.267936446 0 0 0 0 -238159540.34098816 -347220458.81896973 0 -347220458.81896973 -428620579.32473755 0 0 0 0 -999404.28184258565 -541853.62470977753 0 -541853.62470977753 1358343.7267001197 0 0 0 0 -152275877.96325684 -5328016.2233314514 0 -5328016.2233314514 -170524296.30038452 0 0 0 0 -13899366.195571899 -72464636.874168396 0 -72464636.874168396 -139754547.27806091 0 0 0 0 -219695768.25397491 -113599616.19535828 0 -113599616.19535828 -60062164.012542725 0 0 0 0 -128373529.36454773 -180969355.75565338 0 -180969355.75565338 -24145261.323303223 0 0 0 0 -28583122.632583618 -99224955.779190063 0 -99224955.779190063 -165386287.30414009 0 0 0 0 -67968598.964285374 -67017770.261875153 0 -67017770.261875153 -30831780.45489502 0 0 0 0 12067398.319778442 -81295622.530220032 0 -81295622.530220032 -110961032.20088196 0 0 0 0 14693750.731832504 8207892.5724258423 0 8207892.5724258423 35511302.44128418 0 0 0 0 76052398.820537567 -18057680.594596863 0 -18057680.594596863 -57622441.4245224 0 0 0 0 50040607.327760935 2514057.9417963028 0 2514057.9417963028 -73081669.004562378 0 0 0 0 27192857.60421896 -103542903.24637604 0 -103542903.24637604 -193463346.40846252 0 0 0 0 35872902.259002686 -161802990.39699936 0 -161802990.39699936 -202504105.03091431 0 0 0 0 153842784.30647278 68322665.43800354 0 68322665.43800354 -110541099.72013855 0 0 0 0 -93223771.453804016 -138296158.40097046 0 -138296158.40097046 -120776139.28445435 0 0 0 0 -73571372.779510498 -250792058.48348999 0 -250792058.48348999 -480787948.01043701 0 0 0 0 -194345585.67634583 -133774171.06892395 0 -133774171.06892395 -166181945.46694946 0 0 0 0 -240814058.67225647 -332364239.9030304 0 -332364239.9030304 -361263280.60650635 0 0 0 0 -328806752.76244354 -503356269.70477295 0 -503356269.70477295 -493990479.97119141 0 0 0 0 3363166.3902099095 -1069231.0020703655 0 -1069231.0020703655 -3624839.5842234492 0 0 0 0 -8314444.9755557617 -20486929.264353782 0 -20486929.264353782 -15783873.108423207 0 0 0 0 -55342022.589950562 -2050287.2445411682 0 -2050287.2445411682 -131291811.74378586 0 0 0 0 48154971.673957825 -16568388.480072021 0 -16568388.480072021 -38283688.801091194 0 0 0 0 57471620.115401268 -24817052.088306427 0 -24817052.088306427 -40810836.456626892 0 0 0 0 -4172633.5207908601 -10419362.115744449 0 -10419362.115744449 -2819278.3140772432 0 0 0 0 59856015.802364349 24872461.639633179 0 24872461.639633179 -9363006.7893447876 0 0 0 0 -149387917.36817598 152870974.75070953 0 152870974.75070953 -182299164.0377121 0 0 0 0 -1669851.1095026084 -7551423.6972918864 0 -7551423.6972918864 -13137396.233373236 0 0 0 0 -824577648.28926086 -334028953.56840515 0 -334028953.56840515 -181909716.49691391 0 0 0 0 -1086957192.2020988 -763862812.86528778 0 -763862812.86528778 47687391.886341095 0 0 0 0 -10174626.834372945 -3080283.5505635552 0 -3080283.5505635552 -3587032.1609944478 0 0 0 0 -1024427383.8773766 -204304125.51172638 0 -204304125.51172638 -67459471.01789856 0 0 0 0 -2019233250.2758217 -803536865.03363419 0 -803536865.03363419 -709362568.97145844 0 0 0 0 -2386608578.6012764 -701215338.38470459 0 -701215338.38470459 120648118.13791275 0 0 0 0 546942.6128492842 -3183032.5441001542 0 -3183032.5441001542 -639118.42234444618 0 0 0 0 -1594548802.7120547 -1857510909.8070679 0 -1857510909.8070679 -765991504.48587799 0 0 0 0 -702782293.82997608 -20526554.444791794 0 -20526554.444791794 -2072345289.4700775 0 0 0 0 -2670412.665773904 -245424.76994928345 0 -245424.76994928345 -2027848.430756392 0 0 0 0 -163963556.13735199 477431317.68929291 0 477431317.68929291 -819566428.89567947 0 0 0 0 -162400032.37549973 11669990.454582214 0 11669990.454582214 -131155316.93284607 0 0 0 0 -94555533.988994598 82509641.26736927 0 82509641.26736927 -57493080.903045654 0 0 0 0 -101499481.29962254 99967707.14263916 0 99967707.14263916 -295576677.23353577 0 0 0 0 -289314732.77490234 220133321.82967377 0 220133321.82967377 -132756071.11669159 0 0 0 0 -431414077.15995026 -49328039.608949661 0 -49328039.608949661 64038396.637321472 0 0 0 0 -1426401422.5942574 532321875.37736893 0 532321875.37736893 85750281.929031372 0 0 0 0 -1649548671.9451466 -9501150.3894472122 0 -9501150.3894472122 479276032.83984375 0 0 0 0 -1011525456.582109 -355543965.45505333 0 -355543965.45505333 560635360.56941986 0 0 0 0 -848598272.29766464 206898287.32650757 0 206898287.32650757 150304963.0033617 0 0 0 0 -574316654.82471466 -643576571.87465668 0 -643576571.87465668 -62778931.247801781 0 0 0 0 -1220175740.7720737 -563852640.18671989 0 -563852640.18671989 356339231.32211685 0 0 0 0 -541085228.56697297 -107347606.59209847 0 -107347606.59209847 259880563.35417175 0 0 0 0 -61365019.239326477 154342368.62677383 0 154342368.62677383 105130429.76943207 0 0 0 0 -197099515.93088531 -93239854.585594177 0 -93239854.585594177 184455153.07400131 0 0 0 0 -5296314.5519237518 162531773.4904871 0 162531773.4904871 334201155.8072052 0 0 0 0 -238424324.16398621 -23100198.746940613 0 -23100198.746940613 66208154.40801239 0 0 0 0 -446386013.37102199 -1025398780.2214608 0 -1025398780.2214608 -847665590.16922379 0 0 0 0 57308592.890104294 143089917.79697227 0 143089917.79697227 -1456090092.4476528 0 0 0 0 -723141098.64947224 -659929614.93559647 0 -659929614.93559647 -817464138.96277618 0 0 0 0 1218697.1086743888 -5822116.5456911242 0 -5822116.5456911242 -774616.72743723914 0 0 0 0 -77212927.768884659 -1235495977.7271233 0 -1235495977.7271233 -314106313.20839691 0 0 0 0 -606626.77584880963 -2140610.1600257568 0 -2140610.1600257568 475293.81899561733 0 0 0 0 -100985999.89202496 -1566042841.1808615 0 -1566042841.1808615 714050875.5067215 0 0 0 0 1061935695.2736721 -396878765.64640045 0 -396878765.64640045 -300345721.54577446 0 0 0 0 -586160031.98010051 -519445004.23938888 0 -519445004.23938888 1038880275.4921494 0 0 0 0 -2241542054.7926483 -1067233704.513442 0 -1067233704.513442 86035757.353134155 0 0 0 0 -597646937.36487579 -156087144.91030884 0 -156087144.91030884 -58197770.129849434 0 0 0 0 -196434329.56483936 -545337696.74295998 0 -545337696.74295998 -873764827.16337585 0 0 0 0 -523327944.34035492 -297726601.10358429 0 -297726601.10358429 -734841327.61763382 0 0 0 0 -55865651.981397629 -83228534.680591583 0 -83228534.680591583 -33646728.646966934 0 0 0 0 577400945.46408033 -372534544.12475014 0 -372534544.12475014 -475931052.34579468 0 0 0 0 58149686.056189537 13717464.56089592 0 13717464.56089592 -155463644.81493759 0 0 0 0 495888306.77755928 -432471291.33646774 0 -432471291.33646774 379155394.16276121 0 0 0 0 4545512.2608151231 -4828942.4104847275 0 -4828942.4104847275 -1347437.5571481399 0 0 0 0 1173150272.1057987 -1164712983.9831085 0 -1164712983.9831085 275675367.41549587 0 0 0 0 27066270.997949462 -5739353.2244185042 0 -5739353.2244185042 -13098848.276354525 0 0 0 0 71056360.230393648 4153188.0436134338 0 4153188.0436134338 -6082803.8413968086 0 0 0 0 55877801.196426392 -116082271.62634087 0 -116082271.62634087 -125697397.34618664 0 0 0 0 -125860869.82992554 -268966297.0238533 0 -268966297.0238533 -208706197.76049805 0 0 0 0 35146239.938376419 -37624784.153920099 0 -37624784.153920099 -10937675.654260349 0 0 0 0 84505957.176800132 7455921.6249408722 0 7455921.6249408722 -56702282.988819122 0 0 0 0 38195168.779818058 -23970218.550317764 0 -23970218.550317764 -11341213.351060867 0 0 0 0 89055622.771669388 -72407932.513858795 0 -72407932.513858795 -101136620.4799118 0 0 0 0 80945254.5428828 -133563281.28170586 0 -133563281.28170586 -40864857.195964813 0 0 0 0 57180003.186263561 -141525286.07888889 0 -141525286.07888889 35777782.161083221 0 0 0 0 22269604.903404638 -16415120.221533727 0 -16415120.221533727 -14473174.732748751 0 0 0 0 94800583.60450983 -114596079.90510654 0 -114596079.90510654 -314346142.21403885 0 0 0 0 115896003.99972725 -255867108.20202446 0 -255867108.20202446 -213374576.49077988 0 0 0 0 116795119.4067049 -290723507.56702995 0 -290723507.56702995 -645202932.8764019 0 0 0 0 32889406.59424448 -83226074.762050629 0 -83226074.762050629 -151025232.32870865 0 0 0 0 64146680.437801361 23710963.381616592 0 23710963.381616592 -383811602.35330009 0 0 0 0 39892071.130157471 -46549137.617928505 0 -46549137.617928505 1395713.8456327915 0 0 0 0 32971352.742313482 -3285256.6536434069 0 -3285256.6536434069 -9377772.2392092682 0 0 0 0 -293698749.94403076 -29802439.403308868 0 -29802439.403308868 215263202.26188278 0 0 0 0 151873064.65234375 178191905.92837167 0 178191905.92837167 -579157777.31290436 0 0 0 0 119792123.6647644 1028059.7620334625 0 1028059.7620334625 -357291901.14253998 0 0 0 0 -81045075.312623978 395246689.75806224 0 395246689.75806224 -679932754.47463226 0 0 0 0 119000015.84906006 109211465.36177444 0 109211465.36177444 -973735390.23596954 0 0 0 0 192851190.67375183 199359009.73858356 0 199359009.73858356 -1103953661.9758682 0 0 0 0 206960754.07241821 25326566.615491867 0 25326566.615491867 -652625890.65449238 0 0 0 0 180905697.41178894 -50712463.353561401 0 -50712463.353561401 -598423607.62325287 0 0 0 0 258414691.63449097 67369962.038967133 0 67369962.038967133 -841522221.05788422 0 0 0 0 76200735.752838135 131598192.51627922 0 131598192.51627922 -189206288.55075455 0 0 0 0 63167067.773620605 -53164603.259946823 0 -53164603.259946823 -84806239.068275452 0 0 0 0 30906687.019642308 -10472347.476747129 0 -10472347.476747129 -10662339.671367921 0 0 0 0 75007719.083526611 36769664.028217316 0 36769664.028217316 -95010198.434261322 0 0 0 0 78945048.281738281 -114967170.6979847 0 -114967170.6979847 -276825030.22444344 0 0 0 0 181668675.26704025 -30337696.474642515 0 -30337696.474642515 -400645114.81079483 0 0 0 0 229620116.28393555 -235541976.36675167 0 -235541976.36675167 -717179041.49154854 0 0 0 0 228099352.84336853 -212544834.15234852 0 -212544834.15234852 -376941667.65651894 0 0 0 0 29043477.282226562 -216221238.8387394 0 -216221238.8387394 -323089502.70440292 0 0 0 0 85994436.23613739 -48661089.72046411 0 -48661089.72046411 -65176591.543430328 0 0 0 0 64368984.620977879 -70579290.534593582 0 -70579290.534593582 3811239.5415077209 0 0 0 0 40968731.189628594 -42797337.640385807 0 -42797337.640385807 -7851066.5482736528 0 0 0 0 106177272.70899963 -10911020.267953873 0 -10911020.267953873 -65169973.830304809 0 0 0 0 104122766.11985636 3877487.4800453186 0 3877487.4800453186 -89941238.68863678 0 0 0 0 82792369.908805847 -55245227.117073059 0 -55245227.117073059 -213162984.35929871 0 0 0 0 44653089.434843823 -33917601.278041065 0 -33917601.278041065 -24374758.883750148 0 0 0 0 -94219338.056655884 -67783574.814816475 0 -67783574.814816475 13792710.393846273 0 0 0 0 -9073277.3928375244 -2821146.2322006226 0 -2821146.2322006226 -53968950.545836926 0 0 0 0 45797923.962545447 -29053167.162785713 0 -29053167.162785713 -25031626.543524649 0 0 0 0 65830565.198898315 -56537736.235621452 0 -56537736.235621452 11127733.040420532 0 0 0 0 -7416528.2614746094 -14270639.319220543 0 -14270639.319220543 -20624271.908653736 0 0 0 0 48114982.780181885 2131001.8798279762 0 2131001.8798279762 -68764891.351731777 0 0 0 0 98779362.738540649 22765873.689415455 0 22765873.689415455 -34155608.319843292 0 0 0 0 -24043763.597076416 -63315342.552347422 0 -63315342.552347422 73932771.907442093 0 0 0 0 -11037225.685462158 -13847760.309251979 0 -13847760.309251979 1623674.6626509046 0 0 0 0 20442602.335014343 -19438266.957416411 0 -19438266.957416411 5044515.3442964554 0 0 0 0 103636097.09190416 -75731398.843801484 0 -75731398.843801484 -6925620.0734891891 0 0 0 0 19466611.686096191 -3044237.7004451752 0 -3044237.7004451752 -26133.176200866699 0 0 0 0 57211032.877685547 -30264795.650575638 0 -30264795.650575638 -34443775.176001549 0 0 0 0 26174276.74206543 -26289899.23051405 0 -26289899.23051405 -12184422.214574814 0 0 0 0 69125468.324981689 -48191119.66317296 0 -48191119.66317296 -24235266.574388504 0 0 0 0 -92359219.737060547 -50157796.79766655 0 -50157796.79766655 -25535299.03470993 0 0 0 0 179813664.02767944 -120382137.54874015 0 -120382137.54874015 -52606725.060592547 0 0 0 0 151118964.01632309 -54268535.091656148 0 -54268535.091656148 -31938176.985841274 0 0 0 0 6063704.0493541881 1813624.0121566653 0 1813624.0121566653 -1391987.9170585845 0 0 0 0 65241067.046722412 4201883.2917909622 0 4201883.2917909622 7953559.4042625427 0 0 0 0 138038465.26696777 59617902.719644547 0 59617902.719644547 -11067748.380820513 0 0 0 0 20538157.964542702 -29438003.304160893 0 -29438003.304160893 -15838713.114927605 0 0 0 0 14153087.715179443 -10282286.026845008 0 -10282286.026845008 2163213.0763802528 0 0 0 0 -132870.31301560625 -20385528.094898418 0 -20385528.094898418 -6742111.5253192428 0 0 0 0 12564631.932434082 -7104620.6204125881 0 -7104620.6204125881 1715767.1945095062 0 0 0 0 -10625307.621506885 -25003226.572710957 0 -25003226.572710957 -12988186.178077152 0 0 0 0 -3267923.070122458 -23210695.174973086 0 -23210695.174973086 2895048.0927088903 0 0 0 0 12141799.157529987 -7642785.0463045314 0 -7642785.0463045314 1582772.0660546483 0 0 0 0 -57263098.260986328 -8258100.0806970596 0 -8258100.0806970596 -3954576.7388267517 0 0 0 0 -6890651.2717867419 -1388174.5236019753 0 -1388174.5236019753 1810178.7064808691 0 0 0 0 -105781578.96342468 -168706800.02372146 0 -168706800.02372146 28390900.263489246 0 0 0 0 46399827.050384521 -115604165.009866 0 -115604165.009866 127426662.68608713 0 0 0 0 11731678.667449951 -28093320.802027822 0 -28093320.802027822 -93190806.171906471 0 0 0 0 222610365.39859009 56603214.546309948 0 56603214.546309948 -42722921.421097755 0 0 0 0 9038053.931427002 51989368.839375794 0 51989368.839375794 -72192755.456001282 0 0 0 0 177457370.4069519 -106329282.81823575 0 -106329282.81823575 -112138777.29472072 0 0 0 0 38765625.455810636 -34296840.210967243 0 -34296840.210967243 -20741372.017722696 0 0 0 0 -90257057.892692566 -4590822.5466060638 0 -4590822.5466060638 -52347068.000019073 0 0 0 0 47166574.815788269 -10875189.169404984 0 -10875189.169404984 -64703701.879369736 0 0 0 0 -14465390.65769875 -140905810.22976685 0 -140905810.22976685 -17296484.297542572 0 0 0 0 17686550.138942242 -122304124.81827354 0 -122304124.81827354 -6849918.8931674957 0 0 0 0 -96841406.931057632 -247657625.60525179 0 -247657625.60525179 -56106645.683673859 0 0 0 0 -196864598.50134468 -124851457.48363686 0 -124851457.48363686 -8091378.6434602737 0 0 0 0 -2113807.7229262106 -361185.84520166088 0 -361185.84520166088 2175793.6388625931 0 0 0 0 -41794774.490995884 -2638802.4872226715 0 -2638802.4872226715 9833120.452644825 0 0 0 0 -288940325.88426912 27139943.848615408 0 27139943.848615408 9499471.8518180847 0 0 0 0 -69961743.755340576 -110763851.94102287 0 -110763851.94102287 -23377016.873924255 0 0 0 0 -42386987.294687271 -98369576.310688019 0 -98369576.310688019 -21689019.58653307 0 0 0 0 -4014808.6840744019 -149138565.47457886 0 -149138565.47457886 -189763008.07742882 0 0 0 0 -191865407.15902948 -206200437.13270998 0 -206200437.13270998 -86677876.262607574 0 0 0 0 -81916089.670333862 -144211157.5230186 0 -144211157.5230186 52443986.929686546 0 0 0 0 33385133.591389813 -37455254.165064707 0 -37455254.165064707 -20690644.163126364 0 0 0 0 37207243.925256252 -72992943.377028465 0 -72992943.377028465 -115274347.49053955 0 0 0 0 -33603238.307483673 -110300676.82759094 0 -110300676.82759094 -48610586.636060715 0 0 0 0 -47328274.355509281 -141885134.43559885 0 -141885134.43559885 -79444552.613140106 0 0 0 0 108529355.09008789 -31147302.412099361 0 -31147302.412099361 -65995661.539751053 0 0 0 0 22341584.564924736 -42989015.25353948 0 -42989015.25353948 -22072750.78020487 0 0 0 0 43221003.531860352 -73331940.198326111 0 -73331940.198326111 -45478274.420463562 0 0 0 0 -49064248.134672165 -126614944.30396557 0 -126614944.30396557 -30955361.164810181 0 0 0 0 96385738.811355591 -78496415.451621056 0 -78496415.451621056 -87603657.715704918 0 0 0 0 -84429048.802947998 -53552943.049037933 0 -53552943.049037933 -24458500.342342377 0 0 0 0 135382844.9513092 42531652.42530784 0 42531652.42530784 5372525.8725838661 0 0 0 0 29929917.943957865 -23175923.594955876 0 -23175923.594955876 -17410071.053311966 0 0 0 0 86834681.468597412 88364506.515439034 0 88364506.515439034 -35525035.379268631 0 0 0 0 4743827.0895633791 1928986.2947124019 0 1928986.2947124019 -878355.93026739731 0 0 0 0 -72165306.835818768 -336365954.70643234 0 -336365954.70643234 36173746.423950195 0 0 0 0 -240654994.98492628 -458888605.61083663 0 -458888605.61083663 436508007.59801865 0 0 0 0 -57820745.446070671 -319412367.30891991 0 -319412367.30891991 -26775792.79580307 0 0 0 0 -133690368.32163143 -576819656.62927103 0 -576819656.62927103 -129024196.86172867 0 0 0 0 59238995.53885293 -234090854.67502689 0 -234090854.67502689 -173964381.95578098 0 0 0 0 60433553.664261103 -250448793.56392384 0 -250448793.56392384 -95734634.790056229 0 0 0 0 12649738.422184944 -179732481.87922478 0 -179732481.87922478 -184159271.86769104 0 0 0 0 -16879416.662232876 -130808121.33537197 0 -130808121.33537197 122772812.15936661 0 0 0 0 103029613.13839602 -224570770.85637856 0 -224570770.85637856 -97465439.905916214 0 0 0 0 -2183939.5606434345 -112311057.29820347 0 -112311057.29820347 142681130.00065994 0 0 0 0 -4487654.7223372655 -1331415.6286024218 0 -1331415.6286024218 5273306.3588515464 0 0 0 0 5597018.0251164436 -132966189.89364529 0 -132966189.89364529 151730755.8822794 0 0 0 0 -8016060.0516364574 -76624619.91860199 0 -76624619.91860199 185822321.58126354 0 0 0 0 -116159927.58125591 -120530178.74513435 0 -120530178.74513435 170546001.50806618 0 0 0 0 -119353919.14275074 -48224014.2948246 0 -48224014.2948246 393092760.17711067 0 0 0 0 -150767332.9038341 -105147835.5958693 0 -105147835.5958693 335236827.51231384 0 0 0 0 424966.29577636719 52331013.566306114 0 52331013.566306114 183597717.94841576 0 0 0 0 -5391625.5325366259 -8668128.3990428448 0 -8668128.3990428448 129748900.55756378 0 0 0 0 2503591.827439758 -5402273.5161475195 0 -5402273.5161475195 1313894.0770051547 0 0 0 0 -49892005.51913929 -66662556.312177658 0 -66662556.312177658 -65389906.074196696 0 0 0 0 -42621754.731985092 -73805489.946436286 0 -73805489.946436286 -58391681.603835046 0 0 0 0 -44986052.452495575 -3777145.4427204132 0 -3777145.4427204132 -18494328.953537941 0 0 0 0 -11510055.079368114 -30208505.141490698 0 -30208505.141490698 -49284740.605873108 0 0 0 0 -76214057.072795868 -38825759.778045654 0 -38825759.778045654 -19455856.279518127 0 0 0 0 -69874027.670238495 -60755533.8525877 0 -60755533.8525877 -37891957.017288208 0 0 0 0 -1153980.3864898682 -63164364.761598587 0 -63164364.761598587 -155018140.78802109 0 0 0 0 71331.194505466614 -150517.53572745202 0 -150517.53572745202 212773.96992353769 0 0 0 0 -5357615.8492010832 -8446170.9331339002 0 -8446170.9331339002 108687189.46505928 0 0 0 0 -7901226.6041747099 -2530910.6472121794 0 -2530910.6472121794 10883473.795098074 0 0 0 0 -14144738.573030114 -4257439.0371351242 0 -4257439.0371351242 22084427.539421082 0 0 0 0 -48114758.517427325 4536948.1171417236 0 4536948.1171417236 20484998.195461273 0 0 0 0 -20014848.072554708 -20313536.817454338 0 -20313536.817454338 48138886.504997253 0 0 0 0 -32012739.165913105 -5192714.1927399635 0 -5192714.1927399635 37709726.243411064 0 0 0 0 -8997752.2643899918 -15727102.046962738 0 -15727102.046962738 24760152.490392566 0 0 0 0 -12781613.265075684 -4388607.8991031647 0 -4388607.8991031647 17554778.84428215 0 0 0 0 -9955111.0615062714 -12730955.09835434 0 -12730955.09835434 17700725.783171743 0 0 0 0 -12776178.575925827 -6800263.3640346527 0 -6800263.3640346527 26216968.400754929 0 0 0 0 -19687423.053126343 -16327373.739468403 0 -16327373.739468403 2153666.2541911472 0 0 0 0 -7521612.1959433556 -39407104.733280182 0 -39407104.733280182 -24682760.352356911 0 0 0 0 -44943181.379951477 -13628824.594150543 0 -13628824.594150543 -49212157.258270264 0 0 0 0 6348853.371131897 -17056324.036190033 0 -17056324.036190033 -49201785.687290192 0 0 0 0 -16667317.97312988 -24735926.813674927 0 -24735926.813674927 -11152374.505887665 0 0 0 0 -616955.49316038936 -2723584.7498985184 0 -2723584.7498985184 -6462589.7498109192 0 0 0 0 -27679256.183334351 35852413.553684235 0 35852413.553684235 -41755015.085559845 0 0 0 0 -18934274.245811462 -17236541.149341583 0 -17236541.149341583 -89901560.381576538 0 0 0 0 -17902854.676328659 -9390494.8870835304 0 -9390494.8870835304 -30738850.836807251 0 0 0 0 -22706068.83531189 15691595.124298096 0 15691595.124298096 -68402392.23242569 0 0 0 0 -42799659.756397247 -14438690.327289581 0 -14438690.327289581 -24901874.653995514 0 0 0 0 -15835904.283906057 -15707920.805580102 0 -15707920.805580102 -27276.520381283946 0 0 0 0 -400524.73836280778 -2319323.4969817409 0 -2319323.4969817409 -3862950.9494039118 0 0 0 0 -161795034.366292 -335944952.50495625 0 -335944952.50495625 -619941900.35394287 0 0 0 0 -19918222.068505764 -7036469.9936827403 0 -7036469.9936827403 5085366.8784512952 0 0 0 0 -57121114.838041306 -2363977.3932790756 0 -2363977.3932790756 27657146.355470657 0 0 0 0 -4586766.5455803871 11178906.715185761 0 11178906.715185761 11891006.873726368 0 0 0 0 4496245.5211441871 -12798030.067283802 0 -12798030.067283802 -3520525.353590088 0 0 0 0 -16498958.025512695 -1109209.3684482574 0 -1109209.3684482574 -21258053.828643799 0 0 0 0 -25792316.872383595 -33540292.670021772 0 -33540292.670021772 -7173695.6603469849 0 0 0 0 210660.61785454024 -15585315.240045765 0 -15585315.240045765 -13866249.086974548 0 0 0 0 -12042147.413497925 -38228585.729227066 0 -38228585.729227066 -24852768.799325943 0 0 0 0 -48483211.052206039 -22999922.95895195 0 -22999922.95895195 -11530158.441203117 0 0 0 0 -31777179.294643402 -40834374.324474335 0 -40834374.324474335 -28280699.691951752 0 0 0 0 -32955278.92340517 -45967564.539344668 0 -45967564.539344668 -15774573.842855453 0 0 0 0 -6957854.2640900612 -29689707.003059387 0 -29689707.003059387 -12826819.174022675 0 0 0 0 -23932072.661125541 -34120303.172411919 0 -34120303.172411919 31251321.298183441 0 0 0 0 -26976665.810955524 -18843650.051693916 0 -18843650.051693916 13935956.732433319 0 0 0 0 24098311.59223175 -41391080.278884888 0 -41391080.278884888 25680455.147729874 0 0 0 0 1403608.9215210807 -36958262.752432674 0 -36958262.752432674 931030.83113850653 0 0 0 0 21063695.390089512 -48429156.90877533 0 -48429156.90877533 34147584.592544556 0 0 0 0 15453613.178161621 -38515678.081291199 0 -38515678.081291199 33539553.905504227 0 0 0 0 19960411.981594086 -40041521.168586731 0 -40041521.168586731 33278074.881902695 0 0 0 0 -13113539.452590942 -35116352.803201675 0 -35116352.803201675 -22493442.780420303 0 0 0 0 -29223640.771978378 -95373913.808507919 0 -95373913.808507919 -52566037.834693909 0 0 0 0 -27470501.131164625 -58527826.271638803 0 -58527826.271638803 3467090.7405917463 0 0 0 0 1535085.7166442871 25734029.546956062 0 25734029.546956062 32688239.84475708 0 0 0 0 1629794.7870941162 -101350303.86089325 0 -101350303.86089325 -2038656.0040092468 0 0 0 0 -36910249.411407471 -128691041.32436657 0 -128691041.32436657 40388973.801504135 0 0 0 0 -59884441.54352951 -119832793.79588318 0 -119832793.79588318 -7400122.7434425354 0 0 0 0 -8594438.634909533 -47780977.571334153 0 -47780977.571334153 -18691788.093121044 0 0 0 0 15099767.022563934 -59300168.672670364 0 -59300168.672670364 30168341.260993958 0 0 0 0 10323803.782546997 -57006095.831985474 0 -57006095.831985474 34479764.586772919 0 0 0 0 -17956452.34674957 -30911355.083330937 0 -30911355.083330937 -11784902.891987097 0 0 0 0 -75688366.944382429 -76083582.573495865 0 -76083582.573495865 101527862.44496822 0 0 0 0 13160973.812198639 -67395249.173648834 0 -67395249.173648834 -974255.38646697998 0 0 0 0 -38394640.533536911 -44842256.193790436 0 -44842256.193790436 66676391.600156784 0 0 0 0 -114496212.2634365 -100075777.56889972 0 -100075777.56889972 28970679.002483368 0 0 0 0 -116297960.2378805 -14785404.560712665 0 -14785404.560712665 43222689.032062531 0 0 0 0 -12502614.474347115 -43841674.327788353 0 -43841674.327788353 49278709.384941816 0 0 0 0 105072523.28510475 -90398812.01832962 0 -90398812.01832962 -41466126.720966339 0 0 0 0 -953423.726603508 -45986698.668151855 0 -45986698.668151855 -17168221.643226624 0 0 0 0 34742927.520378113 -28082280.317581177 0 -28082280.317581177 -87349443.649421692 0 0 0 0 74311469.057060242 -136692470.48155594 0 -136692470.48155594 -44328268.662929535 0 0 0 0 2334120.2067337036 -131563193.65130615 0 -131563193.65130615 3369601.9234657288 0 0 0 0 96626285.838001251 -175264124.55294037 0 -175264124.55294037 74194061.96723175 0 0 0 0 93189984.274681091 -143397347.23300171 0 -143397347.23300171 103829.91917419434 0 0 0 0 -93586765.95706749 -218746943.36903286 0 -218746943.36903286 125366186.83628845 0 0 0 0 -3732932.980682373 -76516186.367645264 0 -76516186.367645264 14919265.780540466 0 0 0 0 2281024.1733798981 -56657258.915139198 0 -56657258.915139198 38633257.87550354 0 0 0 0 797411.09851074219 -53571021.366889954 0 -53571021.366889954 33501224.603197098 0 0 0 0 -36037659.923244476 -71137130.537921906 0 -71137130.537921906 34188437.865432739 0 0 0 0 -8867072.5890569687 -90621770.511725426 0 -90621770.511725426 28390780.838851929 0 0 0 0 -20653049.616905212 -88203777.566555023 0 -88203777.566555023 48209158.736999512 0 0 0 0 -156582561.24034882 -59429030.781024933 0 -59429030.781024933 50888512.500221729 0 0 0 0 -50353063.249217987 -32279111.516448975 0 -32279111.516448975 4079552.2551765442 0 0 0 0 5298870.8085098267 -49646096.853256226 0 -49646096.853256226 9371351.8777275085 0 0 0 0 36729467.012687683 -41827366.575553894 0 -41827366.575553894 -14170453.794727325 0 0 0 0 11230683.107254028 -33149674.876976013 0 -33149674.876976013 -3009805.7264289856 0 0 0 0 46921938.687107086 -66617327.529689789 0 -66617327.529689789 28319279.477645874 0 0 0 0 11549935.163398743 -38495475.101646423 0 -38495475.101646423 46747721.855659485 0 0 0 0 -14988993.73601532 -39650485.791862488 0 -39650485.791862488 32352441.472930908 0 0 0 0 5763721.0634384155 -50894512.646759033 0 -50894512.646759033 36317165.865516663 0 0 0 0 9288611.3193511963 -39752919.115432739 0 -39752919.115432739 42949828.440811157 0 0 0 0 17927263.963157654 -30125735.362731934 0 -30125735.362731934 50845572.374740601 0 0 0 0 -64393725.837348938 12433961.154510498 0 12433961.154510498 -37797883.972145081 0 0 0 0 44793373.255657196 -17016000.798402786 0 -17016000.798402786 -53973109.030761719 0 0 0 0 54650254.886711121 1448355.9919281006 0 1448355.9919281006 -71362584.622276306 0 0 0 0 42073518.656978607 -33170818.705758095 0 -33170818.705758095 -70777301.883720398 0 0 0 0 -1852083.4773597717 -5479624.6878623962 0 -5479624.6878623962 -42939491.976150513 0 0 0 0 -51206521.172768593 -26894928.64180088 0 -26894928.64180088 -28964677.698822021 0 0 0 0 -289727181.23117065 -50968268.257900238 0 -50968268.257900238 -13475220.285461426 0 0 0 0 -285091985.80922699 50883051.805961609 0 50883051.805961609 37703036.909740448 0 0 0 0 -63289954.588991165 13490033.387000084 0 13490033.387000084 -50256951.124237061 0 0 0 0 2188438.8444976807 12135047.306789398 0 12135047.306789398 40216442.457286835 0 0 0 0 -1015684.8366386131 -84942.094857603312 0 -84942.094857603312 2938709.8710009828 0 0 0 0 -295165910.73429871 31441754.792037964 0 31441754.792037964 10427931.943445206 0 0 0 0 -296467659.37330961 113617301.02841461 0 113617301.02841461 -27688245.997840881 0 0 0 0 -598762.24423140287 -50868.797635775059 0 -50868.797635775059 485049.68242194131 0 0 0 0 166042841.05045319 -284645551.77383804 0 -284645551.77383804 142088875.25500488 0 0 0 0 198201913.98411369 -114353010.45761013 0 -114353010.45761013 105327074.62527466 0 0 0 0 136492106.24153042 -61552843.911186218 0 -61552843.911186218 26539403.132965088 0 0 0 0 130312021.21717834 -153924187.05842209 0 -153924187.05842209 273470383.07545471 0 0 0 0 183690727.60572624 -146401662.15979385 0 -146401662.15979385 46945129.220016479 0 0 0 0 -1898800.4646649621 -2268305.5552352592 0 -2268305.5552352592 -1043459.4526312537 0 0 0 0 295886135.26582909 -192958257.3481617 0 -192958257.3481617 114440239.04281616 0 0 0 0 202102785.07823944 -305570862.84216309 0 -305570862.84216309 266116859.10998201 0 0 0 0 -73765181.344593048 38826806.85009861 0 38826806.85009861 32259192.27217865 0 0 0 0 -75169937.923103333 91456932.902080536 0 91456932.902080536 -42968444.932598114 0 0 0 0 -721801.37438295921 -64779.844505276531 0 -64779.844505276531 2680408.9991492666 0 0 0 0 84883367.23348999 24913988.014234543 0 24913988.014234543 -33108388.886615753 0 0 0 0 -101679918.16536331 121226436.22303391 0 121226436.22303391 23757597.370510101 0 0 0 0 -486728751.84490585 18760297.346206665 0 18760297.346206665 42932895.137541294 0 0 0 0 95220882.719765663 341402892.39177704 0 341402892.39177704 50216407.195224762 0 0 0 0 478833411.51449966 -94372021.986946106 0 -94372021.986946106 -152796697.31114388 0 0 0 0 -395984581.23221993 -512915076.51396656 0 -512915076.51396656 -282830061.12115479 0 0 0 0 -374619272.59840012 -404857933.34819794 0 -404857933.34819794 -137506319.85911942 0 0 0 0 -339893169.3029778 -597162144.96339178 0 -597162144.96339178 -583141611.6867981 0 0 0 0 -92925767.422206879 -99721162.660204887 0 -99721162.660204887 -189129192.39614105 0 0 0 0 -201508192.71713638 -109240806.0710659 0 -109240806.0710659 -39772632.932006836 0 0 0 0 -110261472.93173981 -236586097.14131165 0 -236586097.14131165 -351826753.25510025 0 0 0 0 -140231740.7284584 -35505701.286993027 0 -35505701.286993027 21734863.226173401 0 0 0 0 -67620490.908256531 -38271449.290939331 0 -38271449.290939331 -103544021.57876587 0 0 0 0 -11988908.530330658 24338641.230659485 0 24338641.230659485 -60050608.432540894 0 0 0 0 28379368.826543808 -49861666.347248077 0 -49861666.347248077 19716014.608383179 0 0 0 0 108024052.43105316 -36128472.09438324 0 -36128472.09438324 10463620.384246826 0 0 0 0 66049908.104370117 -126088039.80761719 0 -126088039.80761719 139343080.79034424 0 0 0 0 105458948.56551743 -86601593.508041382 0 -86601593.508041382 189001361.28718567 0 0 0 0 29337730.94537735 -156677204.20402145 0 -156677204.20402145 125578949.19472885 0 0 0 0 -418880800.17461395 -231790233.44312668 0 -231790233.44312668 128130083.62708092 0 0 0 0 32017535.098442078 -68164597.799495697 0 -68164597.799495697 -40518449.209644318 0 0 0 0 -856618916.24371719 -472057945.49330521 0 -472057945.49330521 292362423.04694366 0 0 0 0 42615461.977329254 -49145906.046697617 0 -49145906.046697617 150139415.22470856 0 0 0 0 174757858.76245499 -367801231.61672211 0 -367801231.61672211 243528295.23427105 0 0 0 0 -1650541.6427396648 -1933194.6574980058 0 -1933194.6574980058 -1174696.0996115841 0 0 0 0 -1492015.7687244415 -80939184.783219337 0 -80939184.783219337 19165285.450881958 0 0 0 0 -245176226.09235764 -86666618.364082336 0 -86666618.364082336 37337763.19383049 0 0 0 0 -61242489.49467659 -144334369.89497185 0 -144334369.89497185 -278860098.22053528 0 0 0 0 -777320.30809646286 -832225.70429128036 0 -832225.70429128036 -521409.19272087514 0 0 0 0 -248128204.69755554 -756072906.56142044 0 -756072906.56142044 -928555171.58385468 0 0 0 0 -584073635.74479961 -932245744.16552734 0 -932245744.16552734 -620474669.26168823 0 0 0 0 -461548316.24489594 -643261046.47260284 0 -643261046.47260284 -173059469.71463013 0 0 0 0 -461764400.63110757 -638795111.66042399 0 -638795111.66042399 -247739812.21806335 0 0 0 0 -607459004.90262985 -516355434.62060547 0 -516355434.62060547 -350600893.46746254 0 0 0 0 -474420129.42352104 -304787011.54231644 0 -304787011.54231644 -44834424.292205811 0 0 0 0 -562237.1851062607 -255372.35317765549 0 -255372.35317765549 173652.25868967175 0 0 0 0 -646328537.57978344 -64214950.480992317 0 -64214950.480992317 -35848224.86706543 0 0 0 0 -1001634760.2819386 -306505288.47118378 0 -306505288.47118378 481379931.15029907 0 0 0 0 -1206971234.5263672 11641825.515945435 0 11641825.515945435 438615944.98097229 0 0 0 0 -1114424486.2330742 -572910453.9794426 0 -572910453.9794426 -50910783.744380534 0 0 0 0 -801717451.37116051 -827960024.1431694 0 -827960024.1431694 -338115109.94141388 0 0 0 0 -64599893.948387146 12955539.742858887 0 12955539.742858887 -49854101.855792999 0 0 0 0 -54462547.905826569 40523624.869667053 0 40523624.869667053 24667789.630020142 0 0 0 0 -1709706.6994514465 -26586252.960063934 0 -26586252.960063934 -49171939.944225311 0 0 0 0 -178138221.05793381 -48993639.986526489 0 -48993639.986526489 -51993963.684337616 0 0 0 0 -29424686.257843018 70584429.200149536 0 70584429.200149536 -15549429.977996826 0 0 0 0 -86319595.795703888 26140787.764465332 0 26140787.764465332 -28810360.990695953 0 0 0 0 -963149.76505407365 -7165371.5684380233 0 -7165371.5684380233 -13575773.782234922 0 0 0 0 -3364600.7533054352 -13945738.680196762 0 -13945738.680196762 -57509786.637298584 0 0 0 0 4766927.1147651933 3485175.0175633095 0 3485175.0175633095 -7194940.5089516509 0 0 0 0 -2759460.8424310535 -7900633.9491118323 0 -7900633.9491118323 -2131270.5513332859 0 0 0 0 -458295.52107334137 -2103863.0501322746 0 -2103863.0501322746 410871.0499458313 0 0 0 0 80242567.105308533 52921496.892585754 0 52921496.892585754 -106063881.87623215 0 0 0 0 -3348929.9268181007 -8898488.884488089 0 -8898488.884488089 -2095900.7094207425 0 0 0 0 100459956.93726254 -133791383.39813089 0 -133791383.39813089 -166330954.5885849 0 0 0 0 -38792918.04460907 1578077812.6410904 0 1578077812.6410904 690272739.85614777 0 0 0 0 278954736.43457031 188848360.70465851 0 188848360.70465851 -26412400.081914902 0 0 0 0 -21660245.692001343 691708772.03905106 0 691708772.03905106 827670804.33369446 0 0 0 0 439207158.69108009 -183906915.29650974 0 -183906915.29650974 67277023.898208618 0 0 0 0 -2184619721.0776825 144733195.78555298 0 144733195.78555298 1530162547.4186783 0 0 0 0 -254694734.99087429 42876317.543934822 0 42876317.543934822 133543753.66709137 0 0 0 0 -677336538.74603271 -1553886056.2403564 0 -1553886056.2403564 -4018466051.3034477 0 0 0 0 -2769573401.9883003 1433227916.6059227 0 1433227916.6059227 -654380459.29340363 0 0 0 0 1181690301.0394897 -366470774.60975647 0 -366470774.60975647 -793752486.69566917 0 0 0 0 -7476739.4377841949 5460852.2568051815 0 5460852.2568051815 -22459212.764823914 0 0 0 0 3198189.9866209156 -10730132.708211249 0 -10730132.708211249 -19100440.541711785 0 0 0 0 -1560264333.9005737 -822471651.64862823 0 -822471651.64862823 137809025.49282837 0 0 0 0 -3294506287.1893272 -1280287066.3609695 0 -1280287066.3609695 641941399.2963829 0 0 0 0 -8002087.7231212668 -1588376.5016424209 0 -1588376.5016424209 2084928.7290794477 0 0 0 0 -791679188.98067284 -1665435783.7701492 0 -1665435783.7701492 -2843711193.0480537 0 0 0 0 -298914277.40393448 -415543165.64722824 0 -415543165.64722824 -401721954.0512619 0 0 0 0 43506939.472888947 -86467922.935180664 0 -86467922.935180664 -238043551.25905037 0 0 0 0 42465476.558692932 -43694614.745640755 0 -43694614.745640755 4303428.9118785858 0 0 0 0 -1281212363.2570066 -808154660.06347084 0 -808154660.06347084 79256279.892967224 0 0 0 0 -1742170971.7918015 -1219642780.9915142 0 -1219642780.9915142 -106220529.84358597 0 0 0 0 -1282198101.6980267 -807488865.67524529 0 -807488865.67524529 251376908.54477692 0 0 0 0 -1942819754.6957397 -864532597.79493332 0 -864532597.79493332 610214287.96445465 0 0 0 0 -2399212127.7493095 550641332.04483795 0 550641332.04483795 209985789.86476135 0 0 0 0 -3414434416.3673382 -1341294577.4134789 0 -1341294577.4134789 508519549.23825073 0 0 0 0 -583579959.57615662 -1515073765.4556885 0 -1515073765.4556885 -436933891.19991589 0 0 0 0 -1890539498.3564625 -727577689.63438797 0 -727577689.63438797 821392849.50609589 0 0 0 0 -36384521.782987595 9969731.3127322197 0 9969731.3127322197 -2364792.5262947083 0 0 0 0 568313068.55602646 -350625419.31910896 0 -350625419.31910896 183310183.89762878 0 0 0 0 1620426.524936676 8263191.1852931976 0 8263191.1852931976 -21634707.775730133 0 0 0 0 355134.8367742952 -11203293.490866385 0 -11203293.490866385 -11967910.468088107 0 0 0 0 -33806351.79957962 4183953.726079464 0 4183953.726079464 9654220.6944923401 0 0 0 0 -39665379.924316406 -45937206.753236294 0 -45937206.753236294 -11860293.290902019 0 0 0 0 -10997117.172275543 -18939309.346677303 0 -18939309.346677303 1160357.0358219147 0 0 0 0 -18448697.34803009 -3717724.0032939911 0 -3717724.0032939911 -29871520.319226265 0 0 0 0 -4278575517.3783569 -473659316.64069748 0 -473659316.64069748 135912190.40341663 0 0 0 0 -2480802842.0404053 -1266656233.6362114 0 -1266656233.6362114 656280555.49139881 0 0 0 0 -1883762059.3564148 -544673606.72331619 0 -544673606.72331619 -267502449.82460022 0 0 0 0 508784.70173017681 -713379.65947222058 0 -713379.65947222058 -1217643.8411670029 0 0 0 0 -1772419449.2254333 -1073407386.7805862 0 -1073407386.7805862 -216835213.7115097 0 0 0 0 -445369.92829601839 -1874702.4485637713 0 -1874702.4485637713 -2922955.5628755577 0 0 0 0 -2049154334.2600336 465613439.46743631 0 465613439.46743631 -1722192337.6620636 0 0 0 0 -1756655222.8236732 -1879018560.8958569 0 -1879018560.8958569 -1541348252.6196156 0 0 0 0 -3550026062.8397446 -1716348457.5340586 0 -1716348457.5340586 -305448547.16423988 0 0 0 0 -13103908.164430618 -161206032.47099257 0 -161206032.47099257 -1412836066.4791737 0 0 0 0 4123953.8608851507 -2888703.765069955 0 -2888703.765069955 -8894092.1027612966 0 0 0 0 -1242176299.4443645 -2032071496.1452076 0 -2032071496.1452076 -978090840.2144165 0 0 0 0 2885693.7426330224 -1400156.9342477052 0 -1400156.9342477052 -1791947.9135133941 0 0 0 0 -850915620.8768692 -348898554.24970937 0 -348898554.24970937 198041802.36993217 0 0 0 0 -1084263305.288002 -925606683.6282115 0 -925606683.6282115 479621020.68242025 0 0 0 0 -1625470283.6276233 -664916887.39449787 0 -664916887.39449787 56190077.347556114 0 0 0 0 -859783434.22694397 -1064190511.4579363 0 -1064190511.4579363 29146832.161582947 0 0 0 0 -53940763.026694894 -150746707.50557625 0 -150746707.50557625 -55435961.615153551 0 0 0 0 -12875991.564569473 35780327.426063776 0 35780327.426063776 -170389.64783728123 0 0 0 0 -55324998.844555855 -67272074.343779564 0 -67272074.343779564 8186316.9882631302 0 0 0 0 -315787552.86433029 684312431.34561253 0 684312431.34561253 -655467524.86000633 0 0 0 0 -1174309495.343811 -491477900.90387249 0 -491477900.90387249 257464473.94821405 0 0 0 0 6025396.5671268953 -5453812.5506256185 0 -5453812.5506256185 -5836647.792030477 0 0 0 0 -799842661.67093658 -576015990.45605087 0 -576015990.45605087 -637448086.52024555 0 0 0 0 542435542.2230835 -177440819.95083714 0 -177440819.95083714 -214204328.76329613 0 0 0 0 710140259.33130264 -235031179.21382999 0 -235031179.21382999 -207168481.36211491 0 0 0 0 557229564.13187408 -220029900.93101358 0 -220029900.93101358 -179162995.61017418 0 0 0 0 325803519.20119858 -149500826.74540782 0 -149500826.74540782 -37907683.368388176 0 0 0 0 350354246.87326431 -116133097.17013574 0 -116133097.17013574 -121591462.05983162 0 0 0 0 475944636.34815216 -243336038.27024221 0 -243336038.27024221 -130095314.55054092 0 0 0 0 268871177.12466049 -278832041.32723522 0 -278832041.32723522 -7235568.5077575147 0 0 0 0 85228369.097137451 -181077666.20532703 0 -181077666.20532703 10876338.430916309 0 0 0 0 265527432.35877609 -286864746.69569784 0 -286864746.69569784 -24963967.788310528 0 0 0 0 516586946.40156555 -570497057.34485841 0 -570497057.34485841 244285704.78729737 0 0 0 0 566645829.23989105 -281544346.8204658 0 -281544346.8204658 -115483880.54568064 0 0 0 0 570115321.68138123 -304610677.55442148 0 -304610677.55442148 -202267497.74873972 0 0 0 0 827906769.45638275 -538707363.34343159 0 -538707363.34343159 -51731318.186925173 0 0 0 0 747788361.09140015 -415447463.62806839 0 -415447463.62806839 -194772329.22413445 0 0 0 0 1565106485.3841095 359561187.52979833 0 359561187.52979833 -475389932.93932796 0 0 0 0 160855420.93126678 331582470.38535237 0 331582470.38535237 -275749274.56894255 0 0 0 0 3885949.0935636759 -2340398.3586678077 0 -2340398.3586678077 -5349630.3256828692 0 0 0 0 -54198122.597915649 -17252774.665878773 0 -17252774.665878773 -31667877.594258785 0 0 0 0 -1079823826.3866043 -1057094692.1477952 0 -1057094692.1477952 -192971997.6291523 0 0 0 0 -814866561.70760822 -443925949.66916209 0 -443925949.66916209 -473358212.41637945 0 0 0 0 68100599.050796509 20492985.375994682 0 20492985.375994682 -30392120.633174151 0 0 0 0 -43793306.220775604 -16589127.385097921 0 -16589127.385097921 26294837.540424347 0 0 0 0 193941792.95825195 2210855.3609585762 0 2210855.3609585762 -108487817.1093874 0 0 0 0 708860842.8472178 15775789.030957069 0 15775789.030957069 -204282578.88801003 0 0 0 0 184832159.31657791 -40773457.431195796 0 -40773457.431195796 -35323022.56599617 0 0 0 0 432204413.16065598 -184191293.4318037 0 -184191293.4318037 -28547719.702349663 0 0 0 0 238106107.22622299 -137526782.05436802 0 -137526782.05436802 -38588694.04569912 0 0 0 0 42281622.484905243 -29650152.946297169 0 -29650152.946297169 31564864.416203499 0 0 0 0 18709946.414146423 9250858.8897428513 0 9250858.8897428513 -1960811.8795018196 0 0 0 0 71374267.3217659 -2158389.9565010071 0 -2158389.9565010071 -305887.27196598053 0 0 0 0 1369788.4435157776 -8690242.5963249207 0 -8690242.5963249207 21573275.47073555 0 0 0 0 137316047.23077393 3781786.4150819778 0 3781786.4150819778 -24614811.168128014 0 0 0 0 102921434.1485157 -117761713.00349212 0 -117761713.00349212 118547399.81110954 0 0 0 0 -15471848.731071472 -162623455.91064262 0 -162623455.91064262 288623595.07920218 0 0 0 0 915723763.37338257 -298749671.18306065 0 -298749671.18306065 -210507313.15230703 0 0 0 0 496247336.37407684 -471752071.96129417 0 -471752071.96129417 228440037.44856644 0 0 0 0 571784057.05867004 -230535295.18464088 0 -230535295.18464088 -171620983.4995327 0 0 0 0 326278487.7872901 -14274632.410038412 0 -14274632.410038412 -64279887.180677414 0 0 0 0 328331388.93115234 9560351.7198505402 0 9560351.7198505402 -149559111.29679203 0 0 0 0 605240433.08947754 -84249918.529895782 0 -84249918.529895782 -141479082.29635334 0 0 0 0 810689828.10384369 -5246753.8276748657 0 -5246753.8276748657 -232091534.5322752 0 0 0 0 -39497430.012859344 -298683039.32147598 0 -298683039.32147598 693503621.76352596 0 0 0 0 4717805.9181066528 158757.0447990906 0 158757.0447990906 -2047593.569819863 0 0 0 0 167116.5316340737 -4638592.368577145 0 -4638592.368577145 -2094187.1959257184 0 0 0 0 2798316037.4841309 -426025422.14337826 0 -426025422.14337826 -257889376.98771 0 0 0 0 397824821.73207855 128155657.64617538 0 128155657.64617538 -212562889.0287466 0 0 0 0 1571646296.1896932 312670271.04991847 0 312670271.04991847 -490777763.01229858 0 0 0 0 1731648810.2535982 -1111487321.0914249 0 -1111487321.0914249 223545763.95891953 0 0 0 0 529488548.31119919 531187587.09176445 0 531187587.09176445 -454080718.80500221 0 0 0 0 1267458034.8298187 -333293863.094491 0 -333293863.094491 -124528265.33616257 0 0 0 0 404001067.41867065 539159937.7195549 0 539159937.7195549 -252004495.12359619 0 0 0 0 386046578.01290321 639129639.63200569 0 639129639.63200569 -197639915.02302551 0 0 0 0 415797976.95915985 644925662.36889648 0 644925662.36889648 -287654242.53264999 0 0 0 0 361839492.15046692 607692057.91251183 0 607692057.91251183 -108379067.12685394 0 0 0 0 300691677.66437531 -978978303.18637085 0 -978978303.18637085 1531566097.550724 0 0 0 0 4387599.7952444423 1496359.4214177802 0 1496359.4214177802 315122.7158387024 0 0 0 0 2285988187.0463047 -1138687232.7596664 0 -1138687232.7596664 -278642604.04423523 0 0 0 0 298320011.44950867 474306670.43232727 0 474306670.43232727 -51491395.930223465 0 0 0 0 748958818.27906418 175851579.42765617 0 175851579.42765617 -169723452.32365799 0 0 0 0 -212787852.88319397 84068483.349363327 0 84068483.349363327 -174074750.13961029 0 0 0 0 11797146.222112482 -5534889.4417532524 0 -5534889.4417532524 -7167212.1814721702 0 0 0 0 12286878.663124084 2898459.6584329605 0 2898459.6584329605 -65024463.607610703 0 0 0 0 -308860081.32461548 -176984119.71592331 0 -176984119.71592331 -162751108.77837753 0 0 0 0 8154030.780380249 31444533.726056099 0 31444533.726056099 -15706242.234463692 0 0 0 0 51945696.723003387 -72440829.224431038 0 -72440829.224431038 -73877016.524241447 0 0 0 0 10356868.738083536 -1818722.5178017193 0 -1818722.5178017193 -4641743.0165895466 0 0 0 0 868194688.14246488 -915709935.92589593 0 -915709935.92589593 -666734971.83565521 0 0 0 0 -846957809.31736374 670067038.70373154 0 670067038.70373154 841064416.99650002 0 0 0 0 -590000302.19018745 -327264189.83564949 0 -327264189.83564949 960539206.58368683 0 0 0 0 -339939888.24955368 421364342.52889633 0 421364342.52889633 -237995250.75326538 0 0 0 0 -264522904.97406006 -19442631.861286163 0 -19442631.861286163 -11354749.652002335 0 0 0 0 -625376867.33440733 -99779957.548288822 0 -99779957.548288822 -8123419.3562011719 0 0 0 0 -5273701.7581520081 -1343717.3979377747 0 -1343717.3979377747 -3872593.7896652222 0 0 0 0 7873076.8061828613 -2414446.7708892822 0 -2414446.7708892822 -20073698.241043091 0 0 0 0 -5503718.029364584 -3511705.4265871923 0 -3511705.4265871923 -2352873.7920376007 0 0 0 0 12653090.796733856 -13579638.640911102 0 -13579638.640911102 -12883822.45303154 0 0 0 0 -9436353.5178346634 7104005.9240484238 0 7104005.9240484238 40626991.977828979 0 0 0 0 59262400.256546021 84207942.986787796 0 84207942.986787796 63115417.622105598 0 0 0 0 35457777.600002289 24671531.454626083 0 24671531.454626083 -10676794.886260986 0 0 0 0 -3623249.2302970886 -7311686.7461605072 0 -7311686.7461605072 16606053.644809723 0 0 0 0 182772821.81737518 -173815818.18506241 0 -173815818.18506241 285546237.20878077 0 0 0 0 147260656.65239334 -586885777.48659325 0 -586885777.48659325 337626308.7244873 0 0 0 0 -357940565.58506203 -34236968.077324867 0 -34236968.077324867 1244201407.4902954 0 0 0 0 1272163925.5378113 20846407.106155396 0 20846407.106155396 -666175219.52997589 0 0 0 0 -1166555.8214266617 -288162.19445843995 0 -288162.19445843995 -405067.48641379364 0 0 0 0 66299520.578201294 97430948.144609451 0 97430948.144609451 121152510.39316177 0 0 0 0 269501281.62021637 85675219.045024872 0 85675219.045024872 43754754.022285461 0 0 0 0 111401334.7147789 130873171.57049179 0 130873171.57049179 60066369.256541252 0 0 0 0 345929640.84850979 -107546974.23439217 0 -107546974.23439217 231061241.20097351 0 0 0 0 217749066.02545547 123317562.59658241 0 123317562.59658241 109255599.59014893 0 0 0 0 140909156.34023285 83673571.338396072 0 83673571.338396072 -132882085.51744652 0 0 0 0 229325552.86495972 29050422.748199463 0 29050422.748199463 -101291109.79195786 0 0 0 0 95438536.366666794 51872356.634923935 0 51872356.634923935 -56311021.15763855 0 0 0 0 102223072.65363121 97237541.645512581 0 97237541.645512581 -46670111.784503937 0 0 0 0 124624130.00549316 47604383.966030121 0 47604383.966030121 -117566017.85832977 0 0 0 0 115498831.39401245 -10087533.8653965 0 -10087533.8653965 -172718585.44374657 0 0 0 0 -68677134.817552567 -106519705.69186783 0 -106519705.69186783 -149350681.96313286 0 0 0 0 96168424.440036297 -58312033.49487114 0 -58312033.49487114 -274597622.67002487 0 0 0 0 13533786.709350586 -85442367.831958771 0 -85442367.831958771 -183697133.33258438 0 0 0 0 -2825.099645614624 -73825699.338497639 0 -73825699.338497639 -107833382.71395493 0 0 0 0 72119464.078865051 -60336379.262418747 0 -60336379.262418747 -136687011.26841164 0 0 0 0 -75204281.597750187 -109163296.87093461 0 -109163296.87093461 -35607267.335540771 0 0 0 0 26864187.581150055 -64993766.532150269 0 -64993766.532150269 -61724557.851401329 0 0 0 0 -262873216.63902283 -149215307.37804794 0 -149215307.37804794 31806854.638664246 0 0 0 0 -67860873.91305542 -198666614.44185829 0 -198666614.44185829 -169372282.85187173 0 0 0 0 24194454.504043587 -40030836.110769935 0 -40030836.110769935 40720502.371591754 0 0 0 0 -212860553.38246155 10487063.030899048 0 10487063.030899048 156219859.07149506 0 0 0 0 -28340058.819252014 -98972489.72625351 0 -98972489.72625351 9342365.9202423096 0 0 0 0 -29985622.237960815 -85164592.531295776 0 -85164592.531295776 58447538.173568726 0 0 0 0 -165192376.7125721 -177540887.9315443 0 -177540887.9315443 2803462.2662658691 0 0 0 0 -12225291.995300293 -59378813.54221344 0 -59378813.54221344 2170281.670665741 0 0 0 0 9879895.6645812988 93747955.884819031 0 93747955.884819031 126782248.53076935 0 0 0 0 -8497050.9404602051 -12647722.57598877 0 -12647722.57598877 56847417.530754089 0 0 0 0 -92279289.347389221 -49533249.009376526 0 -49533249.009376526 41075424.864624023 0 0 0 0 35826908.192272186 -91859105.799543381 0 -91859105.799543381 13742253.298377991 0 0 0 0 134889658.45545197 13851854.709243774 0 13851854.709243774 -31979860.655387878 0 0 0 0 68353049.198295593 -31103502.617296219 0 -31103502.617296219 -46225394.068275452 0 0 0 0 188729083.70797348 -1788560.0004425049 0 -1788560.0004425049 -83443729.244697571 0 0 0 0 145044611.91823578 -47977878.563991547 0 -47977878.563991547 -94183094.740352631 0 0 0 0 209736591.37212753 -46744482.052670479 0 -46744482.052670479 -88059331.59015274 0 0 0 0 5161659.3340889961 -7938650.7510498948 0 -7938650.7510498948 -19160933.873660009 0 0 0 0 -166273149.23952699 42568854.182833672 0 42568854.182833672 -12756152.890960693 0 0 0 0 -456221.01348897815 -247345.4550637491 0 -247345.4550637491 113386.97510071844 0 0 0 0 -180054282.902565 -115747631.005867 0 -115747631.005867 -105373938.85160828 0 0 0 0 34862885.571006775 -170420796.02580261 0 -170420796.02580261 -6619307.5771894455 0 0 0 0 98785777.683376312 46017191.374391556 0 46017191.374391556 -76364978.442675114 0 0 0 0 99232735.644252777 27787125.336711884 0 27787125.336711884 -18818104.612875938 0 0 0 0 119154434.80163574 3174587.5777435303 0 3174587.5777435303 -95217931.346381783 0 0 0 0 93547897.520534515 -2693017.008723259 0 -2693017.008723259 -67640442.400016785 0 0 0 0 144273010.10027695 -44777915.976024628 0 -44777915.976024628 -20781631.283420563 0 0 0 0 -139809393.91274738 33871166.763268471 0 33871166.763268471 19336234.041091919 0 0 0 0 1935267.5137014864 -5010474.7786338143 0 -5010474.7786338143 -17435746.988180593 0 0 0 0 83515746.942302704 35265806.502018929 0 35265806.502018929 -16200164.966690063 0 0 0 0 -52953879.169963837 -21193247.589519501 0 -21193247.589519501 -14417240.722679138 0 0 0 0 -908265.69430796616 -483393.20502694324 0 -483393.20502694324 192341.23934085295 0 0 0 0 -82889273.025209665 7364916.0552346706 0 7364916.0552346706 -4771305.7990112305 0 0 0 0 -194803863.85890961 82047764.21937561 0 82047764.21937561 48019561.049568176 0 0 0 0 -87491672.276644468 -39655811.480813265 0 -39655811.480813265 75714554.696136475 0 0 0 0 -45981752.970256805 56626519.549125671 0 56626519.549125671 -17314718.45867157 0 0 0 0 -110170268.14330292 35881675.061424255 0 35881675.061424255 92075445.615413666 0 0 0 0 -226620596.68449783 -228225423.75658417 0 -228225423.75658417 -221865094.00926208 0 0 0 0 -447727391.33165741 -171812301.45317268 0 -171812301.45317268 -82765016.57629776 0 0 0 0 -220657596.4858551 82489297.744812012 0 82489297.744812012 -4781305.1485643387 0 0 0 0 -241684630.6421814 66026968.994752884 0 66026968.994752884 114249572.0246048 0 0 0 0 -229495916.91495323 -19187070.073347092 0 -19187070.073347092 88193961.983802795 0 0 0 0 -151425018.47162247 23940181.808364868 0 23940181.808364868 -21461899.593276024 0 0 0 0 114262881.00883102 -35673830.664745331 0 -35673830.664745331 72612374.087034225 0 0 0 0 -239811871.60793304 53488392.703109741 0 53488392.703109741 117793856.49765015 0 0 0 0 -274011002.4396019 130719692.99216843 0 130719692.99216843 79436978.563041687 0 0 0 0 -807633763.96334839 -120062783.19042206 0 -120062783.19042206 59783202.184035778 0 0 0 0 -95269267.24246788 45470810.921033859 0 45470810.921033859 59557449.794891357 0 0 0 0 -116977126.66501904 43916867.992558479 0 43916867.992558479 206778691.70822144 0 0 0 0 66661632.457866669 -126752918.30976295 0 -126752918.30976295 -45088062.385681152 0 0 0 0 38138555.311621666 -4422201.1224107742 0 -4422201.1224107742 19693827.289337158 0 0 0 0 -146548146.87726212 -135065119.57796478 0 -135065119.57796478 -8955822.9838256836 0 0 0 0 -136141144.78436279 10826075.551246643 0 10826075.551246643 95010103.123092651 0 0 0 0 -221238079.84236526 22947322.330015182 0 22947322.330015182 117694655.92362213 0 0 0 0 -213528006.0640564 21661921.343612671 0 21661921.343612671 96523496.465659618 0 0 0 0 -248487042.87596893 -264876553.28982162 0 -264876553.28982162 -100764413.81758118 0 0 0 0 -536966461.80857849 -34909800.717689514 0 -34909800.717689514 111501622.40115929 0 0 0 0 38556139.942138672 -146768298.14519501 0 -146768298.14519501 -136818975.61485672 0 0 0 0 -11085482.544975281 -50673659.809112549 0 -50673659.809112549 -1704549.4324188232 0 0 0 0 -36413669.869758606 -114520941.0141983 0 -114520941.0141983 -28255473.93170166 0 0 0 0 -27501029.630210876 -127740560.5868454 0 -127740560.5868454 -53427567.941818237 0 0 0 0 -15826898.985099792 -108145879.53903198 0 -108145879.53903198 -20573707.364952087 0 0 0 0 2528351.2957611084 -56031832.9454422 0 -56031832.9454422 -44767632.847525597 0 0 0 0 -9663665.8141441345 -61227239.091714859 0 -61227239.091714859 -409679.23458862305 0 0 0 0 11608285.032577515 -28986318.599952698 0 -28986318.599952698 19144080.614528656 0 0 0 0 6896544.0154571533 -30137692.673851013 0 -30137692.673851013 34779817.18119812 0 0 0 0 27515634.844421387 -30455223.106910706 0 -30455223.106910706 24746050.53094101 0 0 0 0 3202715.516122818 -55473687.441688538 0 -55473687.441688538 -104549.53614807129 0 0 0 0 1289017.3069885457 -4353630.3524371628 0 -4353630.3524371628 881215.67690914869 0 0 0 0 -647187505.68309784 -285757868.93544388 0 -285757868.93544388 -87567311.793228149 0 0 0 0 138725545.50940704 -62924718.500972748 0 -62924718.500972748 -66910374.313613892 0 0 0 0 563777.71573541313 -1173470.8654630035 0 -1173470.8654630035 1077695.3762974441 0 0 0 0 24983912.919141769 -35575780.19370079 0 -35575780.19370079 48720546.196868896 0 0 0 0 -548092037.01506424 302477178.51774216 0 302477178.51774216 337586687.42349243 0 0 0 0 -250108633.70466232 -363485929.54955101 0 -363485929.54955101 -806298728.11572266 0 0 0 0 -5833963.7277297974 -9644671.6859893799 0 -9644671.6859893799 12910252.563606262 0 0 0 0 -2765778.1519901277 -7743832.6845722347 0 -7743832.6845722347 14013969.257420838 0 0 0 0 15885422.153205872 -28662225.012763977 0 -28662225.012763977 31372449.239456177 0 0 0 0 7065756.7356926557 -12246835.375039566 0 -12246835.375039566 2809583.3456533998 0 0 0 0 21093071.962398529 -28448517.282459259 0 -28448517.282459259 31300252.307174683 0 0 0 0 28751741.612258911 -55442097.436691284 0 -55442097.436691284 49230598.722756505 0 0 0 0 6510267.5833442099 -8448962.0755182616 0 -8448962.0755182616 367431.86619596183 0 0 0 0 32869278.759880066 -51056475.782325745 0 -51056475.782325745 35974467.437831879 0 0 0 0 -2599392.3651643284 -1998896.8870847151 0 -1998896.8870847151 -805379.05955244601 0 0 0 0 185747104.47791481 -301487237.5504837 0 -301487237.5504837 238074697.30821228 0 0 0 0 149264833.53639221 -253343911.18439102 0 -253343911.18439102 306835828.54133606 0 0 0 0 -39863572.196269989 212003270.57445145 0 212003270.57445145 -4076079.0731506348 0 0 0 0 138057820.14687347 -247946750.70093155 0 -247946750.70093155 -300580887.14009094 0 0 0 0 -758741844.32993031 -182311116.38475704 0 -182311116.38475704 288620671.8392334 0 0 0 0 -1264724.8588259332 -813985.04893847927 0 -813985.04893847927 -240223.75756020099 0 0 0 0 190837125.87966347 -83198970.063913345 0 -83198970.063913345 -112113638.32363892 0 0 0 0 190211453.29832649 -60579317.84125042 0 -60579317.84125042 -83588249.84160614 0 0 0 0 12808186.264915466 -161446584.90706635 0 -161446584.90706635 -44821863.577453613 0 0 0 0 219908864.23244476 -134234676.3836174 0 -134234676.3836174 -173508844.04032135 0 0 0 0 10819281.871057749 -250610756.74440688 0 -250610756.74440688 627254.2699432373 0 0 0 0 -287148252.94732666 -511307951.15532684 0 -511307951.15532684 -219369036.32806396 0 0 0 0 -281319254.45838928 -172706290.0588913 0 -172706290.0588913 53558404.084571838 0 0 0 0 -43924573.13052845 -102894700.21661758 0 -102894700.21661758 -6541569.1088867188 0 0 0 0 -53048244.920505524 -114732078.50981808 0 -114732078.50981808 65826124.872329712 0 0 0 0 94576249.502742767 -66076551.749465942 0 -66076551.749465942 -33862554.559860229 0 0 0 0 64596712.298294067 -139527565.29385757 0 -139527565.29385757 -36206706.761604309 0 0 0 0 -8266362.4637413025 -8179588.804599762 0 -8179588.804599762 5069920.2799797058 0 0 0 0 2554477.9490665849 -16878714.121489763 0 -16878714.121489763 9862919.0113311484 0 0 0 0 -5742507.8221912384 -12043856.385183334 0 -12043856.385183334 4545636.9647369385 0 0 0 0 525957.80123329163 -13915839.460055828 0 -13915839.460055828 4915183.4103851318 0 0 0 0 -251220.96902370453 -8097712.6708955765 0 -8097712.6708955765 4078577.0577087402 0 0 0 0 -1621772.0122865695 -15091689.417552482 0 -15091689.417552482 18630419.296282381 0 0 0 0 -12172976.44694519 19442812.024864197 0 19442812.024864197 80345655.583724976 0 0 0 0 -936340766.98041534 -231372981.93353271 0 -231372981.93353271 530542778.84843445 0 0 0 0 -198436607.64716339 54489060.246589661 0 54489060.246589661 324586599.46754837 0 0 0 0 -103070198.17443466 -63641538.854030609 0 -63641538.854030609 15876402.137741089 0 0 0 0 8840078.3145093918 -45830361.517829895 0 -45830361.517829895 11680484.781531096 0 0 0 0 -566697.18658065796 -24526208.155334473 0 -24526208.155334473 11260586.359422684 0 0 0 0 11000080.947342038 -23058541.823372841 0 -23058541.823372841 876542.03924560547 0 0 0 0 45515453.286226273 -37272743.716659546 0 -37272743.716659546 8749110.1397857666 0 0 0 0 19541670.296581268 -36002020.602203369 0 -36002020.602203369 14014069.009140015 0 0 0 0 2644346.5552017642 -14046800.26720161 0 -14046800.26720161 3323855.391913265 0 0 0 0 -1412661.5553207397 -15512341.768051147 0 -15512341.768051147 7992520.5726737976 0 0 0 0 -7676023.3653793335 -37142414.886604309 0 -37142414.886604309 26534174.66119194 0 0 0 0 -9368537.7125205994 -9344961.9272842407 0 -9344961.9272842407 6966213.4803390503 0 0 0 0 -413622.97582244873 -8034545.7029495239 0 -8034545.7029495239 3502109.9909210205 0 0 0 0 3781033.1130530769 -10586048.835261177 0 -10586048.835261177 -484721.87538541853 0 0 0 0 -4860672.6642616186 -7507447.1635260899 0 -7507447.1635260899 11673916.007828236 0 0 0 0 -5584058.9771099091 -12747966.709156036 0 -12747966.709156036 15069262.89138031 0 0 0 0 19086762.433432832 -13122795.432815671 0 -13122795.432815671 340702.68145751953 0 0 0 0 -29992461.370243073 39310837.483673096 0 39310837.483673096 -11080761.528244019 0 0 0 0 -36881534.5675354 -9019513.572517395 0 -9019513.572517395 29335509.532745361 0 0 0 0 32992331.967933655 30598469.40070343 0 30598469.40070343 12694023.569671631 0 0 0 0 -52552558.785680771 3801224.4257793427 0 3801224.4257793427 42950703.540008545 0 0 0 0 23515984.900503159 1609917.7138290405 0 1609917.7138290405 -31095165.601959229 0 0 0 0 -31580009.173868179 11340383.931983948 0 11340383.931983948 107520665.81216431 0 0 0 0 397063.96296398132 -1255677.2884487286 0 -1255677.2884487286 -587718.58528968692 0 0 0 0 -106107571.54767561 -100994005.03783226 0 -100994005.03783226 5764317.7179870605 0 0 0 0 -26540739.333595276 -83629791.927810669 0 -83629791.927810669 -4168437.6839599609 0 0 0 0 -90526224.795484543 -56726430.941047668 0 -56726430.941047668 38240025.025650024 0 0 0 0 -26939295.201805115 -43955046.109100342 0 -43955046.109100342 38279561.821655273 0 0 0 0 19153629.00800705 -6673166.9472045898 0 -6673166.9472045898 61078733.092468262 0 0 0 0 -30365855.300765034 -21891279.923958339 0 -21891279.923958339 14700180.600826904 0 0 0 0 -16616282.56294775 -38872346.383865356 0 -38872346.383865356 37077850.057304382 0 0 0 0 -12300062.175191879 -60953944.735904694 0 -60953944.735904694 70990012.364593506 0 0 0 0 -48993482.158245087 -67662096.966087341 0 -67662096.966087341 57125709.762893677 0 0 0 0 -18148754.115048226 -23017526.717075124 0 -23017526.717075124 16462305.595057331 0 0 0 0 -63286983.113170624 -5310932.5772666931 0 -5310932.5772666931 52629231.382705688 0 0 0 0 -20088003.253368378 -48738132.19304657 0 -48738132.19304657 42439158.858230591 0 0 0 0 -76693168.519035339 -50366542.426925659 0 -50366542.426925659 34254161.989768982 0 0 0 0 18281406.555900544 -42141534.333930634 0 -42141534.333930634 35111049.52834145 0 0 0 0 -67402499.050333977 -42041408.081438065 0 -42041408.081438065 41545495.80065918 0 0 0 0 -57744753.678728104 -72875053.279845238 0 -72875053.279845238 38937409.17539978 0 0 0 0 64177716.792835236 -119117464.18663406 0 -119117464.18663406 -42779431.360204697 0 0 0 0 97597460.999494553 1181738.0231437683 0 1181738.0231437683 10526629.933532715 0 0 0 0 8728060.0178783461 -23254324.552913968 0 -23254324.552913968 -14893891.647153113 0 0 0 0 60570894.744606018 -109613966.03185081 0 -109613966.03185081 -63924269.641540885 0 0 0 0 62835714.877039194 -36125907.799970627 0 -36125907.799970627 19413819.756515503 0 0 0 0 61470688.760710478 -6038557.8306913376 0 -6038557.8306913376 27614699.589874268 0 0 0 0 23386881.774688721 -17194670.976486206 0 -17194670.976486206 26861721.600616455 0 0 0 0 18651611.636047363 -21905810.35836792 0 -21905810.35836792 28031116.515174866 0 0 0 0 -1419350.4221153259 -39083651.066337585 0 -39083651.066337585 28622595.32673645 0 0 0 0 12511178.823944092 -31902602.125808716 0 -31902602.125808716 21440447.494789124 0 0 0 0 49880400.584940434 -42420432.921595573 0 -42420432.921595573 27886042.761138916 0 0 0 0 25194733.138626099 -28288978.17691803 0 -28288978.17691803 31311741.877624512 0 0 0 0 46823839.922164917 -17659587.841217041 0 -17659587.841217041 24010614.725601196 0 0 0 0 29829532.787155151 -27683097.659759521 0 -27683097.659759521 31248538.34336853 0 0 0 0 41316431.405815125 -33834458.474136353 0 -33834458.474136353 28464646.216278076 0 0 0 0 -5532058.7519798279 -11529952.135696411 0 -11529952.135696411 5893657.2646179199 0 0 0 0 14208432.354293823 -26486246.234329224 0 -26486246.234329224 25143891.829742432 0 0 0 0 1882562.8940891754 -20021124.165368803 0 -20021124.165368803 8278217.7373835817 0 0 0 0 25975465.244400024 -34368202.613487244 0 -34368202.613487244 30412099.033336639 0 0 0 0 15727026.385948539 -33686577.789482653 0 -33686577.789482653 28403381.107589722 0 0 0 0 17795217.026473999 -29444149.239372253 0 -29444149.239372253 34813286.264313698 0 0 0 0 17740668.01600647 -28860923.462989807 0 -28860923.462989807 34144621.784576416 0 0 0 0 -5160513.2376251221 -10628929.944915771 0 -10628929.944915771 -3729821.5583496094 0 0 0 0 16452003.648651123 -17810187.718505859 0 -17810187.718505859 33372941.545452118 0 0 0 0 -5464577.985677856 -11719149.757413153 0 -11719149.757413153 14299671.910756692 0 0 0 0 31468671.961097717 -41600058.928661346 0 -41600058.928661346 37482811.238983154 0 0 0 0 7005310.0324316286 -22844547.146486998 0 -22844547.146486998 -1987832.5206981301 0 0 0 0 1848274.0118223354 -1999497.2584287897 0 -1999497.2584287897 727149.50829606503 0 0 0 0 34277348.97076416 -28076103.945892334 0 -28076103.945892334 42749741.028427124 0 0 0 0 918357.46922895836 -28087362.767561939 0 -28087362.767561939 20297679.605159588 0 0 0 0 758164.02121734619 -9027412.7887115479 0 -9027412.7887115479 1521178.7152099609 0 0 0 0 2430204.7011428513 -13271603.237525541 0 -13271603.237525541 13822591.68906448 0 0 0 0 390576885.23572254 449225815.94207287 0 449225815.94207287 4918249.432510376 0 0 0 0 -618000492.92357635 166232231.64572525 0 166232231.64572525 161565027.23950577 0 0 0 0 65515565.449590683 146780305.1346035 0 146780305.1346035 50583205.881973267 0 0 0 0 381214942.49478912 -18099737.211624146 0 -18099737.211624146 92579538.648950577 0 0 0 0 -5043.2982517322525 -561642.55253394786 0 -561642.55253394786 511362.7707150653 0 0 0 0 -569182603.26898575 -401673354.2559948 0 -401673354.2559948 89503760.206123352 0 0 0 0 6063411.1172904968 98979343.702178955 0 98979343.702178955 92553020.581687927 0 0 0 0 97034203.27759552 214868622.95508575 0 214868622.95508575 99247941.207603455 0 0 0 0 191244816.96053982 -369102108.17840672 0 -369102108.17840672 199394813.74676132 0 0 0 0 -311252.1825412428 -594076.82868303545 0 -594076.82868303545 1776658.6103047356 0 0 0 0 -750030476.35694122 45887403.685678482 0 45887403.685678482 213901810.61862755 0 0 0 0 3202939.259349823 -3343418.5287590027 0 -3343418.5287590027 -47184930.151161194 0 0 0 0 -340517413.09981537 -260304741.62421417 0 -260304741.62421417 -115911522.7179389 0 0 0 0 -530611684.19832802 -479835465.46376038 0 -479835465.46376038 169636812.34649658 0 0 0 0 -1387668512.6327896 -952025058.90871429 0 -952025058.90871429 -69269451.786407471 0 0 0 0 -1553002360.591526 -122488592.27217674 0 -122488592.27217674 386639698.68403053 0 0 0 0 -562503203.22601318 -374627613.37305832 0 -374627613.37305832 -86209182.022127151 0 0 0 0 -481035705.55985641 -445656559.70816803 0 -445656559.70816803 88956452.284664154 0 0 0 0 102369524.34485626 -91110848.611614227 0 -91110848.611614227 -98988800.950206757 0 0 0 0 -1268902.0082401447 -998571.64958923683 0 -998571.64958923683 -452016.99352359027 0 0 0 0 -761419664.90994787 -168252293.76516914 0 -168252293.76516914 520581901.88755798 0 0 0 0 -649210225.96084595 -766904982.75561142 0 -766904982.75561142 -387660320.87043762 0 0 0 0 -879941328.14078522 -758683196.07337189 0 -758683196.07337189 -26975443.906935692 0 0 0 0 -326727584.64459038 -219705800.75236988 0 -219705800.75236988 -380959024.81617737 0 0 0 0 -851311303.86689377 -583523757.7845993 0 -583523757.7845993 -374353456.71210575 0 0 0 0 -741671892.22955322 -807027267.33866692 0 -807027267.33866692 -301016540.73836899 0 0 0 0 71850272.407165527 -681910367.94268036 0 -681910367.94268036 -666093671.1486721 0 0 0 0 -779253170.94722891 -850844999.40294504 0 -850844999.40294504 -336095388.93401337 0 0 0 0 -406379683.53787613 -336124944.18738556 0 -336124944.18738556 -637256614.29098821 0 0 0 0 -404946907.24860954 -430409049.00720215 0 -430409049.00720215 -320352370.47166443 0 0 0 0 15289262.352222443 -185177005.57044983 0 -185177005.57044983 -361161898.00254154 0 0 0 0 20798967.369132996 -341840238.86971283 0 -341840238.86971283 368499669.83792114 0 0 0 0 -20154115.440765381 -15066873.514436722 0 -15066873.514436722 55134165.85887146 0 0 0 0 114419834.14056015 -351527160.54927826 0 -351527160.54927826 361000429.42478943 0 0 0 0 -2683833.0711701475 -2157782.024479311 0 -2157782.024479311 -941875.45531694219 0 0 0 0 202770795.1386013 -259487041.03353691 0 -259487041.03353691 -52677576.116264343 0 0 0 0 130190152.05822372 -24243366.950164795 0 -24243366.950164795 -1336263.1966667175 0 0 0 0 29514642.970283508 -134775185.81363678 0 -134775185.81363678 -119678906.55335617 0 0 0 0 -311157.48805274721 -3818348.9853152866 0 -3818348.9853152866 -1974545.3863694519 0 0 0 0 262828366.76249695 -4347067.028181076 0 -4347067.028181076 -73614927.665245056 0 0 0 0 80575066.489501953 -56362185.440322876 0 -56362185.440322876 -23662643.78886795 0 0 0 0 102050128.59549332 -46857493.444885254 0 -46857493.444885254 -39030524.815887451 0 0 0 0 2724566.5191816902 -17393197.11177443 0 -17393197.11177443 -10941125.979107674 0 0 0 0 -22140450.033859253 -72270721.897647858 0 -72270721.897647858 -27998253.837162018 0 0 0 0 -7781894.8334774356 -4477897.8171141036 0 -4477897.8171141036 12196476.194926091 0 0 0 0 -124280625.88046646 -31760988.832819939 0 -31760988.832819939 43192747.599998474 0 0 0 0 -155262075.83749962 -139689498.80883408 0 -139689498.80883408 -94022096.983650208 0 0 0 0 -87817556.52633667 -69910607.225189209 0 -69910607.225189209 -21937152.28175354 0 0 0 0 -89526957.858085632 -62440343.444122314 0 -62440343.444122314 -35827333.747444153 0 0 0 0 -102450191.38043976 -76220661.876251221 0 -76220661.876251221 33339165.140815735 0 0 0 0 -90919551.308879852 -47210073.818082809 0 -47210073.818082809 2476909.52394104 0 0 0 0 -56175844.491569519 -52996838.719337463 0 -52996838.719337463 66594440.455673218 0 0 0 0 -64853461.672283173 -83359294.260070801 0 -83359294.260070801 -19255602.405502319 0 0 0 0 -119521476.39816284 -45877535.301486969 0 -45877535.301486969 -15603213.46555233 0 0 0 0 -13837643.437850952 -61283387.387481689 0 -61283387.387481689 -187737341.41506195 0 0 0 0 -250675573.86504364 -180760216.89527512 0 -180760216.89527512 -153800883.71079254 0 0 0 0 3150432.2899794579 -29451726.24270916 0 -29451726.24270916 -154014580.29411316 0 0 0 0 -97469231.124614716 -12034471.640983582 0 -12034471.640983582 -102954735.64699936 0 0 0 0 -222825078.38220596 -123401939.64044762 0 -123401939.64044762 58561589.368198395 0 0 0 0 -178155700.44499302 -272532417.88567877 0 -272532417.88567877 -356578889.50400543 0 0 0 0 -685070779.71456337 -1081674511.2160091 0 -1081674511.2160091 -723329126.35564423 0 0 0 0 -869558.74663932296 -3549141.3814022206 0 -3549141.3814022206 -3193602.2699850202 0 0 0 0 607253496.65649033 29536977.281131744 0 29536977.281131744 -559370225.00624466 0 0 0 0 -4604371671.1790218 -603690845.7235117 0 -603690845.7235117 -161302485.35419464 0 0 0 0 140244909.62557983 -522988534.68292236 0 -522988534.68292236 -1013541620.8979912 0 0 0 0 93318852.586650848 -207382369.91292572 0 -207382369.91292572 48478840.960128784 0 0 0 0 -101614021.99443436 -72821211.695995331 0 -72821211.695995331 73081030.045288086 0 0 0 0 352861601.12608337 -98810901.292613983 0 -98810901.292613983 -19227599.575796127 0 0 0 0 -1363165.3155331514 -10118547.225908304 0 -10118547.225908304 -10565240.136376195 0 0 0 0 -4369459784.7221317 977734508.18433762 0 977734508.18433762 645322104.84611511 0 0 0 0 -562850901.90234375 1009928082.477684 0 1009928082.477684 -1088706278.9999237 0 0 0 0 -1355329330.9513702 61741285.291366577 0 61741285.291366577 -749546522.62154388 0 0 0 0 -2264076040.7719193 -591814555.69829559 0 -591814555.69829559 -170879893.07276917 0 0 0 0 -518872194.71552277 -75276306.728637695 0 -75276306.728637695 -226530298.28289795 0 0 0 0 -594304489.40757751 -1517032614.7832108 0 -1517032614.7832108 927040281.08430481 0 0 0 0 -683261299.56542587 -192593253.65675354 0 -192593253.65675354 1483236902.092514 0 0 0 0 409552411.39230728 -468093786.842659 0 -468093786.842659 -36494082.003294468 0 0 0 0 -1051057452.3372993 -911485134.79946136 0 -911485134.79946136 -397832303.12970734 0 0 0 0 -100181528.08892059 -214082712.20955658 0 -214082712.20955658 -55858973.627930164 0 0 0 0 157613222.27943039 -321632545.42194748 0 -321632545.42194748 -412782175.61238098 0 0 0 0 719585300.7645874 221989530.29279327 0 221989530.29279327 -619575290.44777489 0 0 0 0 141076520.45888138 -201823689.01421928 0 -201823689.01421928 -1170261635.3958893 0 0 0 0 -1080749513.566185 -829048365.62414551 0 -829048365.62414551 -1433934101.9680328 0 0 0 0 -544355457.77145386 213844003.80147934 0 213844003.80147934 -576059562.42662048 0 0 0 0 -636033887.56145096 349203547.88040161 0 349203547.88040161 -800134044.05458832 0 0 0 0 90923986.127807617 423396774.69506836 0 423396774.69506836 -453737141.93642426 0 0 0 0 32588837.842384338 -217532821.71648788 0 -217532821.71648788 -489401545.39175415 0 0 0 0 -31710407.537358716 -9899634.8859272376 0 -9899634.8859272376 7845853.5012476854 0 0 0 0 -442455609.67140579 134923086.58351135 0 134923086.58351135 6491595.457901001 0 0 0 0 -615501254.47871399 -190442346.6539917 0 -190442346.6539917 299743076.69949913 0 0 0 0 14200429.883354187 -19026752.181213379 0 -19026752.181213379 -7906522.2934875488 0 0 0 0 -829592771.3089447 -95674633.62286377 0 -95674633.62286377 290372692.76965714 0 0 0 0 -931823424.48937607 175276596.49108887 0 175276596.49108887 903784876.78842163 0 0 0 0 -386931624.41509247 2081155510.1363678 0 2081155510.1363678 -2723020179.5975037 0 0 0 0 -1715911596.5718536 4040058293.9159546 0 4040058293.9159546 2403938427.0722733 0 0 0 0 -947675962.12055969 -1203345580.846405 0 -1203345580.846405 361926172.02203369 0 0 0 0 -1524882124.6161346 -1111044880.4678955 0 -1111044880.4678955 1849258189.8451195 0 0 0 0 -1813345714.7025032 -422256654.4704895 0 -422256654.4704895 529391296.94573975 0 0 0 0 -1001278884.3221588 -450353731.39657593 0 -450353731.39657593 493292287.99436951 0 0 0 0 -1132251166.1095428 -658763676.8548584 0 -658763676.8548584 217388650.53637695 0 0 0 0 -786491523.97119713 -432184910.06537628 0 -432184910.06537628 140198791.90570068 0 0 0 0 -1133021060.4445713 -556768830.55247033 0 -556768830.55247033 -17213211.935241699 0 0 0 0 -1094546855.8679199 -787377288.42932129 0 -787377288.42932129 356684592.32019043 0 0 0 0 -1235578268.3338699 -768584430.08296204 0 -768584430.08296204 -277691628.13140869 0 0 0 0 -1202833459.5934296 -596423841.28901672 0 -596423841.28901672 -39361380.743988037 0 0 0 0 -1383648438.0490723 -425089260.84009552 0 -425089260.84009552 -160139571.55319214 0 0 0 0 -818330965.03974152 -549087883.02270508 0 -549087883.02270508 -162253599.97314453 0 0 0 0 -469792026.05901337 -535142175.78808594 0 -535142175.78808594 -249220315.86878204 0 0 0 0 -943835486.83915329 -500230996.01757812 0 -500230996.01757812 134658563.87536621 0 0 0 0 -264535097.07529259 -177648664.29045105 0 -177648664.29045105 73357268.001953125 0 0 0 0 -211270511.26199722 -24372880.343612671 0 -24372880.343612671 26650680.792312622 0 0 0 0 -437854414.88530159 -325833107.37736511 0 -325833107.37736511 47448675.719238281 0 0 0 0 -66284152.360210419 -231126813.22711182 0 -231126813.22711182 45829937.557312012 0 0 0 0 66709511.065364838 -22036016.733306885 0 -22036016.733306885 84382155.541503906 0 0 0 0 -4105635.5096359253 -240848160.53675842 0 -240848160.53675842 -166637971.87185669 0 0 0 0 86584900.533256531 -105080636.71996307 0 -105080636.71996307 17700959.018066406 0 0 0 0 -49979348.775932312 15578331.857849121 0 15578331.857849121 -73965803.381584167 0 0 0 0 -36951902.528129578 -161858099.36843872 0 -161858099.36843872 -425062270.69606018 0 0 0 0 145475291.93840456 -181853799.35139275 0 -181853799.35139275 -222303993.23312378 0 0 0 0 137056497.62719345 -310227130.78053284 0 -310227130.78053284 69585522.656326294 0 0 0 0 42046256.27712822 -49328901.668861389 0 -49328901.668861389 -111935352.73414612 0 0 0 0 114911580.39964294 35416605.73266983 0 35416605.73266983 -339683197.45507812 0 0 0 0 4694300.9522531964 3196596.3776382394 0 3196596.3776382394 -1140453.5211610438 0 0 0 0 -241824519.95550537 -249534601.2815094 0 -249534601.2815094 -566608255.25044918 0 0 0 0 -1158642648.9222488 -933785054.44337463 0 -933785054.44337463 2281237766.9382401 0 0 0 0 -1035737014.0397263 -203760354.55165863 0 -203760354.55165863 -139670209.56724548 0 0 0 0 -482161606.64579773 -643970990.14393616 0 -643970990.14393616 -940989448.39974976 0 0 0 0 -387410.25604914129 1792627.430837214 0 1792627.430837214 -524971.00722312788 0 0 0 0 -1130201704.3597336 -647455950.33412933 0 -647455950.33412933 -150155328.19067383 0 0 0 0 -617932691.91099167 -1524014.5058364868 0 -1524014.5058364868 664163881.84669495 0 0 0 0 -1284163885.1100159 -419598777.37316895 0 -419598777.37316895 -325876544.5736618 0 0 0 0 -1488749998.8839264 -202414609.98934937 0 -202414609.98934937 -387145810.58024216 0 0 0 0 -1344289273.3377075 -439003098.5861969 0 -439003098.5861969 -215747071.35449219 0 0 0 0 187449837.03421307 -89547048.960333824 0 -89547048.960333824 -39896367.180114746 0 0 0 0 -3663559102.1847706 -428519149.23260307 0 -428519149.23260307 810281878.50201416 0 0 0 0 107116.68027329445 -17587661.007728688 0 -17587661.007728688 -22684216.332700968 0 0 0 0 -1936159061.5419769 -1957747507.6590118 0 -1957747507.6590118 1279576475.0564651 0 0 0 0 57133601.568019867 -71782816.465711594 0 -71782816.465711594 7885294.5382537842 0 0 0 0 79928329.268089294 -110031878.63866425 0 -110031878.63866425 14551641.135105133 0 0 0 0 26691939.015003204 -98631294.588565826 0 -98631294.588565826 10939017.506393433 0 0 0 0 98325422.792007446 -25076109.866313934 0 -25076109.866313934 -24171227.20085144 0 0 0 0 19160218.824684143 -59604899.942230225 0 -59604899.942230225 -13908660.015953064 0 0 0 0 19725651.337085724 -47115107.605819702 0 -47115107.605819702 -72960204.005462646 0 0 0 0 32324836.444252014 -81010082.326835632 0 -81010082.326835632 -60416904.147697449 0 0 0 0 -675201182.81602478 241445284.13180542 0 241445284.13180542 -316835144.78784084 0 0 0 0 -3786579.1771216057 -24278359.641468652 0 -24278359.641468652 27384369.462605044 0 0 0 0 37020417.006404877 -80282823.517051697 0 -80282823.517051697 -84000542.581619263 0 0 0 0 -1379672945.9045792 -388317949.69021606 0 -388317949.69021606 -193648280.01919556 0 0 0 0 4079816.1902648862 -27953773.45904088 0 -27953773.45904088 -39020035.934678093 0 0 0 0 -1265907891.2755432 -400529573.26335144 0 -400529573.26335144 -216683852.41973877 0 0 0 0 -1209561644.1014862 -530409287.37393188 0 -530409287.37393188 -84090602.112976074 0 0 0 0 -1165009147.5842743 -552390104.08117676 0 -552390104.08117676 -185468148.6807251 0 0 0 0 -1262909151.0033684 -399032316.73875427 0 -399032316.73875427 -348215279.92062378 0 0 0 0 302790854.20182037 -1392102918.2528992 0 -1392102918.2528992 880246207.85836792 0 0 0 0 -1416215.1293424927 -4545223.1061457731 0 -4545223.1061457731 878684.23987816274 0 0 0 0 460948292.15194702 1194920381.945343 0 1194920381.945343 3170835550.217041 0 0 0 0 -2951997155.9308624 -268723524.06506348 0 -268723524.06506348 4835769475.3719482 0 0 0 0 -966858552.86470032 -1045885443.9744263 0 -1045885443.9744263 124156577.77185059 0 0 0 0 4617314.1301709674 -6268335.5509225838 0 -6268335.5509225838 -5948637.9823094755 0 0 0 0 -1081384394.2408447 -826774501.05715942 0 -826774501.05715942 -289030692.97531128 0 0 0 0 -6247394516.523941 -3178896057.443634 0 -3178896057.443634 3618243392.6302185 0 0 0 0 -1366346.2884626128 787266.74915977567 0 787266.74915977567 -861340.12383905053 0 0 0 0 303006519.00101471 -189942043.93080139 0 -189942043.93080139 -10009036.678833008 0 0 0 0 269599218.99880219 -1731214782.7923279 0 -1731214782.7923279 662171497.55738831 0 0 0 0 326861068.17571735 -54844642.801616669 0 -54844642.801616669 11485176.204589844 0 0 0 0 496293015.34265137 -785685747.54821777 0 -785685747.54821777 -242718431.80670547 0 0 0 0 164601332.27503967 -159597044.88900757 0 -159597044.88900757 -4692122.5937957764 0 0 0 0 200289281.11975861 -293519764.78862 0 -293519764.78862 -113193226.39526367 0 0 0 0 179001872.7061615 -166191362.39207458 0 -166191362.39207458 91262107.882980347 0 0 0 0 248802642.69502258 -214130429.5741272 0 -214130429.5741272 29956260.534545898 0 0 0 0 221239214.12911797 -127409178.48732758 0 -127409178.48732758 17129419.688171387 0 0 0 0 423095644.49794006 -184078172.34980774 0 -184078172.34980774 28575268.139205933 0 0 0 0 390371138.48428345 12309029.288253784 0 12309029.288253784 34041294.295988083 0 0 0 0 182889255.25758362 -12911727.040802002 0 -12911727.040802002 33585370.462860107 0 0 0 0 293923405.60785675 -116471936.62149048 0 -116471936.62149048 -27295167.656768799 0 0 0 0 90664759.346542358 -99186058.199035645 0 -99186058.199035645 -12893576.424468994 0 0 0 0 175861110.09929657 -17432266.732116699 0 -17432266.732116699 -45688932.445343018 0 0 0 0 84758080.840026855 -185613485.37702942 0 -185613485.37702942 -86609680.334472656 0 0 0 0 195408011.51054764 -200697488.17632294 0 -200697488.17632294 -99073353.010528564 0 0 0 0 10460753.557113647 -350548497.51611328 0 -350548497.51611328 -86984190.652229309 0 0 0 0 -67914011.366722107 -92169279.369632721 0 -92169279.369632721 -9619803.4669189453 0 0 0 0 -43092873.440320969 -127310937.0625782 0 -127310937.0625782 -26024442.253128052 0 0 0 0 -5867243.1273191012 -26877820.703657456 0 -26877820.703657456 30619652.235260636 0 0 0 0 19293113.044845581 -119772044.22092438 0 -119772044.22092438 26997646.113540649 0 0 0 0 -47691963.622653961 -100682773.60877228 0 -100682773.60877228 32969082.328765869 0 0 0 0 -53600246.529785156 -82925311.033845901 0 -82925311.033845901 -18775340.57019043 0 0 0 0 19073608.972122192 -83063631.730926514 0 -83063631.730926514 -17725191.857940674 0 0 0 0 -55283250.242271423 -73156791.60559082 0 -73156791.60559082 30214005.536170959 0 0 0 0 -78999390.894199371 -33913479.174676895 0 -33913479.174676895 41774157.885246277 0 0 0 0 -56468915.402760506 -44394684.787939072 0 -44394684.787939072 -17443160.269622803 0 0 0 0 10366733.922866821 -256771412.89604187 0 -256771412.89604187 -114722939.34965134 0 0 0 0 46493060.504455566 -74051198.022087097 0 -74051198.022087097 -143993217.41729736 0 0 0 0 -42514830.748210907 -100046895.20066833 0 -100046895.20066833 -6819275.7220611572 0 0 0 0 1455125.3166546049 -26199699.645418733 0 -26199699.645418733 -21370794.467759848 0 0 0 0 -3439356.2718305998 -28482881.082235307 0 -28482881.082235307 26317295.349224448 0 0 0 0 36006386.096717834 -43508455.952156067 0 -43508455.952156067 -37305221.679958344 0 0 0 0 273628.66556585953 -28075807.819496524 0 -28075807.819496524 -29256491.321833774 0 0 0 0 56678064.671646118 -79456214.955558777 0 -79456214.955558777 -36943615.818086624 0 0 0 0 66586456.785491943 -36187372.029090881 0 -36187372.029090881 -35791814.692245483 0 0 0 0 41049316.371839523 -57877820.315371513 0 -57877820.315371513 -31607717.875335693 0 0 0 0 56444744.77354002 -39744574.275015831 0 -39744574.275015831 -110109064.34033203 0 0 0 0 53603799.914720535 -56765056.200427055 0 -56765056.200427055 -40416192.35836792 0 0 0 0 -1330523.1579182763 -32530276.85794989 0 -32530276.85794989 -26804759.062359028 0 0 0 0 33610012.29990387 -14772828.156414032 0 -14772828.156414032 -16606757.551818848 0 0 0 0 -12465649.497016907 30044864.041122437 0 30044864.041122437 -17171973.130195618 0 0 0 0 15096961.958328247 28801362.926391602 0 28801362.926391602 -97978500.95211792 0 0 0 0 39290289.87417984 -9320409.4660720825 0 -9320409.4660720825 -50823082.494537354 0 0 0 0 -1235389.030860967 -5572826.5822684541 0 -5572826.5822684541 -8266107.7925365567 0 0 0 0 186385995.50325012 -31208448.348007202 0 -31208448.348007202 -27877353.26385498 0 0 0 0 -16868885.217658997 42389256.456176758 0 42389256.456176758 -51455972.65713501 0 0 0 0 -284592200.84239197 -475221411.62709808 0 -475221411.62709808 -61500928.059783936 0 0 0 0 -617717456.94613647 534709594.33570862 0 534709594.33570862 -140975112.26593781 0 0 0 0 342436914.05157471 33790750.897857666 0 33790750.897857666 -549236316.55349731 0 0 0 0 317682.32644791901 -3108661.6464844383 0 -3108661.6464844383 -5548278.1553258896 0 0 0 0 332366091.87666321 -55931738.728729248 0 -55931738.728729248 -70654128.926879883 0 0 0 0 -800554.34439877793 -2284818.8334386945 0 -2284818.8334386945 -3634340.3868461847 0 0 0 0 -38763618.157836914 -81146446.441650391 0 -81146446.441650391 -8869631.0834960938 0 0 0 0 -52929587.626251221 -52646849.717704773 0 -52646849.717704773 -64762007.570770264 0 0 0 0 2787911.1627274808 -11615438.700697951 0 -11615438.700697951 -8917967.1680573821 0 0 0 0 -12713085.932281494 -27328087.631866455 0 -27328087.631866455 -20650083.100357056 0 0 0 0 -29995207.264797688 13268806.50182724 0 13268806.50182724 234161378.88401794 0 0 0 0 -2094506.9744529724 -54156040.618896484 0 -54156040.618896484 -18864631.307434082 0 0 0 0 -14265059.709686279 -36025985.597961426 0 -36025985.597961426 -15377977.179580688 0 0 0 0 -34646579.131217003 -28915796.387958527 0 -28915796.387958527 -13002088.572235107 0 0 0 0 248269174.4546051 99086785.689971924 0 99086785.689971924 -66433221.358818054 0 0 0 0 296231910.1774292 39324150.273223877 0 39324150.273223877 -43285981.700439453 0 0 0 0 -67063980.697097778 -381837611.14120483 0 -381837611.14120483 414382925.29034424 0 0 0 0 -60657.025815811008 -3355245.3769343942 0 -3355245.3769343942 -1198155.1420385242 0 0 0 0 -189750523.88220787 -1443180594.5902748 0 -1443180594.5902748 891375598.07733154 0 0 0 0 560114725.01452637 -518568643.53346252 0 -518568643.53346252 250917197.84897614 0 0 0 0 678606740.455513 47566794.868526459 0 47566794.868526459 -448118317.60836792 0 0 0 0 541762969.06429291 -430562599.46329498 0 -430562599.46329498 64383322.050628662 0 0 0 0 399835834.22577 -840171272.34556961 0 -840171272.34556961 317852485.18502808 0 0 0 0 6561086.3470573425 31121966.664413452 0 31121966.664413452 -147557891.49714661 0 0 0 0 2345351.0337134488 -199781.72189172357 0 -199781.72189172357 -2074619.8366723806 0 0 0 0 9537325.3023071289 -110429398.89556885 0 -110429398.89556885 -195691976.09771729 0 0 0 0 6467005.6445512772 -660076680.69222069 0 -660076680.69222069 476969170.21893311 0 0 0 0 -150907061.06569672 -286089191.35379791 0 -286089191.35379791 -717178.44714355469 0 0 0 0 492257030.5424614 -88415829.219749451 0 -88415829.219749451 -173523532.46505737 0 0 0 0 -77574997.925750732 -213646702.45964813 0 -213646702.45964813 -351270193.99633789 0 0 0 0 -124115079.88560486 -280746642.57646179 0 -280746642.57646179 288440240.21135712 0 0 0 0 142102.73650766537 -1531981.2543424964 0 -1531981.2543424964 -844747.6281000264 0 0 0 0 112344910.23353958 -74518060.659927368 0 -74518060.659927368 78291703.791259766 0 0 0 0 -21739564.641868591 -62659483.461456299 0 -62659483.461456299 128440953.34381104 0 0 0 0 -18549111.72290802 -8416791.089263916 0 -8416791.089263916 142651955.63339233 0 0 0 0 58339151.009063721 -37778517.56652832 0 -37778517.56652832 20636588.609809875 0 0 0 0 -486335.1066990532 -3351161.4812241644 0 -3351161.4812241644 -1549436.2605384067 0 0 0 0 -28680355.469112396 -78568747.352794647 0 -78568747.352794647 -95968.033874511719 0 0 0 0 -66014270.339351654 -43651595.441383362 0 -43651595.441383362 -27237142.160247803 0 0 0 0 -1002170.8070980143 3333550.8346845284 0 3333550.8346845284 -1042597.9559663087 0 0 0 0 43500505.180158615 -31900791.622592926 0 -31900791.622592926 12106419.880218506 0 0 0 0 -1867455.1505715437 -3821341.5995773226 0 -3821341.5995773226 -2754411.5563788861 0 0 0 0 -11317999.289301872 -7966688.0800514221 0 -7966688.0800514221 -5565906.0518188477 0 0 0 0 187417184.58823395 -63143584.144805908 0 -63143584.144805908 -5656456.1888580322 0 0 0 0 -950287.03619684 1131712.9674116336 0 1131712.9674116336 -358997.86155867577 0 0 0 0 14401689.49776268 -39230954.738307953 0 -39230954.738307953 71467016.68572998 0 0 0 0 -93292681.688491821 -92817358.158111572 0 -92817358.158111572 118843223.48219299 0 0 0 0 -83983792.228683472 -29764276.068435669 0 -29764276.068435669 143302722.52037954 0 0 0 0 107997223.4573822 -277862892.57627869 0 -277862892.57627869 287534270.81317139 0 0 0 0 460951660.64438629 -396337799.88339233 0 -396337799.88339233 164434772.52973938 0 0 0 0 779551889.52307892 -110468655.41976547 0 -110468655.41976547 -32061075.797515869 0 0 0 0 -621855.25338151678 -1137922.1761613926 0 -1137922.1761613926 -1869212.6723456532 0 0 0 0 -1108961213.3373947 -670842032.32187653 0 -670842032.32187653 710078446.28668213 0 0 0 0 239322788.32598877 -223274071.2459259 0 -223274071.2459259 142075195.77124023 0 0 0 0 179376925.92151976 -152737357.21446037 0 -152737357.21446037 26788103.960876465 0 0 0 0 -52233390.648378372 -6806085.332118988 0 -6806085.332118988 11657118.83203125 0 0 0 0 -216837.94621803425 589455.87845736369 0 589455.87845736369 -148107.39779374003 0 0 0 0 223268669.96643829 -196285452.50099182 0 -196285452.50099182 173145225.64094543 0 0 0 0 313101961.93869781 -191502111.85185623 0 -191502111.85185623 130426285.92498779 0 0 0 0 107572762.74810791 -129291296.9866333 0 -129291296.9866333 104721133.94729614 0 0 0 0 48863121.374237061 30006599.114471436 0 30006599.114471436 -14409539.179603577 0 0 0 0 -11319048.492668152 -6231138.6634292603 0 -6231138.6634292603 9294824.0887451172 0 0 0 0 1154940465.3308296 150816474.84259033 0 150816474.84259033 -1512959028.6310425 0 0 0 0 -1111844191.4631271 -3514271474.0658112 0 -3514271474.0658112 -2190977538.8602295 0 0 0 0 -3487807268.7716064 2145582806.0383759 0 2145582806.0383759 -2042445723.6132803 0 0 0 0 -4246823.2612473182 1598325.1337785572 0 1598325.1337785572 216011.72026783228 0 0 0 0 -3620359.6005233526 -4327665.8577884957 0 -4327665.8577884957 -2470185.3903476 0 0 0 0 3445019.7107620239 5963692.2677764893 0 5963692.2677764893 -7480669.4978179932 0 0 0 0 6291333.2691574097 -14489188.561203003 0 -14489188.561203003 -4466223.6405563354 0 0 0 0 -1342455.9917678833 -15637849.134185791 0 -15637849.134185791 16759195.35483551 0 0 0 0 -6207258.8856620789 -21162028.047718048 0 -21162028.047718048 55689167.755126953 0 0 0 0 -15265163.598571777 -44786651.3826828 0 -44786651.3826828 36504521.80657959 0 0 0 0 13304865.254653931 -51546402.059051514 0 -51546402.059051514 600358.07017075352 0 0 0 0 -49252045.702964783 86063690.284225464 0 86063690.284225464 384475723.95858765 0 0 0 0 -16246096.418491364 -46466639.513305664 0 -46466639.513305664 79368796.921386719 0 0 0 0 -5212523.1570935138 1381456.7488428056 0 1381456.7488428056 2689989.3413306922 0 0 0 0 -12001547.746414185 5500616.0771713257 0 5500616.0771713257 70534358.875366211 0 0 0 0 -5927042.2608642578 -2915968.3328094482 0 -2915968.3328094482 10751176.64012146 0 0 0 0 -513740148.34133911 433732246.45028687 0 433732246.45028687 -261829081.6394043 0 0 0 0 -1348391808.5017166 -438255345.95742798 0 -438255345.95742798 223364137.8821106 0 0 0 0 -1222492573.9241943 -460308579.65803528 0 -460308579.65803528 161357854.43641663 0 0 0 0 -1346868241.2908936 -295464115.87702942 0 -295464115.87702942 48252182.730392456 0 0 0 0 -2289917.2315228172 1004691.3254116252 0 1004691.3254116252 1356402.4301338941 0 0 0 0 -1314357441.1163445 -248489847.08647537 0 -248489847.08647537 -20363048.65322876 0 0 0 0 -1007798941.7065735 -317246747.2691803 0 -317246747.2691803 -328147037.09194088 0 0 0 0 -1303673887.6472855 -432617264.6058197 0 -432617264.6058197 -33923721.983595848 0 0 0 0 -1143381779.7451172 -689720894.83652496 0 -689720894.83652496 -274033938.12739563 0 0 0 0 -729738999.793396 -314760456.70941162 0 -314760456.70941162 62561696.145324707 0 0 0 0 -1119707965.0649643 -1308550701.3517303 0 -1308550701.3517303 -1702048382.8601379 0 0 0 0 -1533864272.7129364 488290396.99258423 0 488290396.99258423 -133188139.34893799 0 0 0 0 -1584153.0061808825 -2057841.7103918791 0 -2057841.7103918791 -1301757.9547523856 0 0 0 0 -2575638871.5642548 -457344019.07131958 0 -457344019.07131958 223397400.40814972 0 0 0 0 -2167329006.0371552 -1811508551.2890472 0 -1811508551.2890472 -186757227.03656006 0 0 0 0 -1436905232.325325 -1613435405.5094147 0 -1613435405.5094147 -412015614.09450531 0 0 0 0 -11425064.602973763 -1852692.7073911801 0 -1852692.7073911801 2643637.9816410393 0 0 0 0 -1357141969.5922527 -2067219609.4313183 0 -2067219609.4313183 -1333296167.8889465 0 0 0 0 -518686313.98370361 218308416.9786377 0 218308416.9786377 -215119137.89733887 0 0 0 0 -430981882.55323029 -44036296.050964355 0 -44036296.050964355 386778314.27438354 0 0 0 0 95099001.844297409 -18193674.309539795 0 -18193674.309539795 -18614056.451213837 0 0 0 0 62440918.983615875 -48582145.778839111 0 -48582145.778839111 -28876207.550117493 0 0 0 0 76950282.849180222 -9207480.7394714355 0 -9207480.7394714355 1479011.0740203857 0 0 0 0 36659407.432241917 -40693778.020282745 0 -40693778.020282745 -21538068.15637207 0 0 0 0 40348840.442601681 -49891836.223415375 0 -49891836.223415375 -6842085.7317504883 0 0 0 0 113763050.45067978 -26256282.017463684 0 -26256282.017463684 -7874874.2405757904 0 0 0 0 12165090.667806625 -61814497.909202576 0 -61814497.909202576 31899696.94593811 0 0 0 0 100490295.29495335 -28717492.329242706 0 -28717492.329242706 1788297.1742858887 0 0 0 0 111448261.89957809 7359246.4068374634 0 7359246.4068374634 28055461.549285889 0 0 0 0 6085374.7530840375 -11599153.868847765 0 -11599153.868847765 1587550.9588920474 0 0 0 0 -81169053.485030174 -36230077.564201355 0 -36230077.564201355 21028085.596282959 0 0 0 0 -100499460.85297394 -72329979.520469666 0 -72329979.520469666 -206701010.85687256 0 0 0 0 -143519961.11055088 117874782.83314514 0 117874782.83314514 -53816225.975112915 0 0 0 0 -24506411.826555252 -44050655.304332733 0 -44050655.304332733 -7894448.4702148438 0 0 0 0 -10191460.10260741 -13047532.630812541 0 -13047532.630812541 14211968.633373082 0 0 0 0 -91628124.10146904 -37024578.154666901 0 -37024578.154666901 55045988.946487427 0 0 0 0 -54444640.277121544 8344215.5915107727 0 8344215.5915107727 37993179.608215332 0 0 0 0 -16548137.043171294 3345045.5580276847 0 3345045.5580276847 15281485.940521985 0 0 0 0 -55867182.277420044 -21711728.615226746 0 -21711728.615226746 41670500.424957275 0 0 0 0 -67642843.628406525 3847540.4146957397 0 3847540.4146957397 -7794207.4175109863 0 0 0 0 -52079920.929573059 -54436427.203353882 0 -54436427.203353882 -75085205.598861694 0 0 0 0 -55381915.165014267 -10739653.174917221 0 -10739653.174917221 13854490.041809082 0 0 0 0 1461430.9753327821 -2130696.6782063618 0 -2130696.6782063618 -2627109.0197688341 0 0 0 0 131751974.26627636 -103838.91750717163 0 -103838.91750717163 -15101631.376174927 0 0 0 0 -136157809.7312355 -91511899.876342773 0 -91511899.876342773 -54745351.245422363 0 0 0 0 -575936825.7479744 -79363767.884902954 0 -79363767.884902954 152950445.88980103 0 0 0 0 25115.920075747417 -394003.74505356699 0 -394003.74505356699 48221.279543071985 0 0 0 0 2051821.2101330212 -4730754.5343825743 0 -4730754.5343825743 -1687494.0018590093 0 0 0 0 -426115.98673057556 10045051.615898132 0 10045051.615898132 9508708.7779846191 0 0 0 0 68800762.106681824 -25910427.858638763 0 -25910427.858638763 -17973947.694641113 0 0 0 0 -242515836.50839806 -99006067.498786926 0 -99006067.498786926 23208763.746948242 0 0 0 0 -22944.129864814226 -1958615.3352493877 0 -1958615.3352493877 -797110.92508685589 0 0 0 0 -1371805.9728088379 -179335797.69862366 0 -179335797.69862366 -62697795.380706787 0 0 0 0 -158435348.1474762 -93278631.631378174 0 -93278631.631378174 11355073.533927917 0 0 0 0 6852454.4316366315 15993788.253448248 0 15993788.253448248 -48989790.487182617 0 0 0 0 4893547.4156233827 -14592354.674961094 0 -14592354.674961094 5700639.1730803251 0 0 0 0 -178729623.79107857 -39283399.435600281 0 -39283399.435600281 54998752.223754883 0 0 0 0 -111854310.52395821 -10354832.978897095 0 -10354832.978897095 44335829.957794189 0 0 0 0 -134507388.79308033 33212731.532234192 0 33212731.532234192 -30819481.311248779 0 0 0 0 -50736765.154238224 -67769576.79306221 0 -67769576.79306221 -81030805.063812256 0 0 0 0 -66936951.816747189 -89278399.66400528 0 -89278399.66400528 -64418330.4793396 0 0 0 0 -8574929.6736831665 -107057573.6894989 0 -107057573.6894989 -1143684.2760925293 0 0 0 0 -49211862.505382538 -59446327.037658691 0 -59446327.037658691 -47365132.563537598 0 0 0 0 -70493839.13143158 -82353729.033035278 0 -82353729.033035278 1895348.0378570557 0 0 0 0 -8829566.0812931061 -26589523.739059448 0 -26589523.739059448 4510979.2015686035 0 0 0 0 2194865.2769501498 -9047056.2364397198 0 -9047056.2364397198 -1404821.864511162 0 0 0 0 -45097037.118648529 4083542.0695343018 0 4083542.0695343018 36508253.145812988 0 0 0 0 -62994549.005119324 -51755342.138885498 0 -51755342.138885498 -17093043.356933594 0 0 0 0 -34097552.142967224 50952462.928710938 0 50952462.928710938 -6276842.5050888062 0 0 0 0 321672.00828752387 -643561.99555137008 0 -643561.99555137008 936186.70687733591 0 0 0 0 44659012.589500427 -56511739.911067963 0 -56511739.911067963 12272578.959320068 0 0 0 0 32368263.635444641 -32621481.169845581 0 -32621481.169845581 3700735.830532074 0 0 0 0 29346868.733515739 -29734243.499214172 0 -29734243.499214172 2278923.5968933105 0 0 0 0 25932048.082393646 -33250658.012550354 0 -33250658.012550354 24129069.566925049 0 0 0 0 51103591.733189583 -52726937.754058838 0 -52726937.754058838 -30293434.218597412 0 0 0 0 64924160.031999588 -27003404.240066528 0 -27003404.240066528 -3039662.7435455322 0 0 0 0 88983814.389971733 -23724142.687522888 0 -23724142.687522888 -23946528.631134033 0 0 0 0 34145740.420314789 -83101000.167739868 0 -83101000.167739868 -53384278.056789398 0 0 0 0 20928081.524477959 -60060958.814712524 0 -60060958.814712524 -43451798.260253906 0 0 0 0 41085628.229190826 -33084988.37046051 0 -33084988.37046051 -34681551.428787231 0 0 0 0 17715399.704769135 -60980432.473121643 0 -60980432.473121643 69525992.990890503 0 0 0 0 -24466982.897891998 -18525585.460220337 0 -18525585.460220337 82215310.208400726 0 0 0 0 4846062.8697579205 -21429278.366736598 0 -21429278.366736598 8125342.2187048048 0 0 0 0 21606581.848114967 -66551856.957389832 0 -66551856.957389832 -73102581.28074646 0 0 0 0 -3391562.3672358049 -2647299.8642106317 0 -2647299.8642106317 3466702.4291443601 0 0 0 0 -25347738.140357971 -11787255.894309998 0 -11787255.894309998 60723989.665893555 0 0 0 0 -14110575.564697742 -33348094.083070755 0 -33348094.083070755 -21563008.654922485 0 0 0 0 -5843249.3163301721 -18853322.740672588 0 -18853322.740672588 21079802.119515497 0 0 0 0 -55706086.919914246 -82691175.897697449 0 -82691175.897697449 21732180.820379257 0 0 0 0 -27672247.208648682 -6925322.7057800293 0 -6925322.7057800293 -15854869.26033783 0 0 0 0 10585702.179921715 -8976003.8697487414 0 -8976003.8697487414 -7388151.0856213868 0 0 0 0 -14802011.194984436 -36068861.258544922 0 -36068861.258544922 -10020581.757583618 0 0 0 0 -869867.3078994751 -44591734.190757751 0 -44591734.190757751 23798988.251464844 0 0 0 0 -50810547.286300659 -86172782.760238647 0 -86172782.760238647 -7958635.3860778809 0 0 0 0 -62059930.634767532 -31873299.604003906 0 -31873299.604003906 -29605705.35647583 0 0 0 0 4876353.6221313477 -33176555.865264893 0 -33176555.865264893 -88328032.290969849 0 0 0 0 -84618371.247901917 -74238067.169372559 0 -74238067.169372559 -69556707.78099823 0 0 0 0 34680154.780765533 -17302822.301574707 0 -17302822.301574707 -100450794.89547729 0 0 0 0 694155.25740570039 -726083.65090988204 0 -726083.65090988204 153336.3587860465 0 0 0 0 16254252.755825043 -64344924.680747986 0 -64344924.680747986 -29590189.471504211 0 0 0 0 14325997.755367279 -98699024.820545197 0 -98699024.820545197 -6266066.9512701035 0 0 0 0 -46985159.606285095 -57481899.315341949 0 -57481899.315341949 -25603550.533569336 0 0 0 0 12597206.119058609 -21193657.459209442 0 -21193657.459209442 -48905549.465072632 0 0 0 0 -28890517.944512248 -70714888.537625015 0 -70714888.537625015 -20297298.150360107 0 0 0 0 805231.10579157621 -1774466.5505671203 0 -1774466.5505671203 -3747778.0689293072 0 0 0 0 -5224296.6668968201 -66145206.917678833 0 -66145206.917678833 -16438912.704109192 0 0 0 0 5290427.1030281391 -24594344.017567679 0 -24594344.017567679 4360323.4344971441 0 0 0 0 -349405.29001998901 -86716163.921714783 0 -86716163.921714783 -24329128.160027266 0 0 0 0 -40573892.685699463 -48950242.814819336 0 -48950242.814819336 -46812935.330200195 0 0 0 0 -238582.38909912109 -4701989.0772094727 0 -4701989.0772094727 -5560968.9844360352 0 0 0 0 4675083.5119799972 -7269621.8447216488 0 -7269621.8447216488 -21413649.150776275 0 0 0 0 -8584247.4894751832 -7590779.3615117148 0 -7590779.3615117148 -1472875.204608418 0 0 0 0 -17075813.80480957 -4948959.0798950195 0 -4948959.0798950195 -19457473.369110107 0 0 0 0 899351.14033046924 -18494482.880897447 0 -18494482.880897447 10695537.174827315 0 0 0 0 -4132987.4522931525 -18269999.592941612 0 -18269999.592941612 -10839496.688713148 0 0 0 0 487117457.73117065 -55805044.269805908 0 -55805044.269805908 -2343031.0903320312 0 0 0 0 5941085.4112818241 -11940096.804270059 0 -11940096.804270059 -7056542.313241221 0 0 0 0 -46542690.070317268 -360848807.19020081 0 -360848807.19020081 14763987.933874607 0 0 0 0 -374522840.13206482 177856441.760849 0 177856441.760849 91822274.618515015 0 0 0 0 39086899.324552536 58585948.401527405 0 58585948.401527405 -184206480.01278114 0 0 0 0 157313890.46673775 -52325795.55141449 0 -52325795.55141449 -166821435.58807373 0 0 0 0 12960768.109354019 -93650136.501815796 0 -93650136.501815796 44944327.478869438 0 0 0 0 -50734512.203852467 127947464.51394799 0 127947464.51394799 36080508.443237305 0 0 0 0 -1519149.2713832008 -629293.69997855648 0 -629293.69997855648 1255004.9019656926 0 0 0 0 -5132718.794178009 -43221833.450408936 0 -43221833.450408936 -2905483.0259399414 0 0 0 0 -3616984.2147464026 -22244509.038986422 0 -22244509.038986422 -13477824.446962252 0 0 0 0 -5492773.1895141602 -40806545.875228882 0 -40806545.875228882 -16810117.898651123 0 0 0 0 2860476.6715927124 -26339741.992095947 0 -26339741.992095947 -5288594.6877861023 0 0 0 0 -4178741.3823356628 -35915805.428619385 0 -35915805.428619385 -18088718.680114746 0 0 0 0 -6283145.7762775421 -38763100.124969482 0 -38763100.124969482 -27659843.458837509 0 0 0 0 -5318587.088845253 -49408929.708488464 0 -49408929.708488464 14033761.370513916 0 0 0 0 -7970476.443983078 -37918700.74571228 0 -37918700.74571228 -18549383.218566895 0 0 0 0 -1539136.7921881676 -56197849.466701508 0 -56197849.466701508 -21705789.910247803 0 0 0 0 -21184739.284626007 -67448022.508544922 0 -67448022.508544922 -21906735.50177002 0 0 0 0 -641204.80533027649 -24335065.167953491 0 -24335065.167953491 -55570382.290763855 0 0 0 0 21959779.589658737 -76913352.772743225 0 -76913352.772743225 -75000447.984558105 0 0 0 0 9969433.9708766937 -91383870.61315918 0 -91383870.61315918 -20782172.407196045 0 0 0 0 68303776.572299957 -139384593.78079224 0 -139384593.78079224 9151466.3544864655 0 0 0 0 -4747234.0590572357 -31635658.855293274 0 -31635658.855293274 -8730608.1959838867 0 0 0 0 485810.86417135876 -2345836.4275680836 0 -2345836.4275680836 -2634969.2073967457 0 0 0 0 -8047099.4276914597 -12222511.783828735 0 -12222511.783828735 -20499103.847869873 0 0 0 0 -8850744.689535141 -12723701.356819153 0 -12723701.356819153 7542600.2367458344 0 0 0 0 -5945.0796259269118 -9746257.0083527714 0 -9746257.0083527714 -2490426.9394868985 0 0 0 0 -6386352.4171123505 -22285082.547386169 0 -22285082.547386169 18785244.243603706 0 0 0 0 -5180413.2710338859 -2072295.4223993421 0 -2072295.4223993421 4586737.4023869485 0 0 0 0 -39114194.501468658 6358486.0720596313 0 6358486.0720596313 17895632.4375 0 0 0 0 17586831.034430087 -16086834.082029819 0 -16086834.082029819 -14804860.194885254 0 0 0 0 -2132963.7039627768 -14237439.47906369 0 -14237439.47906369 -12070324.549176432 0 0 0 0 9690288.810005188 -8128928.0009155273 0 -8128928.0009155273 -19449560.580093384 0 0 0 0 -153587.59386062622 -10366834.080749512 0 -10366834.080749512 3615915.2640075684 0 0 0 0 -1543949.7484893799 -6073411.5401306152 0 -6073411.5401306152 2504912.6071014404 0 0 0 0 -1510343.8878011778 -3750006.3589523882 0 -3750006.3589523882 1055006.2321931124 0 0 0 0 -7964203.093125158 -11649302.711226795 0 -11649302.711226795 -438358.80060273409 0 0 0 0 -6595513.8065910339 -28883670.767295837 0 -28883670.767295837 -19172555.811248779 0 0 0 0 8413372.4589996338 -37664322.420455933 0 -37664322.420455933 -30498053.89743042 0 0 0 0 -3793583.8054547608 -17522444.679400895 0 -17522444.679400895 -13614411.407098725 0 0 0 0 22741836.920200348 -40289596.418434143 0 -40289596.418434143 -9547225.9600830078 0 0 0 0 22171119.050521851 -27410711.257827759 0 -27410711.257827759 -24388485.269683838 0 0 0 0 17857650.677940369 -18490806.086303711 0 -18490806.086303711 -19310496.110527039 0 0 0 0 17628706.770046353 -14561586.415266275 0 -14561586.415266275 -30513347.172302246 0 0 0 0 16838304.112739563 -4027753.518951416 0 -4027753.518951416 -20760911.475830078 0 0 0 0 13502032.11920929 3442736.6585845947 0 3442736.6585845947 -44639282.142400742 0 0 0 0 18694624.396015167 -19276501.638877869 0 -19276501.638877869 -42003627.476715088 0 0 0 0 -1972041.6839141846 22758825.012191772 0 22758825.012191772 -57301173.514648438 0 0 0 0 14928025.99697876 -19859756.900817871 0 -19859756.900817871 -32323624.438802719 0 0 0 0 10897033.751060486 -37950625.570236206 0 -37950625.570236206 -90818825.733856201 0 0 0 0 4255660.6961669922 -2951707.0463562012 0 -2951707.0463562012 -6519206.6367874146 0 0 0 0 3200612.5617904663 5580225.442237854 0 5580225.442237854 -10046954.982940674 0 0 0 0 8111337.8445358276 498787.24978637695 0 498787.24978637695 -11797700.72454834 0 0 0 0 15801142.181507111 -4689417.3720932007 0 -4689417.3720932007 -16654809.83215332 0 0 0 0 19593773.829086304 -7590218.1855316162 0 -7590218.1855316162 -17198775.530090332 0 0 0 0 12963066.89831543 -3709830.1115112305 0 -3709830.1115112305 -16978852.199920654 0 0 0 0 14349832.028816223 -7902726.8048095703 0 -7902726.8048095703 -9520134.5843505859 0 0 0 0 8769744.8707237244 -2074829.3152084351 0 -2074829.3152084351 -9047981.4273071289 0 0 0 0 12392703.41619873 -5578927.7297973633 0 -5578927.7297973633 -5787903.7750244141 0 0 0 0 8450104.0638198853 -2878302.0537719727 0 -2878302.0537719727 -7304103.6360626221 0 0 0 0 6194611.7794685364 -2988906.8844833374 0 -2988906.8844833374 -6375849.9808654785 0 0 0 0 7605367.1794586182 1428433.1063842773 0 1428433.1063842773 3064052.4426269531 0 0 0 0 864756397.0834198 -1625510249.4552612 0 -1625510249.4552612 3038165217.6156006 0 0 0 0 1920133.5815361366 -5553896.9625295475 0 -5553896.9625295475 -2313128.5356045878 0 0 0 0 -7324944.0056373924 -4242930.6849595681 0 -4242930.6849595681 -2347343.1198731214 0 0 0 0 629538070.57312202 -363963487.2424984 0 -363963487.2424984 -493993387.47671509 0 0 0 0 5692987.7524972744 -115183.06400033087 0 -115183.06400033087 -3775761.7597066611 0 0 0 0 -2448080.8521270752 -5972367.7536315918 0 -5972367.7536315918 -2316455.0018539429 0 0 0 0 -1310759.5135144088 -4521808.3997723758 0 -4521808.3997723758 -1298311.9929665662 0 0 0 0 -5494166.5372238159 -8881196.6589660645 0 -8881196.6589660645 -3215564.4681243896 0 0 0 0 1072937.7072505951 -6768862.2835922241 0 -6768862.2835922241 -6512250.0046081543 0 0 0 0 -370751.910472624 -155872.21771612018 0 -155872.21771612018 489454.30001312494 0 0 0 0 -3412015.9234484788 -6159257.0525086261 0 -6159257.0525086261 -7228996.1501617581 0 0 0 0 -2080167.8556900024 -3959407.7138900757 0 -3959407.7138900757 290416.1004486084 0 0 0 0 16621961.011245728 1684412.7856903076 0 1684412.7856903076 -13697110.43347168 0 0 0 0 -296327.50527919829 -1337008.87934874 0 -1337008.87934874 -271882.80368862487 0 0 0 0 -3008777.9339141846 -7060000.7954711914 0 -7060000.7954711914 -3671977.2887001038 0 0 0 0 -1222018.6008796692 -5307623.0654716492 0 -5307623.0654716492 1688.5812835693359 0 0 0 0 -3198356.1721663326 -6041935.3400572538 0 -6041935.3400572538 -89444.587330980226 0 0 0 0 -1035716.9215240479 -5079254.0155639648 0 -5079254.0155639648 35548.67179107666 0 0 0 0 -4425707.3933124542 -7170983.8121566772 0 -7170983.8121566772 -3027881.763671875 0 0 0 0 -4757303.8149469364 -5898680.9730209187 0 -5898680.9730209187 -3462159.2051586509 0 0 0 0 -1031923.9565372467 -5065540.9196853638 0 -5065540.9196853638 -4880.6074829101562 0 0 0 0 -756791.0412459746 -5060897.5056792498 0 -5060897.5056792498 255820.75230725762 0 0 0 0 -4660211.2590942383 -6560165.8730926514 0 -6560165.8730926514 -915423.28335571289 0 0 0 0 -2989750.4228902459 -6465519.4481759071 0 -6465519.4481759071 -2108281.8554992676 0 0 0 0 1576940.370765686 -6073049.251373291 0 -6073049.251373291 -365579.86273193359 0 0 0 0 -2555141.7905273438 -4743818.5372009277 0 -4743818.5372009277 -209065.44464111328 0 0 0 0 -842671.76523480751 -1151475.3210464232 0 -1151475.3210464232 -1489300.1619077772 0 0 0 0 139755673.71874237 -405680400.35388184 0 -405680400.35388184 -815262.62729232234 0 0 0 0 -2272732.5468292236 -5950251.7770385742 0 -5950251.7770385742 -1231445.3668823242 0 0 0 0 -6498833.9884696007 25701881.066711426 0 25701881.066711426 -25617643.769699097 0 0 0 0 -4574581.0545291901 -8007066.1145706177 0 -8007066.1145706177 71388.95703125 0 0 0 0 -2646010.7940578377 -2803564.7052730098 0 -2803564.7052730098 1090293.5288853347 0 0 0 0 -10076393.464066505 -13557456.215011597 0 -13557456.215011597 -25351.034027099609 0 0 0 0 -4539751.6283188891 -4389947.8044279963 0 -4389947.8044279963 1659837.5562552512 0 0 0 0 1132669.8237896594 -4277143.5777141154 0 -4277143.5777141154 2449463.672235243 0 0 0 0 -4503094.3256988525 -5293838.7700424194 0 -5293838.7700424194 345440.7947845459 0 0 0 0 -886917.38397260383 -5275013.1620171741 0 -5275013.1620171741 4969265.5911030993 0 0 0 0 -2177696.8331871033 -2548028.1155700684 0 -2548028.1155700684 4308090.612487793 0 0 0 0 1073389363.4097633 -334883622.74249268 0 -334883622.74249268 -902606620.58618164 0 0 0 0 -1668998.514681505 -10062427.682545938 0 -10062427.682545938 7333828.7743521947 0 0 0 0 -4894441.1650171112 -4112812.6189577729 0 -4112812.6189577729 2522195.7331956327 0 0 0 0 598146.94439506531 -1563402.7848205566 0 -1563402.7848205566 4152822.0877685547 0 0 0 0 -6533492.3156738281 -8022898.6506690979 0 -8022898.6506690979 1716935.68409729 0 0 0 0 -3199590.9647521973 -5804228.7182006836 0 -5804228.7182006836 -222733.29582214355 0 0 0 0 -2731712.0897547584 -5988702.7614919618 0 -5988702.7614919618 1002843.7606318053 0 0 0 0 -5131947.9944734573 -6313348.2426404953 0 -6313348.2426404953 -347476.97500610352 0 0 0 0 -181107.94290733337 -8441012.7612457275 0 -8441012.7612457275 6378352.2040786743 0 0 0 0 -43983050.441574097 -108444156.22418213 0 -108444156.22418213 28943765.683448792 0 0 0 0 -163784224.91558075 184485028.69287109 0 184485028.69287109 -50095222.135467529 0 0 0 0 -1799691.5978315501 -10185729.693017684 0 -10185729.693017684 1628728.7126532346 0 0 0 0 -3396272.381041903 -512617.32221931219 0 -512617.32221931219 2588114.5144201964 0 0 0 0 276909842.29121268 102608363.16106129 0 102608363.16106129 -328985321.61038208 0 0 0 0 67471807.991891861 394398154.61433411 0 394398154.61433411 107177625.15155029 0 0 0 0 -331917568.54300308 -115336643.186203 0 -115336643.186203 672220578.37835693 0 0 0 0 -553468722.81844902 41330958.647476196 0 41330958.647476196 594782014.54174805 0 0 0 0 297253665.87861061 -206334831.42672729 0 -206334831.42672729 -42270452.025604248 0 0 0 0 458852.45020775334 -701018.50484314002 0 -701018.50484314002 -806340.72115266323 0 0 0 0 114887254.3254528 -152924421.47543335 0 -152924421.47543335 -42191626.186721802 0 0 0 0 322655324.06652498 -1903420.842338562 0 -1903420.842338562 -53288720.521850586 0 0 0 0 108087381.10030401 -41989991.060515404 0 -41989991.060515404 -15761910.011016846 0 0 0 0 20011979.841442108 -35928428.82635498 0 -35928428.82635498 -7164801.3147583008 0 0 0 0 -48946792.360069275 33146387.685623169 0 33146387.685623169 -11770512.000640869 0 0 0 0 -11482744.717863083 5027609.9447174072 0 5027609.9447174072 19854573.12387085 0 0 0 0 -36113658.132920183 -20082246.640563965 0 -20082246.640563965 34325925.914855957 0 0 0 0 -34204435.694986731 984804.75550460815 0 984804.75550460815 39541314.723510742 0 0 0 0 13281114.165298462 74404502.050273895 0 74404502.050273895 4552370.3115386963 0 0 0 0 -417739131.27816772 -200952046.84047318 0 -200952046.84047318 215462754.03689575 0 0 0 0 -116186081.79398537 -96380281.602890015 0 -96380281.602890015 96003710.925762177 0 0 0 0 -17509084.236821551 3468828.9223270714 0 3468828.9223270714 12160812.840740204 0 0 0 0 -42722912.794151306 -8781242.8456115723 0 -8781242.8456115723 -18186277.878204346 0 0 0 0 6146004.2815332441 -10602884.037733175 0 -10602884.037733175 -1521931.538839817 0 0 0 0 -172789317.3611908 -277457492.77401733 0 -277457492.77401733 94058166.994750977 0 0 0 0 -7878665.4699608264 -11940663.659193046 0 -11940663.659193046 15711295.444527641 0 0 0 0 -9597814.2143688202 -3016243.1224822998 0 -3016243.1224822998 36011618.283248901 0 0 0 0 -24136461.290885925 -25101831.900024414 0 -25101831.900024414 20446072.605957031 0 0 0 0 -1673069.3103870724 553911.19664148986 0 553911.19664148986 2368643.8288652599 0 0 0 0 93708276.702538729 109175955.09428692 0 109175955.09428692 -34590675.737487793 0 0 0 0 -7310432.7445794083 -12641803.067921534 0 -12641803.067921534 15455545.317336887 0 0 0 0 -511824814.54650879 -412214879.2713623 0 -412214879.2713623 -134746514.93154907 0 0 0 0 -6731817.6379745901 -17452293.754493713 0 -17452293.754493713 23010885.395568848 0 0 0 0 -5894383.0857743546 -13236634.862335205 0 -13236634.862335205 33058173.886230469 0 0 0 0 -7981625.6386383772 8160687.7548265457 0 8160687.7548265457 38826057.766815186 0 0 0 0 -4372834.9456152171 -6550341.808757782 0 -6550341.808757782 9948995.0747833252 0 0 0 0 -1163795.7634510994 1189864.8764648438 0 1189864.8764648438 3549341.850769043 0 0 0 0 -16419085.828191265 -42817157.961679459 0 -42817157.961679459 -48550982.050506592 0 0 0 0 -2329019.4074802399 -5614214.0594940186 0 -5614214.0594940186 3365361.7870850563 0 0 0 0 -3790766.0739491722 -4586356.2083280608 0 -4586356.2083280608 5054616.6753161177 0 0 0 0 -4274634.795129776 -2945072.2921447754 0 -2945072.2921447754 10735436.63433075 0 0 0 0 -22571069.063388824 -26510198.675415039 0 -26510198.675415039 -17783626.958770752 0 0 0 0 -3437786.4297263022 -2095800.8014501035 0 -2095800.8014501035 6001657.1154278591 0 0 0 0 -1361740.5799636841 -5739126.793548584 0 -5739126.793548584 6663595.2281494141 0 0 0 0 -5210455.2464942932 -4180269.1671447754 0 -4180269.1671447754 6175025.7886428833 0 0 0 0 -3838161.3612613678 -300347.48278808594 0 -300347.48278808594 4143041.28013587 0 0 0 0 -14617077.154155731 -30549459.726715088 0 -30549459.726715088 -26489203.670043945 0 0 0 0 118026.15681098215 -109996.75036884099 0 -109996.75036884099 96694.464202530682 0 0 0 0 -16105637.535394073 -25575442.747488022 0 -25575442.747488022 -21850249.494537354 0 0 0 0 -71344028.017920256 -50248664.345985413 0 -50248664.345985413 -12763049.92880249 0 0 0 0 -42488041.26998353 -30806784.514389038 0 -30806784.514389038 -33172.793365478516 0 0 0 0 -22379617.506260872 -24279567.882629395 0 -24279567.882629395 -21871711.33001709 0 0 0 0 -73667313.506851375 -67044954.595718384 0 -67044954.595718384 -34612368.057312012 0 0 0 0 -156968956.54659367 -74352606.408432007 0 -74352606.408432007 -7530222.3487243652 0 0 0 0 -117854229.22090149 -53690923.802753448 0 -53690923.802753448 -10785.025283813477 0 0 0 0 -98135963.821280479 -82671048.475631714 0 -82671048.475631714 -47040036.109130859 0 0 0 0 -125158315.08111477 -87278437.912139893 0 -87278437.912139893 -47750135.982055664 0 0 0 0 -50805844.617342949 -50603766.369773865 0 -50603766.369773865 -48307830.187965393 0 0 0 0 -39332560.581655502 -55115612.34487915 0 -55115612.34487915 -68321912.068511963 0 0 0 0 -62586011.498196602 -90632662.995727539 0 -90632662.995727539 -101691773.75897217 0 0 0 0 -2033341.7998371506 -4699525.9461875111 0 -4699525.9461875111 4432726.1076178402 0 0 0 0 -95780512.089354023 -69101370.810113907 0 -69101370.810113907 -32669142.001159668 0 0 0 0 -29496191.864627838 27547295.335441589 0 27547295.335441589 24154463.524307251 0 0 0 0 -144824701.02673578 -48168190.928451538 0 -48168190.928451538 9697423.25 0 0 0 0 -136134963.44454002 -53255381.082817078 0 -53255381.082817078 60883.21930582363 0 0 0 0 -249798633.33190536 -104391155.95811462 0 -104391155.95811462 -4725867.1122970581 0 0 0 0 -142028148.95118523 -51760881.132652283 0 -51760881.132652283 5805238.1875305176 0 0 0 0 37521871.014888763 77161540.945487976 0 77161540.945487976 23066232.643064737 0 0 0 0 -217777667.88280869 -118595688.176651 0 -118595688.176651 27221866.581451416 0 0 0 0 -156540746.01270962 -23833048.399009705 0 -23833048.399009705 -28885206.22076416 0 0 0 0 -377923207.80643845 -112958885.73483276 0 -112958885.73483276 29642960.21207428 0 0 0 0 -312019228.83508968 -301089783.78839684 0 -301089783.78839684 -244376386.69161987 0 0 0 0 -1923320.3979676869 -948079.19617128372 0 -948079.19617128372 1954275.7931402177 0 0 0 0 -215894087.39173126 -135971096.59706116 0 -135971096.59706116 -165545667.19262695 0 0 0 0 -218055468.41945553 6199615.5788574219 0 6199615.5788574219 68398125.518829346 0 0 0 0 -306234829.4428091 -148198778.46844482 0 -148198778.46844482 -6869408.4064941406 0 0 0 0 -238698598.50114059 -28352591.574874878 0 -28352591.574874878 46155912.076820374 0 0 0 0 35505449.25047493 -104282771.37101746 0 -104282771.37101746 -55631983.336488366 0 0 0 0 -77164801.908924103 -184755933.07949829 0 -184755933.07949829 -55225641.118595839 0 0 0 0 2012367.6802453864 -232811.58087959141 0 -232811.58087959141 -2222543.1954111755 0 0 0 0 -15084255.832980156 5489864.568611145 0 5489864.568611145 55182601.34161377 0 0 0 0 -3910986.732869627 -913395.68579585105 0 -913395.68579585105 3967407.8619123492 0 0 0 0 4627408.7735414505 11001660.899963379 0 11001660.899963379 45736101.701951027 0 0 0 0 -104932545.49252701 -129067654.07189941 0 -129067654.07189941 -128731783.88157654 0 0 0 0 -5009619.3378091641 -2338094.1033208221 0 -2338094.1033208221 5250754.4993255287 0 0 0 0 -143768134.94870567 -111247226.04289246 0 -111247226.04289246 -73685541.032745361 0 0 0 0 -143674395.56377888 -111110026.51000977 0 -111110026.51000977 -96388711.581329346 0 0 0 0 -12039293.292474747 25318658.762130737 0 25318658.762130737 81995497.975952148 0 0 0 0 -22716913.782941818 -9924937.0784606934 0 -9924937.0784606934 66839379.41771698 0 0 0 0 -9653505.3459568024 69914115.396026611 0 69914115.396026611 87803081.267074585 0 0 0 0 -18875525.08754158 10393460.741363525 0 10393460.741363525 25487257.484512329 0 0 0 0 -12699134.309436798 -3040713.8675994873 0 -3040713.8675994873 26024719.486785889 0 0 0 0 -6557796.9759664536 -9837972.4521942139 0 -9837972.4521942139 14339650.387428284 0 0 0 0 -10436303.68552494 -1971383.5933685303 0 -1971383.5933685303 26353093.309257507 0 0 0 0 -822831.75070762634 -3585465.9165039062 0 -3585465.9165039062 26573941.932739258 0 0 0 0 -12878840.897284508 -5132602.8522033691 0 -5132602.8522033691 45252178.016942978 0 0 0 0 -69023099.423776627 -25920546.83140564 0 -25920546.83140564 37846280.07661438 0 0 0 0 -32354858.029265404 -106025396.80587769 0 -106025396.80587769 15138879.086654663 0 0 0 0 -23167028.368351936 14717627.192558289 0 14717627.192558289 59035672.661651611 0 0 0 0 915853.68849945068 -15819049.452964783 0 -15819049.452964783 -21596125.73614502 0 0 0 0 -42375869.842796326 -44314059.833877563 0 -44314059.833877563 -50652147.300231934 0 0 0 0 -657175.05860519409 37049016.162139893 0 37049016.162139893 14619642.457580566 0 0 0 0 -5539749.3086574934 -5469435.0168453753 0 -5469435.0168453753 -3181346.8960572779 0 0 0 0 -15398374.377210699 -5574588.6253774166 0 -5574588.6253774166 28230911.264940768 0 0 0 0 -36452257.88949585 -10204876.196777344 0 -10204876.196777344 35817792.0259552 0 0 0 0 -83873212.036239624 -55376047.207122803 0 -55376047.207122803 -22523333.572128296 0 0 0 0 7229578.3087854385 -24230296.818939209 0 -24230296.818939209 -52554793.800765991 0 0 0 0 -716566.93313560728 -4095795.7451921366 0 -4095795.7451921366 -3378182.5681888461 0 0 0 0 -49476094.513065219 22871822.752511978 0 22871822.752511978 58421532.409423828 0 0 0 0 -48842340.868110657 -73155137.963592529 0 -73155137.963592529 -41383562.88589859 0 0 0 0 -13048669.662223846 -6137782.6526850909 0 -6137782.6526850909 27167888.555350363 0 0 0 0 -97228748.188217402 13616970.36523819 0 13616970.36523819 100828798.34985352 0 0 0 0 72384456.02041626 -3454710.5139160156 0 -3454710.5139160156 26009985.090087891 0 0 0 0 -60052920.473075867 -36820784.886047363 0 -36820784.886047363 103355530.09893417 0 0 0 0 -91058818.343925476 4462972.3275299072 0 4462972.3275299072 62213687.529052734 0 0 0 0 -198198112.32093287 -57664668.013469696 0 -57664668.013469696 65991768.829071045 0 0 0 0 -146729382.44098282 -31480440.850830078 0 -31480440.850830078 64209927.74905014 0 0 0 0 -171102404.66158295 13056986.767852783 0 13056986.767852783 66806999.012176514 0 0 0 0 -181636870.23781395 -40179814.497467041 0 -40179814.497467041 80246036.835906982 0 0 0 0 -167064427.67138672 -15654431.921600342 0 -15654431.921600342 89494464.427032471 0 0 0 0 -91566045.199206829 -3176615.7296257019 0 -3176615.7296257019 68155513.727966309 0 0 0 0 -115643062.73761749 -119573215.70742798 0 -119573215.70742798 40386781.092061996 0 0 0 0 -256089290.6089077 -152877967.51539993 0 -152877967.51539993 42734619.557312012 0 0 0 0 -163441754.65329361 -107255617.25419617 0 -107255617.25419617 58173750.136383057 0 0 0 0 -60814907.359049797 -120928981.16743851 0 -120928981.16743851 -2427862.7527770996 0 0 0 0 -66433421.950183868 -98550008.152389526 0 -98550008.152389526 26676368.86340332 0 0 0 0 -53027679.436122894 -63545228.591094971 0 -63545228.591094971 22652747.274154663 0 0 0 0 -109592371.60605621 -86355198.74407959 0 -86355198.74407959 45959859.103485107 0 0 0 0 -94338232.105186462 -74913850.19859314 0 -74913850.19859314 42765246.437927246 0 0 0 0 -120338929.72095871 -11604407.403076172 0 -11604407.403076172 73249087.777832031 0 0 0 0 -118117466.60476303 -41490220.495300293 0 -41490220.495300293 61826081.889678955 0 0 0 0 -89032105.91872406 -37998597.018585205 0 -37998597.018585205 37565668.470825195 0 0 0 0 -105700799.47385788 -44211110.818473816 0 -44211110.818473816 44482229.176330566 0 0 0 0 -96238852.377105713 -29118440.994216919 0 -29118440.994216919 28697338.308105469 0 0 0 0 -116263913.11463165 -66990109.124542236 0 -66990109.124542236 -1263177.2171630859 0 0 0 0 -56564246.302623987 -24372738.533124924 0 -24372738.533124924 29107501.279052734 0 0 0 0 -282650.39747449383 550902.63525721431 0 550902.63525721431 2025570.4306470305 0 0 0 0 -16060268.345612932 -8182650.417062033 0 -8182650.417062033 23612506.891336441 0 0 0 0 -82303881.294487 -165610719.84606934 0 -165610719.84606934 108569197.234375 0 0 0 0 -92455788.590278625 -18314902.645996094 0 -18314902.645996094 35617996.028106689 0 0 0 0 -77353470.568370819 -39549726.798461914 0 -39549726.798461914 15033100.19418335 0 0 0 0 -70998269.485595703 -49293853.186706543 0 -49293853.186706543 26298592.058944702 0 0 0 0 -79452424.043708801 -45560452.642532349 0 -45560452.642532349 21620417.040939331 0 0 0 0 -72993817.54586792 -53728096.820571899 0 -53728096.820571899 18538270.623626709 0 0 0 0 -45758793.475379944 -58728499.036453247 0 -58728499.036453247 16700165.966323853 0 0 0 0 -36795468.339399338 -53196272.39163208 0 -53196272.39163208 5232637.6862487793 0 0 0 0 -42636623.594388962 -35509604.650344849 0 -35509604.650344849 15877723.595611572 0 0 0 0 -30157987.006877899 -50623042.640319824 0 -50623042.640319824 5372428.2602214813 0 0 0 0 -111453259.24554253 21310748.845411301 0 21310748.845411301 12560778.845458984 0 0 0 0 -16726426.566363806 -12551981.917404816 0 -12551981.917404816 22182504.28581202 0 0 0 0 -51450121.367353439 -45798700.506225586 0 -45798700.506225586 15412538.360290527 0 0 0 0 -18349436.381210327 71051430.907669067 0 71051430.907669067 -20707286.499786377 0 0 0 0 -109073039.50257874 41906959.543304443 0 41906959.543304443 51813260.673400879 0 0 0 0 -67067809.791866302 -40266664.707138062 0 -40266664.707138062 13590587.139831543 0 0 0 0 -87657336.469444275 25175686.259216309 0 25175686.259216309 -13616267.413223267 0 0 0 0 -67256228.864879608 43512064.649131775 0 43512064.649131775 31734508.273986816 0 0 0 0 -66621564.820831299 39626646.801025391 0 39626646.801025391 -5320439.1860961914 0 0 0 0 3036830.8262329102 -6352850.3224487305 0 -6352850.3224487305 38912864.585021973 0 0 0 0 -21061084.528678894 -40018056.607971191 0 -40018056.607971191 100890283.41242599 0 0 0 0 -87676231.038787842 41178959.139465332 0 41178959.139465332 17876107.187759399 0 0 0 0 22228957.066635132 -30260668.527618408 0 -30260668.527618408 21456286.403686523 0 0 0 0 83850046.975257874 -85933217.20501709 0 -85933217.20501709 68393738.196350098 0 0 0 0 76616517.107879639 834178.3172454834 0 834178.3172454834 -4260029.8841552734 0 0 0 0 13932584.487319946 -91291929.57623291 0 -91291929.57623291 146370715.91415405 0 0 0 0 13897215.141860962 -86239461.791015625 0 -86239461.791015625 80608674.056869507 0 0 0 0 10744710.86995697 -65554305.45880127 0 -65554305.45880127 92366038.847167969 0 0 0 0 -19101436.457725525 -88689954.144943237 0 -88689954.144943237 103176263.90855408 0 0 0 0 -89664975.987815857 -151402137.80220032 0 -151402137.80220032 18522705.76272583 0 0 0 0 -26947900.000564575 -108916476.42771912 0 -108916476.42771912 -176584964.93902588 0 0 0 0 -94699207.504127502 46247615.480438232 0 46247615.480438232 -58459307.244750977 0 0 0 0 -29814825.425934315 -128946792.670681 0 -128946792.670681 24406287.471679688 0 0 0 0 -34364020.903030396 -102860793.20098877 0 -102860793.20098877 95357183.721817017 0 0 0 0 -18267691.157272339 -9438897.6954956055 0 -9438897.6954956055 -43580941.832061768 0 0 0 0 8641485.3984603882 -76838869.003135681 0 -76838869.003135681 31888480.709960938 0 0 0 0 9248169.8149719238 1659732.7219238281 0 1659732.7219238281 26957650.515716553 0 0 0 0 -14274800.64629364 -37705485.364318848 0 -37705485.364318848 76643824.590423584 0 0 0 0 -44333646.681350708 25826687.21232605 0 25826687.21232605 19801132.516151428 0 0 0 0 -39602036.934574127 11834106.813896179 0 11834106.813896179 59489590.997680664 0 0 0 0 -167751610.55945587 23480535.281021118 0 23480535.281021118 38479015.219116211 0 0 0 0 -82922336.356315613 -8201794.4257202148 0 -8201794.4257202148 29934865.505187988 0 0 0 0 -59096952.329113007 7129378.5615272522 0 7129378.5615272522 35882844.941711426 0 0 0 0 -99804216.174995422 -34749519.136062622 0 -34749519.136062622 31927245.010223389 0 0 0 0 51884848.617607117 14894688.029922485 0 14894688.029922485 10635021.709106445 0 0 0 0 -2117948.3874969985 -1455984.0883265249 0 -1455984.0883265249 -446218.72849661112 0 0 0 0 -47844146.412029266 -18255986.109519958 0 -18255986.109519958 -55914382.575260162 0 0 0 0 44535757.382209778 64007962.649276733 0 64007962.649276733 80431470.107421875 0 0 0 0 1428122.3329772949 714476.03643798828 0 714476.03643798828 160154305.67525101 0 0 0 0 15733078.117156982 -32152086.250923157 0 -32152086.250923157 153764.67584609985 0 0 0 0 31787163.828666687 25581014.200061798 0 25581014.200061798 -15653122.134552002 0 0 0 0 1609153.11371658 -3445851.0021020062 0 -3445851.0021020062 -1344996.7140716966 0 0 0 0 -15164150.558227539 -52224776.66468811 0 -52224776.66468811 28503367.008659363 0 0 0 0 33145327.372070312 444723.8125038147 0 444723.8125038147 -5196929.7207489014 0 0 0 0 4842959.830646079 -1970709.9066158012 0 -1970709.9066158012 -2116951.0471490473 0 0 0 0 75048947.599079132 -29291860.633079529 0 -29291860.633079529 -23097136.905929565 0 0 0 0 5770973.1268959045 -60332743.322242737 0 -60332743.322242737 -5773008.1835327148 0 0 0 0 17085617.519867145 -11950492.782315984 0 -11950492.782315984 -13057013.583731133 0 0 0 0 -10419703.97894519 -25442574.692944996 0 -25442574.692944996 -22555737.586451441 0 0 0 0 -19317541.069454193 -45063471.011421204 0 -45063471.011421204 -11468122.560821533 0 0 0 0 1636187.4405879974 -53722511.888900757 0 -53722511.888900757 -8866369.7969207764 0 0 0 0 4267689.6765136719 -69307514.454879761 0 -69307514.454879761 1346402.1513748169 0 0 0 0 -27785766.404178619 -64397989.063903809 0 -64397989.063903809 1357037.4582214355 0 0 0 0 2278479.59973526 -55429783.734588623 0 -55429783.734588623 -1960334.2642059326 0 0 0 0 63868998.922960281 -66045297.497917175 0 -66045297.497917175 -15417107.110443115 0 0 0 0 3326194.2995986938 -84010708.776885986 0 -84010708.776885986 5754029.3020782471 0 0 0 0 -46894552.584793568 -87426110.249725342 0 -87426110.249725342 14114777.636016846 0 0 0 0 42896230.29655838 -58959984.401443481 0 -58959984.401443481 -597990.77952194214 0 0 0 0 9548954.2864770889 -98221571.201984406 0 -98221571.201984406 8927541.3069152832 0 0 0 0 585583.98138999939 -89522887.298782349 0 -89522887.298782349 -5133690.4291381836 0 0 0 0 115356047.57622528 -60032006.483535767 0 -60032006.483535767 -7121408.1678009033 0 0 0 0 205870126.98890686 -58990474.203483582 0 -58990474.203483582 -114393541.05545044 0 0 0 0 -8193076.8544526109 -18321583.828140151 0 -18321583.828140151 -22443089.974116921 0 0 0 0 68554466.340054512 -77053755.307090759 0 -77053755.307090759 -1972510.4391479492 0 0 0 0 -16281168.600736618 103373697.94617176 0 103373697.94617176 -186430837.65646362 0 0 0 0 811880.06256920844 -764748.36845663749 0 -764748.36845663749 -148097.8683616668 0 0 0 0 -279084.0860824585 -128613067.28759003 0 -128613067.28759003 -267742346.67471313 0 0 0 0 37481056.150482178 -16478162.229133606 0 -16478162.229133606 7242076.5451660156 0 0 0 0 -45480954.244918823 -161763638.49127197 0 -161763638.49127197 28936218.825550079 0 0 0 0 -60492376.343354225 -64998733.918716431 0 -64998733.918716431 82386314.330810547 0 0 0 0 -4591878.5735855103 -13571500.596977234 0 -13571500.596977234 46759488.241241455 0 0 0 0 106495582.89431763 -129027213.39128876 0 -129027213.39128876 7619335.5756072998 0 0 0 0 1532794.2194240317 -1228668.2543641925 0 -1228668.2543641925 -1705487.0436575934 0 0 0 0 138262894.71384621 -100787456.70620728 0 -100787456.70620728 26136101.250274658 0 0 0 0 160325377.59086609 -66835682.671051025 0 -66835682.671051025 -10191070.682373047 0 0 0 0 -7688745.278750591 -14796532.205794267 0 -14796532.205794267 -18862319.422450751 0 0 0 0 96725800.464284897 -95467283.499420166 0 -95467283.499420166 67927869.966430664 0 0 0 0 89769895.86882019 -75900531.657543182 0 -75900531.657543182 39860981.913024902 0 0 0 0 105084522.56570435 -90130341.304260254 0 -90130341.304260254 59422447.599365234 0 0 0 0 202228686.34890747 -133991820.2076416 0 -133991820.2076416 66959032.650726318 0 0 0 0 80578764.551826477 -90593487.717453003 0 -90593487.717453003 146856679.85119629 0 0 0 0 87563589.5207901 -85455647.665206909 0 -85455647.665206909 87173006.655578613 0 0 0 0 135099346.49226379 -88406854.204467773 0 -88406854.204467773 97387586.274902344 0 0 0 0 44674037.054385185 -51027395.469730377 0 -51027395.469730377 89927653.7578125 0 0 0 0 73065388.009567261 -71925672.611572266 0 -71925672.611572266 76435834.230163574 0 0 0 0 70327567.177734375 -72992056.732116699 0 -72992056.732116699 85321611.159133911 0 0 0 0 50180928.393188477 -72699963.307098389 0 -72699963.307098389 109390174.90759277 0 0 0 0 86037196.397865295 -71646288.120941162 0 -71646288.120941162 77018152.198974609 0 0 0 0 65596388.088264465 -90392827.636993408 0 -90392827.636993408 104887771.76074219 0 0 0 0 -20750232.260188658 -13602444.399169922 0 -13602444.399169922 -5916974.6587747037 0 0 0 0 67449745.637565613 -105727975.90787506 0 -105727975.90787506 110166050.42929077 0 0 0 0 81371255.630027771 -81962852.109985352 0 -81962852.109985352 86731127.106750488 0 0 0 0 67377842.042419434 -116121595.19869995 0 -116121595.19869995 94362248.866760254 0 0 0 0 -3492514.2315273285 -80655341.765705109 0 -80655341.765705109 165541025.84211731 0 0 0 0 41973809.813842773 -126149011.75837708 0 -126149011.75837708 128145157.08477783 0 0 0 0 218115701.20089912 -254932792.51389694 0 -254932792.51389694 212086897.44116211 0 0 0 0 240475986.52880859 -262587051.86444092 0 -262587051.86444092 207131286.55731964 0 0 0 0 -1614047.3516517896 -1069533.1887992825 0 -1069533.1887992825 1053741.1936998814 0 0 0 0 75327226.707515717 -135729316.5114212 0 -135729316.5114212 215247948.71264648 0 0 0 0 51794716.835529327 -32256189.268005371 0 -32256189.268005371 17071197.48915863 0 0 0 0 30562131.343612671 -99923693.098777771 0 -99923693.098777771 -31132554.878936768 0 0 0 0 60049624.16053772 -71491597.739379883 0 -71491597.739379883 41416171.553955078 0 0 0 0 57707038.617160797 -80325364.031028748 0 -80325364.031028748 30184474.900695801 0 0 0 0 42838839.832901001 -39416093.453186035 0 -39416093.453186035 31853661.267346382 0 0 0 0 55781448.803726196 -56637400.399108887 0 -56637400.399108887 64363681.473815918 0 0 0 0 51996419.1124897 -59335063.024963379 0 -59335063.024963379 74998192.6043396 0 0 0 0 54298693.608371735 -49453651.328674316 0 -49453651.328674316 64534694.615478516 0 0 0 0 29349855.585170746 -40506324.577270508 0 -40506324.577270508 71825250.817783833 0 0 0 0 31474995.463270187 -33561972.78351593 0 -33561972.78351593 71398987.288162231 0 0 0 0 47741161.77375567 -86748498.457057238 0 -86748498.457057238 24589551.104400635 0 0 0 0 3458864.2696244437 -384293.12664701045 0 -384293.12664701045 -3775613.9308883995 0 0 0 0 28784499.656951904 -49298390.156356812 0 -49298390.156356812 69609126.487098694 0 0 0 0 56707059.548683167 -10555018.041648865 0 -10555018.041648865 13096864.99919796 0 0 0 0 2134432.9559394401 -181545.05679562315 0 -181545.05679562315 -2241157.3416240215 0 0 0 0 40888340.794592857 -44245578.923500061 0 -44245578.923500061 -3909511.8380737305 0 0 0 0 -2747120.1336240768 -42131298.568310738 0 -42131298.568310738 -24982.809875488281 0 0 0 0 48579087.408256531 -108556482.02321625 0 -108556482.02321625 29520630.704040527 0 0 0 0 25240149.376342773 -90185340.642486572 0 -90185340.642486572 52788523.605621338 0 0 0 0 52574912.234617233 -94595355.971530914 0 -94595355.971530914 41156157.968658447 0 0 0 0 60369516.819980621 -81814154.931388855 0 -81814154.931388855 54245887.969238281 0 0 0 0 50285543.343681335 -94989577.197998047 0 -94989577.197998047 81875909.871063232 0 0 0 0 45170511.651519775 -96108856.526748657 0 -96108856.526748657 89533187.261047363 0 0 0 0 23281601.574035645 -74324410.987060547 0 -74324410.987060547 67266074.629669189 0 0 0 0 40450715.56609726 -30292691.504470825 0 -30292691.504470825 31050723.182693481 0 0 0 0 55538027.77784729 -56139445.41229248 0 -56139445.41229248 75871835.132919312 0 0 0 0 41667402.408084869 -64103949.423522949 0 -64103949.423522949 35034173.979156494 0 0 0 0 -30728737.210421562 -91034988.048641205 0 -91034988.048641205 28905861.360778809 0 0 0 0 -15614816.820491791 -17318945.016494751 0 -17318945.016494751 35746035.205524445 0 0 0 0 -47110022.608352661 -46004361.642211914 0 -46004361.642211914 -52909.741668701172 0 0 0 0 36905554.209747314 -96434139.698287964 0 -96434139.698287964 -20826043.888267517 0 0 0 0 38757651.111625671 -85482380.0505867 0 -85482380.0505867 19697598.097564697 0 0 0 0 55023267.731071472 -86747721.882484436 0 -86747721.882484436 -13518.180862426758 0 0 0 0 31500772.78295517 -89660539.926673889 0 -89660539.926673889 103408223.88139343 0 0 0 0 28441597.220199585 -76853839.891265869 0 -76853839.891265869 50055648.863357544 0 0 0 0 -15939557.337631144 -11202913.3720707 0 -11202913.3720707 -5899666.6921110079 0 0 0 0 47810192.611083984 -69866821.852874756 0 -69866821.852874756 43026196.795631409 0 0 0 0 44075634.111503601 -55366668.231872559 0 -55366668.231872559 102664.00541827292 0 0 0 0 -7692296.9797351174 1231426.1787169967 0 1231426.1787169967 1204509.7502257079 0 0 0 0 -92687473.177959442 32544028.849432945 0 32544028.849432945 94043734.76133728 0 0 0 0 -5893415.3391998447 -2145639.0574391633 0 -2145639.0574391633 640160.26584690809 0 0 0 0 -7984433.2743377686 -73835942.89012146 0 -73835942.89012146 -169374.65869140625 0 0 0 0 -24842573.308540344 -28769230.928421021 0 -28769230.928421021 53815660.44543457 0 0 0 0 -64405407.669967651 -113907321.57824707 0 -113907321.57824707 81101002.369567871 0 0 0 0 -979679.91696937103 -534119.59840270504 0 -534119.59840270504 -123941.34068465233 0 0 0 0 -5376791.9920959473 10038220.222442627 0 10038220.222442627 127930940.30284119 0 0 0 0 -295524803.15177727 8240181.3284835815 0 8240181.3284835815 68092050.345184326 0 0 0 0 -5578060.2548867539 -1819703.6689675674 0 -1819703.6689675674 5533754.154946059 0 0 0 0 -30199698.986876488 9740307.0371055603 0 9740307.0371055603 -21497430.66885376 0 0 0 0 -11421992.66128175 -9135945.0379645973 0 -9135945.0379645973 -1614597.876216501 0 0 0 0 -16412248.59552002 -8481239.5699539185 0 -8481239.5699539185 4631173.3373718262 0 0 0 0 -21889181.939266205 -12461439.579223633 0 -12461439.579223633 11990626.435470581 0 0 0 0 -20351880.140480042 4081854.0052604675 0 4081854.0052604675 11098774.144439697 0 0 0 0 -3935973.6542742644 -2243380.0055900365 0 -2243380.0055900365 6673866.0403762758 0 0 0 0 -20284408.770530701 3766648.8037185669 0 3766648.8037185669 9689213.5457324982 0 0 0 0 -19447071.957946777 2046536.0151672363 0 2046536.0151672363 13112773.305541992 0 0 0 0 12884149.043151855 -19295875.418159485 0 -19295875.418159485 43526325.630786896 0 0 0 0 -20538747.601015091 2484988.8249511719 0 2484988.8249511719 34157247.513549805 0 0 0 0 -2350472.7171277031 -183654.68128463067 0 -183654.68128463067 1406881.7614544779 0 0 0 0 -115562650.25058746 -58256110.055686951 0 -58256110.055686951 87043265.776046753 0 0 0 0 18044609.807572842 -108403134.66047525 0 -108403134.66047525 88306971.336547852 0 0 0 0 -155763807.30471802 68879155.906547546 0 68879155.906547546 32916510.119674683 0 0 0 0 -47254451.182800293 -66104939.320449829 0 -66104939.320449829 80257040.345977783 0 0 0 0 18188304.773178101 -7675028.1593856812 0 -7675028.1593856812 -30955137.095214844 0 0 0 0 -11061869.144535065 -19957158.333942413 0 -19957158.333942413 25911081.614456177 0 0 0 0 -61170004.980377197 -3890181.4314422607 0 -3890181.4314422607 54929909.251716614 0 0 0 0 -9731799.9233112559 -1408916.0144266449 0 -1408916.0144266449 6239764.6236376166 0 0 0 0 -397002878.63008118 397917899.63786316 0 397917899.63786316 -149493386.63175964 0 0 0 0 -307150347.13342285 -90076488.735153198 0 -90076488.735153198 353355729.14859009 0 0 0 0 347556516.15010071 -110173553.98858833 0 -110173553.98858833 140130948.83444214 0 0 0 0 2428449.0332861692 -2144161.1952595562 0 -2144161.1952595562 230983.57960628625 0 0 0 0 589076590.36657715 -632145428.60980988 0 -632145428.60980988 596929604.22166443 0 0 0 0 371862012.25270081 81556202.233299255 0 81556202.233299255 -548473209.65274048 0 0 0 0 1060525701.6613464 -783972253.98490906 0 -783972253.98490906 -2226833.4794311523 0 0 0 0 473739605.5356102 -1195394521.9329491 0 -1195394521.9329491 480988630.13049316 0 0 0 0 1132416534.9389572 -441902356.06251526 0 -441902356.06251526 -214474106.27305603 0 0 0 0 318479552.73236656 -233931266.44253922 0 -233931266.44253922 -86768843.301025391 0 0 0 0 328027163.23002625 -488356704.61630249 0 -488356704.61630249 139804250.75119019 0 0 0 0 308318581.33045959 -386246230.12060547 0 -386246230.12060547 348196446.52922058 0 0 0 0 -655083918.87046623 234432524.85209846 0 234432524.85209846 19033867.226089478 0 0 0 0 -1081181944.4521942 -549225900.05758667 0 -549225900.05758667 444082419.49339294 0 0 0 0 -1654476241.3709412 -757159032.77256775 0 -757159032.77256775 852723991.66195679 0 0 0 0 -1963528467.7471018 1183996406.2071266 0 1183996406.2071266 -356043916.17323303 0 0 0 0 -1285422.8097195178 -1375202.232029289 0 -1375202.232029289 -368248.8138776198 0 0 0 0 14592922.6615448 -28837492.392822266 0 -28837492.392822266 131948.44081175569 0 0 0 0 12383635.881774902 -26432715.649688721 0 -26432715.649688721 51854846.106048584 0 0 0 0 -483079490.26396942 175539061.55628967 0 175539061.55628967 -69791758.641151428 0 0 0 0 -501230340.14685059 50765970.377029419 0 50765970.377029419 238255564.15788269 0 0 0 0 -466133125.57695007 -120949955.46038818 0 -120949955.46038818 220318573.00368404 0 0 0 0 -421591383.82925034 -95729852.644752502 0 -95729852.644752502 68329422.402999878 0 0 0 0 -137714543.49860382 -152267466.45437622 0 -152267466.45437622 -155805430.462677 0 0 0 0 -203458844.47367096 -231541596.04283905 0 -231541596.04283905 35822535.005073547 0 0 0 0 -1971892.9574144334 -344683.65961951762 0 -344683.65961951762 1106743.474704504 0 0 0 0 217959838.97711945 -576295642.21418762 0 -576295642.21418762 -1853410536.4205017 0 0 0 0 -160245137.43537903 -407187449.86672211 0 -407187449.86672211 -227153424.54029846 0 0 0 0 -503975330.29249001 -422799619.21435738 0 -422799619.21435738 1421052277.8588562 0 0 0 0 -519439709.76159668 -697550318.59211731 0 -697550318.59211731 329073719.68978882 0 0 0 0 -535732530.56121826 -136743317.33119202 0 -136743317.33119202 600568037.14956665 0 0 0 0 -291059805.72570801 -347356269.93431091 0 -347356269.93431091 415922355.41711426 0 0 0 0 59177898.980079651 -271873925.86676025 0 -271873925.86676025 388090445.52298737 0 0 0 0 566187166.15952682 -604481794.72785759 0 -604481794.72785759 594704891.75378418 0 0 0 0 439546884.19944763 91106210.140182495 0 91106210.140182495 660834074.40963745 0 0 0 0 -120795276.64657593 -1374323793.0518951 0 -1374323793.0518951 168923467.91494751 0 0 0 0 -123429692.01838684 -607248255.22866821 0 -607248255.22866821 -656598242.41645241 0 0 0 0 1826502.5732881837 -1538646.5974524617 0 -1538646.5974524617 572799.88021653891 0 0 0 0 284793594.86451817 79146919.83539772 0 79146919.83539772 -753955228.21118164 0 0 0 0 81077901.431640625 24283027.992858887 0 24283027.992858887 -1285114.7908935547 0 0 0 0 -92673393.56703949 6942969.1866226196 0 6942969.1866226196 291352432.58905029 0 0 0 0 -81420775.904983521 -94219986.324325562 0 -94219986.324325562 819162337.57728577 0 0 0 0 -73802906.289382935 -108378960.618927 0 -108378960.618927 514933576.20944214 0 0 0 0 -35745306.154190063 -349535470.53543091 0 -349535470.53543091 553819097.01950073 0 0 0 0 94696165.284767151 -339077715.55606842 0 -339077715.55606842 453771874.17538452 0 0 0 0 -191231874.82880116 -374008300.24925804 0 -374008300.24925804 -322160155.14198303 0 0 0 0 -201711650.31601715 -269000454.65692902 0 -269000454.65692902 -29766849.239822388 0 0 0 0 -224659526.705966 -550901251.84932041 0 -550901251.84932041 -457361175.77954102 0 0 0 0 -208486174.46433258 -468700569.4249382 0 -468700569.4249382 -357786790.77096558 0 0 0 0 -316494248.66029358 -510592061.30480194 0 -510592061.30480194 -43993630.666854858 0 0 0 0 -228890587.62750244 -668571764.63754272 0 -668571764.63754272 -317581623.48513794 0 0 0 0 -398626.54042816162 -233350701.31855011 0 -233350701.31855011 -167668944.20908356 0 0 0 0 12285669.846122742 -282814540.44593811 0 -282814540.44593811 22883073.552978516 0 0 0 0 253070782.47419739 -129889989.18062592 0 -129889989.18062592 -26983348.48600769 0 0 0 0 -161099616.22342491 -384300444.95197868 0 -384300444.95197868 448684882.82830811 0 0 0 0 204577581.49210358 -215463594.47277832 0 -215463594.47277832 -50560866.45942688 0 0 0 0 221395448.09417725 -163790428.63659668 0 -163790428.63659668 103552293.90376282 0 0 0 0 -5270453.1538430005 -1410471.4783190489 0 -1410471.4783190489 3308854.7876210362 0 0 0 0 -650643.68549470603 -3153418.5446217284 0 -3153418.5446217284 2772064.697583735 0 0 0 0 273877385.46434021 -98777875.23210907 0 -98777875.23210907 15289048.350891113 0 0 0 0 254139107.75434875 -129747551.43602753 0 -129747551.43602753 -32383893.237762451 0 0 0 0 815391127.76329041 -73247973.856491089 0 -73247973.856491089 -57799269.032016754 0 0 0 0 61272.778076317161 -1392135.4407223128 0 -1392135.4407223128 758672.74392321706 0 0 0 0 72762962.559078217 96178682.858774185 0 96178682.858774185 106639452.68890381 0 0 0 0 44660427.979232788 277779709.35546112 0 277779709.35546112 -190341639.91932678 0 0 0 0 -29161853.53678894 173930895.24446869 0 173930895.24446869 352332652.19140625 0 0 0 0 160111289.24029541 -80445608.140727997 0 -80445608.140727997 -16629659.192901611 0 0 0 0 315816621.91860962 -370865921.35342407 0 -370865921.35342407 232531195.68643188 0 0 0 0 -1445970.8465032578 -78351752.630418777 0 -78351752.630418777 -168361599.7350769 0 0 0 0 -4224080.5515518188 -87283910.46962738 0 -87283910.46962738 180891401.1816864 0 0 0 0 -107346060.66251373 -133333522.16410065 0 -133333522.16410065 116834217.63069153 0 0 0 0 241503928.04869843 -40463328.623649597 0 -40463328.623649597 -205808295.62678528 0 0 0 0 -91557026.494438171 -164267666.98568726 0 -164267666.98568726 -237827472.57159424 0 0 0 0 -85657099.815925598 -178289890.46150208 0 -178289890.46150208 -209531941.52398682 0 0 0 0 -91391916.5698452 52029751.595626831 0 52029751.595626831 -34398726.882415771 0 0 0 0 -794409.46194022894 322873.77698691934 0 322873.77698691934 981250.80498455465 0 0 0 0 -58750412.625259399 -110796278.15493011 0 -110796278.15493011 -86319849.435409546 0 0 0 0 -95088141.337005615 -121982548.35722351 0 -121982548.35722351 -218254450.70404053 0 0 0 0 -166398685.94638824 -103035071.02096558 0 -103035071.02096558 -199671433.59590149 0 0 0 0 -168804612.14600945 80028538.799529076 0 80028538.799529076 14545174.857330322 0 0 0 0 -210422449.50617981 -189836389.46269989 0 -189836389.46269989 -14078991.263183594 0 0 0 0 -92091125.203933716 -62114552.595535278 0 -62114552.595535278 137990560.597435 0 0 0 0 -91696140.476196289 43174111.989685059 0 43174111.989685059 52548751.169540405 0 0 0 0 -19904117.667900085 31151401.036849976 0 31151401.036849976 -28800591.077972412 0 0 0 0 -14770934.146980286 15737980.955673218 0 15737980.955673218 14940851.349517822 0 0 0 0 -2296117.127432555 966280.34611780196 0 966280.34611780196 3316974.0243443288 0 0 0 0 -15877062.97366333 10749947.695617676 0 10749947.695617676 -1891766.9344787598 0 0 0 0 -31337356.663421631 13741072.860206604 0 13741072.860206604 42182670.258888245 0 0 0 0 471781.00365447998 10099499.745512009 0 10099499.745512009 41021597.297195435 0 0 0 0 -149983887.27552795 -122213392.6862793 0 -122213392.6862793 96476793.949131012 0 0 0 0 -1806388.9488754272 -10539045.216903687 0 -10539045.216903687 38057671.974578857 0 0 0 0 -122212503.21935272 -247668303.41035461 0 -247668303.41035461 -80973807.443016052 0 0 0 0 -127525711.99964142 -179451406.35167694 0 -179451406.35167694 285708108.75216675 0 0 0 0 -85358514.103225708 -78737884.396240234 0 -78737884.396240234 30607937.710319519 0 0 0 0 -62109416.885154724 -113450637.75404358 0 -113450637.75404358 -75881534.645492554 0 0 0 0 -119581287.94689941 -171601263.2311306 0 -171601263.2311306 -9209761.2947387695 0 0 0 0 -149990003.98706055 -171583617.55918884 0 -171583617.55918884 268910.00090026855 0 0 0 0 -65278933.426109314 -111310510.67818451 0 -111310510.67818451 -19176092.754852295 0 0 0 0 -102560060.71755981 -96368292.192573547 0 -96368292.192573547 -25542195.893157959 0 0 0 0 -30580640.651412964 25745317.672363281 0 25745317.672363281 8105806.0939712524 0 0 0 0 -193904221.1456604 -82190175.588222504 0 -82190175.588222504 -6671384.7470703125 0 0 0 0 34269521.245513916 -34822747.793540955 0 -34822747.793540955 -126945232.50912476 0 0 0 0 7864261.7563255951 -3399376.1381986737 0 -3399376.1381986737 -1369341.4556451524 0 0 0 0 230677720.12731934 -256869760.48217773 0 -256869760.48217773 433492915.87464142 0 0 0 0 237177.05243709683 -686034.91731669009 0 -686034.91731669009 849514.88012516499 0 0 0 0 -23054909.262733459 102173534.02285767 0 102173534.02285767 635333703.16340637 0 0 0 0 12128090.03994751 -384031652.96342468 0 -384031652.96342468 -62306368.561355591 0 0 0 0 -82092025.97164917 -38397483.830062866 0 -38397483.830062866 700615900.99908829 0 0 0 0 -19231190.00869751 -42389555.802375793 0 -42389555.802375793 465038904.5962677 0 0 0 0 -26051085.954971313 -169186083.85149002 0 -169186083.85149002 -376081598.0980072 0 0 0 0 6136607.1866558641 -2256282.1539696902 0 -2256282.1539696902 -423339.74589612521 0 0 0 0 118111322.13179779 15226821.471866608 0 15226821.471866608 325480907.60768127 0 0 0 0 -93624552.777534485 -56257056.949485779 0 -56257056.949485779 679166871.14749146 0 0 0 0 19587027.68791008 -115072452.86328506 0 -115072452.86328506 59075200.054229736 0 0 0 0 -61986438.854202271 -113520136.80491638 0 -113520136.80491638 299353951.16363716 0 0 0 0 391775.51146824658 -1074942.0105115771 0 -1074942.0105115771 496502.41816363111 0 0 0 0 57558531.220770836 34874204.679508209 0 34874204.679508209 -56542768.353210449 0 0 0 0 79186586.860733032 -5302413.1420135498 0 -5302413.1420135498 2264971.3109436035 0 0 0 0 211933808.93946838 59134296.154342651 0 59134296.154342651 -5691423.782989502 0 0 0 0 19219.54841196537 -111759.83375613391 0 -111759.83375613391 66330.02946986258 0 0 0 0 -232724083.58647156 -142382749.06781769 0 -142382749.06781769 -17901191.003601074 0 0 0 0 -222579919.50395203 -212642828.07606506 0 -212642828.07606506 -130991453.25985718 0 0 0 0 -273106887.15416718 -179438272.11317444 0 -179438272.11317444 -112876575.55165482 0 0 0 0 572709.00408325344 -1732066.7194719091 0 -1732066.7194719091 1871642.8018822372 0 0 0 0 -111300774.46733475 -45946545.8215065 0 -45946545.8215065 -115203971.75761414 0 0 0 0 -22064070.522621155 -149833597.39280701 0 -149833597.39280701 -44162699.407028198 0 0 0 0 29920584.300552368 -159829642.52986145 0 -159829642.52986145 -200315001.823349 0 0 0 0 -36750317.208312988 187503584.82966614 0 187503584.82966614 300330136.26055145 0 0 0 0 376931240.09852123 124161793.54341984 0 124161793.54341984 373435570.97674561 0 0 0 0 -69056254.269584656 -200990725.02727127 0 -200990725.02727127 403614136.1421051 0 0 0 0 138635698.32611465 -381351214.20998001 0 -381351214.20998001 363769254.61175537 0 0 0 0 362997447.85195923 -148754361.72021484 0 -148754361.72021484 -114836025.68457031 0 0 0 0 245154045.27514839 119979408.79925346 0 119979408.79925346 -684613983.47962952 0 0 0 0 1604682.3563618287 323608.12679056078 0 323608.12679056078 -5432.4597177905962 0 0 0 0 512130478.18747711 -442917487.6769104 0 -442917487.6769104 381472792.48620605 0 0 0 0 -193566429.08356476 -159700567.47904968 0 -159700567.47904968 1343283546.260582 0 0 0 0 223208995.34017181 66598743.223098755 0 66598743.223098755 504549923.19802856 0 0 0 0 4220312.6332559437 -765451.21838047355 0 -765451.21838047355 -104210.51446848502 0 0 0 0 431431395.88978958 -224978172.74657822 0 -224978172.74657822 -814968770.03222656 0 0 0 0 -154653396.02751923 -72368262.318710327 0 -72368262.318710327 896483440.86726999 0 0 0 0 721398.03317161649 -250628.7901154384 0 -250628.7901154384 365498.99225923046 0 0 0 0 124325394.95409393 87168466.638277054 0 87168466.638277054 -169947231.26948547 0 0 0 0 128111600.95059204 -236118103.25167847 0 -236118103.25167847 217678388.1995697 0 0 0 0 79295158.812759399 -144256004.26921844 0 -144256004.26921844 87785014.926895142 0 0 0 0 180775437.50576401 -199908312.4786377 0 -199908312.4786377 146579319.10092163 0 0 0 0 -213590488.80653381 -187149798.27813721 0 -187149798.27813721 431956920.13653946 0 0 0 0 320862273.65822983 238568092.31753159 0 238568092.31753159 -242696414.35566711 0 0 0 0 244702.01922150701 151295.69335809723 0 151295.69335809723 308975.52466285974 0 0 0 0 148196727.51803207 -401978800.96828842 0 -401978800.96828842 618516334.1282196 0 0 0 0 457367087.74040222 -238593304.44425964 0 -238593304.44425964 -3231229.6582260132 0 0 0 0 30544571.81048584 -7927618.3570404053 0 -7927618.3570404053 75044009.476047516 0 0 0 0 22334993.36749649 110959331.33580399 0 110959331.33580399 314241188.71424866 0 0 0 0 31489662.067455292 83686230.297952652 0 83686230.297952652 -138351103.41925049 0 0 0 0 61292337.950855255 -62404236.148262024 0 -62404236.148262024 -133826595.03948975 0 0 0 0 95672865.027355194 -66985314.016181946 0 -66985314.016181946 -160249925.08578491 0 0 0 0 216227795.15687561 -14184389.973442078 0 -14184389.973442078 -137357065.66857147 0 0 0 0 592702.30635909736 334399.23079357296 0 334399.23079357296 -154511.02120874263 0 0 0 0 -59947452.250198364 -49494865.254188538 0 -49494865.254188538 30034738.416349411 0 0 0 0 31031101.552711487 60839860.594398499 0 60839860.594398499 -7453373.8657073975 0 0 0 0 -43635535.380207062 -156581890.50617218 0 -156581890.50617218 197918923.44906616 0 0 0 0 421695.04280474782 162182.19425646961 0 162182.19425646961 -79681.254693470895 0 0 0 0 122268339.77326584 -293693071.63164902 0 -293693071.63164902 266400002.36569214 0 0 0 0 435709912.74617004 -295823328.16578674 0 -295823328.16578674 87860705.826852366 0 0 0 0 438612856.68264771 -445883173.27618408 0 -445883173.27618408 176928640.38653564 0 0 0 0 256365683.51945496 -138743573.34949493 0 -138743573.34949493 -217879260.36853027 0 0 0 0 316623468.8344574 56215726.52141571 0 56215726.52141571 119018562.15026855 0 0 0 0 245453246.74472046 -27254164.580253601 0 -27254164.580253601 -9348997.7787857056 0 0 0 0 86760770.475708008 -89614215.992202759 0 -89614215.992202759 59747191.175872803 0 0 0 0 24357667.821287155 -94178573.870006561 0 -94178573.870006561 -15276968.860137939 0 0 0 0 31150066.491615295 -19574627.73935318 0 -19574627.73935318 -86182488.127372742 0 0 0 0 -29274245.052675247 40093899.509887695 0 40093899.509887695 28120329.576538086 0 0 0 0 -83697298.023857117 -17766788.829006195 0 -17766788.829006195 42006312.109191895 0 0 0 0 1960403.0880584717 -35228851.145095825 0 -35228851.145095825 -834668.39433288574 0 0 0 0 -19689288.273948669 -23098387.928722382 0 -23098387.928722382 -5566205.7673187256 0 0 0 0 -21654089.395645142 -3982091.8295555115 0 -3982091.8295555115 -84516792.362411499 0 0 0 0 -13341729.529968262 -24853177.982017517 0 -24853177.982017517 -33889966.285125732 0 0 0 0 -44721574.157752991 -10719102.574523926 0 -10719102.574523926 -942262.83139038086 0 0 0 0 8841713.12687397 -947814.12036800385 0 -947814.12036800385 -276649.18623352051 0 0 0 0 -154264209.25353241 -81907397.140090942 0 -81907397.140090942 126703081.27584839 0 0 0 0 -123758616.63851929 -95264698.546989441 0 -95264698.546989441 61208253.839065552 0 0 0 0 -108806266.14910126 -9881823.0016860962 0 -9881823.0016860962 69604215.486244202 0 0 0 0 -46893267.061882019 -41213873.11656189 0 -41213873.11656189 65572609.653457642 0 0 0 0 -53532047.745578766 -97681627.583169937 0 -97681627.583169937 15754635.979187012 0 0 0 0 -143085140.89054871 -25151182.137374878 0 -25151182.137374878 -42590188.575447083 0 0 0 0 -128112839.00469971 -86306440.522369385 0 -86306440.522369385 -106610143.43891907 0 0 0 0 -126720268.79896545 -172648405.34742737 0 -172648405.34742737 -266655790.77114868 0 0 0 0 -131114646.1383667 -51695286.171890259 0 -51695286.171890259 -2272472.970954895 0 0 0 0 -275317482.0163269 -127684749.60549164 0 -127684749.60549164 -26820620.067657471 0 0 0 0 1425665.0221556947 -1173638.0748434812 0 -1173638.0748434812 -38105.224029034376 0 0 0 0 -62844181.443145752 -60144910.119995117 0 -60144910.119995117 19499409.328216553 0 0 0 0 -126601212.81829071 -181937832.85632896 0 -181937832.85632896 -142722516.71389771 0 0 0 0 -123043208.98451233 -128016071.05592346 0 -128016071.05592346 -171791452.1802597 0 0 0 0 -182793296.8256073 -77456953.614715576 0 -77456953.614715576 64395261.75567627 0 0 0 0 -7907486.6088562012 37191455.501541138 0 37191455.501541138 33233994.840957642 0 0 0 0 499409051.46911621 -203951770.38761902 0 -203951770.38761902 62123256.82875061 0 0 0 0 266566974.36921692 95978398.810531616 0 95978398.810531616 -72321697.248428345 0 0 0 0 558701.13773230091 -465680.02750918269 0 -465680.02750918269 59353.828780725598 0 0 0 0 -145940592.78588867 -159387029.22732544 0 -159387029.22732544 304581031.02001953 0 0 0 0 101926622.40242004 -422582548.10621643 0 -422582548.10621643 335800886.70377541 0 0 0 0 -24040342.257965088 -198390583.12792206 0 -198390583.12792206 143083758.06184387 0 0 0 0 546482224.89547729 -223349266.99338913 0 -223349266.99338913 24403894.377563477 0 0 0 0 -125405879.84103394 -75189548.683670044 0 -75189548.683670044 62140715.68132019 0 0 0 0 -144745035.31849885 -27447286.960102916 0 -27447286.960102916 30275377.905700684 0 0 0 0 -158054901.10112 -160095084.49250793 0 -160095084.49250793 262649836.29646301 0 0 0 0 -67416664.575080872 -197394108.29418564 0 -197394108.29418564 149900189.20901489 0 0 0 0 -44060668.594395638 -127500926.49720764 0 -127500926.49720764 106940802.72041321 0 0 0 0 118775698.6810379 -214465771.59757996 0 -214465771.59757996 34773740.567901611 0 0 0 0 96976150.803993225 -179383781.06002045 0 -179383781.06002045 28934992.52739048 0 0 0 0 33851724.632469177 -143263768.88009644 0 -143263768.88009644 8933060.232421875 0 0 0 0 39118939.162437439 -121305393.98740387 0 -121305393.98740387 32626189.322090149 0 0 0 0 -36071016.893257141 -110007616.44937134 0 -110007616.44937134 77546660.577804565 0 0 0 0 -41301953.675680637 -62948611.907558441 0 -62948611.907558441 30992131.10168457 0 0 0 0 -14958178.473339081 -33402754.406627655 0 -33402754.406627655 64118092.804649353 0 0 0 0 396911.24124908447 -93314659.777107239 0 -93314659.777107239 33167498.18373251 0 0 0 0 -10687497.829086304 -68778933.614311218 0 -68778933.614311218 3466562.982131958 0 0 0 0 -7569518.3566474915 -65028694.072689056 0 -65028694.072689056 -19129141.111755371 0 0 0 0 31089299.540202141 -69825346.887286186 0 -69825346.887286186 -55536216.80821228 0 0 0 0 14084070.980392456 -6029023.2888031006 0 -6029023.2888031006 58086108.169906616 0 0 0 0 3076078.5813217163 -47721034.981872559 0 -47721034.981872559 -10816088.398712158 0 0 0 0 -1454544.771812439 4113916.7537765503 0 4113916.7537765503 109942349.85912323 0 0 0 0 47931615.546020508 -39668466.095542908 0 -39668466.095542908 71951290.116863251 0 0 0 0 -10837778.20066452 -65401131.828601837 0 -65401131.828601837 216016248.73425293 0 0 0 0 268638.87668842077 -73845.011274348944 0 -73845.011274348944 146688.61755533144 0 0 0 0 -55500023.335829735 -86046031.206332207 0 -86046031.206332207 185770258.27716064 0 0 0 0 1737.2731507271528 18691.85648419708 0 18691.85648419708 100679.34793187678 0 0 0 0 -104225197.61519623 -124533827.15201569 0 -124533827.15201569 195956630.59100342 0 0 0 0 740535.38672637939 -51290589.376678467 0 -51290589.376678467 176559400.37675476 0 0 0 0 57364841.898071289 -97228728.524291992 0 -97228728.524291992 126312851.95032501 0 0 0 0 61298796.770515442 -81368743.247093201 0 -81368743.247093201 138283064.12887573 0 0 0 0 21299653.051124573 36022787.229560852 0 36022787.229560852 88280710.216819763 0 0 0 0 -505268424.51745605 -59216561.098144531 0 -59216561.098144531 236378126.18640137 0 0 0 0 1277421.2313989699 -234973.55722667649 0 -234973.55722667649 -29045.162626668811 0 0 0 0 -219400138.07037354 60410664.335342407 0 60410664.335342407 152513518.042099 0 0 0 0 14296317.864012241 -227875222.33463311 0 -227875222.33463311 -40671588.526412964 0 0 0 0 -404537005.89447784 -174771819.55623245 0 -174771819.55623245 33018345.916595459 0 0 0 0 1201269.2751445249 -311018.46816926822 0 -311018.46816926822 -815504.52453719079 0 0 0 0 -17753473.050239563 -93394831.20791626 0 -93394831.20791626 -65769554.760368347 0 0 0 0 -73173789.015647888 -82125352.049377441 0 -82125352.049377441 -24917226.308441162 0 0 0 0 5308259.4481152436 -3435853.1289415285 0 -3435853.1289415285 -3412430.8362779468 0 0 0 0 -205701983.8201828 -134204726.82984924 0 -134204726.82984924 -15390382.883743286 0 0 0 0 -75409203.567625999 -114945663.50709009 0 -114945663.50709009 -101394271.41259766 0 0 0 0 159603156.47172546 -1020406.7104110718 0 -1020406.7104110718 -253287108.06130981 0 0 0 0 136333400.55170441 -18767920.933372498 0 -18767920.933372498 172905736.76576233 0 0 0 0 -180635281.40700531 -181426442.02699852 0 -181426442.02699852 -97892306.647293091 0 0 0 0 11688.779579162598 59391259.616333008 0 59391259.616333008 14641738.431819916 0 0 0 0 247816845.28311157 -53150573.104522705 0 -53150573.104522705 64442402.074386597 0 0 0 0 344350888.16511536 130668489.12264252 0 130668489.12264252 -154861637.83831787 0 0 0 0 95691224.569444895 -151133190.35492897 0 -151133190.35492897 -146860777.43527985 0 0 0 0 58810504.942451477 -46857984.307564735 0 -46857984.307564735 -344547323.16996956 0 0 0 0 -278784660.62618637 -743286563.67420292 0 -743286563.67420292 -477883388.82212466 0 0 0 0 -113280808.98222494 -579240557.01098061 0 -579240557.01098061 -437106449.18057251 0 0 0 0 28245923.9566634 -39843591.018965393 0 -39843591.018965393 44233916.667654164 0 0 0 0 -563634263.08973503 -156359591.64284992 0 -156359591.64284992 364283291.65560913 0 0 0 0 528917404.78604126 -280365063.34739685 0 -280365063.34739685 -576210996.27697754 0 0 0 0 -71189392.095821545 -368214063.89823562 0 -368214063.89823562 -436821509.96619415 0 0 0 0 -531009353.41261292 -570264226.82370758 0 -570264226.82370758 -33535262.482818604 0 0 0 0 -184652776.20108032 -230222545.07733154 0 -230222545.07733154 -167744603.84587097 0 0 0 0 27415019.623039193 -39987018.139173076 0 -39987018.139173076 43559079.482329324 0 0 0 0 -283968541.69511414 -72351621.312614441 0 -72351621.312614441 298530474.60656738 0 0 0 0 -72055733.395759583 -79114749.763313293 0 -79114749.763313293 107388308.39500427 0 0 0 0 -59399804.02898407 -154782720.95982742 0 -154782720.95982742 549442002.08404541 0 0 0 0 29996896.075668335 130714665.71375275 0 130714665.71375275 125579654.08418274 0 0 0 0 -10537199.475906372 41064271.917930603 0 41064271.917930603 183740543.64440155 0 0 0 0 41394369.794094086 104069144.02659607 0 104069144.02659607 168035830.55935669 0 0 0 0 -188379689.40859985 -45973148.932861328 0 -45973148.932861328 170050418.39719391 0 0 0 0 -171327255.55101395 -10442636.120235443 0 -10442636.120235443 53379281.284072876 0 0 0 0 337431822.94822693 155699528.06335449 0 155699528.06335449 -47352999.501708984 0 0 0 0 128697186.40155029 -1376436924.0992584 0 -1376436924.0992584 737305899.38376617 0 0 0 0 -869665263.30570984 -513556772.37930298 0 -513556772.37930298 645043874.40783691 0 0 0 0 -713374151.99702454 688337.76020812988 0 688337.76020812988 425151281.84555054 0 0 0 0 1528764771.6753845 -53152189.163513184 0 -53152189.163513184 423115805.55996704 0 0 0 0 1245787.5677306578 -493580.61611646786 0 -493580.61611646786 -281261.99536727369 0 0 0 0 -51311004.62853241 -66947876.477241516 0 -66947876.477241516 879839749.07958984 0 0 0 0 184658414.02973938 337269578.09294128 0 337269578.09294128 639595336.76937103 0 0 0 0 1756283493.5531845 -479972852.57730103 0 -479972852.57730103 -122439755.13037109 0 0 0 0 -2208186.214797724 -1024955.3867600299 0 -1024955.3867600299 1837783.5676894039 0 0 0 0 173784814.31513977 255393421.43968964 0 255393421.43968964 229787370.11226654 0 0 0 0 121249809.24488831 -139873729.66140747 0 -139873729.66140747 68296835.120310068 0 0 0 0 -15454950.350288391 -292832981.43588257 0 -292832981.43588257 315901984.84166718 0 0 0 0 687137805.46160889 -259721045.65657043 0 -259721045.65657043 71527491.629285336 0 0 0 0 125516465.90582275 -835054138.18965912 0 -835054138.18965912 594544805.81365967 0 0 0 0 -273872009.65008545 -260018911.92385864 0 -260018911.92385864 340730889.45999146 0 0 0 0 68619390.869148254 -132532887.15576172 0 -132532887.15576172 78109429.213668823 0 0 0 0 51212837.005233765 -139970126.41725922 0 -139970126.41725922 83314205.469726562 0 0 0 0 195878290.59722137 -203922654.49085236 0 -203922654.49085236 89628877.566696167 0 0 0 0 76272400.09286499 -157921228.72084999 0 -157921228.72084999 94780571.292114258 0 0 0 0 55668447.325286865 -27410459.010803223 0 -27410459.010803223 13041465.799224854 0 0 0 0 174608072.59778595 -100229972.38584518 0 -100229972.38584518 35950695.037216187 0 0 0 0 -7135217.9243531451 -3321317.6495822743 0 -3321317.6495822743 5019699.8148123771 0 0 0 0 -15889448.612192668 -15649318.475807076 0 -15649318.475807076 347120.45788958669 0 0 0 0 -19774268.770446777 -19418810.704788208 0 -19418810.704788208 -796792.10462188721 0 0 0 0 -37545315.553911209 -29059963.09879303 0 -29059963.09879303 6018713.4374389648 0 0 0 0 -7957384.0951051712 -30102699.290897369 0 -30102699.290897369 -6286833.998046875 0 0 0 0 -6275949.5905914307 -24616459.88911438 0 -24616459.88911438 1206214.7544555664 0 0 0 0 -15287944.851852369 -14398736.282239867 0 -14398736.282239867 39613.808537907898 0 0 0 0 -5837032.9553222656 -26620317.889160156 0 -26620317.889160156 34873757.930896759 0 0 0 0 -74932713.244613647 -56009432.653182983 0 -56009432.653182983 117415543.44589233 0 0 0 0 -17441467.466674805 -59245825.383773804 0 -59245825.383773804 49683543.351959229 0 0 0 0 44050730.375305176 -150164720.72563171 0 -150164720.72563171 127033726.0256958 0 0 0 0 14086339.860092163 -127692196.50553894 0 -127692196.50553894 122412575.09999084 0 0 0 0 41302044.514984131 -94249085.01725769 0 -94249085.01725769 27002678.664825439 0 0 0 0 -56765560.094726562 99562066.677185059 0 99562066.677185059 145867034.76898766 0 0 0 0 -152031036.05140686 136059.88697814941 0 136059.88697814941 73510633.89831543 0 0 0 0 42834986.905601501 42567710.131492615 0 42567710.131492615 10100597.481170654 0 0 0 0 -4104600.7125895657 82637.325736092404 0 82637.325736092404 3735434.2494685799 0 0 0 0 -19149247.260103479 1733782.5574298874 0 1733782.5574298874 16412759.903421715 0 0 0 0 -31298600.109664917 22818030.384178162 0 22818030.384178162 30787347.27324295 0 0 0 0 -40941127.092655182 14538918.246959686 0 14538918.246959686 31514731.200759888 0 0 0 0 -48374873.121482849 10698565.131095886 0 10698565.131095886 69774161.453903198 0 0 0 0 -42891042.413986206 -15211893.806259155 0 -15211893.806259155 31654437.455213934 0 0 0 0 -45900927.388137817 -15555316.684890747 0 -15555316.684890747 57539925.522823334 0 0 0 0 -22751594.663784336 1289114.3559922501 0 1289114.3559922501 20210058.265336499 0 0 0 0 -66140167.464878082 -31520936.787780762 0 -31520936.787780762 770678.45941162109 0 0 0 0 -71822337.38229847 -39556792.771995544 0 -39556792.771995544 8637651.6281585693 0 0 0 0 18412797.613006592 -38673687.784393311 0 -38673687.784393311 -33051622.45123291 0 0 0 0 -142566976.52233887 101735698.85491943 0 101735698.85491943 5142763.1186523438 0 0 0 0 -168963605.34008026 -73402804.775970459 0 -73402804.775970459 -73731820.579803467 0 0 0 0 -1374576.317855984 -1373605.3376864567 0 -1373605.3376864567 599557.13481771946 0 0 0 0 31551212.229370117 -89077013.34942627 0 -89077013.34942627 -99690843.268066406 0 0 0 0 -22133796.42830658 -79980137.720611572 0 -79980137.720611572 -52903323.423217773 0 0 0 0 -15041385.482988358 -117502721.0509491 0 -117502721.0509491 -80006428.310852051 0 0 0 0 72987396.921783447 -54164950.595184326 0 -54164950.595184326 -82514593.645996094 0 0 0 0 -218315011.36327744 -56356084.302520752 0 -56356084.302520752 26181903.967071533 0 0 0 0 -729771.51827064902 73680.138137601316 0 73680.138137601316 2161363.3118085191 0 0 0 0 -120931682.21282959 -85373910.182907104 0 -85373910.182907104 -103310203.99911499 0 0 0 0 -1342636.1739538014 -18378394.774628103 0 -18378394.774628103 10595734.81826213 0 0 0 0 16915064.518157959 -43449118.334739685 0 -43449118.334739685 -13878500.761505127 0 0 0 0 -37522803.920959473 -45286650.150949478 0 -45286650.150949478 39125796.030456543 0 0 0 0 -3071790.482925415 -16377766.77784729 0 -16377766.77784729 2534326.3372192383 0 0 0 0 -1663977.1346435547 -7457433.0151367188 0 -7457433.0151367188 -168077.65901184082 0 0 0 0 -8539037.5640544742 -9444812.657394655 0 -9444812.657394655 -90013.498012021184 0 0 0 0 -5791744.6511688232 -4108018.987197876 0 -4108018.987197876 1848224.3060913086 0 0 0 0 -8736675.3542441484 -8452533.6829923317 0 -8452533.6829923317 -1257778.6748246551 0 0 0 0 -27688431.531723022 -7444321.7320556641 0 -7444321.7320556641 -17214242.725036621 0 0 0 0 -4020256.2920195051 -12385978.322496127 0 -12385978.322496127 -3069363.8489514664 0 0 0 0 -1438349.4589109272 -1155272.1374695227 0 -1155272.1374695227 -816125.87457565963 0 0 0 0 -25228496.418991089 -38736976.06640625 0 -38736976.06640625 14079131.030090332 0 0 0 0 2989685.63671875 -12968295.335853577 0 -12968295.335853577 3141591.6590270996 0 0 0 0 -431956.25353240967 -15861845.205245972 0 -15861845.205245972 -12828394.854537964 0 0 0 0 8576382.1728057861 1099497.1466369629 0 1099497.1466369629 -1100496.8168640137 0 0 0 0 6745242.8149719238 -38763449.016647339 0 -38763449.016647339 -32104791.342712402 0 0 0 0 -2716157.7763214111 -13538263.351119995 0 -13538263.351119995 -4160954.7229003906 0 0 0 0 -35930329.69380188 -1286362.7904968262 0 -1286362.7904968262 -1414855.8187866211 0 0 0 0 -408504.4094087556 -2423945.030223079 0 -2423945.030223079 1721620.7744472651 0 0 0 0 -4896157.5320114344 -5183090.0789853334 0 -5183090.0789853334 2360935.713567324 0 0 0 0 7328466.2695159912 -27110574.320739746 0 -27110574.320739746 -45840440.679092407 0 0 0 0 -47413004.214012146 39165159.668762207 0 39165159.668762207 -31892270.695770264 0 0 0 0 75813016.608757496 -12974608.263547897 0 -12974608.263547897 -62590085.886474609 0 0 0 0 38347097.311798096 3400771.0016479492 0 3400771.0016479492 -29017829.775512695 0 0 0 0 235737839.88689804 -159696359.75408936 0 -159696359.75408936 14857654.540313721 0 0 0 0 -13746086.83114624 2923196.7572631836 0 2923196.7572631836 5146919.3349609375 0 0 0 0 310358.88689453155 -865499.32045020908 0 -865499.32045020908 235155.7752898559 0 0 0 0 -12995073.883066121 -16965513.098174296 0 -16965513.098174296 2386492.2535630981 0 0 0 0 -2724256.2190641165 -3854440.4327879027 0 -3854440.4327879027 3701887.3226264119 0 0 0 0 -170221.59572219849 -2957360.0257873535 0 -2957360.0257873535 726263.30947875977 0 0 0 0 -9411303.4457588531 -9959710.0043979287 0 -9959710.0043979287 24063.031693354249 0 0 0 0 -6858543.1058795713 -11682682.082849994 0 -11682682.082849994 -3161847.3218469471 0 0 0 0 -5698128.1504364014 -9173898.4699707031 0 -9173898.4699707031 1829686.4730224609 0 0 0 0 322926.83879089355 -14401015.523742676 0 -14401015.523742676 -8620530.9085083008 0 0 0 0 -3095501.578704834 -8258207.2143554688 0 -8258207.2143554688 373168.74285888672 0 0 0 0 -620052.78316676617 -5416294.3535781018 0 -5416294.3535781018 1923762.3633973002 0 0 0 0 -3219777.7906589508 -8446330.7722454071 0 -8446330.7722454071 4274668.2539215088 0 0 0 0 1611205.388671875 -10284957.890625 0 -10284957.890625 9578007.6961898804 0 0 0 0 1296281.6054382324 -5066537.3078384399 0 -5066537.3078384399 3328097.4914550781 0 0 0 0 -346113.25512695312 -12092596.552307129 0 -12092596.552307129 9439830.3466110229 0 0 0 0 -1473691.3508503437 -10016534.46366787 0 -10016534.46366787 2666802.7637634277 0 0 0 0 -12794019.567441786 -22656727.243567079 0 -22656727.243567079 -2498011.1337909959 0 0 0 0 158120.66836148873 -9769254.6802155077 0 -9769254.6802155077 -5950666.8096318971 0 0 0 0 -9726.1128663569689 -52042.403812151402 0 -52042.403812151402 103699.33983100951 0 0 0 0 -24924473.522842407 -166520274.84267426 0 -166520274.84267426 -29939917.238349915 0 0 0 0 -1654981.9641986527 -9042079.9724605717 0 -9042079.9724605717 -4915347.9018484354 0 0 0 0 912419.48504638672 -5961594.1569747925 0 -5961594.1569747925 3326642.4603729248 0 0 0 0 -207437441.17825317 -78459525.443756104 0 -78459525.443756104 390277828.40353394 0 0 0 0 677555893.82623291 80858820.05682373 0 80858820.05682373 55226837.573852539 0 0 0 0 -515761.57609449327 -611583.70679468662 0 -611583.70679468662 93.374417454004288 0 0 0 0 -16630867.282409668 -26093953.089050293 0 -26093953.089050293 13263211.701416016 0 0 0 0 -11937204.789768793 -7071088.0097702146 0 -7071088.0097702146 258879.97444294393 0 0 0 0 -2393095.481359452 -2316376.6346810926 0 -2316376.6346810926 3734833.1678871661 0 0 0 0 28686987.885292053 -128223979.10391235 0 -128223979.10391235 88510754.597229004 0 0 0 0 25401653.361984253 -213403570.17181396 0 -213403570.17181396 39690339.463806152 0 0 0 0 18394576.047409058 -172495247.66445923 0 -172495247.66445923 127868572.86532593 0 0 0 0 -92390017.85144043 -301723576.57183838 0 -301723576.57183838 130451627.93585205 0 0 0 0 3843910.9867553711 -17512530.202102661 0 -17512530.202102661 4867469.7495193481 0 0 0 0 2534840.7539758682 380551.34201812744 0 380551.34201812744 26064009.120330811 0 0 0 0 -9034332.3171691895 -15355511.464355469 0 -15355511.464355469 15567237.422363281 0 0 0 0 458902.36773112416 -13750522.229208503 0 -13750522.229208503 -1889039.4919915907 0 0 0 0 -13111041.182977263 -13645503.596713848 0 -13645503.596713848 11011217.369173884 0 0 0 0 -661586.05885314941 -13021881.425933838 0 -13021881.425933838 8053590.029083252 0 0 0 0 648644.48316955566 -18123639.78837204 0 -18123639.78837204 6417277.2241516113 0 0 0 0 -4776777.7881629393 -18677488.534250915 0 -18677488.534250915 -6897019.1477021407 0 0 0 0 8741069.3716014922 -6275915.9338005334 0 -6275915.9338005334 -3515279.3471563435 0 0 0 0 1444528.5490040928 -9731476.7265920341 0 -9731476.7265920341 -856369.36159497499 0 0 0 0 30550991.983680725 -82537814.738052368 0 -82537814.738052368 185624598.13124084 0 0 0 0 12810406.289428711 15027935.529220581 0 15027935.529220581 72678592.969497681 0 0 0 0 20534354.087627411 -11687403.86662674 0 -11687403.86662674 -22237385.927032471 0 0 0 0 -56178326.367431641 185399966.39059448 0 185399966.39059448 266943922.20880127 0 0 0 0 -104938354.28662872 209385466.17899323 0 209385466.17899323 579595591.46905518 0 0 0 0 -183130215.77453613 -83786190.499313354 0 -83786190.499313354 797623632.94030762 0 0 0 0 -149074119.68141174 -118126132.94311523 0 -118126132.94311523 376093593.58132935 0 0 0 0 -877010.09844970703 -260206896.2797699 0 -260206896.2797699 194946427.30825043 0 0 0 0 -13938615.831985474 -444671132.14117432 0 -444671132.14117432 465171562.56326294 0 0 0 0 -44975254.518447876 -132906162.52259827 0 -132906162.52259827 152777742.40447998 0 0 0 0 -68276439.074638367 -147877315.57485962 0 -147877315.57485962 305563017.39060974 0 0 0 0 18946814.27482605 -165606383.0456543 0 -165606383.0456543 168015274.89602661 0 0 0 0 9640775.2705383301 -200514768.90803528 0 -200514768.90803528 160122487.01964569 0 0 0 0 3652136.084022522 -224280714.08049011 0 -224280714.08049011 101945930.49234009 0 0 0 0 25134409.087890625 -172654035.59561157 0 -172654035.59561157 103956709.05336094 0 0 0 0 8273906.8821792603 -253542501.73817444 0 -253542501.73817444 73548045.969039917 0 0 0 0 17354229.865829468 -140511018.82093811 0 -140511018.82093811 -55861214.121322632 0 0 0 0 42840439.489225388 -265503098.65975285 0 -265503098.65975285 57317421.743713379 0 0 0 0 33101236.85824585 -86315950.834884644 0 -86315950.834884644 -108288316.87031555 0 0 0 0 31854906.448768616 -64329952.168457031 0 -64329952.168457031 -21669883.003143311 0 0 0 0 33801308.349205017 -184458318.7754631 0 -184458318.7754631 47559360.110321045 0 0 0 0 35057077.013307571 -83626750.309755325 0 -83626750.309755325 94480716.599731445 0 0 0 0 41337777.978355408 -104532472.80748749 0 -104532472.80748749 132528982.24293518 0 0 0 0 29277552.849151611 -172574451.92491913 0 -172574451.92491913 94656928.769210815 0 0 0 0 59612289.674804688 -92010825.196166992 0 -92010825.196166992 122899233.33839417 0 0 0 0 72272339.909160614 -123163447.02457428 0 -123163447.02457428 157438880.13208008 0 0 0 0 19808244.662979126 -90544905.726043701 0 -90544905.726043701 137166396.46868134 0 0 0 0 21674804.137451172 -160165100.0725708 0 -160165100.0725708 189370651.38386536 0 0 0 0 88944719.669799805 -183537370.28829956 0 -183537370.28829956 174417407.43131256 0 0 0 0 86379296.206306458 -198865314.95328712 0 -198865314.95328712 133388261.2013855 0 0 0 0 57303080.42906189 -139544071.49365234 0 -139544071.49365234 139514113.20629883 0 0 0 0 125244766.58839321 -125042067.77020669 0 -125042067.77020669 208818559.92364502 0 0 0 0 135304765.99836731 -153675758.979599 0 -153675758.979599 141764966.97953415 0 0 0 0 127016382.49162292 -197593326.63827515 0 -197593326.63827515 140339764.74411011 0 0 0 0 34884288.532493591 -155928287.47116852 0 -155928287.47116852 141011296.65164185 0 0 0 0 -9356279.9531097412 -165896724.65352631 0 -165896724.65352631 217168723.19348145 0 0 0 0 -47657341.024887085 -14828691.750946045 0 -14828691.750946045 110881152.19219971 0 0 0 0 -50800473.921401978 19398497.354995728 0 19398497.354995728 22849834.707897186 0 0 0 0 338906258.73861694 -239864007.40019226 0 -239864007.40019226 242272659.32757568 0 0 0 0 283206283.51495361 -277730681.37365723 0 -277730681.37365723 227336874.64295959 0 0 0 0 -2716844.8267618325 -1867004.9882203648 0 -1867004.9882203648 1899200.7631380558 0 0 0 0 212760557.91802216 7536697.6526412964 0 7536697.6526412964 251793662.54260254 0 0 0 0 7029086.1028594971 -158154105.07240295 0 -158154105.07240295 206621429.19613647 0 0 0 0 189547.42218017578 -168900906.82814026 0 -168900906.82814026 229699571.72595215 0 0 0 0 -8789408.0915374756 -220844423.7094574 0 -220844423.7094574 131314275.62779427 0 0 0 0 7585714.8183059692 -197842684.61738586 0 -197842684.61738586 159829477.86541748 0 0 0 0 39051007.59312439 -148961254.11482239 0 -148961254.11482239 144720253.44692993 0 0 0 0 33317202.499816895 -142662443.98735046 0 -142662443.98735046 156521377.17839813 0 0 0 0 73594191.206092834 -91228283.344474792 0 -91228283.344474792 216425672.08206177 0 0 0 0 -1193022.6343536377 -652173702.60309029 0 -652173702.60309029 -300152381.25115204 0 0 0 0 -483100778.41693115 -340584518.71909332 0 -340584518.71909332 241373970.57286072 0 0 0 0 -1157944.6738020647 -2121364.8358415291 0 -2121364.8358415291 821713.08314520121 0 0 0 0 -490014599.82432556 -433504794.01399994 0 -433504794.01399994 82117933.687900543 0 0 0 0 191994091.72842407 60586723.664848328 0 60586723.664848328 -129529002.52459717 0 0 0 0 -128022576.68435669 -87849807.765209198 0 -87849807.765209198 87657717.81690979 0 0 0 0 -1024794214.4648895 -258800032.63811493 0 -258800032.63811493 25183902.227714539 0 0 0 0 -963703246.16835213 -260596045.34099865 0 -260596045.34099865 -54398627.941223145 0 0 0 0 -169587645.23976135 -105397001.70185089 0 -105397001.70185089 58327521.794689178 0 0 0 0 -4655485.9726352319 -4880017.8831604198 0 -4880017.8831604198 3044064.5335514545 0 0 0 0 135046856.75177193 16985846.570829391 0 16985846.570829391 -30498686.39440918 0 0 0 0 -756720658.97706604 -40138517.560882568 0 -40138517.560882568 -433362093.41226196 0 0 0 0 -10400242.55660958 -10891003.322361149 0 -10891003.322361149 5902878.944389686 0 0 0 0 240698469.05326843 87384647.970146179 0 87384647.970146179 -87819942.910934448 0 0 0 0 148810333.70999146 116949014.31391144 0 116949014.31391144 -8126466.3571624756 0 0 0 0 -2199885606.1899872 -577414427.50574493 0 -577414427.50574493 269960946.06997681 0 0 0 0 -1815792622.3032074 -1815672945.4803467 0 -1815672945.4803467 -748389385.93729782 0 0 0 0 -1584541865.4847565 -1034983023.3373566 0 -1034983023.3373566 -184500342.84536743 0 0 0 0 -598465752.02920914 -1167154480.8912992 0 -1167154480.8912992 -548179328.2270813 0 0 0 0 -1515027456.0016861 -1423498620.4218521 0 -1423498620.4218521 -1442373606.3551254 0 0 0 0 -2016631.2740290987 -3085147692.2272625 0 -3085147692.2272625 -2044098175.4190521 0 0 0 0 -1531022924.2858486 -1647487585.5015049 0 -1647487585.5015049 -2595344134.5069885 0 0 0 0 -3493628820.2866135 -3619282614.9082184 0 -3619282614.9082184 2929032.6640930176 0 0 0 0 -3877887839.8452148 -2716869015.2867889 0 -2716869015.2867889 -82438885.428722382 0 0 0 0 -6849778252.0904388 -2557919300.8716431 0 -2557919300.8716431 -14377705.793685913 0 0 0 0 67498121.275123596 -9748725.3729724884 0 -9748725.3729724884 -30536330.772460938 0 0 0 0 -6555463.5927739125 -2807002.7720718384 0 -2807002.7720718384 -3842052.5472551882 0 0 0 0 -3707728122.3777618 -2447517165.0762634 0 -2447517165.0762634 -887659302.1204834 0 0 0 0 -5728720.2702009231 -6544264.2724706382 0 -6544264.2724706382 -11430138.66121465 0 0 0 0 13009035.475410461 -21979750.510532379 0 -21979750.510532379 -31449715.270141602 0 0 0 0 -18165773.764648438 -10235938.462402344 0 -10235938.462402344 -12754583.726394713 0 0 0 0 -3341099115.5196686 -3017159315.0855026 0 -3017159315.0855026 -761340397.35568237 0 0 0 0 -3376221982.3901825 -2542811850.6224442 0 -2542811850.6224442 -2444695860.6097107 0 0 0 0 -3204749.3043678999 -2985504.6391688809 0 -2985504.6391688809 -783745.84088366956 0 0 0 0 -3233830226.2875957 759873554.47474909 0 759873554.47474909 369761128.72442627 0 0 0 0 -3567150508.7273865 -2200261788.0718842 0 -2200261788.0718842 -709018812.38240814 0 0 0 0 -15631409.373474121 -71508817.218078613 0 -71508817.218078613 82772407.002502441 0 0 0 0 -19945918.388671234 -18279045.982372217 0 -18279045.982372217 -5802827.9616644504 0 0 0 0 320077934.86535645 266628356.65707397 0 266628356.65707397 307042362.65924072 0 0 0 0 -1956118568.0127563 -99372862.797302246 0 -99372862.797302246 536433072.15541077 0 0 0 0 -22940614.243694276 -13627274.897686303 0 -13627274.897686303 3241899.2990150512 0 0 0 0 277240199.90078735 -879666405.55606079 0 -879666405.55606079 -239679917.27987671 0 0 0 0 522693088.96212769 -117648165.90742874 0 -117648165.90742874 -278448727.47937012 0 0 0 0 1212180658.7626953 558049989.49130249 0 558049989.49130249 378659047.18548584 0 0 0 0 -665699.18321314454 -1159344.6885599941 0 -1159344.6885599941 -1362817.5658002943 0 0 0 0 132828390.6864624 445774942.02113342 0 445774942.02113342 -18889894.374034882 0 0 0 0 -19632633.909492493 -17061291.467700958 0 -17061291.467700958 -18977330.054855347 0 0 0 0 -8536789.0721639395 -6737894.886328958 0 -6737894.886328958 -5094751.522772938 0 0 0 0 -16953114.267379761 -15125966.691833496 0 -15125966.691833496 -23116993.837549716 0 0 0 0 -19624732.005645752 -42776049.296127319 0 -42776049.296127319 -20560747.420166016 0 0 0 0 -13010426.893913269 -27863754.294708252 0 -27863754.294708252 3215060.7892303467 0 0 0 0 -17038563.770355225 -15608848.618896484 0 -15608848.618896484 -32342264.203266144 0 0 0 0 -9299629.6606445312 -18752102.270515442 0 -18752102.270515442 -19325312.606201172 0 0 0 0 -8246981.0758971721 -3269931.5442608297 0 -3269931.5442608297 213148.46280437708 0 0 0 0 -52232197.77507019 -59871269.142398834 0 -59871269.142398834 -13488419.062820435 0 0 0 0 -63552110.363471985 -40369786.817234039 0 -40369786.817234039 -38871.644073486328 0 0 0 0 -34296209.547729492 -18797681.877738953 0 -18797681.877738953 -18312256.672527313 0 0 0 0 -5315323.6110916138 -50264030.684265137 0 -50264030.684265137 33989.840484619141 0 0 0 0 -6528853.9907989502 -66193544.508056641 0 -66193544.508056641 -1144124.3839874268 0 0 0 0 -24157960.844360352 -70682188.867599487 0 -70682188.867599487 141377.79899597168 0 0 0 0 37352547.901290894 -16501518.8801651 0 -16501518.8801651 -17892411.359573364 0 0 0 0 -7650957.0748490468 -1903383.9013449103 0 -1903383.9013449103 1868567.222792685 0 0 0 0 -15099424.42010498 -25976989.352722168 0 -25976989.352722168 -19572618.833343506 0 0 0 0 -29176492.677383423 -58651444.426116943 0 -58651444.426116943 8994353.6462402344 0 0 0 0 -20728837.777622223 -25890669.034473419 0 -25890669.034473419 -14572962.081359863 0 0 0 0 -23576829.891368866 -33301842.149059296 0 -33301842.149059296 -8039567.9454345703 0 0 0 0 -18205103.979812622 -19408182.870948792 0 -19408182.870948792 -15452043.021408081 0 0 0 0 -21767629.975769043 -22089745.501358032 0 -22089745.501358032 -13039905.256332397 0 0 0 0 6328893.6921081543 -220389105.72039795 0 -220389105.72039795 104097326.38615426 0 0 0 0 -24417095.849607438 -16796758.972196124 0 -16796758.972196124 2163094.5721479785 0 0 0 0 -225608730.81274414 -48250018.955514908 0 -48250018.955514908 16471065.21194458 0 0 0 0 -183880994.4510994 64941075.168087006 0 64941075.168087006 -134199690.58357239 0 0 0 0 -25214855.31548205 -17347143.818812989 0 -17347143.818812989 1859819.5274753375 0 0 0 0 1377848067.3969727 -217381572.27624512 0 -217381572.27624512 -166038094.10394287 0 0 0 0 -134823880.67944336 -15742874.275894165 0 -15742874.275894165 -59427904.569152832 0 0 0 0 -31138788.647346497 -21976556.18838501 0 -21976556.18838501 164876.63751220703 0 0 0 0 239239155.88905692 332175890.61313593 0 332175890.61313593 22923621.566192627 0 0 0 0 58637.84995983541 -1041546.3795712516 0 -1041546.3795712516 722413.37679925561 0 0 0 0 -51390646.956695557 -68057796.355880737 0 -68057796.355880737 29084444.518249512 0 0 0 0 -3032174.6778338253 -1868006.7339475006 0 -1868006.7339475006 -1416091.2229531109 0 0 0 0 86167301.552093506 -145757068.06045532 0 -145757068.06045532 9297181.2805480957 0 0 0 0 -159259354.27064514 -267241914.49477005 0 -267241914.49477005 -39076186.407043457 0 0 0 0 32753820.119018555 32131029.693817139 0 32131029.693817139 -36646554.643096924 0 0 0 0 36633452.922119141 36537351.118728638 0 36537351.118728638 -119107033.58068848 0 0 0 0 243850966.45193481 116332406.21785736 0 116332406.21785736 -41435829.596328735 0 0 0 0 4931599.874227047 -5343384.5465454832 0 -5343384.5465454832 -2776446.5866096839 0 0 0 0 257297800.5609436 -24891181.736755371 0 -24891181.736755371 -67132238.994644165 0 0 0 0 89428936.141693115 -85943879.685131073 0 -85943879.685131073 -61902437.107650757 0 0 0 0 -107937508.13323593 -147955609.95637512 0 -147955609.95637512 57213987.227783203 0 0 0 0 281192703.02507019 -163135133.50212097 0 -163135133.50212097 -82808185.596908569 0 0 0 0 1256591.820662111 -1820712.3049169332 0 -1820712.3049169332 -1432742.2746514678 0 0 0 0 -1406518610.5527191 -167321198.69516754 0 -167321198.69516754 328287985.87120056 0 0 0 0 -410010958.11013794 105690242.59668732 0 105690242.59668732 -67849116.799133301 0 0 0 0 -228430369.56188965 -277604282.7333374 0 -277604282.7333374 -170099460.63874435 0 0 0 0 -166378543.46194458 -79430516.537193298 0 -79430516.537193298 -92096091.56969738 0 0 0 0 12369545.153961182 -33676662.267875671 0 -33676662.267875671 -67491996.938392639 0 0 0 0 -369026814.57083893 -16643765.507793427 0 -16643765.507793427 40309235.752044678 0 0 0 0 3629965.0794031471 -7357605.08131174 0 -7357605.08131174 -3217494.0844281912 0 0 0 0 9818883.3290588409 -19820229.589555055 0 -19820229.589555055 13062916.387630425 0 0 0 0 -345620520.90544128 -155195935.86682129 0 -155195935.86682129 16054900.78437233 0 0 0 0 -239006617.07008362 39732713.341529846 0 39732713.341529846 69726580.413116455 0 0 0 0 27517338.000274658 -79956058.916185379 0 -79956058.916185379 -39406011.081520081 0 0 0 0 57149299.168365479 -17268586.615627289 0 -17268586.615627289 18270993.304534912 0 0 0 0 144940792.48147583 -72600351.877914429 0 -72600351.877914429 -52148455.628601074 0 0 0 0 11819700.494104393 -8471017.2113700621 0 -8471017.2113700621 -25269115.933402583 0 0 0 0 13178628.211528778 60231888.594907761 0 60231888.594907761 -30841110.818023682 0 0 0 0 -18076743.515625 -73947909.177787781 0 -73947909.177787781 -6454737.7269592285 0 0 0 0 7957942.6698847786 -18372770.463321581 0 -18372770.463321581 -15900930.479312941 0 0 0 0 -165348883.42976379 42788576.686004639 0 42788576.686004639 -217198659.44763184 0 0 0 0 -85619781.517150879 -175251713.10450745 0 -175251713.10450745 -155727134.61923218 0 0 0 0 84680234.723571777 -43709086.125411987 0 -43709086.125411987 -58979450.039657593 0 0 0 0 -381634506.5042572 178754940.29950714 0 178754940.29950714 8330843.9039001465 0 0 0 0 84408303.68182373 -18324438.769836426 0 -18324438.769836426 -216588111.65823364 0 0 0 0 83053128.532531738 -42728590.895339966 0 -42728590.895339966 -109790222.31704712 0 0 0 0 94596601.102172852 -72095939.978363037 0 -72095939.978363037 -19630058.942977905 0 0 0 0 130580513.74728394 50716740.85848999 0 50716740.85848999 18889641.252182007 0 0 0 0 -123320573.35400391 -175735401.91455078 0 -175735401.91455078 -175301343.52062988 0 0 0 0 -43335494.396697998 -36260907.351318359 0 -36260907.351318359 68201474.567779541 0 0 0 0 -9126521.43026153 -3533849.5898599848 0 -3533849.5898599848 -1370219.8940672353 0 0 0 0 -292538208.77131653 -191827564.47485352 0 -191827564.47485352 -323957256.86801147 0 0 0 0 -293362518.90042114 -153380606.13008118 0 -153380606.13008118 -63836338.403411865 0 0 0 0 -55071726.203613281 -46126403.791442871 0 -46126403.791442871 70606096.489967346 0 0 0 0 -176621684.54870605 -164267546.44616699 0 -164267546.44616699 -30331943.557189941 0 0 0 0 -92361491.474060059 -36029047.68548584 0 -36029047.68548584 26176604.190795898 0 0 0 0 -286998275.64587402 -211956361.16488647 0 -211956361.16488647 -49449929.955108643 0 0 0 0 -367403477.62493896 -166160519.62338257 0 -166160519.62338257 26554937.662902832 0 0 0 0 -422927690.51452637 -188033992.38800049 0 -188033992.38800049 47111130.372953415 0 0 0 0 -420314677.42311096 -196919795.23733521 0 -196919795.23733521 -26256542.264465332 0 0 0 0 -366033560.5415802 -185433490.23362732 0 -185433490.23362732 -59522617.102172852 0 0 0 0 -464527343.98181152 -149010882.57073975 0 -149010882.57073975 150139136.77206421 0 0 0 0 -450698542.71231079 -294759144.23649597 0 -294759144.23649597 452782.95429992676 0 0 0 0 -411974762.71078491 -320885438.03825378 0 -320885438.03825378 -245407863.974823 0 0 0 0 -432692018.92514038 -262333336.47741699 0 -262333336.47741699 -71565631.387180328 0 0 0 0 -432031891.48623657 -214338161.15884399 0 -214338161.15884399 -467583.43099975586 0 0 0 0 -501107262.66793823 -552128547.19247437 0 -552128547.19247437 -382072684.3237114 0 0 0 0 -586102439.41430664 16883343.192810059 0 16883343.192810059 167242688.34034348 0 0 0 0 -63398434.729980469 139546411.89990234 0 139546411.89990234 183256354.28633118 0 0 0 0 -1334210.0252954513 -749026.18315865099 0 -749026.18315865099 -1897744.9877992868 0 0 0 0 -713336339.77557373 -427706677.82611084 0 -427706677.82611084 -72216879.051055908 0 0 0 0 -827002642.3104248 313941792.26274109 0 313941792.26274109 20360691.475067139 0 0 0 0 -42859867.738357544 -58766805.06426239 0 -58766805.06426239 26398124.482055664 0 0 0 0 -61463770.438282251 -60245841.206247807 0 -60245841.206247807 48221455.398986816 0 0 0 0 171520681.69574738 -62145385.710769653 0 -62145385.710769653 -251346577.95793533 0 0 0 0 -42001278.899368286 -50005437.915870667 0 -50005437.915870667 38501379.691925049 0 0 0 0 3905420.6234097518 -2537166.4914163249 0 -2537166.4914163249 1454406.7673538476 0 0 0 0 89404005.620986938 175767534.08623123 0 175767534.08623123 -44508466.224945068 0 0 0 0 478832852.5190506 912679.74948120117 0 912679.74948120117 -4019805.4217071533 0 0 0 0 334178586.87494659 181525374.76747131 0 181525374.76747131 262952392.24328613 0 0 0 0 125174128.58185959 11993859.835586548 0 11993859.835586548 14660282.69581604 0 0 0 0 338123067.96762848 -41528800.21648407 0 -41528800.21648407 -11626071.56640625 0 0 0 0 145165881.73361206 1357390.9994506836 0 1357390.9994506836 -11389140.1275177 0 0 0 0 219298610.5881958 31637501.276031494 0 31637501.276031494 -4828654.5775146484 0 0 0 0 4486484.7102794498 -27844010.391039778 0 -27844010.391039778 2948817.6911252737 0 0 0 0 15580054.48596606 -5914823.9530891087 0 -5914823.9530891087 2204705.6470801085 0 0 0 0 83548256.966217041 -17160405.221405029 0 -17160405.221405029 4473972.7130126953 0 0 0 0 30981543.241455078 -75548050.577079773 0 -75548050.577079773 -39371573.22315979 0 0 0 0 -38053856.986000061 -42586771.828449249 0 -42586771.828449249 45671902.37677002 0 0 0 0 -43037912.777160645 -15208799.743713379 0 -15208799.743713379 -44259416.352539062 0 0 0 0 -2622610.5546132773 -1626186.6986752003 0 -1626186.6986752003 1293093.226770781 0 0 0 0 -105497984.51324463 -21994371.875915527 0 -21994371.875915527 33984113.164855957 0 0 0 0 -127586245.14709473 -27653739.73260498 0 -27653739.73260498 50892317.23840332 0 0 0 0 33727097.265625 6772135.1604003906 0 6772135.1604003906 28048217.443664551 0 0 0 0 -150679792.78713989 -13530443.842254639 0 -13530443.842254639 55443728.920776367 0 0 0 0 -122849473.85253906 91706545.800170898 0 91706545.800170898 46036924.034484863 0 0 0 0 -142610277.64181137 -52411427.966720581 0 -52411427.966720581 10600535.889160156 0 0 0 0 73398004.696777344 92891739.58026123 0 92891739.58026123 26034281.170959473 0 0 0 0 846391.18235525116 -13653518.682070255 0 -13653518.682070255 -1434580.5694491267 0 0 0 0 170770493.88745117 41025884.939575195 0 41025884.939575195 -1320316.6545410156 0 0 0 0 -7260841.5122833252 -6835695.421043396 0 -6835695.421043396 1640523.6062011719 0 0 0 0 32530.454336322844 -24321947.201998182 0 -24321947.201998182 -2918958.497928232 0 0 0 0 43470887.459495544 63671876.993339539 0 63671876.993339539 46239218.62878418 0 0 0 0 -24089038.070073664 -9010145.6463085189 0 -9010145.6463085189 5327422.3669372499 0 0 0 0 21063753.577294927 -14338161.643148419 0 -14338161.643148419 -13206668.8306835 0 0 0 0 7016011.0756857693 -14153160.496620864 0 -14153160.496620864 2917929.3864770532 0 0 0 0 49629732.849754333 -38240616.788146973 0 -38240616.788146973 -51891518.865600586 0 0 0 0 7464666.9260406494 9844894.5360412598 0 9844894.5360412598 36005241.609375 0 0 0 0 -225567330.48480225 43625028.815429688 0 43625028.815429688 25665178.559814453 0 0 0 0 -292266219.38716125 -71578942.465637207 0 -71578942.465637207 20391196.850585938 0 0 0 0 32227790.182861328 -2307603.8811035156 0 -2307603.8811035156 35182933.961547852 0 0 0 0 97927807.335784912 -5039723.9354248047 0 -5039723.9354248047 18388977.747825623 0 0 0 0 6929597.6909615993 -13401206.533999361 0 -13401206.533999361 1522372.4648785517 0 0 0 0 -33252125.505859375 -44819887.815979004 0 -44819887.815979004 -47772744.884216309 0 0 0 0 188434824.94451904 81709012.644561768 0 81709012.644561768 28348631.924591064 0 0 0 0 120232258.36045837 45236098.644577026 0 45236098.644577026 9437748.6187744141 0 0 0 0 131647154.24736023 11694250.130981445 0 11694250.130981445 13537062.64201355 0 0 0 0 49847733.882148743 76856345.628768921 0 76856345.628768921 95603574.257507324 0 0 0 0 1335100.149827458 -59321.246564559639 0 -59321.246564559639 -854629.43200880289 0 0 0 0 127363520.86386108 53147668.151473999 0 53147668.151473999 62153677.060546875 0 0 0 0 -13261633.916367531 -77677676.044870377 0 -77677676.044870377 -80263095.367919922 0 0 0 0 -15969684.71434021 -53513561.111816406 0 -53513561.111816406 -15756479.005706787 0 0 0 0 -29432866.927062988 -43992101.366119385 0 -43992101.366119385 -48236773.45980072 0 0 0 0 -2336425.5788636655 -12923619.215980358 0 -12923619.215980358 11776809.357921451 0 0 0 0 39969535.827911377 -17022942.403015137 0 -17022942.403015137 -49756471.786413193 0 0 0 0 32237163.20223999 -80375108.008148193 0 -80375108.008148193 -29621476.143249512 0 0 0 0 -68040734.461547852 -70854847.0806427 0 -70854847.0806427 -57275352.531539917 0 0 0 0 7754889.9548005005 -6198920.5815979168 0 -6198920.5815979168 -10902375.071255535 0 0 0 0 88882619.854393005 -67282758.652565002 0 -67282758.652565002 -56105998.153656006 0 0 0 0 -319150749.41958618 -44932212.201950073 0 -44932212.201950073 -56052923.425598145 0 0 0 0 107005653.46484375 -28981387.691619873 0 -28981387.691619873 -71888125.777954102 0 0 0 0 6678989.3236872479 -6141664.5060431138 0 -6141664.5060431138 -6014992.8048817962 0 0 0 0 39373232.729219437 -21447243.312236786 0 -21447243.312236786 82753756.743041992 0 0 0 0 -331819989.70861816 -95163305.827789307 0 -95163305.827789307 -319874202.97714233 0 0 0 0 -490147517.94891357 147250392.81936646 0 147250392.81936646 -391357560.19834137 0 0 0 0 -500119245.83270264 21852643.875045776 0 21852643.875045776 -212104414.46520996 0 0 0 0 -334449698.99951172 13849474.241394043 0 13849474.241394043 -428723806.21514893 0 0 0 0 -438692654.07637024 -77082656.54284668 0 -77082656.54284668 -101302511.86090088 0 0 0 0 -404482000.19091797 -121729817.04934692 0 -121729817.04934692 -99746829.786712646 0 0 0 0 -455730674.70306396 -109426398.75680542 0 -109426398.75680542 -52534740.145233154 0 0 0 0 -341799042.37991333 -120266009.06439972 0 -120266009.06439972 -157077487.6706543 0 0 0 0 -367282503.98138428 -140087126.31317139 0 -140087126.31317139 -82565457.755348206 0 0 0 0 -376467099.99130249 -73624850.948486328 0 -73624850.948486328 -33689274.713562012 0 0 0 0 -274904340.25830078 -81542786.613983154 0 -81542786.613983154 -33507680.569211006 0 0 0 0 -349389979.59762573 -122127989.27490234 0 -122127989.27490234 30947364.045166016 0 0 0 0 -411374139.04064941 -121251749.79981995 0 -121251749.79981995 -7564539.2460632324 0 0 0 0 -380064853.55310059 -178065737.31665039 0 -178065737.31665039 -2314684.9033813477 0 0 0 0 -333186081.77478027 -160057270.59188843 0 -160057270.59188843 9087213.3340606689 0 0 0 0 -361938898.89825439 -148320281.97238159 0 -148320281.97238159 32137292.68762207 0 0 0 0 -299477282.33959961 -168200621.99234009 0 -168200621.99234009 33588449.388885498 0 0 0 0 -375207430.17128754 -175790474.89926147 0 -175790474.89926147 46886773.526367188 0 0 0 0 -377492196.92376709 -171732654.58056641 0 -171732654.58056641 47106036.837768555 0 0 0 0 -345396367.43249512 -180673929.34277344 0 -180673929.34277344 25150370.428009033 0 0 0 0 -337377270.25819397 -157002792.41188812 0 -157002792.41188812 48328822.790893555 0 0 0 0 -219491227.64746094 -115788506.1524353 0 -115788506.1524353 5728584.7910842896 0 0 0 0 -263518742.57485962 -97833025.508056641 0 -97833025.508056641 34109116.382080078 0 0 0 0 -119364255.69746017 1811889.7964677811 0 1811889.7964677811 -25272626.546936035 0 0 0 0 8084968.7511052303 -15522038.244008571 0 -15522038.244008571 -17603173.402163267 0 0 0 0 -294577102.26992798 -126919888.0088501 0 -126919888.0088501 14886810.426269531 0 0 0 0 -373533321.32498169 -98196122.812225342 0 -98196122.812225342 69295776.215576172 0 0 0 0 -346223209.63101196 -163959361.01623535 0 -163959361.01623535 37112408.116638184 0 0 0 0 -368208960.23516846 -152228512.34747314 0 -152228512.34747314 45906696.330575943 0 0 0 0 -374481127.40637207 -163802922.8409729 0 -163802922.8409729 24203834.187713623 0 0 0 0 -325579812.60380554 -204883000.15235901 0 -204883000.15235901 -8241834.5214233398 0 0 0 0 -367787950.63867188 -175173101.418396 0 -175173101.418396 33788684.79498291 0 0 0 0 -9638351.9783303961 -8552315.6730973721 0 -8552315.6730973721 -6096432.6151144505 0 0 0 0 -67060241.536453247 -69584413.812019348 0 -69584413.812019348 -27856549.58473587 0 0 0 0 7118595.4313005656 -14109476.917686574 0 -14109476.917686574 -18958751.569089651 0 0 0 0 -499154163.11755371 -25611732.089324951 0 -25611732.089324951 -180791345.94342041 0 0 0 0 -468860493.85190582 -101503366.8048172 0 -101503366.8048172 -48411557.011230469 0 0 0 0 -399433367.41577148 -202114316.13653564 0 -202114316.13653564 9948213.9489440918 0 0 0 0 -50575050.770462036 -25314711.346498489 0 -25314711.346498489 -17072301.184417725 0 0 0 0 241449239.45889115 -1008053449.0727406 0 -1008053449.0727406 121962419.79431152 0 0 0 0 -451247240.30145264 -45244684.446456909 0 -45244684.446456909 -260335851.33538818 0 0 0 0 -28108494.416082218 -19224876.508327719 0 -19224876.508327719 1615387.0341637391 0 0 0 0 -30583935.463592529 -22399970.220062256 0 -22399970.220062256 -14489506.576606095 0 0 0 0 66685801.759674072 -75865468.958808899 0 -75865468.958808899 -392549444.78485107 0 0 0 0 1628718.2753430232 -2016523.874681145 0 -2016523.874681145 -1820167.4960296303 0 0 0 0 -2079228131.6932678 50610491.663452148 0 50610491.663452148 1738173222.9888916 0 0 0 0 -778111012.46096802 171467444.0050354 0 171467444.0050354 -257145283.69851685 0 0 0 0 -642720703.4707489 -554977469.36170959 0 -554977469.36170959 384078797.6418457 0 0 0 0 102195.23640569299 -1086640.1268630996 0 -1086640.1268630996 -430084.92102777719 0 0 0 0 -1246400676.1440735 -1576680992.6677551 0 -1576680992.6677551 4562192598.5540628 0 0 0 0 -564885988.30406189 267361903.03800964 0 267361903.03800964 -1833113300.815033 0 0 0 0 -10010314.701333642 -7981125.9158985391 0 -7981125.9158985391 -1224040.2434455305 0 0 0 0 -87834772.256706238 -52117667.05141449 0 -52117667.05141449 -3632706.4395599365 0 0 0 0 -285328909.73173523 -622911399.41249084 0 -622911399.41249084 -319869933.12646484 0 0 0 0 -43078181.948883057 -338579469.07034302 0 -338579469.07034302 -629595712.32661438 0 0 0 0 -40504565.040065765 -72551676.846515656 0 -72551676.846515656 -17512476.847320557 0 0 0 0 -49236892.005661011 -33639179.444496155 0 -33639179.444496155 -4880916.4400177002 0 0 0 0 -9036136.157959627 -8735434.4798842892 0 -8735434.4798842892 -3046383.1777882576 0 0 0 0 -12722792.159088135 -24789635.0936203 0 -24789635.0936203 -34559369.15234375 0 0 0 0 -93491968.286468506 -46546981.294296265 0 -46546981.294296265 6718471.6392822266 0 0 0 0 38827907.79101181 -28674992.225811005 0 -28674992.225811005 -61471550.268127441 0 0 0 0 -3301519.8703728374 -1547253.9715621322 0 -1547253.9715621322 -423000.14398363233 0 0 0 0 -3824925.1634971946 -979268.09657755494 0 -979268.09657755494 467950.10217089951 0 0 0 0 -182853675.72617722 -85443741.638114929 0 -85443741.638114929 59840888.226806641 0 0 0 0 -170599048.65863037 -45858478.042175293 0 -45858478.042175293 57179923.169891357 0 0 0 0 -125705775.5791626 -40012580.876953125 0 -40012580.876953125 51134369.91583252 0 0 0 0 -86440582.479064941 -89197060.714447021 0 -89197060.714447021 -350722.70062255859 0 0 0 0 -141971679.1309166 -95018017.681667328 0 -95018017.681667328 39064260.518066406 0 0 0 0 -36901940.090087891 -151537335.31030273 0 -151537335.31030273 61031815.925552368 0 0 0 0 -43604356.066299438 -59983679.630661011 0 -59983679.630661011 10936449.484725952 0 0 0 0 -45294057.791534424 -62263112.830833435 0 -62263112.830833435 16768813.26953125 0 0 0 0 198173629.15662384 -673386365.44769669 0 -673386365.44769669 -146133235.82727051 0 0 0 0 189329069.86426163 -706572399.61794281 0 -706572399.61794281 551881171.00402832 0 0 0 0 -738622448.58232117 -269154854.1000824 0 -269154854.1000824 997464.08515266306 0 0 0 0 -193220064.79359055 212956971.94324303 0 212956971.94324303 300516610.89230347 0 0 0 0 548372.29802583344 1719419.9194660559 0 1719419.9194660559 -1762965.8408695459 0 0 0 0 162018167.77065277 -105812194.1101799 0 -105812194.1101799 -471959329.48233032 0 0 0 0 -824975846.28688049 -371041144.32186127 0 -371041144.32186127 293252455.77861023 0 0 0 0 -257443709.61603546 160027102.479599 0 160027102.479599 135310075.94831848 0 0 0 0 225503966.08146667 206025676.83560181 0 206025676.83560181 -280407100.96370697 0 0 0 0 223905021.96030951 220871607.85304832 0 220871607.85304832 529555841.33694458 0 0 0 0 231649818.94987488 82199311.124275208 0 82199311.124275208 -72540586.285247803 0 0 0 0 108480225.44395447 76079417.706542969 0 76079417.706542969 -70336540.954490662 0 0 0 0 -231901837.13226318 -516916498.76932526 0 -516916498.76932526 -110924529.16708374 0 0 0 0 12110499.327026367 -181584652.72973633 0 -181584652.72973633 -205402358.8982811 0 0 0 0 2796695.9498635679 1746378.9693511352 0 1746378.9693511352 -5838732.496253401 0 0 0 0 -56421366.164081573 -110694039.58439064 0 -110694039.58439064 -274233625.26824951 0 0 0 0 103315699.77341557 63445176.058612823 0 63445176.058612823 -53893986.72567749 0 0 0 0 721154.60360717773 36796999.305206299 0 36796999.305206299 53896911.694625854 0 0 0 0 78408525.805053711 22620758.140167236 0 22620758.140167236 -119832887.43797302 0 0 0 0 81350370.66229248 18921812.093063354 0 18921812.093063354 -119824569.54547119 0 0 0 0 -3189843.3189710975 -930206.89024166763 0 -930206.89024166763 2046923.8305302858 0 0 0 0 5190936.455740124 -9519690.2975712642 0 -9519690.2975712642 7380152.9844285697 0 0 0 0 -95461673.837432861 -199432426.06671143 0 -199432426.06671143 -199862849.21183777 0 0 0 0 -118566258.21096802 -128820055.34301758 0 -128820055.34301758 -84980526.07611084 0 0 0 0 -140917553.4954071 28950165.154556274 0 28950165.154556274 5537067.1301574707 0 0 0 0 42368699.813476562 -67142551.070716858 0 -67142551.070716858 -204434759.79888916 0 0 0 0 74075634.240631104 -139038482.5098877 0 -139038482.5098877 -312184970.68292236 0 0 0 0 -20364619.902160645 -79371537.504302979 0 -79371537.504302979 -310142052.1027832 0 0 0 0 -212251769.46078491 -37930319.120269775 0 -37930319.120269775 -265359146.70153809 0 0 0 0 -34618783.458282471 -186642925.36477661 0 -186642925.36477661 -183623387.4631958 0 0 0 0 42312601.531265259 -40293502.994445801 0 -40293502.994445801 -160664986.86044312 0 0 0 0 1491033.0419262797 -1173982.5958146453 0 -1173982.5958146453 -208724.06603800505 0 0 0 0 -52378811.229827881 30748938.935440063 0 30748938.935440063 137357189.77374268 0 0 0 0 257358277.27942657 818039235.58717346 0 818039235.58717346 553324537.43054199 0 0 0 0 119373037.82299805 -103971029.35113525 0 -103971029.35113525 105698565.0087738 0 0 0 0 -100035257.29827881 69911709.934265137 0 69911709.934265137 46495772.769775391 0 0 0 0 176742338.766922 -208675353.89160919 0 -208675353.89160919 211209742.63500977 0 0 0 0 390296838.45196533 -312810674.41872406 0 -312810674.41872406 164759300.56008911 0 0 0 0 544784959.14703369 -104548995.00157166 0 -104548995.00157166 -45689645.988586426 0 0 0 0 -294617169.18795586 -473843493.32293606 0 -473843493.32293606 -30535215.801330566 0 0 0 0 1036816.9222675934 -4943944.6609773785 0 -4943944.6609773785 7158385.8668843061 0 0 0 0 -354666436.92097473 -71621629.329772949 0 -71621629.329772949 -118561507.52459717 0 0 0 0 -40343500.495292664 -466626170.3185482 0 -466626170.3185482 -94040814.515411377 0 0 0 0 148384955.69483948 -19906820.01171875 0 -19906820.01171875 -191677670.60864258 0 0 0 0 -252210648.39459229 -146864918.09089661 0 -146864918.09089661 -111410548.57928467 0 0 0 0 189373329.39486694 -254045461.77456665 0 -254045461.77456665 -99436355.29045105 0 0 0 0 -71470564.196632385 -277034919.78694534 0 -277034919.78694534 16569638.577880859 0 0 0 0 104295894.010849 -1527602.3641815186 0 -1527602.3641815186 -9235723.3692932129 0 0 0 0 132136667.37013245 52690217.811325073 0 52690217.811325073 -54508266.655303955 0 0 0 0 411120151.24528503 -774045085.67750549 0 -774045085.67750549 699952660.77918625 0 0 0 0 407102831.93060303 68496063.538131714 0 68496063.538131714 -183842.70739746094 0 0 0 0 1192326571.0871735 -197568947.28617859 0 -197568947.28617859 74762926.87928772 0 0 0 0 497696591.92956543 -465326893.17318726 0 -465326893.17318726 70285011.194953918 0 0 0 0 -178184003.64126587 -220625342.29031372 0 -220625342.29031372 64012396.786117554 0 0 0 0 -442248342.99562073 -580022497.12889862 0 -580022497.12889862 1159318039.001297 0 0 0 0 -129335886.2142334 -387127752.90367126 0 -387127752.90367126 610529865.29803467 0 0 0 0 -353945181.18953514 -44656578.065019608 0 -44656578.065019608 843183287.76467896 0 0 0 0 -982872689.41607666 -162216060.22894287 0 -162216060.22894287 869105437.91426849 0 0 0 0 192657498.72425842 -14819617.195728302 0 -14819617.195728302 -311233556.506073 0 0 0 0 2063512.8474964947 -3251571.7471194565 0 -3251571.7471194565 445666.91944741551 0 0 0 0 705747401.68029785 -413939410.13975525 0 -413939410.13975525 -794971.22530268994 0 0 0 0 -11136591.092330933 21249923.102416992 0 21249923.102416992 1436336.3071899414 0 0 0 0 2055230083.161499 -176996863.32846069 0 -176996863.32846069 -443498069.74652863 0 0 0 0 -42064942.023330688 -46771664.596221924 0 -46771664.596221924 -110778532.46929932 0 0 0 0 4580606.8399898931 -4715198.3618126139 0 -4715198.3618126139 526755.1996380724 0 0 0 0 -95593043.133487701 -104202998.55739594 0 -104202998.55739594 -256536.6368560791 0 0 0 0 -433919.25158790872 -1331603.4648902565 0 -1331603.4648902565 3277410.5646075606 0 0 0 0 -457955081.03715897 466869447.30005455 0 466869447.30005455 940463800.28570557 0 0 0 0 640282.00800631568 -200446.35267073289 0 -200446.35267073289 584988.19811271131 0 0 0 0 2710355920.8045654 -65325232.145935059 0 -65325232.145935059 -431012343.55734253 0 0 0 0 1459603524.0158234 -1691984851.8037415 0 -1691984851.8037415 1742294851.5195618 0 0 0 0 485486116.3381958 556748945.26132202 0 556748945.26132202 136626153.67572021 0 0 0 0 1321019247.1469955 -599628469.2698822 0 -599628469.2698822 43988430.902587891 0 0 0 0 -15951698.597747803 106457501.86764526 0 106457501.86764526 556221414.79309082 0 0 0 0 -1006170883.6851883 421493065.35708809 0 421493065.35708809 1041227495.618988 0 0 0 0 -829468576.83843994 -1132979239.0776062 0 -1132979239.0776062 1012775984.5635071 0 0 0 0 557523084.10195923 -1235247179.7610931 0 -1235247179.7610931 525770106.28326416 0 0 0 0 -1162168499.5800171 143528315.38220215 0 143528315.38220215 546222033.32962036 0 0 0 0 -75179702.346176147 -384909406.61505127 0 -384909406.61505127 619889274.57224655 0 0 0 0 -156674809.93498993 -475210094.27218628 0 -475210094.27218628 559229882.0848999 0 0 0 0 94579298.268463135 -533418986.32048035 0 -533418986.32048035 556175387.87166691 0 0 0 0 453122166.00494385 -171182558.81246185 0 -171182558.81246185 118558139.42312622 0 0 0 0 63320424.662658691 10492890.542541504 0 10492890.542541504 141324000.62504196 0 0 0 0 528384446.96678543 4605102.151599884 0 4605102.151599884 -640954949.32711792 0 0 0 0 601654410.92037964 -542570957.96687317 0 -542570957.96687317 -306172786.68414307 0 0 0 0 235294567.58976746 697055713.9022522 0 697055713.9022522 63388983.317810059 0 0 0 0 2201854.9446075838 -1576825.9090234302 0 -1576825.9090234302 -427830.74069733918 0 0 0 0 43787714.705375671 -34339220.582252502 0 -34339220.582252502 59779110.010101318 0 0 0 0 -232906675.26422119 -268832224.88770294 0 -268832224.88770294 1277605196.9638672 0 0 0 0 597025571.28253937 810282899.18913269 0 810282899.18913269 -516480847.40393066 0 0 0 0 122026172.80584717 -128331277.17868042 0 -128331277.17868042 180211100.30545044 0 0 0 0 26923339.218147278 -101197143.62751007 0 -101197143.62751007 -56933905.658679962 0 0 0 0 4729802.2671130486 -4504273.3381090313 0 -4504273.3381090313 1926581.2884545475 0 0 0 0 19884465.561403275 21898562.667100906 0 21898562.667100906 -7690181.976776123 0 0 0 0 -410381729.9143219 -470101700.28683472 0 -470101700.28683472 -337735739.24282837 0 0 0 0 -374021455.38439178 -304612873.87238312 0 -304612873.87238312 -311720346.73593521 0 0 0 0 5204678.9566963743 -4656821.5334408879 0 -4656821.5334408879 -5367871.7581018209 0 0 0 0 7133858.0988196805 -7194263.676816456 0 -7194263.676816456 2804898.9372002482 0 0 0 0 20825955.76940918 -7635030.6988754272 0 -7635030.6988754272 -46861959.784637451 0 0 0 0 -225493679.63855553 -142965634.33915329 0 -142965634.33915329 56622499.099273682 0 0 0 0 188624001.24688721 -183542119.94415283 0 -183542119.94415283 -268455821.43703079 0 0 0 0 297191824.39532471 -19746255.765060425 0 -19746255.765060425 338399861.86377716 0 0 0 0 224017348.08418274 143481586.96618652 0 143481586.96618652 99533057.605499268 0 0 0 0 1829376.5802650303 -5350210.2023130953 0 -5350210.2023130953 1919293.0601856709 0 0 0 0 282820492.67454529 237796338.66818237 0 237796338.66818237 168251178.67672729 0 0 0 0 23737612.172073364 -34856747.867042542 0 -34856747.867042542 -15440429.584289551 0 0 0 0 -21547621.750793457 -18380144.697387695 0 -18380144.697387695 -20825298.010375977 0 0 0 0 439195987.44562531 119025739.33002472 0 119025739.33002472 45816961.120727539 0 0 0 0 11767399.832143582 -3725468.1485449821 0 -3725468.1485449821 -8174682.5646569878 0 0 0 0 229588521.32225037 160631170.70584106 0 160631170.70584106 76653050.097457886 0 0 0 0 128208168.63519287 104665528.66992188 0 104665528.66992188 188311709.10504913 0 0 0 0 242770068.03170967 63308049.404101372 0 63308049.404101372 -33675478.811279297 0 0 0 0 186110261.81846619 93373000.496423721 0 93373000.496423721 -14198260.938995361 0 0 0 0 51339813.272834778 49892704.776443481 0 49892704.776443481 -36350970.751647949 0 0 0 0 205447832.61927795 -72065086.880599976 0 -72065086.880599976 -8265452.1021270752 0 0 0 0 253030809.29017639 121218833.21759033 0 121218833.21759033 60938249.993331909 0 0 0 0 13252915.683815002 -61734925.076171875 0 -61734925.076171875 -454270965.70162964 0 0 0 0 9664913.2971459851 -5100001.0498720706 0 -5100001.0498720706 -2567931.3512936085 0 0 0 0 69903653.351860046 30546029.266571045 0 30546029.266571045 14312729.678504944 0 0 0 0 103162378.25190735 -60230798.489730835 0 -60230798.489730835 -82334814.307617188 0 0 0 0 228477111.98305321 123276809.82549667 0 123276809.82549667 2507045.2693328857 0 0 0 0 155057280.57852936 108925427.56065369 0 108925427.56065369 1774126.9815063477 0 0 0 0 220211120.73304737 82576388.986017108 0 82576388.986017108 -14535841.996704102 0 0 0 0 -220722183.94674301 -411830240.69771194 0 -411830240.69771194 -385255995.02844238 0 0 0 0 287982809.51852417 55699101.082397461 0 55699101.082397461 33543335.98576355 0 0 0 0 6973342.1197159141 -3009176.7904691026 0 -3009176.7904691026 -2162519.5135443658 0 0 0 0 -273419604.93857002 -357838069.98246765 0 -357838069.98246765 -223995720.16595459 0 0 0 0 -408984103.7286911 -495760938.48973846 0 -495760938.48973846 -364297967.5537262 0 0 0 0 -553109326.40703583 -286246010.08703613 0 -286246010.08703613 -41408291.142673492 0 0 0 0 -280244297.94793701 -212155161.13455582 0 -212155161.13455582 -454744723.89538574 0 0 0 0 -311751611.33013916 -142473814.61997986 0 -142473814.61997986 -126680639.17732239 0 0 0 0 -82100240.507415771 -258017304.30053711 0 -258017304.30053711 -75696027.897537231 0 0 0 0 -419312053.89914703 -338313334.59492493 0 -338313334.59492493 -287299678.82346725 0 0 0 0 -273485764.45728683 -446608764.52842712 0 -446608764.52842712 -368697401.84658813 0 0 0 0 -773817977.31825256 -641313072.69602203 0 -641313072.69602203 -463208018.44052124 0 0 0 0 1911372.9048250588 -2748366.3120789528 0 -2748366.3120789528 -1325968.1097775847 0 0 0 0 -168945473.74220276 -8050568.8385162354 0 -8050568.8385162354 236655771.31821442 0 0 0 0 -379822119.56800842 -159596277.48978424 0 -159596277.48978424 354718733.30432129 0 0 0 0 -318513705.01835632 -158037232.3624649 0 -158037232.3624649 -8952118.582359314 0 0 0 0 -201035816.58166504 -260354216.4571991 0 -260354216.4571991 -229711425.87546825 0 0 0 0 -385268380.44106674 -273031793.24582672 0 -273031793.24582672 -20901184.542388916 0 0 0 0 -154790643.81230927 -254481015.80493927 0 -254481015.80493927 -477403128.34790039 0 0 0 0 -336431581.35939026 -88655476.530609131 0 -88655476.530609131 -233478082.57316589 0 0 0 0 -231086166.73947906 -273651771.16268921 0 -273651771.16268921 -195165623.63299561 0 0 0 0 -227684293.95768738 -125366549.34242249 0 -125366549.34242249 -164420198.41155624 0 0 0 0 -277829447.96903992 -220493543.51031494 0 -220493543.51031494 -6106890.1181945801 0 0 0 0 -226052410.99439979 -275808369.2428453 0 -275808369.2428453 -42814996.323242188 0 0 0 0 -142936158.36459351 -73538369.19670105 0 -73538369.19670105 123320542.11251831 0 0 0 0 -57381692.618028641 -328687968.93632889 0 -328687968.93632889 66018757.69833374 0 0 0 0 -282572823.14932251 -209595093.20983887 0 -209595093.20983887 9031007.4545593262 0 0 0 0 -296184843.82232666 -98715289.644973755 0 -98715289.644973755 173360331.08222961 0 0 0 0 -222497039.5557785 -65470462.315437317 0 -65470462.315437317 159812610.79967117 0 0 0 0 -248487519.04729462 -102826667.95207596 0 -102826667.95207596 211401049.31439209 0 0 0 0 -114136662.25473022 -17939537.00831604 0 -17939537.00831604 208310728.71118164 0 0 0 0 -1900993.9480139464 -1330126.6177683361 0 -1330126.6177683361 403650.90485672653 0 0 0 0 -175667078.42371833 -74148538.171585381 0 -74148538.171585381 2063106.717010498 0 0 0 0 107316725.63013077 -162236507.19229889 0 -162236507.19229889 118951646.36172867 0 0 0 0 -87389364.649978638 -19047930.294944763 0 -19047930.294944763 36244101.512069702 0 0 0 0 -3738242.3693389893 -20729618.936157227 0 -20729618.936157227 34831069.306144714 0 0 0 0 -295367804.94412994 163388941.29719543 0 163388941.29719543 54742003.627817154 0 0 0 0 -61115430.539596558 87895146.189712524 0 87895146.189712524 39928191.293987274 0 0 0 0 -329725262.79419708 -14598990.461250305 0 -14598990.461250305 217074050.45515442 0 0 0 0 -333444850.34977913 -35851096.269917488 0 -35851096.269917488 350463825.86146545 0 0 0 0 -446003027.23941803 70815100.019496918 0 70815100.019496918 283554709.7159729 0 0 0 0 -221038890.54798889 -191991778.86508942 0 -191991778.86508942 -18663029.448505402 0 0 0 0 -223606762.80408478 173829708.35699463 0 173829708.35699463 -130148106.25867462 0 0 0 0 -563518727.19810104 -40850662.03679657 0 -40850662.03679657 23883034.766662598 0 0 0 0 -343400960.08917999 -298745902.0982132 0 -298745902.0982132 -245636500.91137695 0 0 0 0 -980749.07034700364 -156106.59917857498 0 -156106.59917857498 -1278818.8601670191 0 0 0 0 -118410446.01197052 -128281958.57312012 0 -128281958.57312012 -169513887.67042542 0 0 0 0 -154698946.09481049 -157463350.52812958 0 -157463350.52812958 -71116574.848434448 0 0 0 0 -144246675.76637268 24119258.546020508 0 24119258.546020508 -77029841.379295349 0 0 0 0 -161002917.31005859 -147806051.99731445 0 -147806051.99731445 -2216930.1486816406 0 0 0 0 -127432695.2191925 -137213160.23575592 0 -137213160.23575592 -87754708.932403564 0 0 0 0 -160320845.18577576 -137327097.16394043 0 -137327097.16394043 -4464747.58203125 0 0 0 0 256291.6028368026 -210379.11619728804 0 -210379.11619728804 -348520.90155732632 0 0 0 0 -261530691.40005493 -25038401.852806091 0 -25038401.852806091 -102481234.02342987 0 0 0 0 -97950220.871871948 -25861307.960372925 0 -25861307.960372925 138414567.40758896 0 0 0 0 201860.32045455277 276071.21017178148 0 276071.21017178148 -100671.63073991425 0 0 0 0 -39914284.528244019 25719433.308738708 0 25719433.308738708 52313480.851898193 0 0 0 0 -80341686.647453308 -18979811.271148682 0 -18979811.271148682 6100865.2058410645 0 0 0 0 312705.06346673146 -266858.06200750917 0 -266858.06200750917 -502571.65620881319 0 0 0 0 -132781046.91127491 -29459414.529574394 0 -29459414.529574394 12431983.402114868 0 0 0 0 -117846732.45754242 16705967.41481781 0 16705967.41481781 -13740908.718284607 0 0 0 0 -160442913.17066956 -100358452.47975159 0 -100358452.47975159 12953435.326477051 0 0 0 0 -104419467.18159103 -26599663.683391571 0 -26599663.683391571 2804900.4085693359 0 0 0 0 -71157500.174659729 -3556645.8999481201 0 -3556645.8999481201 -2032671.1164283752 0 0 0 0 -52268198.782894135 -20912249.884937286 0 -20912249.884937286 -13886988.35786438 0 0 0 0 -153762439.15856171 -60001631.133125305 0 -60001631.133125305 -122818573.15936279 0 0 0 0 -197351820.75515747 -106470021.06993866 0 -106470021.06993866 -31224385.274627686 0 0 0 0 -73139415.559524536 -162890788.3991394 0 -162890788.3991394 -113118967.27319336 0 0 0 0 -73857672.763473511 -98372473.481018066 0 -98372473.481018066 -43638971.010574341 0 0 0 0 -160731871.62356567 -86079505.482162476 0 -86079505.482162476 -30653672.463373184 0 0 0 0 -145447460.25683975 -100960175.304142 0 -100960175.304142 -83138568.618469238 0 0 0 0 -110293907.22866821 -57894548.477302551 0 -57894548.477302551 -36823732.950134277 0 0 0 0 -148670092.42991638 -94310709.612106323 0 -94310709.612106323 -45594215.080993652 0 0 0 0 -111599292.5072403 -87622874.549446106 0 -87622874.549446106 -88679924.904968262 0 0 0 0 -144963290.92610931 -105623438.68875122 0 -105623438.68875122 -35269043.651794434 0 0 0 0 -151775909.21322632 -116710477.29223633 0 -116710477.29223633 -51209295.630355835 0 0 0 0 -158957876.81489563 -112161255.57725525 0 -112161255.57725525 -39899551.397369385 0 0 0 0 -161025075.447052 -94628587.988098145 0 -94628587.988098145 -36915548.818237305 0 0 0 0 -172805687.70196533 -34667960.817565918 0 -34667960.817565918 10689332.201538086 0 0 0 0 -201888891.06596375 -117345776.72990417 0 -117345776.72990417 -43024727.8046875 0 0 0 0 -192707160.53640747 -101093898.81298828 0 -101093898.81298828 -15711305.6328125 0 0 0 0 -174570790.89862061 -128316133.39752197 0 -128316133.39752197 -54820157.016418457 0 0 0 0 -196697233.0013504 -156255960.02011871 0 -156255960.02011871 -132197692.33895874 0 0 0 0 55410169.179184914 26083054.386663795 0 26083054.386663795 -60390181.985412598 0 0 0 0 -395228780.55967712 -93084686.922744751 0 -93084686.922744751 -23757114.587890625 0 0 0 0 855973.9672590883 275262.61686177924 0 275262.61686177924 -117644.22617435455 0 0 0 0 -373028524.37612915 -143322425.77505493 0 -143322425.77505493 -44566893.350585938 0 0 0 0 11631450.900368176 1620867.4343128745 0 1620867.4343128745 -2364459.925262861 0 0 0 0 -389415579.43548584 -58736704.875549316 0 -58736704.875549316 94414486.645874023 0 0 0 0 441084.35569664091 16253.612845912576 0 16253.612845912576 -290458.6759249866 0 0 0 0 -3494933.7010830352 -1053772.9399557933 0 -1053772.9399557933 -2180743.9263899922 0 0 0 0 414478.69197535515 -802144.73204743862 0 -802144.73204743862 -1641127.1425170898 0 0 0 0 -131755564.12966919 -107906164.89435577 0 -107906164.89435577 -74586454.708934784 0 0 0 0 -106171583.31472015 -64306363.200378418 0 -64306363.200378418 -49910265.257446289 0 0 0 0 -18290886.350891285 -8412375.5885179788 0 -8412375.5885179788 -3312603.2977603078 0 0 0 0 -134604801.6995697 -93730676.86038208 0 -93730676.86038208 -72049162.842529297 0 0 0 0 -153988709.21025085 -96148150.466583252 0 -96148150.466583252 -39233197.315582275 0 0 0 0 -147487992.52609253 -130182917.41267395 0 -130182917.41267395 -29944315.164497375 0 0 0 0 -150396834.91444016 -110517659.41016006 0 -110517659.41016006 -41731201.774047852 0 0 0 0 -147445128.85858154 -122313657.39363098 0 -122313657.39363098 -69133603.76651001 0 0 0 0 -127722083.73455811 -111641402.09378052 0 -111641402.09378052 -72599961.191860199 0 0 0 0 -127309378.90177155 -116175971.81298828 0 -116175971.81298828 -95500800.738510132 0 0 0 0 -151513900.16129684 -148641657.87874985 0 -148641657.87874985 -73617698.401550293 0 0 0 0 -74566238.200802207 -24679233.544470072 0 -24679233.544470072 5831029.5953979492 0 0 0 0 -6863474.3063756712 -3480039.582242813 0 -3480039.582242813 1128585.7188366055 0 0 0 0 -5411318.6460560933 -1634962.4240440056 0 -1634962.4240440056 -1917995.0486591831 0 0 0 0 -13212064.131447554 -23164227.592345655 0 -23164227.592345655 35229587.209899902 0 0 0 0 -12541563.306508489 -28157314.717547506 0 -28157314.717547506 -7794880.4848113954 0 0 0 0 -37250464.050048828 -14646573.030334473 0 -14646573.030334473 3665597.8160948753 0 0 0 0 -48387018.289428711 -37027459.010818481 0 -37027459.010818481 4502890.2428264618 0 0 0 0 -49276374.627700806 -51883959.352622986 0 -51883959.352622986 161583.12066268921 0 0 0 0 -36787097.766983032 3998627.8382720947 0 3998627.8382720947 -30364860.296005249 0 0 0 0 5004004.3234863281 -43089754.739685059 0 -43089754.739685059 -59954470.62008667 0 0 0 0 -244773782.42474365 -111292069.61351013 0 -111292069.61351013 49651714.110870361 0 0 0 0 -7124553.2434692383 39680217.946182251 0 39680217.946182251 22317529.285446167 0 0 0 0 106372779.09262085 4439660.060043335 0 4439660.060043335 -41148816.954200745 0 0 0 0 12400974.351158142 -216191837.94164467 0 -216191837.94164467 18827841.089111328 0 0 0 0 7979281.0200004578 -29921665.464719772 0 -29921665.464719772 -14142897.367462158 0 0 0 0 -17270481.255767822 -27348844.18510437 0 -27348844.18510437 114888.9462890625 0 0 0 0 -22541759.761428833 -13786949.333969116 0 -13786949.333969116 -13897774.148254395 0 0 0 0 -39573612.367919922 -712434.22253417969 0 -712434.22253417969 -955169.79223632812 0 0 0 0 -23030750.364852905 -16264360.283035278 0 -16264360.283035278 -14874106.336608887 0 0 0 0 -1673331.0734158698 -365822.06926636398 0 -365822.06926636398 102476.44756361097 0 0 0 0 -60840467.131286621 -32853905.968093872 0 -32853905.968093872 -13075205.862026215 0 0 0 0 -421034.66661960632 -12423893.793918289 0 -12423893.793918289 -6524951.0045607537 0 0 0 0 -5258907.1526683569 -15649864.192288309 0 -15649864.192288309 -7243168.0716471225 0 0 0 0 -7720337.4147186279 -4041003.6693878174 0 -4041003.6693878174 1250729.3160095215 0 0 0 0 10306155.314006761 -12000035.338937007 0 -12000035.338937007 -10698167.292666882 0 0 0 0 22953320.980789185 -17472401.255767822 0 -17472401.255767822 6247703.8386230469 0 0 0 0 17437599.994739532 5980093.8607158661 0 5980093.8607158661 13114196.742614746 0 0 0 0 1695342.7029724121 -26145059.472595215 0 -26145059.472595215 3502354.2846832275 0 0 0 0 45664037.553342819 23278238.905151367 0 23278238.905151367 15134979.051681519 0 0 0 0 926219.79760742188 -87653584.969421387 0 -87653584.969421387 -161655079.65670776 0 0 0 0 10180067.24562645 13065334.285060883 0 13065334.285060883 -24987123.261291504 0 0 0 0 20774809.081233978 -27133854.711853027 0 -27133854.711853027 -71379726.033660889 0 0 0 0 -3546358.2768859863 -32868387.045410156 0 -32868387.045410156 -7957626.1335830688 0 0 0 0 32519829.432403564 -11883544.100891113 0 -11883544.100891113 2872154.6936340332 0 0 0 0 11967781.559882566 -17673306.334707618 0 -17673306.334707618 -15327581.188940138 0 0 0 0 -8625443.1862911135 -6487037.8488662094 0 -6487037.8488662094 2051492.3517801613 0 0 0 0 288465415.15907288 -12009040.548950195 0 -12009040.548950195 -18538625.525600433 0 0 0 0 243483615.07415771 -257716274.21382141 0 -257716274.21382141 93758932.109909058 0 0 0 0 537076736.21721649 -323200422.41457367 0 -323200422.41457367 1505381.0550079346 0 0 0 0 256969699.68803406 388109166.24676514 0 388109166.24676514 -183567038.83078766 0 0 0 0 2551843.8386535645 292754280.85385132 0 292754280.85385132 -86981527.237693787 0 0 0 0 643577812.80281067 -5127441.7816467285 0 -5127441.7816467285 -405078491.27340698 0 0 0 0 49343764.738586426 -320656232.9977417 0 -320656232.9977417 -59158575.015594482 0 0 0 0 -47129060.706970215 -142273678.43939209 0 -142273678.43939209 -22705167.165863037 0 0 0 0 -17840375.198852539 -111037098.78363037 0 -111037098.78363037 -50871090.765777588 0 0 0 0 -58751738.351028442 -105771884.29911423 0 -105771884.29911423 -28099044.439331055 0 0 0 0 11586196.053634644 9822240.3019256592 0 9822240.3019256592 64022794.858428955 0 0 0 0 -55955517.422531128 -119586438.33332825 0 -119586438.33332825 156147717.9261322 0 0 0 0 -633443754.38764954 -613591772.28106689 0 -613591772.28106689 -272124271.81652832 0 0 0 0 -52023342.250030518 -269955195.40252495 0 -269955195.40252495 -147786565.48370361 0 0 0 0 -358304450.9715271 -370125189.37648773 0 -370125189.37648773 -59663825.858604431 0 0 0 0 -313430733.65414429 99983116.269088745 0 99983116.269088745 70977830.856477737 0 0 0 0 -209234286.96250153 601313991.91145706 0 601313991.91145706 -398347518.09484863 0 0 0 0 -1122290418.4155579 69338941.598594666 0 69338941.598594666 76279658.652427673 0 0 0 0 -2423678145.1120682 306187707.91336823 0 306187707.91336823 555801918.53623199 0 0 0 0 -348189030.1366272 -591831924.66474152 0 -591831924.66474152 -1110003794.3849106 0 0 0 0 -131197852.53857422 -40635884.522605896 0 -40635884.522605896 277085636.76547241 0 0 0 0 589582700.59890747 -375949650.29917908 0 -375949650.29917908 -556082772.0478363 0 0 0 0 -499028.81380617991 -1839718.1770368181 0 -1839718.1770368181 -1545137.7615962848 0 0 0 0 50731211.581550598 -413349204.01125336 0 -413349204.01125336 -311867370.75508118 0 0 0 0 37007724.420623779 -445188668.31245422 0 -445188668.31245422 -346127364.0203743 0 0 0 0 468155228.04846191 -501932843.81399536 0 -501932843.81399536 -708808439.94708633 0 0 0 0 -619933679.93939209 -377771117.74115753 0 -377771117.74115753 -163568763.44495392 0 0 0 0 1129657027.4263306 -19845034.894302368 0 -19845034.894302368 -850922331.21685791 0 0 0 0 -2635208.2690118784 -2987654.7391417846 0 -2987654.7391417846 948113.51822651923 0 0 0 0 752632009.4180603 -264615601.57213593 0 -264615601.57213593 -392872068.52735901 0 0 0 0 -883344717.18347168 -378215842.08836365 0 -378215842.08836365 977729832.72750854 0 0 0 0 -639156454.41165161 491447852.06835938 0 491447852.06835938 -322522728.25584412 0 0 0 0 -139642463.85069275 -254332886.88697052 0 -254332886.88697052 58807897.226013184 0 0 0 0 -131636686.14656067 165574278.9400177 0 165574278.9400177 118976956.67349243 0 0 0 0 -9040149.7550090514 -8559306.4827468172 0 -8559306.4827468172 3354226.6230412051 0 0 0 0 314013704.46438599 -86257275.532798767 0 -86257275.532798767 -125370811.15270996 0 0 0 0 -559503962.87985229 25192223.124565125 0 25192223.124565125 80855076.801849365 0 0 0 0 -1216718067.6183014 268717026.69605637 0 268717026.69605637 144597133.92866516 0 0 0 0 -268121.85805025697 -5673805.3520822041 0 -5673805.3520822041 -7545343.9703086838 0 0 0 0 2910951.2277832031 774410505.00041199 0 774410505.00041199 2477066314.7557983 0 0 0 0 -465272160.39733887 118271343.97900391 0 118271343.97900391 -183764668.22898865 0 0 0 0 -530403823.26821899 -68863756.849029541 0 -68863756.849029541 -51516409.510169983 0 0 0 0 -462341392.79833984 20072644.951408386 0 20072644.951408386 64217914.056243896 0 0 0 0 -480623275.25097656 -56785254.63583374 0 -56785254.63583374 75695982.278144836 0 0 0 0 -511358056.42205811 67958230.921504021 0 67958230.921504021 75529788.81602478 0 0 0 0 -197830815.66494751 42320612.823074341 0 42320612.823074341 -3885819.2550964355 0 0 0 0 -523186283.8102417 14002909.798957825 0 14002909.798957825 75211772.20489502 0 0 0 0 -451260499.09863281 117251843.16342545 0 117251843.16342545 28271969.530273438 0 0 0 0 3409825.159129858 -5463121.3056081012 0 -5463121.3056081012 116134.54167948663 0 0 0 0 52096189.576713562 13092801.645877838 0 13092801.645877838 30459852.051300049 0 0 0 0 -152206624.35851288 -134659458.69303608 0 -134659458.69303608 45641274.264968872 0 0 0 0 -133185109.25350952 7323891.8021469116 0 7323891.8021469116 64357376.201690674 0 0 0 0 -295435909.54550171 -147989160.26094055 0 -147989160.26094055 25143619.433204651 0 0 0 0 -11694223.555924427 -28912730.745560832 0 -28912730.745560832 -6156817.835371457 0 0 0 0 -5081182.8208007812 -42514668.620887756 0 -42514668.620887756 -22463011.326873779 0 0 0 0 -44141312.787528992 -41116096.590034485 0 -41116096.590034485 -20734570.392429352 0 0 0 0 -44352314.638633728 -28466902.717063904 0 -28466902.717063904 -22984536.589706421 0 0 0 0 -54692017.368774414 -10203842.429191589 0 -10203842.429191589 -20588103.854109764 0 0 0 0 -184304411.90000534 192622142.00614166 0 192622142.00614166 -199598049.63589478 0 0 0 0 37606018.42150116 -61669936.236503601 0 -61669936.236503601 -27363799.244934082 0 0 0 0 -6739200.993047622 -26504224.19960399 0 -26504224.19960399 -665792.78934621811 0 0 0 0 737892642.25839233 -901677262.12738037 0 -901677262.12738037 925777821.8611145 0 0 0 0 686782150.27648926 127913710.90625 0 127913710.90625 -687096024.74279785 0 0 0 0 -47638680.829334259 -202943810.5555954 0 -202943810.5555954 -219561202.07759094 0 0 0 0 -39966730.424865723 -266153805.19920349 0 -266153805.19920349 183847768.56138611 0 0 0 0 -101289744.05290222 -492512021.618927 0 -492512021.618927 83233172.839874268 0 0 0 0 496372977.76818848 -590822443.12379742 0 -590822443.12379742 51823813.706497192 0 0 0 0 -293389608.68217468 -380416024.79121399 0 -380416024.79121399 29016813.293968201 0 0 0 0 3011352.8887275346 -976805.15531025082 0 -976805.15531025082 -1230839.8007870317 0 0 0 0 374640949.69943237 535527420.19166565 0 535527420.19166565 292500472.22973633 0 0 0 0 344036952.07688904 427467614.5382843 0 427467614.5382843 115156477.63011169 0 0 0 0 -7645957.3117170334 -16947955.405485153 0 -16947955.405485153 417646863.6043396 0 0 0 0 573351209.52996826 510839298.64091492 0 510839298.64091492 -45494683.727600098 0 0 0 0 68652.331967592239 -26221113.26253175 0 -26221113.26253175 2168930.6358447969 0 0 0 0 483331837.67721558 171523494.76065063 0 171523494.76065063 -225002583.80169678 0 0 0 0 70956547.794174194 -46824864.447471619 0 -46824864.447471619 -103562735.9682312 0 0 0 0 -52844934.423751831 -58507892.789672852 0 -58507892.789672852 26391457.292723656 0 0 0 0 -59130123.646987915 -83962795.659908295 0 -83962795.659908295 -11010384.50378418 0 0 0 0 -559895459.58190918 -269275190.65881348 0 -269275190.65881348 -76783373.051315308 0 0 0 0 -728778169.77272034 -76726362.894584656 0 -76726362.894584656 211281110.64788818 0 0 0 0 -782553208.32058716 -127048140.01652527 0 -127048140.01652527 239276807.11859131 0 0 0 0 -21498309.427276611 -173846194.55078125 0 -173846194.55078125 -221819342.13983154 0 0 0 0 -745724385.86921692 213467729.2716217 0 213467729.2716217 81172766.248325348 0 0 0 0 12009675.01083374 -55237275.562088013 0 -55237275.562088013 -147493186.10113525 0 0 0 0 -1071813.9925351217 -2208220.7113910709 0 -2208220.7113910709 1793720.3391811252 0 0 0 0 -8611476.8757629395 35494660.640655518 0 35494660.640655518 26213989.636032104 0 0 0 0 -58230861.062774658 -92014223.866409302 0 -92014223.866409302 -28653191.461029053 0 0 0 0 127627196.78924561 -7606366.3987121582 0 -7606366.3987121582 -14673282.931468964 0 0 0 0 -684865258.05750942 -270751776.39775085 0 -270751776.39775085 47534209.822998047 0 0 0 0 9010215.5557906032 -27517216.249485418 0 -27517216.249485418 -16441270.133924469 0 0 0 0 259722809.28400421 17354416.213317871 0 17354416.213317871 -272297201.54397583 0 0 0 0 -193567147.73455811 271725274.22874451 0 271725274.22874451 -312233414.41026306 0 0 0 0 -523427933.16094971 -357178065.76609802 0 -357178065.76609802 323561922.38720703 0 0 0 0 16499417.991299119 -1585859.1711606458 0 -1585859.1711606458 -26409945.143565081 0 0 0 0 59091012.509658813 -50274799.372612 0 -50274799.372612 15082333.053600788 0 0 0 0 100448285.8789978 -48923071.819507599 0 -48923071.819507599 -43416107.308609009 0 0 0 0 63796373.005584717 -16609089.091453552 0 -16609089.091453552 -34336012.520102978 0 0 0 0 -66363521.987030029 -75539495.660362244 0 -75539495.660362244 -10293867.563430786 0 0 0 0 -71452515.715298653 -143080739.31587815 0 -143080739.31587815 -11021474.040252686 0 0 0 0 5199948.5080857575 -12752251.650073491 0 -12752251.650073491 14704794.001857132 0 0 0 0 -154747907.18574524 -83280030.395133972 0 -83280030.395133972 36506366.017341614 0 0 0 0 -16579260.895336151 -134794628.12938118 0 -134794628.12938118 -21418372.304702759 0 0 0 0 114840306.44920349 -94833126.549842834 0 -94833126.549842834 -27221257.332260132 0 0 0 0 26745598.36340332 -56527196.11252594 0 -56527196.11252594 -9817530.7401959896 0 0 0 0 164799145.23295593 -91868648.134075165 0 -91868648.134075165 24343850.721511841 0 0 0 0 123397751.52397156 -52942060.879234314 0 -52942060.879234314 -2669505.1065711975 0 0 0 0 56087535.513515472 -205432211.74062061 0 -205432211.74062061 73545546.853866577 0 0 0 0 -169504524.23538208 -174417204.39622498 0 -174417204.39622498 95339738.074607849 0 0 0 0 388539051.99594879 43216832.049434662 0 43216832.049434662 66693312.409606934 0 0 0 0 186102177.82507324 -352526871.67910576 0 -352526871.67910576 9725703.1984863281 0 0 0 0 -205986608.74658203 -165421870.01265717 0 -165421870.01265717 79126285.643951416 0 0 0 0 40994491.508422852 -82622545.29196167 0 -82622545.29196167 -325415442.85769653 0 0 0 0 -17494175.792907715 -103785142.5059185 0 -103785142.5059185 5226884.9374542236 0 0 0 0 239657425.75883484 -23548593.363723755 0 -23548593.363723755 -34846531.382614136 0 0 0 0 1843082.872918006 -10313978.208478495 0 -10313978.208478495 1553398.6978037059 0 0 0 0 6648196.7673506215 -17101670.232607942 0 -17101670.232607942 -30942297.37262284 0 0 0 0 -97881213.929962158 -185992958.55809021 0 -185992958.55809021 -32391039.689933777 0 0 0 0 -630441291.79128265 30979463.119552612 0 30979463.119552612 88383792.51008606 0 0 0 0 1768495.3928130828 -10732401.361716751 0 -10732401.361716751 -18414928.509725034 0 0 0 0 44700710.894104004 93419047.115844727 0 93419047.115844727 -147692743.39691925 0 0 0 0 74996261.180999756 49683027.337665558 0 49683027.337665558 -413053094.10702515 0 0 0 0 219060852.16421509 -255929060.81861115 0 -255929060.81861115 -931131315.91014099 0 0 0 0 382474630.19784546 -1371738775.0670319 0 -1371738775.0670319 -192122676.40238953 0 0 0 0 -420870928.20664978 -721970772.59099197 0 -721970772.59099197 933551130.3032074 0 0 0 0 231637376.91343689 -366165587.18006134 0 -366165587.18006134 18698908.850860596 0 0 0 0 -184424244.14431763 -63723681.648504257 0 -63723681.648504257 325179182.35804749 0 0 0 0 -1514632.9821584933 -6972.6093088686466 0 -6972.6093088686466 3037054.0173755437 0 0 0 0 -462065307.78408813 -411110659.59181213 0 -411110659.59181213 423409867.9935565 0 0 0 0 -85624938.780334473 -387872943.38516235 0 -387872943.38516235 424694505.46595764 0 0 0 0 -754800556.82330322 -80555006.852203369 0 -80555006.852203369 695924034.36495972 0 0 0 0 105146755.19204712 137022046.27204132 0 137022046.27204132 354459271.5046196 0 0 0 0 405538000.12736511 174570581.68395233 0 174570581.68395233 -191542265.9662323 0 0 0 0 49833659.680305481 3024151.4288139343 0 3024151.4288139343 30528165.78364563 0 0 0 0 3338615.5454621911 -3211703.4929367378 0 -3211703.4929367378 703407.17110471986 0 0 0 0 293386956.32104492 490856459.46131897 0 490856459.46131897 522004693.66796875 0 0 0 0 1117985986.4552917 425444024.52584839 0 425444024.52584839 -494173626.76593018 0 0 0 0 631051156.65097046 552861138.56730652 0 552861138.56730652 268802196.38150024 0 0 0 0 483263137.45108032 11951797.442443848 0 11951797.442443848 -144353832.75692749 0 0 0 0 329119099.96780396 -174415042.31195068 0 -174415042.31195068 -326028492.85160828 0 0 0 0 338298513.09543562 71456658.685830116 0 71456658.685830116 -99756475.231582642 0 0 0 0 204131781.22782898 -153275735.87930298 0 -153275735.87930298 -233036503.81010437 0 0 0 0 209181039.81145954 42585037.72245121 0 42585037.72245121 -68882018.787063599 0 0 0 0 202467622.78262329 -56921583.541618347 0 -56921583.541618347 -219300381.82240295 0 0 0 0 121345435.81907654 -93504055.012794495 0 -93504055.012794495 -118325254.36283875 0 0 0 0 79021738.197036743 -57637862.06401825 0 -57637862.06401825 -129186518.98640442 0 0 0 0 127331640.75100708 -184986749.69223404 0 -184986749.69223404 -164624493.59310913 0 0 0 0 94814823.426025391 -124564489.68100739 0 -124564489.68100739 -153886346.52983856 0 0 0 0 -22694016.760604858 -342048482.03575706 0 -342048482.03575706 -308374381.69975281 0 0 0 0 9431768.4857940674 -22167680.089073181 0 -22167680.089073181 -24637146.844955444 0 0 0 0 34991798.588990688 -1212129.0892386436 0 -1212129.0892386436 -13537159.625549316 0 0 0 0 88096079.869003296 -18800353.55620575 0 -18800353.55620575 -52475677.953453064 0 0 0 0 34599840.194732666 -6896319.7643966675 0 -6896319.7643966675 -34799801.435760498 0 0 0 0 25741705.082199097 13998770.19442749 0 13998770.19442749 10822364.465278625 0 0 0 0 71356898.664680481 17749992.841436386 0 17749992.841436386 -23410053.757446289 0 0 0 0 85997651.336547852 52302893.85660553 0 52302893.85660553 34420474.79864502 0 0 0 0 9429161.1199111938 -3644308.8273887634 0 -3644308.8273887634 -5590574.514541626 0 0 0 0 -278803166.23828125 160533783.2507534 0 160533783.2507534 -61675527.607940674 0 0 0 0 9703252.8973434865 -6586594.9073256701 0 -6586594.9073256701 -444160.14875395969 0 0 0 0 55934480.050552368 8566360.9128608704 0 8566360.9128608704 5921818.5294647217 0 0 0 0 -43560074.937347412 -250158468.98451996 0 -250158468.98451996 142171565.32194519 0 0 0 0 1147669430.4420776 129620881.88406372 0 129620881.88406372 -745157354.6261673 0 0 0 0 879914418.98109436 19166832.740997314 0 19166832.740997314 -163604353.07636261 0 0 0 0 566745912.68247986 -446817609.35419846 0 -446817609.35419846 81932294.810684204 0 0 0 0 92359875.359512329 -80491864.661903381 0 -80491864.661903381 -77458094.618301392 0 0 0 0 42024123.332496643 -84115035.011480331 0 -84115035.011480331 108528861.34415436 0 0 0 0 -517688548.67092896 -749591762.03172302 0 -749591762.03172302 -381562591.24170685 0 0 0 0 -1163345.0588119477 -764618.17804604024 0 -764618.17804604024 256246.35260885954 0 0 0 0 -71123589.776397705 11651287.730758667 0 11651287.730758667 135858071.43154907 0 0 0 0 -239141640.10522461 -2046773196.3324051 0 -2046773196.3324051 -545592388.56047058 0 0 0 0 -727107263.29403687 155421881.94595337 0 155421881.94595337 591505635.82916641 0 0 0 0 30280651.657012939 -46375353.704048157 0 -46375353.704048157 -89026121.239753723 0 0 0 0 -1853644.9586717933 -36092.873536884785 0 -36092.873536884785 -1813175.5372234136 0 0 0 0 -43138023.210891724 130478460.58377647 0 130478460.58377647 47356325.051544189 0 0 0 0 -74832255.640136719 -69953651.109680176 0 -69953651.109680176 -52102959.944015503 0 0 0 0 69298264.26399231 4195004.9899368286 0 4195004.9899368286 -258472965.11949158 0 0 0 0 66800238.413108826 -14489372.420501709 0 -14489372.420501709 -168858886.28619385 0 0 0 0 -46862305.163330078 7180240.2583465576 0 7180240.2583465576 -170728799.27626801 0 0 0 0 12922506.476616815 -10653547.771193489 0 -10653547.771193489 -3226240.8272696082 0 0 0 0 15815211.433013916 -10073340.614860535 0 -10073340.614860535 -9064128.1798286438 0 0 0 0 891879.61006002128 -2218675.9731091857 0 -2218675.9731091857 -525073.33366068453 0 0 0 0 -1777129.3568115234 -42061833.527526855 0 -42061833.527526855 -46941696.326187134 0 0 0 0 5597139.9347962746 -12981522.137996502 0 -12981522.137996502 -10013359.415785581 0 0 0 0 -10928054.526634216 -9601444.2665157318 0 -9601444.2665157318 -3575328.0353393555 0 0 0 0 -22548945.447967529 -20867290.412879944 0 -20867290.412879944 -13772023.584994555 0 0 0 0 18727862.925109863 -12670990.138038635 0 -12670990.138038635 -6489536.2225799561 0 0 0 0 29080419.229269028 -8017763.4502272606 0 -8017763.4502272606 -13301760.61517334 0 0 0 0 3831441.0859069824 -19137961.080680847 0 -19137961.080680847 1425832.0939788818 0 0 0 0 11763343.563751221 -11284611.192642212 0 -11284611.192642212 1493285.1624145508 0 0 0 0 10692332.408447266 -15529613.17074585 0 -15529613.17074585 -9830773.0967559814 0 0 0 0 -1982786.5238852948 -965265.04395356402 0 -965265.04395356402 2162236.9540838823 0 0 0 0 -32096583.206893921 -10488207.874485016 0 -10488207.874485016 4609951.2798461914 0 0 0 0 16742363.531066895 -21281647.207771301 0 -21281647.207771301 -12780926.47992897 0 0 0 0 -22490420.35848999 -8381572.1012115479 0 -8381572.1012115479 3275390.8969573975 0 0 0 0 -2173475.8969464004 -8764063.9860895947 0 -8764063.9860895947 -149738.06005073152 0 0 0 0 29218091.986450195 -24085501.660812378 0 -24085501.660812378 -43850215.407249451 0 0 0 0 -125409.93823242188 33916.669738769531 0 33916.669738769531 5965312.1010437012 0 0 0 0 57048555.817199707 -25584074.640655518 0 -25584074.640655518 -72753386.816711426 0 0 0 0 65606212.404418945 5179516.0237121582 0 5179516.0237121582 -33926852.223220825 0 0 0 0 5795136.4780273438 -18279731.091552734 0 -18279731.091552734 -40086862.334476471 0 0 0 0 320747.07006727159 -1848318.8848345131 0 -1848318.8848345131 -7106121.780013904 0 0 0 0 3345081.9645690918 -13065254.114242554 0 -13065254.114242554 12518039.867858887 0 0 0 0 -14181974.924697876 9372254.3337936401 0 9372254.3337936401 -6113401.127166748 0 0 0 0 4043.7926177978516 -16666391.897346497 0 -16666391.897346497 11562031.944000244 0 0 0 0 16480022.782104492 -20885687.204452515 0 -20885687.204452515 7872618.8887023926 0 0 0 0 4179986.2638549805 -16941748.242958069 0 -16941748.242958069 14833281.941802979 0 0 0 0 -3872824.9810828641 -1929191.3652329259 0 -1929191.3652329259 4279699.9718853384 0 0 0 0 3953218.1261825562 -8708935.1968812943 0 -8708935.1968812943 22490724.619293213 0 0 0 0 3142764.167153731 134960.1366058439 0 134960.1366058439 -12030006.736787237 0 0 0 0 4402.0674133300781 -3557913.4411773682 0 -3557913.4411773682 -4045785.6377716064 0 0 0 0 -915923.79804992676 -42765514.089653015 0 -42765514.089653015 -1667715637.501564 0 0 0 0 -3760063.682222262 140140.41418651491 0 140140.41418651491 686530.31364954263 0 0 0 0 1108876789.7705994 393529274.49973297 0 393529274.49973297 -1692291656.2547264 0 0 0 0 -2341971.7983275652 3986372.5349718183 0 3986372.5349718183 -7310064.2431427576 0 0 0 0 21431934.031311035 30957638.640434265 0 30957638.640434265 -3270980.4234714508 0 0 0 0 85765215.533874512 -3298229.2684173584 0 -3298229.2684173584 -67508284.040847778 0 0 0 0 77374162.880065918 18521630.761291504 0 18521630.761291504 -45219456.177627563 0 0 0 0 -196694.95671844482 -473251279.80736732 0 -473251279.80736732 267035151.16739655 0 0 0 0 214054074.72268295 -316185455.8794651 0 -316185455.8794651 -279864154.79018784 0 0 0 0 1441064.9303670675 -2504057.6427440569 0 -2504057.6427440569 2980707.2942957729 0 0 0 0 300577644.30169678 434855167.51461792 0 434855167.51461792 250095476.9906311 0 0 0 0 -157011353.31204987 -165496966.18406868 0 -165496966.18406868 -61112395.182815552 0 0 0 0 -457504749.68870544 -132622640.62251663 0 -132622640.62251663 213295813.93055725 0 0 0 0 3533450.7625945732 -7582635.2065654993 0 -7582635.2065654993 9509583.5414451808 0 0 0 0 -123085913.05796814 -4627285.8227081299 0 -4627285.8227081299 201776829.95838022 0 0 0 0 -188316967.01094437 -467843234.53336239 0 -467843234.53336239 -346331059.85644531 0 0 0 0 -435151883.91356897 -77524585.898725629 0 -77524585.898725629 557063356.83889771 0 0 0 0 -442708708.57052612 -471085324.76444626 0 -471085324.76444626 -141532885.6381321 0 0 0 0 100430390.04556274 -168173934.09889221 0 -168173934.09889221 -381131885.41827106 0 0 0 0 -118094619.23670959 -63526311.950931549 0 -63526311.950931549 188703996.50270081 0 0 0 0 -154323644.51662064 -361055021.96674347 0 -361055021.96674347 -103059157.89411926 0 0 0 0 -524442228.44923782 -522491521.51689959 0 -522491521.51689959 37075501.562904358 0 0 0 0 -335148788.76473236 -314842551.77859879 0 -314842551.77859879 -60429706.131309509 0 0 0 0 -253336953.24409485 -29940444.310832977 0 -29940444.310832977 181784465.47790527 0 0 0 0 -1713643.3462631144 -3139210.0033350214 0 -3139210.0033350214 -1339700.1621330529 0 0 0 0 576834142.46697998 -98066192.427032471 0 -98066192.427032471 -140878222.21058655 0 0 0 0 463867305.90884399 -561833985.14696884 0 -561833985.14696884 533937931.33087921 0 0 0 0 -114324250.10876465 150570584.92733765 0 150570584.92733765 69177212.209503174 0 0 0 0 274485679.3737793 147064136.58023071 0 147064136.58023071 -195944461.96138 0 0 0 0 -35930943.661590576 -118562181.11684036 0 -118562181.11684036 -18162161.203445435 0 0 0 0 34704307.658691406 -7706264.9524383545 0 -7706264.9524383545 137407899.35669899 0 0 0 0 129640168.39804077 -161592645.54436874 0 -161592645.54436874 174157416.66455078 0 0 0 0 213695740.79489136 -181890535.34716034 0 -181890535.34716034 120272480.79438782 0 0 0 0 145789320.14483643 -258699486.71076584 0 -258699486.71076584 211662687.64256287 0 0 0 0 310641913.00061035 -345754956.68317795 0 -345754956.68317795 192260190.27389526 0 0 0 0 341293355.0534668 -260279482.20066833 0 -260279482.20066833 197324294.68849182 0 0 0 0 407302469.12789917 -339849529.4812088 0 -339849529.4812088 154165217.9973526 0 0 0 0 604136.32502746582 -355093598.79782677 0 -355093598.79782677 999097273.27295685 0 0 0 0 284579877.99234009 -523907131.88488007 0 -523907131.88488007 384768940.51543903 0 0 0 0 32588291.006317139 -690483345.82183075 0 -690483345.82183075 2114252722.1772156 0 0 0 0 245413970.14173889 -499913122.01696968 0 -499913122.01696968 612306029.1927948 0 0 0 0 181077471.91317749 -785898553.278965 0 -785898553.278965 2180406174.2981648 0 0 0 0 1456594499.1494141 -1259862250.5522118 0 -1259862250.5522118 1188786709.3812523 0 0 0 0 367435739.19854736 -1147856802.8205109 0 -1147856802.8205109 2180975913.721138 0 0 0 0 1112934841.445343 -824597595.81407547 0 -824597595.81407547 -95205566.731499672 0 0 0 0 207867576.45315552 55698942.886917114 0 55698942.886917114 -136772981.3678894 0 0 0 0 1498422632.2503204 1861825277.6414099 0 1861825277.6414099 2154337199.3338928 0 0 0 0 -1400557.6583886668 -2721653.3318432868 0 -2721653.3318432868 5786704.5461448003 0 0 0 0 893602305.19328308 1455394026.6874943 0 1455394026.6874943 1130802684.0588913 0 0 0 0 283159521.4644165 741917358.16661453 0 741917358.16661453 820929970.32811165 0 0 0 0 737494193.52764893 366169086.87447357 0 366169086.87447357 -130630516.63567734 0 0 0 0 1011506741.355938 935222644.78171968 0 935222644.78171968 471804843.55046082 0 0 0 0 -218879838.72601318 1480027292.2408066 0 1480027292.2408066 2864274582.7998924 0 0 0 0 33418313.587341309 1004279866.663475 0 1004279866.663475 1360346544.3425522 0 0 0 0 339720000.10101318 814850005.52689362 0 814850005.52689362 797659780.09130096 0 0 0 0 -667141429.10910034 524347752.52289009 0 524347752.52289009 1821170643.8467636 0 0 0 0 -681340375.37063599 692438685.16324615 0 692438685.16324615 1779403663.5998802 0 0 0 0 -300943914.05490112 313010306.09039116 0 313010306.09039116 782721916.92607117 0 0 0 0 -8723495.7568664551 358156106.21697807 0 358156106.21697807 536576122.55921555 0 0 0 0 -104483245.06677246 592191994.10384369 0 592191994.10384369 1179209059.3031197 0 0 0 0 44645190.027557373 315071923.85687923 0 315071923.85687923 570849607.24473572 0 0 0 0 -35369822.359008789 82650924.929353714 0 82650924.929353714 272183547.23663139 0 0 0 0 -107483840.15133667 5334293.4122581482 0 5334293.4122581482 326544627.27346802 0 0 0 0 -71182934.05166626 237618238.81920433 0 237618238.81920433 797471156.02836275 0 0 0 0 -197796855.29962158 -49831018.193827629 0 -49831018.193827629 45749585.068908691 0 0 0 0 -115036204.22561646 85987596.155735016 0 85987596.155735016 -134004854.14391375 0 0 0 0 -5209934.1553243026 -8901512.0012230799 0 -8901512.0012230799 15158477.562285962 0 0 0 0 -475464904.61819458 -10216282.482527733 0 -10216282.482527733 337889273.45130157 0 0 0 0 -14796176.48059082 -187753451.53100967 0 -187753451.53100967 145708664.6759758 0 0 0 0 -226952425.76670837 -180123677.39756012 0 -180123677.39756012 -3176709.8475809097 0 0 0 0 -9820973.4541523196 -21023595.381292343 0 -21023595.381292343 20237040.28325507 0 0 0 0 -53046616.084686279 7164618.7235641479 0 7164618.7235641479 -33569584.694503784 0 0 0 0 -89425418.562408447 83982281.470600128 0 83982281.470600128 -40138419.131668091 0 0 0 0 -59278780.585357666 -154390855.53600883 0 -154390855.53600883 -92963394.759958267 0 0 0 0 -80167691.774024963 2305656.6183130741 0 2305656.6183130741 326876209.91631317 0 0 0 0 -121974323.61126709 98559371.596347809 0 98559371.596347809 285779490.01795197 0 0 0 0 -119181211.4480896 -146154673.46049118 0 -146154673.46049118 100977693.28648949 0 0 0 0 -20658319.028278172 -28086968.577855848 0 -28086968.577855848 6013646.9597824533 0 0 0 0 -26929669.348556519 -35957257.279266357 0 -35957257.279266357 -51377375.767982483 0 0 0 0 -12884802.513298035 -114380555.83609295 0 -114380555.83609295 -184597571.28631973 0 0 0 0 -88197681.53036499 -23465581.311355591 0 -23465581.311355591 8649243.6709747314 0 0 0 0 -16159287.526595384 -5415079.6504973993 0 -5415079.6504973993 -3812123.7370967455 0 0 0 0 -4586993.4447333459 -12061219.34953744 0 -12061219.34953744 -9405113.4058708698 0 0 0 0 -58412991.708740234 -100370987.70422363 0 -100370987.70422363 -34528309.909812927 0 0 0 0 -12168327.60397929 -22852355.413930878 0 -22852355.413930878 -105304.83397497609 0 0 0 0 -138132.52099609375 -10317353.372138977 0 -10317353.372138977 -11923040.036376953 0 0 0 0 -5189963.8094359599 -19876120.537184931 0 -19876120.537184931 -9234168.8437508643 0 0 0 0 -12477850.643021733 -14654138.393443013 0 -14654138.393443013 425877.12647171994 0 0 0 0 -4255193.2969970703 -9792985.5372619629 0 -9792985.5372619629 -5004175.3968505859 0 0 0 0 -12665939.467265725 -15777422.412342891 0 -15777422.412342891 -3675449.0065177744 0 0 0 0 -4769634.7769775391 -7600059.2114028931 0 -7600059.2114028931 -4082715.2423095703 0 0 0 0 12056956.337402344 -16953979.669929504 0 -16953979.669929504 -27912956.451520205 0 0 0 0 190514.44449990988 -5497392.8017548509 0 -5497392.8017548509 -12556283.952385213 0 0 0 0 -16614739.048278809 -21442114.066261292 0 -21442114.066261292 -7274824.3017439842 0 0 0 0 -12007191.912181854 -13038533.717298031 0 -13038533.717298031 -22572953.99307251 0 0 0 0 -5906088.9249351472 -8058235.5935156643 0 -8058235.5935156643 -3820702.1814646125 0 0 0 0 -2651156.8455652744 -3609794.4707843959 0 -3609794.4707843959 -5177291.4555907995 0 0 0 0 -58622417.594329834 30695824.107082367 0 30695824.107082367 -82386089.423126221 0 0 0 0 -15066924.607666016 -35502485.875762939 0 -35502485.875762939 -24006616.641858578 0 0 0 0 -25823174.883277893 -14631679.642578125 0 -14631679.642578125 -5378775.914894104 0 0 0 0 -52842237.016571045 8433057.7532806396 0 8433057.7532806396 60905663.679550171 0 0 0 0 3227932.8345184326 65097153.706375122 0 65097153.706375122 -63987754.963027954 0 0 0 0 210686.21311950684 -81033152.877613068 0 -81033152.877613068 45891795.581443787 0 0 0 0 111822089.7616272 -265543023.23494339 0 -265543023.23494339 321792372.9831562 0 0 0 0 113708230.63552856 -46555373.374866486 0 -46555373.374866486 -52617477.009925842 0 0 0 0 -81595.125194042921 -968527.11305348575 0 -968527.11305348575 -2306432.369754687 0 0 0 0 72887373.353637695 -218188930.82234955 0 -218188930.82234955 183089531.9975791 0 0 0 0 21526.789276376367 -344501.66780238971 0 -344501.66780238971 -10127387.746111013 0 0 0 0 41397344.827713013 -47079041.217868805 0 -47079041.217868805 24142690.206596375 0 0 0 0 4296414.4592285156 -7228329.7553195953 0 -7228329.7553195953 -13621639.629089355 0 0 0 0 7724985.6567077637 -15092530.555809021 0 -15092530.555809021 -62861582.665674448 0 0 0 0 -5542.9714050292969 -24291279.937480927 0 -24291279.937480927 -32221108.382408142 0 0 0 0 18929218.951553345 -12615117.491085052 0 -12615117.491085052 -28652700.453971863 0 0 0 0 6877044.2515640259 -13158428.207185745 0 -13158428.207185745 -27113948.742980957 0 0 0 0 8756695.8702697754 -18900603.504646301 0 -18900603.504646301 -30894009.78219223 0 0 0 0 9572177.8501110077 -13299650.109217167 0 -13299650.109217167 -17443431.572006226 0 0 0 0 51334.794921875 -21958259.472560883 0 -21958259.472560883 -19641319.316848755 0 0 0 0 5084242.1273193359 -20552716.036169052 0 -20552716.036169052 -17660896.152709961 0 0 0 0 4534619.215461731 -19520242.990823746 0 -19520242.990823746 -19095599.242431641 0 0 0 0 -3909.6132049560547 -24371373.789260864 0 -24371373.789260864 -19720027.362033844 0 0 0 0 -48226.381225585938 -19533891.294910431 0 -19533891.294910431 -25981514.31187439 0 0 0 0 -1424446.5141601562 -24124469.648887634 0 -24124469.648887634 -17509105.07989502 0 0 0 0 2168845.058013916 -18649868.453437805 0 -18649868.453437805 -14763218.581985474 0 0 0 0 -1766528.9787139893 -22925093.21326828 0 -22925093.21326828 -17522770.346006393 0 0 0 0 -2005909.1260986328 -33037000.881534576 0 -33037000.881534576 -15597885.751789093 0 0 0 0 -15328408.994049072 -20827457.738044739 0 -20827457.738044739 -14133222.070747375 0 0 0 0 9297.0907114226302 -25421879.855876751 0 -25421879.855876751 -16687041.530700684 0 0 0 0 2869275.3026733398 -20281229.841175079 0 -20281229.841175079 -9243387.0031571388 0 0 0 0 17045311.872337341 -8555267.6193656921 0 -8555267.6193656921 -16507566.442230225 0 0 0 0 -18126664.286010742 -38026704.542442322 0 -38026704.542442322 -17816223.964447021 0 0 0 0 3891187.4066983927 -13169335.711886264 0 -13169335.711886264 -15210111.293921582 0 0 0 0 48848425.099365234 -3600234.4177436829 0 -3600234.4177436829 -23564631.389923096 0 0 0 0 -7736874.497543335 -13740724.23910141 0 -13740724.23910141 -14071555.092645407 0 0 0 0 8767948.5551757812 -1489996.4658889771 0 -1489996.4658889771 2187247.1500778198 0 0 0 0 -5591711.8702392578 -47605374.307907104 0 -47605374.307907104 -22870123.53924942 0 0 0 0 -25344054.191059113 -31472277.085538864 0 -31472277.085538864 -36022188.974029541 0 0 0 0 -70287639.425415039 -102796056.1343689 0 -102796056.1343689 -100498739.06602478 0 0 0 0 99281750.05241394 34092889.888317108 0 34092889.888317108 -60062110.013748169 0 0 0 0 7569150.4149932861 -19418033.740600586 0 -19418033.740600586 -19846562.137817383 0 0 0 0 2830496.8199684322 -13796783.129765697 0 -13796783.129765697 -20408718.806471817 0 0 0 0 -128605975.11736298 65669608.529159546 0 65669608.529159546 11437290.812225342 0 0 0 0 -22662204.261398315 -21602295.627426147 0 -21602295.627426147 -35797072.666796446 0 0 0 0 -2183721.197479045 -10057927.918198757 0 -10057927.918198757 -3304576.1141658202 0 0 0 0 33032680.451858521 -128261876.77157593 0 -128261876.77157593 -98652429.761535645 0 0 0 0 -94477843.593261719 -44200354.544570923 0 -44200354.544570923 14187831.134494781 0 0 0 0 2246830.0492128273 -17135005.90098495 0 -17135005.90098495 -25801911.971612602 0 0 0 0 -4616136.8391178548 -7944223.0147775561 0 -7944223.0147775561 -13785504.985238701 0 0 0 0 -21744354.412538528 -26619580.374108315 0 -26619580.374108315 -78491269.844085693 0 0 0 0 -29272738.031143188 -73019585.32258606 0 -73019585.32258606 -129327055.70469666 0 0 0 0 -1770814.144785203 -2469508.6130713671 0 -2469508.6130713671 -3725495.7059307024 0 0 0 0 -7827828.8307495117 -26010509.682189941 0 -26010509.682189941 -63574560.207307816 0 0 0 0 -34198404.500579834 -51235968.874465942 0 -51235968.874465942 -67289260.29597187 0 0 0 0 -24991209.884975433 -23847720.000529289 0 -23847720.000529289 -63484601.773910522 0 0 0 0 -14749487.351547241 -39515788.660469055 0 -39515788.660469055 -50291762.119773865 0 0 0 0 -9683518.7899780273 -84706248.815727234 0 -84706248.815727234 -105091585.32265472 0 0 0 0 -38266145.585910797 -92695984.759249687 0 -92695984.759249687 -116159543.82301331 0 0 0 0 -19910928.667855263 -69771436.394631386 0 -69771436.394631386 -114725356.91549683 0 0 0 0 -42976901.479263306 -43524243.553588867 0 -43524243.553588867 -50580903.75050354 0 0 0 0 -1715012.6819915771 -42979862.232009888 0 -42979862.232009888 -51125979.414295197 0 0 0 0 -48856950.205127716 -93294917.890040398 0 -93294917.890040398 -58194222.235305786 0 0 0 0 8369416.2745361328 -82436410.416404724 0 -82436410.416404724 -56552019.146327972 0 0 0 0 23806097.300388336 -62925974.637201309 0 -62925974.637201309 -81459018.307846069 0 0 0 0 20406192.395812988 -74671334.665298462 0 -74671334.665298462 -56021813.888473511 0 0 0 0 33222425.816402435 -34747699.671369553 0 -34747699.671369553 -37682129.795303345 0 0 0 0 -21743452.646240234 -60872330.334575653 0 -60872330.334575653 -45116850.477584839 0 0 0 0 -37084416.149597168 -158363602.98160553 0 -158363602.98160553 -64528237.222702026 0 0 0 0 40867360.730239868 -166991292.48791504 0 -166991292.48791504 -63590203.46875 0 0 0 0 -67449126.180603027 -268959561.67546082 0 -268959561.67546082 -157698946.81312847 0 0 0 0 22327057.51751709 -134588865.34020233 0 -134588865.34020233 -104902111.74158096 0 0 0 0 20264060.86690852 -118781117.20130044 0 -118781117.20130044 -75495698.05380249 0 0 0 0 -26267379.14666748 -99210917.902137756 0 -99210917.902137756 -47578919.324659348 0 0 0 0 1406492.3767852783 -122321333.39411926 0 -122321333.39411926 -44121633.104370117 0 0 0 0 -48467802.590698242 -99409533.802261353 0 -99409533.802261353 1525073.525642395 0 0 0 0 -85673176.090438843 -137585295.26221466 0 -137585295.26221466 25404558.59286499 0 0 0 0 -32140018.254821777 -87773779.314033508 0 -87773779.314033508 9450781.2741699219 0 0 0 0 -38265508.383087158 -83702637.311416626 0 -83702637.311416626 6759868.3595123291 0 0 0 0 -21963272.380630493 -43693379.25630188 0 -43693379.25630188 14243388.345199585 0 0 0 0 -9552394.143447876 -81381223.40032196 0 -81381223.40032196 -29846669.331184387 0 0 0 0 -15521244.808929443 -28764320.755653381 0 -28764320.755653381 -21213932.433830261 0 0 0 0 -20755137.3384552 -56920311.482688904 0 -56920311.482688904 -49801067.138122559 0 0 0 0 -23708012.092014313 -51763002.996078491 0 -51763002.996078491 434624.83544921875 0 0 0 0 -19377486.825424194 -25471636.558773041 0 -25471636.558773041 -3431568.1667480469 0 0 0 0 -155476020.29710388 143127340.85859346 0 143127340.85859346 -45257591.185588837 0 0 0 0 214705014.33004761 311214878.90982246 0 311214878.90982246 215368082.14299202 0 0 0 0 15715230.793838501 73400783.730240822 0 73400783.730240822 -38670720.879987717 0 0 0 0 481064829.10321045 -77387200.745664597 0 -77387200.745664597 -100694196.34452736 0 0 0 0 -152244731.98738098 100971383.36638165 0 100971383.36638165 -86357881.24249649 0 0 0 0 136996674.97874641 -154311918.44270718 0 -154311918.44270718 292154855.86217499 0 0 0 0 260658563.80361176 18237150.429085732 0 18237150.429085732 -724545158.24508476 0 0 0 0 -19879544.518652558 -27466279.714518856 0 -27466279.714518856 164724.31060329231 0 0 0 0 -25297170.734558105 -31865768.608707428 0 -31865768.608707428 -10127756.99646759 0 0 0 0 -19725452.950868174 -27882473.965993259 0 -27882473.965993259 2093811.2071727063 0 0 0 0 17542865.146911621 -394549817.43613243 0 -394549817.43613243 -95517308.221569061 0 0 0 0 -34797768.183029175 -28756046.738693237 0 -28756046.738693237 -21079530.310714722 0 0 0 0 173211998.66226196 -65196078.84346962 0 -65196078.84346962 -616421423.03695333 0 0 0 0 -147288321.96632385 -199677611.97678089 0 -199677611.97678089 38325265.991487503 0 0 0 0 29038834.932830811 -144851566.81501961 0 -144851566.81501961 37465598.127078801 0 0 0 0 -150210287.86990356 -298253898.69546318 0 -298253898.69546318 570126325.6751709 0 0 0 0 117298378.92584229 -166974724.29294586 0 -166974724.29294586 -11412707.290883064 0 0 0 0 -15025634.816345215 -320472559.74271011 0 -320472559.74271011 512691978.24974823 0 0 0 0 273770596.33111572 -416127624.08063793 0 -416127624.08063793 508139507.50967407 0 0 0 0 -221647755.25691795 -422697747.94401276 0 -422697747.94401276 1357972469.5362167 0 0 0 0 -208739076.40937424 -316752040.02837265 0 -316752040.02837265 1140550074.2506676 0 0 0 0 132555469.64581299 -663195527.46630478 0 -663195527.46630478 1299477136.2209711 0 0 0 0 -194345875.10836792 -78893872.848867416 0 -78893872.848867416 653807114.25420856 0 0 0 0 -209921626.79928589 -25177133.814880371 0 -25177133.814880371 973079201.87360001 0 0 0 0 -558152798.96572876 -163215356.31225395 0 -163215356.31225395 1367866496.0489445 0 0 0 0 -324848132.75867462 326236987.64950371 0 326236987.64950371 1243955946.7875214 0 0 0 0 -933119220.96199036 434330433.94484901 0 434330433.94484901 2212554507.8532333 0 0 0 0 -667046965.15231323 165949672.48483849 0 165949672.48483849 1484544831.4860001 0 0 0 0 -636141559.91018677 34352014.137994766 0 34352014.137994766 1996537645.3378143 0 0 0 0 -1137179831.8438416 181069041.19380951 0 181069041.19380951 1979233651.469903 0 0 0 0 -643039849.58056641 -200579653.54512596 0 -200579653.54512596 2083107492.6633253 0 0 0 0 -419677864.08868408 -522845170.07785034 0 -522845170.07785034 2239176309.7237968 0 0 0 0 -913011595.20266724 -191590137.29737854 0 -191590137.29737854 2372349345.1074677 0 0 0 0 -631703246.92895126 -350216059.43649673 0 -350216059.43649673 3236919192.5662155 0 0 0 0 2003640093.5682983 -567554776.8223114 0 -567554776.8223114 369201579.32330704 0 0 0 0 -359787965.40039062 -922091794.39524269 0 -922091794.39524269 4111237473.603178 0 0 0 0 959757845.63696289 -1907279170.7571106 0 -1907279170.7571106 3031793135.260849 0 0 0 0 667251428.55328369 -1263305684.8328209 0 -1263305684.8328209 1710895939.2720623 0 0 0 0 247397980.41804504 333824792.82851124 0 333824792.82851124 135661583.19903851 0 0 0 0 273364884.26022339 -2736798458.5212154 0 -2736798458.5212154 -1099099411.6683445 0 0 0 0 293376394.60998535 149471990.46812439 0 149471990.46812439 595576382.86878204 0 0 0 0 201999405.20355225 -24814681.823760033 0 -24814681.823760033 287824627.45534134 0 0 0 0 1039004383.3167725 -80227713.065290451 0 -80227713.065290451 251388515.81225395 0 0 0 0 453872720.73512268 -751865715.68453503 0 -751865715.68453503 1049124799.7053795 0 0 0 0 105753320.38499451 -563655979.100945 0 -563655979.100945 1266684597.8311386 0 0 0 0 -226959087.30848694 -103728357.47183132 0 -103728357.47183132 12466087.179790497 0 0 0 0 -123806689.78326416 -42523606.727519035 0 -42523606.727519035 27815801.855045319 0 0 0 0 -87356129.986083984 226408646.91075611 0 226408646.91075611 379801465.35203171 0 0 0 0 -413647678.00152588 -5521656.1678981781 0 -5521656.1678981781 229817231.73851538 0 0 0 0 -295605627.53035736 -434220075.50418377 0 -434220075.50418377 -423453684.27232361 0 0 0 0 5254682.0636130869 -5301410.5216520969 0 -5301410.5216520969 719370.92083006841 0 0 0 0 -719754039.43078613 -230537224.39871883 0 -230537224.39871883 406270058.39199698 0 0 0 0 -93081359.798217773 -92309368.208579063 0 -92309368.208579063 6007137.9498963356 0 0 0 0 6953398.689089641 -8831755.0311132297 0 -8831755.0311132297 130477.98727623795 0 0 0 0 -98024088.476501465 -77781201.7832129 0 -77781201.7832129 -35414334.436161041 0 0 0 0 530530511.04922485 -127394413.30422014 0 -127394413.30422014 73746018.291876137 0 0 0 0 -425922900.96905518 -448344504.13254762 0 -448344504.13254762 -409004833.6933198 0 0 0 0 -464908139.65931702 -430330261.63934487 0 -430330261.63934487 -354986663.57310951 0 0 0 0 -677844080.38201904 -460653915.36468536 0 -460653915.36468536 -255254036.39348888 0 0 0 0 -223786.11823284812 -2804350.9064534828 0 -2804350.9064534828 -807616.31639753282 0 0 0 0 -278507649.14080811 220245895.34068298 0 220245895.34068298 736080089.49262953 0 0 0 0 -559146.93983533978 -140525.83864397742 0 -140525.83864397742 1103062.1143029884 0 0 0 0 -192354322.24309158 101129427.38230681 0 101129427.38230681 365446415.91045094 0 0 0 0 479306791.9859314 -210978168.60032988 0 -210978168.60032988 -343566345.03320885 0 0 0 0 -12862411.932974543 -11878868.794662565 0 -11878868.794662565 6207318.2168299966 0 0 0 0 -793512640.64924622 -1882109290.8340058 0 -1882109290.8340058 -1992493253.134304 0 0 0 0 -478116703.8321228 -1044572098.2231627 0 -1044572098.2231627 -1462213595.0659885 0 0 0 0 -39674731.108947754 -52299308.664327621 0 -52299308.664327621 -25387677.958465576 0 0 0 0 -19553278.270721436 -37682950.075237274 0 -37682950.075237274 -29072151.760150909 0 0 0 0 -56682391.496246338 -22857804.059780121 0 -22857804.059780121 12555973.642089844 0 0 0 0 -107020561.97854614 -63074147.823537827 0 -63074147.823537827 -8516366.8197174072 0 0 0 0 -25039642.79174801 -29138128.079137221 0 -29138128.079137221 10154055.135313496 0 0 0 0 -107881690.23916626 -25163038.597251892 0 -25163038.597251892 15311671.200050831 0 0 0 0 -53197441.385864258 -36931942.307056427 0 -36931942.307056427 -32441761.165784836 0 0 0 0 617347570.71931458 341881082.22647476 0 341881082.22647476 173285362.49405289 0 0 0 0 -732346723.9930954 -470818717.85261917 0 -470818717.85261917 45216289.669002533 0 0 0 0 -1859476243.3319702 -1218330081.2582893 0 -1218330081.2582893 25310189.095233917 0 0 0 0 -580162134.39587402 29426486.270059586 0 29426486.270059586 426639915.51690388 0 0 0 0 -191598000.06030273 1093928530.9710407 0 1093928530.9710407 756433615.27875233 0 0 0 0 -2514533180.7775574 216199479.82898903 0 216199479.82898903 1974453334.4781685 0 0 0 0 -11295215.182220459 -39994986.825325966 0 -39994986.825325966 163590921.54984665 0 0 0 0 -476175191.5980835 97918275.401305676 0 97918275.401305676 618862663.74692154 0 0 0 0 -427191469.16798401 -14614499.523133278 0 -14614499.523133278 353516628.68013 0 0 0 0 -14002119.256175123 -1262384.134916041 0 -1262384.134916041 17013650.64932815 0 0 0 0 -59253486.405441284 -34857940.449965477 0 -34857940.449965477 657484888.68476105 0 0 0 0 16856304.236526489 -57013273.802379131 0 -57013273.802379131 134188125.64608192 0 0 0 0 -33990262.386395141 -29204265.38296137 0 -29204265.38296137 10775509.220605038 0 0 0 0 -19546716.219246671 -30543265.464271832 0 -30543265.464271832 -12557494.345587224 0 0 0 0 -13547385.516891479 -32395725.952812195 0 -32395725.952812195 28391739.181456327 0 0 0 0 -22816567.735070869 -36863620.726298444 0 -36863620.726298444 -1928651.8335753274 0 0 0 0 2817438.1145019531 -43190509.534843445 0 -43190509.534843445 17474556.702366352 0 0 0 0 -81926218.798278809 -3946732.5949277878 0 -3946732.5949277878 -70295358.452196121 0 0 0 0 -55019502.81898576 -39759945.425597362 0 -39759945.425597362 27527565.853614546 0 0 0 0 -142430652.46635437 -2014155.2250413895 0 -2014155.2250413895 -5875216.7212848663 0 0 0 0 -110863103.97543335 -34680946.313976288 0 -34680946.313976288 27918917.8048428 0 0 0 0 -124364797.85214233 225311738.55738831 0 225311738.55738831 188239060.18893909 0 0 0 0 -134410292.16560078 71761329.623951077 0 71761329.623951077 -34420762.585308075 0 0 0 0 -21197554.07994698 -28598816.385856912 0 -28598816.385856912 -875396.32643285813 0 0 0 0 -12957728.64213562 -32575925.919235229 0 -32575925.919235229 1241290.4569180012 0 0 0 0 8708539.7579650879 152024337.37290001 0 152024337.37290001 -336052128.93552405 0 0 0 0 -9354570.986907959 -24772891.370574951 0 -24772891.370574951 11520310.610824585 0 0 0 0 -20072146.457794189 -49027962.222015381 0 -49027962.222015381 26730408.643417358 0 0 0 0 -3250316.8919372559 -56808007.743938446 0 -56808007.743938446 35053012.815246582 0 0 0 0 -15655919.811828613 -45432280.417240143 0 -45432280.417240143 37603296.484558105 0 0 0 0 7179072.1544494629 -46843715.792907715 0 -46843715.792907715 30474964.235969543 0 0 0 0 -13080805.439941406 -37037654.958847046 0 -37037654.958847046 60513446.156166077 0 0 0 0 4176546.4276123047 -60103928.388656616 0 -60103928.388656616 43652977.479202271 0 0 0 0 -1730832.0897900313 -615164.02513387054 0 -615164.02513387054 -101620.44443574548 0 0 0 0 -22902458.444587708 -103951041.0478363 0 -103951041.0478363 15580780.237609863 0 0 0 0 -17157355.669088185 -23947068.170484401 0 -23947068.170484401 -3741809.4513866752 0 0 0 0 15576764.430847168 -30926928.933288574 0 -30926928.933288574 34673400.643768311 0 0 0 0 54887259.423034668 -36682652.482673645 0 -36682652.482673645 -2182945.3821411133 0 0 0 0 -37155678.040985107 -68483171.483657837 0 -68483171.483657837 72453509.159034729 0 0 0 0 -29506198.087524414 -73416397.271781921 0 -73416397.271781921 17611178.574523926 0 0 0 0 -75944319.632659912 -85728998.468978882 0 -85728998.468978882 27244180.142303467 0 0 0 0 42011977.082672119 -24643843.772323608 0 -24643843.772323608 85034094.568099976 0 0 0 0 -61305940.137298584 -24598081.260463715 0 -24598081.260463715 393427.03045654297 0 0 0 0 6220797.0447842777 -616616.79722673073 0 -616616.79722673073 -4964961.766034022 0 0 0 0 -63570880.812217712 14964899.802909851 0 14964899.802909851 -32335875.516204834 0 0 0 0 7922770.354321558 -17526377.72028736 0 -17526377.72028736 -11440600.321664698 0 0 0 0 65822647.866191864 113562253.96930504 0 113562253.96930504 119653531.15237427 0 0 0 0 -99286371.686096191 66900533.798042297 0 66900533.798042297 209356006.96936035 0 0 0 0 9258238.2600631714 -77976501.572008133 0 -77976501.572008133 123038743.7510376 0 0 0 0 -142336272.44254303 -209685391.79167557 0 -209685391.79167557 59451449.116653442 0 0 0 0 -109450478.89833069 -145035182.96057892 0 -145035182.96057892 32794440.96043396 0 0 0 0 -193082889.25274658 -94008308.436782837 0 -94008308.436782837 134451099.10483551 0 0 0 0 -42107147.995018005 -55154998.911502838 0 -55154998.911502838 -52354540.636711121 0 0 0 0 39968906.958724976 -73007214.475250244 0 -73007214.475250244 -154809555.55279541 0 0 0 0 64218956.056060791 -168760021.1608429 0 -168760021.1608429 -108856746.78431702 0 0 0 0 -5008264.7448411193 -1822961.2037069909 0 -1822961.2037069909 -317001.53784453869 0 0 0 0 55133994.514881134 -132369297.79180145 0 -132369297.79180145 -251507197.16793823 0 0 0 0 11802722.873099536 -16881823.091179185 0 -16881823.091179185 -14027094.440093085 0 0 0 0 41781522.298760414 -58336152.018783569 0 -58336152.018783569 -220403826.91073608 0 0 0 0 -119303462.22564697 116370456.809021 0 116370456.809021 -559739803.87481689 0 0 0 0 33940013.425628662 -18007445.740539551 0 -18007445.740539551 -115400354.13804626 0 0 0 0 -402193208.42695999 -106586078.29598618 0 -106586078.29598618 265191376.62693787 0 0 0 0 -61476693.944040298 50657384.046499252 0 50657384.046499252 -93195934.54776001 0 0 0 0 -20328939.301467896 -27141131.319965363 0 -27141131.319965363 -44391792.417129517 0 0 0 0 -18273390.21792984 -8107586.8834533691 0 -8107586.8834533691 20364355.280761719 0 0 0 0 -35963715.648052216 -41759070.093833923 0 -41759070.093833923 10039276.738235474 0 0 0 0 -30293516.926773071 -51077199.645385742 0 -51077199.645385742 11449543.460010529 0 0 0 0 -21808498.398376465 -47191219.93712616 0 -47191219.93712616 6357528.2012176514 0 0 0 0 -19365318.528438609 -10907544.70070567 0 -10907544.70070567 241406.83302333951 0 0 0 0 -131384173.62972641 -28134175.934127808 0 -28134175.934127808 45194219.043197632 0 0 0 0 -16831433.460536003 -66749030.46689415 0 -66749030.46689415 -99668474.822723389 0 0 0 0 24707940.956542969 -57108820.910079956 0 -57108820.910079956 33086529.911682129 0 0 0 0 -23718669.086420126 -22557891.890638255 0 -22557891.890638255 4285938.0450633392 0 0 0 0 18870372.45451355 -62547179.677867889 0 -62547179.677867889 31743604.384155273 0 0 0 0 -23028171.05803299 -60181861.296455383 0 -60181861.296455383 57159060.55657959 0 0 0 0 -1550009.9122135192 -2586477.3453041166 0 -2586477.3453041166 1461273.3937228322 0 0 0 0 -19447254.885520935 -80094419.573482513 0 -80094419.573482513 -67876856.288024902 0 0 0 0 -28884269.435005188 -43663179.409576416 0 -43663179.409576416 8374195.3675079346 0 0 0 0 -12491168.923552521 -13245023.032014649 0 -13245023.032014649 -12279715.098976739 0 0 0 0 -55528457.317127228 -19510506.975379944 0 -19510506.975379944 52327688.426616669 0 0 0 0 -39866809.678924561 -49051485.333488464 0 -49051485.333488464 -3562334.4167938232 0 0 0 0 1233322.3995742798 -121211326.73226166 0 -121211326.73226166 -184632479.00428009 0 0 0 0 -85457631.948917389 -8210527.0888748169 0 -8210527.0888748169 -1281474.0073242188 0 0 0 0 -5176804.6104269475 -3925593.6264053434 0 -3925593.6264053434 -6605179.0268728733 0 0 0 0 4929827.4996871948 -1699556.4785270691 0 -1699556.4785270691 -19317793.086364746 0 0 0 0 -57765710.563728333 8446042.2104492188 0 8446042.2104492188 -7040797.5448989868 0 0 0 0 -46804219.597488403 8845832.2476425171 0 8845832.2476425171 -8688448.1643981934 0 0 0 0 175781.85977241769 -138131.96490538865 0 -138131.96490538865 -287631.92173264921 0 0 0 0 -119179796.07804871 -62388100.901855469 0 -62388100.901855469 -35671994.172709465 0 0 0 0 -126552351.16365051 -92007201.07396698 0 -92007201.07396698 -38400652.369476318 0 0 0 0 -81791756.489055634 -33176580.927993774 0 -33176580.927993774 10768450.714309692 0 0 0 0 -190367547.40885162 -48516325.30002594 0 -48516325.30002594 11841474.240203857 0 0 0 0 -50512602.734344482 -29219420.074249268 0 -29219420.074249268 -10089689.379150391 0 0 0 0 -50151739.195530891 -3260218.5076541901 0 -3260218.5076541901 -4726137.254486084 0 0 0 0 -93666115.904937744 -20139517.405014038 0 -20139517.405014038 4612962.0647315979 0 0 0 0 -92509660.59469223 8995275.8729553223 0 8995275.8729553223 23987460.10848999 0 0 0 0 -74838339.707435608 -4250820.3070220947 0 -4250820.3070220947 -4491609.1098241806 0 0 0 0 -26452871.262657166 -119779258.04592896 0 -119779258.04592896 -20143229.347160339 0 0 0 0 -314541902.2648468 2650388.595703125 0 2650388.595703125 40549132.776805878 0 0 0 0 -281661373.55886936 -206061110.43686485 0 -206061110.43686485 -49118304.673583984 0 0 0 0 -338167438.55517197 212824498.22854042 0 212824498.22854042 169863929.46162415 0 0 0 0 -418298041.33086395 -148712697.69046021 0 -148712697.69046021 -104109399.71725464 0 0 0 0 -1512346.6246903092 -955870.74485365301 0 -955870.74485365301 -1993762.3620680608 0 0 0 0 -89907423.922046661 76369900.790676117 0 76369900.790676117 44686833.902770996 0 0 0 0 -112754487.68395996 -328580272.08999634 0 -328580272.08999634 -489880302.77090454 0 0 0 0 -2203632.6653289795 -85386513.026412964 0 -85386513.026412964 -342207463.10186768 0 0 0 0 -117443965.20913696 -169062911.18486023 0 -169062911.18486023 -5244519.4419555664 0 0 0 0 26369589.891235352 -33641071.563095093 0 -33641071.563095093 53141515.487045288 0 0 0 0 36945274.656000137 294955877.50047684 0 294955877.50047684 1535998.3832244873 0 0 0 0 -5648420.0026431307 -8633979.829350926 0 -8633979.829350926 -15614531.774848625 0 0 0 0 144520417.97814941 -2479215.4654083252 0 -2479215.4654083252 -30758662.796783447 0 0 0 0 -5660792.2565056235 -9484053.0658691004 0 -9484053.0658691004 -10973999.565987743 0 0 0 0 -29755915.850692749 85654290.10383606 0 85654290.10383606 -3593745.0972061157 0 0 0 0 -34842364.340026185 -32701222.061845727 0 -32701222.061845727 13900187.193803174 0 0 0 0 -40761685.300804138 -72649912.100492597 0 -72649912.100492597 -3927970.7379994392 0 0 0 0 -29116751.091499329 -23745307.168418884 0 -23745307.168418884 -47628043.992355347 0 0 0 0 26877294.250793457 -47833624.496002197 0 -47833624.496002197 443615313.3638916 0 0 0 0 -13338515.886987533 -24099177.139289707 0 -24099177.139289707 -43601047.173595876 0 0 0 0 -67669969.149108887 -80706808.444852352 0 -80706808.444852352 120373717.28798103 0 0 0 0 -19394744.493057251 -80892190.88589716 0 -80892190.88589716 -53094738.173066139 0 0 0 0 -21150408.739982605 -73870002.755370855 0 -73870002.755370855 -6335558.4373207092 0 0 0 0 -18329451.988677979 -78170460.069591522 0 -78170460.069591522 -83246694.103405237 0 0 0 0 -14736519.174682617 -116505670.1571312 0 -116505670.1571312 6304798.087928772 0 0 0 0 -19484598.428543091 -95424003.697990894 0 -95424003.697990894 1190339.7859039307 0 0 0 0 -1072362.4409179688 -124353389.79735851 0 -124353389.79735851 -78438138.403856277 0 0 0 0 -38806481.069152832 -161888112.61452103 0 -161888112.61452103 19481573.549757004 0 0 0 0 -39373773.707660079 -45302115.211463854 0 -45302115.211463854 -15628059.509092571 0 0 0 0 -50127032.215423584 -101756508.68243766 0 -101756508.68243766 159853224.20138931 0 0 0 0 -38482028.968963623 -91414952.745954514 0 -91414952.745954514 53875933.381153107 0 0 0 0 -121136053.48437881 -120927558.85174561 0 -120927558.85174561 178203695.33988953 0 0 0 0 2005033.6043395996 -120614324.55924129 0 -120614324.55924129 6716191.6335761547 0 0 0 0 3539901.2583312988 -101853128.92696953 0 -101853128.92696953 2876949.2614984512 0 0 0 0 -879053.0997486636 -2239183.5052393973 0 -2239183.5052393973 -4790615.7670106264 0 0 0 0 -80650875.079437256 -181738138.83948231 0 -181738138.83948231 137989215.17317152 0 0 0 0 -13899347.79486084 -205641567.28567696 0 -205641567.28567696 -29260531.097885132 0 0 0 0 -42587395.831430212 -42184151.227716781 0 -42184151.227716781 -8675407.1587609891 0 0 0 0 -74314589.757446289 10298165.65651226 0 10298165.65651226 298136136.14397371 0 0 0 0 -173569350.16238403 -80260789.255340576 0 -80260789.255340576 384352074.88788748 0 0 0 0 -63546540.322875977 -72647622.907619476 0 -72647622.907619476 45720747.360458374 0 0 0 0 79071754.573638916 -215956598.96386814 0 -215956598.96386814 -640627483.67618752 0 0 0 0 -103990238.18386841 -443637452.5485096 0 -443637452.5485096 -73714111.484664917 0 0 0 0 -231563944.41687012 -386494595.8783493 0 -386494595.8783493 -83634804.692907572 0 0 0 0 -210503343.46841431 -264336477.95374489 0 -264336477.95374489 -520867159.3645134 0 0 0 0 -19891914.62411499 -120273656.98509312 0 -120273656.98509312 -100879863.83683872 0 0 0 0 -55973807.226409912 -119701552.72311401 0 -119701552.72311401 -99259199.729602814 0 0 0 0 -12993162.467978433 -5519908.9397553559 0 -5519908.9397553559 957578.45791755873 0 0 0 0 15550960.179611206 -118962224.5744133 0 -118962224.5744133 -220119639.62490654 0 0 0 0 46874641.347290039 -6955388.2896146774 0 -6955388.2896146774 -282285143.60654449 0 0 0 0 -224211953.54450989 280120545.73607159 0 280120545.73607159 -563732059.17421532 0 0 0 0 -4475923.6043313593 -1755644.9568292089 0 -1755644.9568292089 126752.40718294331 0 0 0 0 -625591519.14492798 -101569968.64205647 0 -101569968.64205647 438978683.3017664 0 0 0 0 188993444.19287109 -258894059.62334633 0 -258894059.62334633 -1649560597.7152958 0 0 0 0 -252145230.33093262 65190996.438900635 0 65190996.438900635 76204329.2343629 0 0 0 0 98462588.469604492 12061850.548464894 0 12061850.548464894 -84275910.30062604 0 0 0 0 54116934.205890656 -105301602.1548897 0 -105301602.1548897 258922164.45428991 0 0 0 0 -435416.34759521484 12021003.373867571 0 12021003.373867571 134444162.48303604 0 0 0 0 -20968005.793694705 -9758594.9486895353 0 -9758594.9486895353 3238859.5986826811 0 0 0 0 -64805385.1197052 -57194267.58755362 0 -57194267.58755362 320375484.42890882 0 0 0 0 -9643397.2057037354 -39397421.920166969 0 -39397421.920166969 -78961873.786922455 0 0 0 0 2651493.779083252 -99790557.054611206 0 -99790557.054611206 -84605964.05087471 0 0 0 0 -14487495.877044678 -31150181.653914452 0 -31150181.653914452 -88003910.481527328 0 0 0 0 -11850043.535522461 7360793.7850894928 0 7360793.7850894928 -210445563.91010094 0 0 0 0 -57230144.214385986 -49441051.679676771 0 -49441051.679676771 94937077.65501219 0 0 0 0 -135659595.8215332 -40090321.648576736 0 -40090321.648576736 104789338.17684746 0 0 0 0 -51315448.01159668 -32768539.754831791 0 -32768539.754831791 78072366.391140938 0 0 0 0 -134613629.43771362 -151051016.17897224 0 -151051016.17897224 -25107942.326142311 0 0 0 0 -65194077.327783585 -147833439.4895246 0 -147833439.4895246 23212784.877635002 0 0 0 0 23054491.471450806 -49475739.014230013 0 -49475739.014230013 178097419.56073987 0 0 0 0 -118393900.39253235 -47863517.993554056 0 -47863517.993554056 179392826.71176696 0 0 0 0 39731838.994354248 79728274.794151545 0 79728274.794151545 268510634.88521576 0 0 0 0 28834387.852142334 43124873.078997612 0 43124873.078997612 157095240.85862184 0 0 0 0 99080953.42401123 78032449.243922234 0 78032449.243922234 22647458.817720175 0 0 0 0 -43585689.059921265 151345616.4542954 0 151345616.4542954 369644124.4773097 0 0 0 0 47582194.356018066 -146910166.14655209 0 -146910166.14655209 715066376.44674158 0 0 0 0 61558974.503507614 18002824.281074643 0 18002824.281074643 223578413.95359039 0 0 0 0 273755932.42877197 -220211453.77562714 0 -220211453.77562714 121632591.87702942 0 0 0 0 421719758.25457764 -340122473.18194294 0 -340122473.18194294 405254627.23632717 0 0 0 0 -67557442.856620789 14389338.567857474 0 14389338.567857474 249149267.96268177 0 0 0 0 12119521.423614502 -71432684.643951416 0 -71432684.643951416 413565515.28354836 0 0 0 0 11182843.577789307 -50555112.801418304 0 -50555112.801418304 101701052.05993462 0 0 0 0 -108964418.17492676 -121613716.74225903 0 -121613716.74225903 197061148.46111202 0 0 0 0 143137214.77340698 -256129102.35789871 0 -256129102.35789871 -192365478.69431305 0 0 0 0 161773819.47000122 -360502530.15119505 0 -360502530.15119505 319186369.82380295 0 0 0 0 -58420395.515075684 -567883340.10640335 0 -567883340.10640335 41167583.513217926 0 0 0 0 811130753.67672729 -940832611.8673625 0 -940832611.8673625 207124705.94779968 0 0 0 0 887596696.7315979 -837642567.85313034 0 -837642567.85313034 294703589.65457249 0 0 0 0 268718554.98797607 -317233994.77880096 0 -317233994.77880096 515863066.97173691 0 0 0 0 569693368.71533203 -348793769.51399422 0 -348793769.51399422 -341205297.18925858 0 0 0 0 -2179756.4471446499 -389765.72163365036 0 -389765.72163365036 10035368.34010876 0 0 0 0 971818902.66175842 -1245316967.2611051 0 -1245316967.2611051 434347023.34172058 0 0 0 0 -117582906.26155472 197824947.95338488 0 197824947.95338488 1737335317.5583267 0 0 0 0 1326335841.3046875 -991134361.94799423 0 -991134361.94799423 -115555156.63068676 0 0 0 0 151525364.6363678 -638557152.35867691 0 -638557152.35867691 1869254928.5178342 0 0 0 0 589120471.05348206 206073095.75342846 0 206073095.75342846 -1555360836.349308 0 0 0 0 1539631.8233260214 -659170.6297364682 0 -659170.6297364682 611223.36745691253 0 0 0 0 207990460.9498291 -1068818456.6270676 0 -1068818456.6270676 4671433949.6686983 0 0 0 0 123711792.45776367 -434605814.98214674 0 -434605814.98214674 -757367925.0415535 0 0 0 0 1754225.5359223187 -2140508.4534593914 0 -2140508.4534593914 2009203.5515083531 0 0 0 0 6028953.4419109374 -1820013.3997190422 0 -1820013.3997190422 -164760.27330188733 0 0 0 0 2186010.8402404785 1138266.0737113953 0 1138266.0737113953 -3999032.5979423523 0 0 0 0 -146922888.32901001 -60676593.952771187 0 -60676593.952771187 -218197923.18681049 0 0 0 0 -83622842.580070496 -193849013.76528203 0 -193849013.76528203 -108505470.18587494 0 0 0 0 -105365687.8371582 -221525189.80060577 0 -221525189.80060577 -267447029.93649864 0 0 0 0 11170627.602539733 -6631201.9317380041 0 -6631201.9317380041 2997878.9510879759 0 0 0 0 -136491687.07073975 -196131416.18773496 0 -196131416.18773496 -120798586.30617332 0 0 0 0 -109548321.86679077 -91879505.510759354 0 -91879505.510759354 -112847872.05800533 0 0 0 0 -168354950.07840347 -225411707.61337221 0 -225411707.61337221 -227065862.43774796 0 0 0 0 4649256.924621582 -4937193.2751588821 0 -4937193.2751588821 -1464837.1344032288 0 0 0 0 7397295.0916290283 -5963112.4407901764 0 -5963112.4407901764 -4401080.2689323425 0 0 0 0 1280185.5986779034 -3371668.7326259706 0 -3371668.7326259706 1903404.3333009267 0 0 0 0 122651075.22891235 -418146366.7925694 0 -418146366.7925694 1342073247.659626 0 0 0 0 45901211.833145142 -318029411.34038162 0 -318029411.34038162 1218790955.659359 0 0 0 0 161563211.63895798 -324617498.80793977 0 -324617498.80793977 1217495458.563282 0 0 0 0 422803474.40206909 -180647649.36259079 0 -180647649.36259079 1284898152.339407 0 0 0 0 170408865.91975403 -583319468.58509088 0 -583319468.58509088 1712772679.1166992 0 0 0 0 145696513.10975647 -442878328.74452877 0 -442878328.74452877 954123776.34505081 0 0 0 0 -236990945.72990417 -549602840.21803093 0 -549602840.21803093 1223655154.1545486 0 0 0 0 -248160686.65939331 -400662499.97252274 0 -400662499.97252274 990425001.84961224 0 0 0 0 622025839.87365723 -607613946.72731018 0 -607613946.72731018 408415854.78801346 0 0 0 0 622916993.89865112 -619045386.67723179 0 -619045386.67723179 164183111.54973984 0 0 0 0 -33083400.03278017 -363529191.85674417 0 -363529191.85674417 83295332.412212372 0 0 0 0 1111536595.3134155 -123788151.90462685 0 -123788151.90462685 41995945.789696693 0 0 0 0 1178294347.9320927 -700034094.87046862 0 -700034094.87046862 -64130968.627655029 0 0 0 0 1370720617.2835846 -1126148506.4919825 0 -1126148506.4919825 687522313.85250378 0 0 0 0 995374520.27929688 -796054624.70460701 0 -796054624.70460701 502791673.17911863 0 0 0 0 1374339840.2886164 7589728.2382363174 0 7589728.2382363174 1702173916.7967968 0 0 0 0 -690376.65373615175 -145584.06093455106 0 -145584.06093455106 4317257.3560449192 0 0 0 0 2559564232.3035889 -2475277229.7441411 0 -2475277229.7441411 1532000423.2222271 0 0 0 0 111276201.66210938 407765663.33206511 0 407765663.33206511 285880511.95394325 0 0 0 0 1322366636.3504639 -1075578164.3809071 0 -1075578164.3809071 -43292951.370578766 0 0 0 0 184627363.37728882 -723361698.52054787 0 -723361698.52054787 1220824406.0771408 0 0 0 0 1085363999.3980103 -1947263418.4864035 0 -1947263418.4864035 826433972.06389618 0 0 0 0 3346433185.3651733 -2095193947.6429925 0 -2095193947.6429925 780434577.00965822 0 0 0 0 1626065288.8644867 -1360498869.5928726 0 -1360498869.5928726 1404171455.5472202 0 0 0 0 -3842662067.500061 -167738544.9575524 0 -167738544.9575524 1688912706.4156041 0 0 0 0 -472352.21292117541 -3551580.758844614 0 -3551580.758844614 5004943.110970919 0 0 0 0 -1081830.1047082085 -8204030.250130862 0 -8204030.250130862 9740436.6760384291 0 0 0 0 -164988056.92111206 -316262260.65058708 0 -316262260.65058708 1205199018.5115995 0 0 0 0 2102482366.5043488 -919669017.09607601 0 -919669017.09607601 -257931468.50244904 0 0 0 0 1100466163.6234646 -47444792.727318048 0 -47444792.727318048 -321219077.21862411 0 0 0 0 70985370.748077393 -1705627349.6828785 0 -1705627349.6828785 -123894419.71120894 0 0 0 0 -3107630058.9907703 -478314430.0514105 0 -478314430.0514105 1383992547.9735689 0 0 0 0 83922457.923294067 -1757985969.4264259 0 -1757985969.4264259 -38947482.544250488 0 0 0 0 -591610.62554248981 -10161133.974396713 0 -10161133.974396713 5617476.3792669326 0 0 0 0 -433976401.42428589 -80982353.690598488 0 -80982353.690598488 -7374689.4589538574 0 0 0 0 -327129351.295578 17247586.191015244 0 17247586.191015244 232018088.90257645 0 0 0 0 -108137627.64251709 184251985.57923508 0 184251985.57923508 188695615.01338577 0 0 0 0 475227631.50665283 205294091.43330574 0 205294091.43330574 6707578.7262248993 0 0 0 0 -2674540.5875583589 -2720324.6886107437 0 -2720324.6886107437 2226472.3436912918 0 0 0 0 2400207977.2091599 -1473482607.9146156 0 -1473482607.9146156 894262730.30535126 0 0 0 0 107820225.17819214 -1521389167.1567917 0 -1521389167.1567917 -2920257696.3646855 0 0 0 0 440100799.91711426 -2167160806.5166054 0 -2167160806.5166054 -29556173.183158875 0 0 0 0 -304659054.10824585 -2266475122.5006018 0 -2266475122.5006018 -32049271.862125628 0 0 0 0 1962944016.4282532 737886312.95973349 0 737886312.95973349 1866754004.0987244 0 0 0 0 -225298641.56525421 -2974121653.3117485 0 -2974121653.3117485 3187234941.3807001 0 0 0 0 -409939334.94163513 -423771269.43872607 0 -423771269.43872607 1481641201.5096252 0 0 0 0 -411906767.84693909 -593221586.12139726 0 -593221586.12139726 -357954958.6946063 0 0 0 0 -1455217419.9564819 834117097.67119193 0 834117097.67119193 347046660.76179981 0 0 0 0 1467788998.2870941 -321182750.28008103 0 -321182750.28008103 292245374.33150864 0 0 0 0 67074376.671600342 -88975925.238935113 0 -88975925.238935113 515793024.27759027 0 0 0 0 349810254.86486816 -341033457.16915488 0 -341033457.16915488 544282692.24720478 0 0 0 0 688085046.58944702 -438624038.89083338 0 -438624038.89083338 511205887.25859964 0 0 0 0 63043555.717208862 -607505135.55380595 0 -607505135.55380595 794060715.46867323 0 0 0 0 9139682.0119934082 -575472516.11341989 0 -575472516.11341989 797954848.05953491 0 0 0 0 -913073009.74310303 -720282579.93511736 0 -720282579.93511736 1143542321.3924193 0 0 0 0 -459375858.90707397 -868534324.21954238 0 -868534324.21954238 1171117937.7561731 0 0 0 0 -421742870.01716614 -235528933.12275517 0 -235528933.12275517 775204136.96174097 0 0 0 0 -208467522.9446106 -358057337.77589214 0 -358057337.77589214 741691489.32693911 0 0 0 0 -576745569.95056152 -1338190893.0743437 0 -1338190893.0743437 2107511553.1739144 0 0 0 0 1760698410.09021 -2710914950.3458147 0 -2710914950.3458147 1847139491.8169999 0 0 0 0 1260122959.2568359 -1638354519.3925109 0 -1638354519.3925109 1288764039.0458612 0 0 0 0 129910981.92204285 277056430.14243615 0 277056430.14243615 1192672602.5511971 0 0 0 0 963921589.16439056 -1259521935.240947 0 -1259521935.240947 782080851.10737228 0 0 0 0 -2237729.5222944394 -645643.04930259287 0 -645643.04930259287 8821835.8333301339 0 0 0 0 545551014.05873108 -1170979737.4028141 0 -1170979737.4028141 561584581.0802753 0 0 0 0 -6173754.6282348633 -563321692.78262854 0 -563321692.78262854 -43478949.058264732 0 0 0 0 -857972.42677524686 -430674.37015262246 0 -430674.37015262246 3178508.933582739 0 0 0 0 2122505884.2788277 -2390817539.3255239 0 -2390817539.3255239 1073095722.274598 0 0 0 0 -1567266706.0407715 415277682.15971893 0 415277682.15971893 542046370.66795731 0 0 0 0 383038831.57171631 -542790697.49316061 0 -542790697.49316061 1157827350.130434 0 0 0 0 1142096863.2320862 -549547255.55854845 0 -549547255.55854845 830064728.12224007 0 0 0 0 -330419211.18103027 -222138406.88361073 0 -222138406.88361073 1144863709.7361693 0 0 0 0 55923702.32118988 -127343096.82259583 0 -127343096.82259583 263829886.59882689 0 0 0 0 -268245444.16836548 225455822.26156959 0 225455822.26156959 449878813.8418926 0 0 0 0 -232417309.35195541 -430373919.91422677 0 -430373919.91422677 -666868958.86445594 0 0 0 0 -169019682.1930542 37312965.581351995 0 37312965.581351995 143761037.32947111 0 0 0 0 -236607078.65893292 -1759787233.0772657 0 -1759787233.0772657 1793200069.8548565 0 0 0 0 -87596078.539306641 115014111.11395173 0 115014111.11395173 393849019.23115754 0 0 0 0 -251674907.36218262 -389434932.03660512 0 -389434932.03660512 1548598705.3765078 0 0 0 0 -798313492.23651123 -754237757.62604213 0 -754237757.62604213 1394292375.49178 0 0 0 0 -167012689.67831421 -436339232.64972156 0 -436339232.64972156 1392782408.6555541 0 0 0 0 152364732.10827637 -329099502.98513985 0 -329099502.98513985 1462547126.000277 0 0 0 0 219016831.15561676 -56911432.764908552 0 -56911432.764908552 2300148326.1116238 0 0 0 0 383142278.19395447 -694468791.26382685 0 -694468791.26382685 897500395.72151995 0 0 0 0 -203860486.9680481 -737217199.23089218 0 -737217199.23089218 1761782487.0497897 0 0 0 0 333317550.58935547 -839952525.49487877 0 -839952525.49487877 916726358.26828766 0 0 0 0 -238932349.09838104 -987635557.90888655 0 -987635557.90888655 875256697.49162769 0 0 0 0 -326303956.66304016 -423713936.94547617 0 -423713936.94547617 968384904.93244648 0 0 0 0 -804790046.61077881 400568198.18280792 0 400568198.18280792 -21524660.183613539 0 0 0 0 1124477594.0371704 -732698455.03761959 0 -732698455.03761959 356980260.01570535 0 0 0 0 508972478.72621155 -373951930.89977407 0 -373951930.89977407 550086636.84262621 0 0 0 0 716693286.47662354 -1360905566.0952849 0 -1360905566.0952849 2038869418.6575518 0 0 0 0 -239890658.95826721 -778190174.20114541 0 -778190174.20114541 4896244436.8444099 0 0 0 0 1260693114.6202393 -2237411110.1338706 0 -2237411110.1338706 2128963419.4994097 0 0 0 0 2032965.4363253564 -1781350.7332535461 0 -1781350.7332535461 460252.47396734951 0 0 0 0 1040406888.1081562 -1100862689.4743373 0 -1100862689.4743373 -1323635236.8049293 0 0 0 0 1147771.7202035785 -2937492.1012454629 0 -2937492.1012454629 3891965.7159355246 0 0 0 0 131603808.51560211 -3122677191.6976185 0 -3122677191.6976185 1025389125.2437987 0 0 0 0 -640213939.6088829 846143196.56356692 0 846143196.56356692 2058935453.6657867 0 0 0 0 -617875063.02410889 669587800.46205711 0 669587800.46205711 3426590571.1598806 0 0 0 0 -613823761.74737549 124018865.84756088 0 124018865.84756088 225750054.89764383 0 0 0 0 -1179403113.1903229 46941865.341094017 0 46941865.341094017 2182365417.7604599 0 0 0 0 2086077.0261997581 -5894677.2945858315 0 -5894677.2945858315 7760632.4210053682 0 0 0 0 -1583563422.1115875 -1544398193.4057236 0 -1544398193.4057236 191870511.94293991 0 0 0 0 -1452834606.508091 -886607194.17578042 0 -886607194.17578042 341143514.75658035 0 0 0 0 -333388296.66204834 -498589905.6984024 0 -498589905.6984024 267474335.74531394 0 0 0 0 -697186545.54135513 23529192.584646046 0 23529192.584646046 1355341077.234314 0 0 0 0 -588591771.98443604 -1118934680.8609047 0 -1118934680.8609047 2452610367.8169246 0 0 0 0 186298297.32731628 -600789243.71182513 0 -600789243.71182513 1254143638.1737361 0 0 0 0 -561313701.4437027 42730607.456383586 0 42730607.456383586 804965500.25476789 0 0 0 0 543519640.11968994 -286668630.69838238 0 -286668630.69838238 235473105.30124235 0 0 0 0 690558830.01294708 -457216964.16752279 0 -457216964.16752279 522730105.2473731 0 0 0 0 459412016.69122314 -413603830.85724974 0 -413603830.85724974 519787505.62176895 0 0 0 0 163993253.87406921 -484690762.48110646 0 -484690762.48110646 727161901.6558218 0 0 0 0 465452392.58171082 -735118325.71607637 0 -735118325.71607637 920033456.63327599 0 0 0 0 820125885.11656952 -1166182623.2181313 0 -1166182623.2181313 1133735235.0416584 0 0 0 0 624495850.68861389 -903969521.15656376 0 -903969521.15656376 789914768.52944088 0 0 0 0 222380635.13179016 -1315205056.4325848 0 -1315205056.4325848 1648608251.367034 0 0 0 0 -211942270.12902069 -1155998486.7713597 0 -1155998486.7713597 1754886511.7021804 0 0 0 0 2374251940.8894978 -1731014816.2798481 0 -1731014816.2798481 987649375.83582401 0 0 0 0 493939972.27828979 -2103778173.2178731 0 -2103778173.2178731 2968797226.4188218 0 0 0 0 -289197957.47575378 294996118.05495548 0 294996118.05495548 3090031293.814827 0 0 0 0 75108214.6929245 -313490406.68517303 0 -313490406.68517303 325549747.44145679 0 0 0 0 -8858276.8411905169 -6461366.2221126705 0 -6461366.2221126705 7001189.7337508351 0 0 0 0 1179764.6303136349 -5049802.2618334368 0 -5049802.2618334368 4335717.767350398 0 0 0 0 109652301.43148804 -560558718.5075736 0 -560558718.5075736 -310204758.47442472 0 0 0 0 -5129542.0228666365 -3611179.5667971573 0 -3611179.5667971573 3085377.5203832821 0 0 0 0 -296536803.5236969 -256812573.81393981 0 -256812573.81393981 1287687222.86234 0 0 0 0 -267863049.10137939 -1389005893.364387 0 -1389005893.364387 1697091259.0990849 0 0 0 0 -182616508.13796997 -1273773510.7143252 0 -1273773510.7143252 1181007463.5649755 0 0 0 0 -558738869.59812927 -786751928.90766478 0 -786751928.90766478 1307585210.322504 0 0 0 0 -437955461.22735596 -1445293478.2668738 0 -1445293478.2668738 1696675545.0435257 0 0 0 0 -285082751.88947678 -1930673738.141187 0 -1930673738.141187 3237506122.6065187 0 0 0 0 785580015.11604309 -700665111.94240665 0 -700665111.94240665 1288747804.7526326 0 0 0 0 649256709.84649658 -2024315218.1968942 0 -2024315218.1968942 1686192981.6724195 0 0 0 0 -144821033.55123901 -1362205254.1336288 0 -1362205254.1336288 839392310.86162376 0 0 0 0 32115618.440635681 -1037640562.1479921 0 -1037640562.1479921 709141698.28170586 0 0 0 0 -146683277.16327667 -214077872.83034217 0 -214077872.83034217 -305107035.24695587 0 0 0 0 115074742.43554688 -1349147162.2075768 0 -1349147162.2075768 334779044.69592381 0 0 0 0 -63051151.41321373 -487711651.47013551 0 -487711651.47013551 -68698715.409537315 0 0 0 0 -188957006.83764648 -1097060391.7075419 0 -1097060391.7075419 -676185866.35166407 0 0 0 0 -344310471.77076721 -99178956.272485971 0 -99178956.272485971 -1274988844.5318279 0 0 0 0 248624971.89280701 -657737739.14627028 0 -657737739.14627028 -1477968672.2564592 0 0 0 0 -2527302.8730501384 -1928319.9123468106 0 -1928319.9123468106 974496.77485942899 0 0 0 0 -649369414.94546509 -330302834.99185371 0 -330302834.99185371 -1198177794.0430887 0 0 0 0 -666914447.20455933 -1253016515.9990814 0 -1253016515.9990814 -1625649533.4612465 0 0 0 0 317186543.37762451 -589532190.54138041 0 -589532190.54138041 -3239119958.6788821 0 0 0 0 -715634.0039511323 -299747.21984513756 0 -299747.21984513756 35644.9828316126 0 0 0 0 -635163352.42578125 -155397040.52307954 0 -155397040.52307954 766991729.9819088 0 0 0 0 -84480307.559577942 -255270638.20075941 0 -255270638.20075941 -1141329878.022728 0 0 0 0 -583433799.5942688 -849810624.06119061 0 -849810624.06119061 93768712.860297203 0 0 0 0 210218.32740783691 -740766522.29731369 0 -740766522.29731369 -938854626.04611015 0 0 0 0 73253041.124984741 -276469333.00126553 0 -276469333.00126553 404221222.50028849 0 0 0 0 -742167.11544799805 -1057037384.6052809 0 -1057037384.6052809 1295764893.9020405 0 0 0 0 137916087.53288269 -547453426.72868156 0 -547453426.72868156 1838982744.1434002 0 0 0 0 770284.63496398926 -997226067.95933437 0 -997226067.95933437 2115447775.3730507 0 0 0 0 218100037.14338684 -828529729.28784561 0 -828529729.28784561 2222733380.7896156 0 0 0 0 -106130831.89645767 -1002042792.7860655 0 -1002042792.7860655 2454895770.7435265 0 0 0 0 678833928.5559597 -1665825673.4998746 0 -1665825673.4998746 1887587735.4932175 0 0 0 0 669867387.09727478 -1882531239.3007674 0 -1882531239.3007674 -1353727697.4771938 0 0 0 0 -773180062.81838226 -25266752.111386538 0 -25266752.111386538 4058445932.5458832 0 0 0 0 1160241.62571536 -2896228.0217942297 0 -2896228.0217942297 3772326.0078672366 0 0 0 0 648588863.86485291 -1483008581.0925598 0 -1483008581.0925598 2358826942.1263437 0 0 0 0 1982563068.2501373 -1003656235.9071627 0 -1003656235.9071627 724677671.90775871 0 0 0 0 -1619620919.3060682 -326501119.22208214 0 -326501119.22208214 1800135482.6853256 0 0 0 0 -152152810.12057495 -321444886.83287048 0 -321444886.83287048 2589870198.3562012 0 0 0 0 -495368356.12438965 349400737.78134155 0 349400737.78134155 1297904614.7585325 0 0 0 0 -239152822.49118042 -186315849.10221767 0 -186315849.10221767 5232095986.5477219 0 0 0 0 28292332.943634033 -1216812729.7957306 0 -1216812729.7957306 4333786609.892437 0 0 0 0 1463049004.1747437 545475883.24639511 0 545475883.24639511 3331689617.6256156 0 0 0 0 -504094.41743469238 -423866993.08946037 0 -423866993.08946037 3260072000.7958126 0 0 0 0 94001258.597381592 -1089248041.8681831 0 -1089248041.8681831 2469860879.3472748 0 0 0 0 679521081.3904953 -472419569.45768547 0 -472419569.45768547 2283861148.7522984 0 0 0 0 -25173135.533172607 -45654162.528717041 0 -45654162.528717041 -124388436.78919649 0 0 0 0 -26471377.30645752 -34073019.77955246 0 -34073019.77955246 -105750686.64104462 0 0 0 0 22447996.906066895 -38747568.254318237 0 -38747568.254318237 -105643556.04341209 0 0 0 0 -70485091.434906006 -26452610.882678986 0 -26452610.882678986 -83445392.246013641 0 0 0 0 -72642472.241752625 -36152856.259595871 0 -36152856.259595871 -126707573.79705811 0 0 0 0 -97887529.711090088 -4607205.1978263855 0 -4607205.1978263855 -113808161.06645203 0 0 0 0 -63831908.942100525 -19739965.935302734 0 -19739965.935302734 -117035547.52654266 0 0 0 0 -56572557.673919678 -14791026.394668579 0 -14791026.394668579 -121216398.78882599 0 0 0 0 -25631811.562287331 -5794990.7028022707 0 -5794990.7028022707 -118690651.00263977 0 0 0 0 -84419695.711761475 -17124427.936248779 0 -17124427.936248779 -115513478.82599258 0 0 0 0 -170603367.65403557 -35618960.135978699 0 -35618960.135978699 126132136.48216248 0 0 0 0 -50003704.317135274 -41354244.815580912 0 -41354244.815580912 12814264.102040192 0 0 0 0 -56164800.442596436 -19424657.568748474 0 -19424657.568748474 -117436370.47659302 0 0 0 0 -127583326.85882381 -35068481.336265564 0 -35068481.336265564 80656841.831092834 0 0 0 0 -183986010.44519502 48864656.649917603 0 48864656.649917603 50490827.410369873 0 0 0 0 -239672842.29331589 -17906573.609024048 0 -17906573.609024048 121943195.43640137 0 0 0 0 -317018266.72929764 -40022214.274185181 0 -40022214.274185181 124597882.04428291 0 0 0 0 -290413059.07776165 -73013168.70526886 0 -73013168.70526886 58479518.311080933 0 0 0 0 -304802547.49893761 -81338649.404968262 0 -81338649.404968262 86683031.418304443 0 0 0 0 68093655.526832342 -46359613.633713722 0 -46359613.633713722 8884184.6620330811 0 0 0 0 -204286306.31685638 -210213126.49263 0 -210213126.49263 -6277762.7145690918 0 0 0 0 -103534737.53346252 -40367810.529510498 0 -40367810.529510498 93533747.208686829 0 0 0 0 38392919.45243454 -153365947.14888 0 -153365947.14888 6126300.8262329102 0 0 0 0 -64086277.78036499 -50422050.044021606 0 -50422050.044021606 -124503347.49248409 0 0 0 0 -43803495.866363525 -17707948.322265625 0 -17707948.322265625 -120981714.99331665 0 0 0 0 -42302467.225661874 -42733078.145746022 0 -42733078.145746022 20901541.499890421 0 0 0 0 3724831.6546783447 -59518085.056331635 0 -59518085.056331635 -174823019.78725433 0 0 0 0 9635407.7448114529 -43297026.014788546 0 -43297026.014788546 2250319.9837024957 0 0 0 0 -55913042.841663361 -128385600.98413849 0 -128385600.98413849 41407991.945407867 0 0 0 0 -10756005.735153198 -62607532.365585327 0 -62607532.365585327 13251026.60987854 0 0 0 0 -9751653.6258675233 -40916250.727193736 0 -40916250.727193736 17121243.24741134 0 0 0 0 -10658544.283246771 -29314223.836965755 0 -29314223.836965755 -4058529.2221760508 0 0 0 0 -1945202.5367441177 -197780882.53973258 0 -197780882.53973258 -230888609.45489502 0 0 0 0 12135742.601333618 -24058251.4836483 0 -24058251.4836483 -120242632.96802902 0 0 0 0 18379903.763122559 -43811673.172683716 0 -43811673.172683716 -165219160.46673203 0 0 0 0 -13960523.115394592 -49971318.631774902 0 -49971318.631774902 -69642437.379676819 0 0 0 0 102799307.84043884 -13474420.953968048 0 -13474420.953968048 -62344426.145690918 0 0 0 0 280764999.52930641 -216048723.79321766 0 -216048723.79321766 -76184602.800079346 0 0 0 0 -116872092.33520508 -107462094.52460098 0 -107462094.52460098 -82305775.183849335 0 0 0 0 -128947196.56577301 -203213555.71476936 0 -203213555.71476936 349798778.07433319 0 0 0 0 10728286.986053467 -121323390.9149704 0 -121323390.9149704 291961275.13386917 0 0 0 0 155253898.89027977 118574045.83005953 0 118574045.83005953 184030973.19285583 0 0 0 0 26072620.224609375 -85819542.710838318 0 -85819542.710838318 71193717.86057663 0 0 0 0 -51867302.194061279 -33014390.550170898 0 -33014390.550170898 143708888.15208435 0 0 0 0 -26183351.445877075 16432496.974197388 0 16432496.974197388 -48330823.635971069 0 0 0 0 -97526175.72567749 -26376737.878070831 0 -26376737.878070831 5342689.3100128174 0 0 0 0 -33753479.969261169 -23198679.183171272 0 -23198679.183171272 -951013.14349365234 0 0 0 0 -96745085.922424316 -15213855.6664505 0 -15213855.6664505 48989450.60370636 0 0 0 0 -98993509.873687744 -27757704.028053284 0 -27757704.028053284 -13121053.513185501 0 0 0 0 -303078749.60510254 -257820535.20133209 0 -257820535.20133209 -138997270.91161442 0 0 0 0 -57396560.456756592 -23181724.109697342 0 -23181724.109697342 -88843921.158080578 0 0 0 0 -104711583.99370575 -6159909.0998268127 0 -6159909.0998268127 -24794641.924385071 0 0 0 0 -18103461.357802931 -8978625.0683406889 0 -8978625.0683406889 -4414000.7203714177 0 0 0 0 -108909170.67774963 -2761463.3158073425 0 -2761463.3158073425 -3961642.2146911621 0 0 0 0 -84556376.518318176 -8855695.0900688171 0 -8855695.0900688171 -31173549.489372253 0 0 0 0 -36203936.44148159 -44243196.043339305 0 -44243196.043339305 -23189743.691310879 0 0 0 0 156474135.46791077 -545505781.85109711 0 -545505781.85109711 -340352460.99174309 0 0 0 0 -233100806.01158142 104377537.92572784 0 104377537.92572784 177570645.31762695 0 0 0 0 -352155254.58638382 159619005.66483116 0 159619005.66483116 234515450.3022728 0 0 0 0 -14150103.770952914 -3641864.5739630871 0 -3641864.5739630871 7236246.9468732439 0 0 0 0 76234621.843593597 -77827564.738306046 0 -77827564.738306046 21622859.56334877 0 0 0 0 106011546.0745697 -107133892.3638854 0 -107133892.3638854 2965694.9399690628 0 0 0 0 151975939.14109039 -22223346.013091087 0 -22223346.013091087 -41628998.776337624 0 0 0 0 27506857.845947266 -67161260.625039577 0 -67161260.625039577 2977215.0433540344 0 0 0 0 -17250568.852096558 56235458.57694149 0 56235458.57694149 -41932418.054531097 0 0 0 0 -31474585.749809265 -140085835.70595455 0 -140085835.70595455 -64545270.319723129 0 0 0 0 -39583738.053913981 -47696740.727165692 0 -47696740.727165692 -20036710.544198338 0 0 0 0 -55849973.169845581 -125406534.28620148 0 -125406534.28620148 -22916820.977989197 0 0 0 0 31868501.704988956 -111448811.50999346 0 -111448811.50999346 -82101360.220773697 0 0 0 0 -355485998.60991669 277942486.54028416 0 277942486.54028416 -272021975.25356483 0 0 0 0 -1479107.5530281104 -29470710.73635662 0 -29470710.73635662 -7460901.2501539122 0 0 0 0 29518122.571983337 -140445950.3223772 0 -140445950.3223772 -118478743.01125145 0 0 0 0 -82288052.883415222 -56913910.954909325 0 -56913910.954909325 -3285827.2357902527 0 0 0 0 -112853056.58314514 -16849484.384904861 0 -16849484.384904861 8449111.2073459625 0 0 0 0 -1000978125.1148834 170814225.14775467 0 170814225.14775467 332156420.10119343 0 0 0 0 -835852661.07385254 -917773841.83327866 0 -917773841.83327866 1281215723.0216827 0 0 0 0 -85153549.423938751 -23617835.060760498 0 -23617835.060760498 -14375471.528907776 0 0 0 0 -78200351.502975464 -49611393.127182007 0 -49611393.127182007 -62360196.685281754 0 0 0 0 -108014074.6663208 -21273170.170324326 0 -21273170.170324326 -111513803.68211365 0 0 0 0 -4638982.7357938588 -6807733.0777573334 0 -6807733.0777573334 -7365910.0132092722 0 0 0 0 -98107892.384254456 7707877.2094974518 0 7707877.2094974518 -76741711.290969849 0 0 0 0 -153416340.40841675 -19920265.946311951 0 -19920265.946311951 -32810588.235435486 0 0 0 0 -42858218.18973501 -16673749.385314213 0 -16673749.385314213 11084945.288948635 0 0 0 0 -59806535.684432983 -49477359.246135712 0 -49477359.246135712 -45753555.654323578 0 0 0 0 -145956992.17929077 -47419880.758441925 0 -47419880.758441925 19932108.322891235 0 0 0 0 -34342436.676830404 -29678552.529217824 0 -29678552.529217824 -574988.32381383423 0 0 0 0 -18155166.490982056 -21026113.316618681 0 -21026113.316618681 11604994.944414139 0 0 0 0 -31126066.473333888 -34344949.035322964 0 -34344949.035322964 6838699.4946699692 0 0 0 0 -20916389.817840576 -6539309.0875620842 0 -6539309.0875620842 10325598.883952498 0 0 0 0 -17732260.192502975 -16693129.226635754 0 -16693129.226635754 20836022.322067652 0 0 0 0 -22406098.311851501 -25064468.895247638 0 -25064468.895247638 20878156.34727484 0 0 0 0 -25328369.49679184 -19223060.387830257 0 -19223060.387830257 30773389.160147667 0 0 0 0 -14253446.552203093 -8708297.1138039939 0 -8708297.1138039939 7401081.969458214 0 0 0 0 -36624408.813244909 -61718915.933999844 0 -61718915.933999844 -10899437.541529508 0 0 0 0 -21848249.958465576 -27275752.017703533 0 -27275752.017703533 13823785.88717863 0 0 0 0 93478568.070221424 21910846.647377014 0 21910846.647377014 82684902.686790466 0 0 0 0 -38671813.292358205 -16937492.585071437 0 -16937492.585071437 27555626.607202403 0 0 0 0 -36218747.163648076 -10983942.351800816 0 -10983942.351800816 14512899.644364424 0 0 0 0 -73206614.990486145 -30626357.863792419 0 -30626357.863792419 7886518.3324890137 0 0 0 0 -13176769.68536377 -8850371.7540922165 0 -8850371.7540922165 12251967.344944 0 0 0 0 -39809944.734406903 -30759769.579025269 0 -30759769.579025269 6431036.0275803981 0 0 0 0 -29097466.567461967 -63385023.086502075 0 -63385023.086502075 87268941.508895874 0 0 0 0 -13722282.409624275 -45960650.459420204 0 -45960650.459420204 23850822.916534424 0 0 0 0 -57206163.64475441 -79019301.485237122 0 -79019301.485237122 118427694.75946045 0 0 0 0 -13066581.306716919 -41885395.805995941 0 -41885395.805995941 44891793.42779541 0 0 0 0 -24138547.904800132 -10826636.280292364 0 -10826636.280292364 21239524.148106359 0 0 0 0 -36255976.089960098 34417228.528373718 0 34417228.528373718 123984183.27373815 0 0 0 0 -56789714.235507041 -57237538.628959537 0 -57237538.628959537 33190043.36239624 0 0 0 0 -38251158.084842615 -19083941.916182481 0 -19083941.916182481 15378931.740637997 0 0 0 0 -10534434.226709791 -26889903.84285422 0 -26889903.84285422 6954748.272065727 0 0 0 0 -165968561.22496223 59768419.722915649 0 59768419.722915649 81705783.383598328 0 0 0 0 -7359207.4553119279 -4712926.4752149992 0 -4712926.4752149992 6867228.4254322909 0 0 0 0 -97011979.048940659 26359249.861635208 0 26359249.861635208 63024983.524345398 0 0 0 0 -38837616.953083038 -39597436.735284805 0 -39597436.735284805 82314323.900741577 0 0 0 0 17551023.496706009 8840299.7930831909 0 8840299.7930831909 -31692454.166637421 0 0 0 0 -155581269.64563942 81648024.394397736 0 81648024.394397736 28496957.713539124 0 0 0 0 -155791025.2612133 -24935815.064853668 0 -24935815.064853668 26341328.14440155 0 0 0 0 -254573333.22631359 -206786206.57918549 0 -206786206.57918549 67037713.831832886 0 0 0 0 -51856660.875718117 -372689481.69236755 0 -372689481.69236755 -3144334.5829315186 0 0 0 0 154776711.92986307 -99288085.715101838 0 -99288085.715101838 70302111.354705811 0 0 0 0 -97298820.749799728 -20434121.967315674 0 -20434121.967315674 130008566.83383179 0 0 0 0 -214386677.09880066 -948057.53132629395 0 -948057.53132629395 127778579.38728333 0 0 0 0 92106658.173614502 -149912167.21075821 0 -149912167.21075821 -152599348.10388279 0 0 0 0 -61251763.419799805 -469471493.80929756 0 -469471493.80929756 -5448461.6049251556 0 0 0 0 -121270200.18289185 -439638871.08311462 0 -439638871.08311462 556282827.93518543 0 0 0 0 54570242.290718079 -276478947.06999397 0 -276478947.06999397 35244274.598064423 0 0 0 0 -89873927.938064575 -106140836.24872208 0 -106140836.24872208 32418937.545475006 0 0 0 0 -177959961.99290466 -56144331.678153992 0 -56144331.678153992 9512812.9787130356 0 0 0 0 -149741858.74871826 -152807897.08129692 0 -152807897.08129692 155343436.02451324 0 0 0 0 -411418698.53179169 -27844787.627379417 0 -27844787.627379417 96089521.686969757 0 0 0 0 -35957449.316108704 -80445902.030639648 0 -80445902.030639648 -114385330.68891597 0 0 0 0 -59884474.573158264 -145315426.26579666 0 -145315426.26579666 -107393523.01919937 0 0 0 0 -1408591.9805695899 -17776559.761850778 0 -17776559.761850778 -82834.377824731171 0 0 0 0 76361924.989105225 -221501354.79475021 0 -221501354.79475021 -241809578.32067108 0 0 0 0 89604649.865989685 -59187052.637964249 0 -59187052.637964249 -372109549.78047371 0 0 0 0 88488058.328183174 -132613030.7260952 0 -132613030.7260952 -185855771.8427124 0 0 0 0 595115240.35243988 -457519117.13933563 0 -457519117.13933563 403267389.42670631 0 0 0 0 16566039.374218103 -709329.48086826317 0 -709329.48086826317 -2953759.8100075517 0 0 0 0 336923725.55145454 -427800713.79570389 0 -427800713.79570389 409007933.73812485 0 0 0 0 -39172109.284431458 157397256.97592258 0 157397256.97592258 916862073.26913452 0 0 0 0 7075154.7192792892 -885225.14077758789 0 -885225.14077758789 15523143.09570694 0 0 0 0 -201581201.7907629 -137071586.3536396 0 -137071586.3536396 533762810.07486725 0 0 0 0 1267762.0235251421 -981341.29136245558 0 -981341.29136245558 -685927.23061393946 0 0 0 0 3114494.71162186 -3066727.3763528727 0 -3066727.3763528727 2393324.9900282323 0 0 0 0 153032339.425354 -82255151.449455261 0 -82255151.449455261 -440350201.4896338 0 0 0 0 357525167.49325943 -545135966.09355164 0 -545135966.09355164 213106714.21604156 0 0 0 0 362687766.59450912 -48043471.295146942 0 -48043471.295146942 -162125204.01442671 0 0 0 0 401786065.60627079 206685083.34543741 0 206685083.34543741 291751761.57386017 0 0 0 0 204672323.38384247 -287991946.57677078 0 -287991946.57677078 828336306.35816574 0 0 0 0 -569165154.32042813 -374356744.96010756 0 -374356744.96010756 8194744.8889923096 0 0 0 0 -257479064.02239227 -90773211.565986633 0 -90773211.565986633 -179928758.89474487 0 0 0 0 -305689905.02577209 66208015.532356262 0 66208015.532356262 -623080997.96617699 0 0 0 0 -515303803.23813081 107332788.92521191 0 107332788.92521191 -138417650.22007751 0 0 0 0 -487693373.46999073 37298222.583662033 0 37298222.583662033 37847208.342803955 0 0 0 0 -19062167.289117813 74205412.485572815 0 74205412.485572815 -81700561.963420868 0 0 0 0 -182074883.3325119 33625919.600816727 0 33625919.600816727 20466653.20904541 0 0 0 0 1251302.3780087372 -1649617.3053020295 0 -1649617.3053020295 344066.71490605548 0 0 0 0 -400793475.97874641 46507257.066148758 0 46507257.066148758 384791312.36258698 0 0 0 0 -545988492.30266953 -779121365.49885941 0 -779121365.49885941 144227496.67013931 0 0 0 0 -112113440.5653801 -860512203.31577301 0 -860512203.31577301 -521853785.37017822 0 0 0 0 25676630.641291507 -38432858.835018814 0 -38432858.835018814 43241734.681010745 0 0 0 0 -88277675.001739502 -303461377.61478424 0 -303461377.61478424 -155820344.50930786 0 0 0 0 -10968484.983622551 79551773.518283844 0 79551773.518283844 50882265.488372803 0 0 0 0 340248997.78672791 67149160.061042786 0 67149160.061042786 -215571327.49763489 0 0 0 0 -106135216.24646759 -58179597.295513153 0 -58179597.295513153 -24310629.266601562 0 0 0 0 -80288190.660707474 -113614177.76474762 0 -113614177.76474762 -24220163.775924683 0 0 0 0 -60839767.617996216 -87512204.87537384 0 -87512204.87537384 -2708262.4726409912 0 0 0 0 -30798122.7134552 -86520432.004516602 0 -86520432.004516602 -24693805.80456543 0 0 0 0 19661103.094654664 -36094356.840916075 0 -36094356.840916075 40385171.05118271 0 0 0 0 -55986249.060325623 -84477673.452789307 0 -84477673.452789307 -10990416.039268494 0 0 0 0 106604770.38552856 -145092568.38965607 0 -145092568.38965607 -126855806.9116478 0 0 0 0 -432136913.71369553 -397484617.25709534 0 -397484617.25709534 -139934669.36849976 0 0 0 0 17242939.709534235 -19565384.201694068 0 -19565384.201694068 -11371792.300156847 0 0 0 0 148834283.38958222 -329723630.29847139 0 -329723630.29847139 -22871488.251358032 0 0 0 0 -603989402.28950262 -31705673.663860321 0 -31705673.663860321 34597078.425693512 0 0 0 0 -3905736.2924415721 -1468222.4084721152 0 -1468222.4084721152 2904218.8241222538 0 0 0 0 19211011.904652499 -15785999.66752946 0 -15785999.66752946 -7215065.1574056298 0 0 0 0 -407236564.07747936 -120978877.97829819 0 -120978877.97829819 -29672188.217056274 0 0 0 0 -604305229.34970856 -328328055.62408066 0 -328328055.62408066 -166492087.44927979 0 0 0 0 -24261180.254901886 -70344411.019786835 0 -70344411.019786835 5157219.70262146 0 0 0 0 13036335.227359805 -39321723.812639162 0 -39321723.812639162 21435271.373045772 0 0 0 0 56954966.941427231 -129841180.74390125 0 -129841180.74390125 -78659114.55078125 0 0 0 0 309546707.25369024 5125167.9487123489 0 5125167.9487123489 -133662334.6769104 0 0 0 0 -445278878.07269859 -170029340.33124542 0 -170029340.33124542 99721196.805267334 0 0 0 0 5115743.900845997 -2958451.552252139 0 -2958451.552252139 -1369793.3296907432 0 0 0 0 -412841195.35311651 -67981124.342247009 0 -67981124.342247009 112963378.0231781 0 0 0 0 -67161908.702279449 8081732.2047424316 0 8081732.2047424316 29010690.31237793 0 0 0 0 -406125445.71114635 68340107.019355774 0 68340107.019355774 85178195.794075012 0 0 0 0 -352566306.99551201 -119944217.47986984 0 -119944217.47986984 -53615018.947540283 0 0 0 0 -7940725.525806427 -67448756.77563858 0 -67448756.77563858 -311687.15732574463 0 0 0 0 -6235435.2680892944 -71047132.61542511 0 -71047132.61542511 523424.3258934021 0 0 0 0 -28803305.292655945 -86425141.077262878 0 -86425141.077262878 -9820991.872718811 0 0 0 0 -3177234.6765794754 -90132970.074796677 0 -90132970.074796677 -20097841.433624268 0 0 0 0 -3740073.2992782593 -86126751.465782166 0 -86126751.465782166 -17935939.435661316 0 0 0 0 -29388428.374517441 -98117605.397360802 0 -98117605.397360802 -21930892.872039795 0 0 0 0 2537466.6160583496 -82996918.332695007 0 -82996918.332695007 -41674440.531234741 0 0 0 0 495981.84874725342 -85192753.635871887 0 -85192753.635871887 -15404883.385475159 0 0 0 0 3773693.7599639893 -80866812.793596268 0 -80866812.793596268 -14242448.69178772 0 0 0 0 24656830.602996826 -92351671.769199371 0 -92351671.769199371 -29916041.320602417 0 0 0 0 8873030.38230896 -97021777.551101685 0 -97021777.551101685 -17156753.363334656 0 0 0 0 21249764.327697754 -76146261.19846344 0 -76146261.19846344 -64359294.340774536 0 0 0 0 57847034.690055847 -126759011.19511414 0 -126759011.19511414 -22663648.354400635 0 0 0 0 -1448040.6087417603 -97889579.479831696 0 -97889579.479831696 22995549.13822937 0 0 0 0 -43632.792837359011 -343355.16506206244 0 -343355.16506206244 -541834.51442033798 0 0 0 0 54524158.211250305 -78090096.275993347 0 -78090096.275993347 -117183462.3343811 0 0 0 0 19905269.830387115 -145959340.17964935 0 -145959340.17964935 13180906.747299194 0 0 0 0 -33696103.187692642 -73708075.199151993 0 -73708075.199151993 -96403031.52986145 0 0 0 0 -13344530.004920959 -30739280.373985291 0 -30739280.373985291 -77769811.480205536 0 0 0 0 19607260.051425934 -66931498.957546234 0 -66931498.957546234 -47823328.582077026 0 0 0 0 -15172909.226112366 -36615024.394447327 0 -36615024.394447327 -30306557.129310608 0 0 0 0 7642593.9642181396 -65682532.583023071 0 -65682532.583023071 -19297294.52639389 0 0 0 0 12713040.796691895 -85905947.20482254 0 -85905947.20482254 -32534182.604187012 0 0 0 0 -197071.60840606689 -74981182.204675674 0 -74981182.204675674 -30265180.757080078 0 0 0 0 4446058.4124908447 -54981089.45980072 0 -54981089.45980072 -52657690.273208618 0 0 0 0 195303427.42784119 44302798.132583618 0 44302798.132583618 -100016720.28844833 0 0 0 0 -16483934.096858025 -54424493.053749084 0 -54424493.053749084 -25469867.976577759 0 0 0 0 -46902573.936897278 -49562819.991737366 0 -49562819.991737366 -43013188.716079712 0 0 0 0 -8491753.5341339111 -60909338.307060242 0 -60909338.307060242 -80036462.812912941 0 0 0 0 -14925096.52280426 -66681793.699497223 0 -66681793.699497223 -35368816.88394928 0 0 0 0 -20674728.101055145 -31778056.647720337 0 -31778056.647720337 -70949142.525482178 0 0 0 0 -15017620.587387085 -751463.89458847046 0 -751463.89458847046 -18419655.561470032 0 0 0 0 -17897034.968719482 -56321460.457504272 0 -56321460.457504272 -68556013.867485046 0 0 0 0 -856290.68314967304 -791025.16111601889 0 -791025.16111601889 -1087698.1134338826 0 0 0 0 -420879.44616864249 -1131831.4096470028 0 -1131831.4096470028 -1790467.5841962099 0 0 0 0 -40096989.678871155 -37185503.923751831 0 -37185503.923751831 -55588348.225799561 0 0 0 0 -11253275.728912354 -40012541.181427002 0 -40012541.181427002 -56184664.7293396 0 0 0 0 -48291096.114326477 -37287438.30532074 0 -37287438.30532074 -60574382.947616577 0 0 0 0 -9972535.4046783447 -48615570.695846558 0 -48615570.695846558 -57273057.461174011 0 0 0 0 -31244753.516530037 -76005904.090385437 0 -76005904.090385437 -106891882.30264282 0 0 0 0 -1342629.3921538182 -2365000.6476762369 0 -2365000.6476762369 -3910309.835480839 0 0 0 0 -3401511.0843235776 -3093927.910714604 0 -3093927.910714604 -3661353.1677444428 0 0 0 0 -13964418.133476973 -7722343.3301670551 0 -7722343.3301670551 -52721911.824813843 0 0 0 0 -3068702.6271864325 -4710797.0962566435 0 -4710797.0962566435 -8134560.6765472293 0 0 0 0 -30665478.919359207 -77923828.577142715 0 -77923828.577142715 -91598870.092208862 0 0 0 0 -10534128.579879761 -19630979.282745361 0 -19630979.282745361 -78101721.898105621 0 0 0 0 -26153716.791046143 -69677049.106811523 0 -69677049.106811523 -52259197.925369263 0 0 0 0 -33141424.67364502 -36203336.769546509 0 -36203336.769546509 -67698815.162521362 0 0 0 0 95533343.009109497 -195188072.9361496 0 -195188072.9361496 -269019370.72327423 0 0 0 0 -27209190.876548767 -61077707.254975796 0 -61077707.254975796 -32590410.479718208 0 0 0 0 -37365702.908050537 -56268887.255638123 0 -56268887.255638123 -56815958.162734985 0 0 0 0 -16213130.900146484 -53431091.624611378 0 -53431091.624611378 -44428689.568720818 0 0 0 0 -50530494.855567932 -42517010.25604248 0 -42517010.25604248 -6297755.1874237061 0 0 0 0 -29798766.907512642 -37276091.454356179 0 -37276091.454356179 6639742.4417933784 0 0 0 0 -15029915.270187378 -44189743.976183891 0 -44189743.976183891 -31018651.035326958 0 0 0 0 -23298332.259784698 -29635847.31727469 0 -29635847.31727469 -47193075.456220627 0 0 0 0 -41616983.260723114 -32668087.548549652 0 -32668087.548549652 -2311944.1268615723 0 0 0 0 -24807238.974954329 -38057036.50812833 0 -38057036.50812833 4014648.2971158042 0 0 0 0 -20413013.112579346 -46371743.990105629 0 -46371743.990105629 -28312716.986499786 0 0 0 0 -21050732.800476074 -42696495.252433777 0 -42696495.252433777 -8192123.2975587845 0 0 0 0 -5022080.0134963989 -31467011.443274021 0 -31467011.443274021 -24310514.796988487 0 0 0 0 -20352235.393417358 -32880293.430565834 0 -32880293.430565834 25995425.190126419 0 0 0 0 -4291535.7976989746 -29243851.513866425 0 -29243851.513866425 -210723.15762138367 0 0 0 0 -11136577.975997925 -47096277.143476486 0 -47096277.143476486 14277522.119462967 0 0 0 0 -16531231.180091858 -36585806.6549263 0 -36585806.6549263 36450768.797159195 0 0 0 0 -30162338.538131714 -45692080.511383057 0 -45692080.511383057 -17193305.287193298 0 0 0 0 -4259996.0533599854 -36084512.73087883 0 -36084512.73087883 -15093661.793992996 0 0 0 0 -16086140.047637939 -40920139.927309036 0 -40920139.927309036 1164311.3116760254 0 0 0 0 -17293248.158496857 -48106251.195349693 0 -48106251.195349693 -773161.78984451294 0 0 0 0 -3763188.9551391602 -33761827.647787094 0 -33761827.647787094 4664553.4387779236 0 0 0 0 -7260886.2210540771 -43259050.139192581 0 -43259050.139192581 -322235.3130531311 0 0 0 0 -18701710.23677063 -47344262.784394264 0 -47344262.784394264 5126267.5586032867 0 0 0 0 -27599387.966305792 -16316533.829296768 0 -16316533.829296768 7908269.8179203942 0 0 0 0 -8931075.5390777588 -46760862.852983475 0 -46760862.852983475 -30323685.955926418 0 0 0 0 -10577759.215057373 -33686216.952056885 0 -33686216.952056885 -7395323.8011894226 0 0 0 0 -17071405.470947266 -34868307.854038239 0 -34868307.854038239 -30058510.750058413 0 0 0 0 -18572242.342514038 -32958742.994959354 0 -32958742.994959354 -29684518.172442079 0 0 0 0 -13436816.574790955 -33800715.25444293 0 -33800715.25444293 -48921573.675308704 0 0 0 0 -4043533.2301635742 -52017736.070281982 0 -52017736.070281982 -17843242.441146851 0 0 0 0 -14031042.268760681 -30293902.641639471 0 -30293902.641639471 -42852730.028781891 0 0 0 0 -14799863.054260552 -38625560.017025717 0 -38625560.017025717 8112230.3491349965 0 0 0 0 -6858268.8099021912 -50907821.545757294 0 -50907821.545757294 -9979312.0113067627 0 0 0 0 -21137711.236343384 -41098511.836509705 0 -41098511.836509705 -18057787.597244263 0 0 0 0 -19804095.03340032 -38202365.255411707 0 -38202365.255411707 4432710.31133084 0 0 0 0 -18837788.290100098 -25193098.595044136 0 -25193098.595044136 -43426926.137872607 0 0 0 0 -19113034.80329895 -37899244.027449608 0 -37899244.027449608 -22208920.046604156 0 0 0 0 -21125673.393417358 -27009163.716304779 0 -27009163.716304779 -26536802.775977135 0 0 0 0 -11955702.816299438 -26802976.831273079 0 -26802976.831273079 -17356109.936960697 0 0 0 0 -16812511.27293396 -24342297.747903824 0 -24342297.747903824 12430293.545101166 0 0 0 0 -21023386.377006531 -35916834.473651886 0 -35916834.473651886 2673573.9840278625 0 0 0 0 -11141764.655879073 -21238914.89565485 0 -21238914.89565485 23249325.094756197 0 0 0 0 -230632306.775383 -196527719.93262863 0 -196527719.93262863 -43183352.650932312 0 0 0 0 -21061698.314453125 -38858067.981850624 0 -38858067.981850624 -10594217.642852783 0 0 0 0 -18149318.498458862 -29917887.086138725 0 -29917887.086138725 -4532084.7230262756 0 0 0 0 -181534396.78690338 -390769791.47900391 0 -390769791.47900391 -129821983.873703 0 0 0 0 -12575341.624125019 -23000509.873234015 0 -23000509.873234015 16269536.421410531 0 0 0 0 -254525019.3611908 -96542291.419805527 0 -96542291.419805527 156708432.61489105 0 0 0 0 -150328726.73178101 -91011320.882068634 0 -91011320.882068634 -71510091.238391876 0 0 0 0 -91149843.753707886 -56784601.271791458 0 -56784601.271791458 10814227.896614075 0 0 0 0 -126357281.28985596 -20621777.750429153 0 -20621777.750429153 62563061.242698669 0 0 0 0 -64954482.245056152 -38277701.826728821 0 -38277701.826728821 76873610.06703186 0 0 0 0 -75454033.932220459 -5110932.4092960358 0 -5110932.4092960358 -8988499.7862854004 0 0 0 0 -1443517.7858049199 -844533.75887742639 0 -844533.75887742639 3497927.0543519258 0 0 0 0 -130752021.79052734 -43185414.18038559 0 -43185414.18038559 38757298.399738312 0 0 0 0 -135116186.18390656 -18397107.627686501 0 -18397107.627686501 -38592662.634078979 0 0 0 0 -230830048.93113708 -141144828.54785919 0 -141144828.54785919 9148018.7402787209 0 0 0 0 -215750530.82275391 -25761043.875663757 0 -25761043.875663757 21263401.146896362 0 0 0 0 -150350475.16748047 -53067548.241447449 0 -53067548.241447449 98151539.96326828 0 0 0 0 -182546653.10207319 -79574634.523399949 0 -79574634.523399949 186963541.52935791 0 0 0 0 -181480011.06918335 -62862671.223705292 0 -62862671.223705292 30391207.531608582 0 0 0 0 -11281096.107971191 -31921187.986602783 0 -31921187.986602783 15166014.51329422 0 0 0 0 824928.98713037372 -2341223.8125975467 0 -2341223.8125975467 4041321.2388124056 0 0 0 0 -10454945.47254096 -22773515.427008424 0 -22773515.427008424 23846059.002800666 0 0 0 0 -147150280.04421234 -12747326.769897461 0 -12747326.769897461 41167460.740623474 0 0 0 0 -17015103.61756134 -39502516.114777565 0 -39502516.114777565 29266093.639377594 0 0 0 0 -57586136.539909363 -50609938.265347481 0 -50609938.265347481 89338981.696891785 0 0 0 0 -6505016.2129735127 -9456832.9094812125 0 -9456832.9094812125 11703034.598269572 0 0 0 0 -4093016.2573655397 -18550765.083018959 0 -18550765.083018959 8021882.1085095871 0 0 0 0 5594890.7449188232 -11271361.910274506 0 -11271361.910274506 35286877.869163513 0 0 0 0 -34632698.531328201 14612570.939327002 0 14612570.939327002 19439719.054710388 0 0 0 0 -136920796.00183105 -162756964.86334801 0 -162756964.86334801 -108065901.30569458 0 0 0 0 -327458412.09655762 64720878.561927795 0 64720878.561927795 174934925.74637604 0 0 0 0 202975694.89630127 94096337.425621033 0 94096337.425621033 -9087783.5117492676 0 0 0 0 -1459412.2549299747 -2226904.9692792483 0 -2226904.9692792483 2864862.2907829024 0 0 0 0 -42791550.998779297 -67454910.071910858 0 -67454910.071910858 -28543198.981414795 0 0 0 0 -182325977.275177 -112281906.37108612 0 -112281906.37108612 21712560.865333557 0 0 0 0 -168674131.51506805 -100202648.57352066 0 -100202648.57352066 31183985.668243408 0 0 0 0 -108768414.74283218 25031037.732534409 0 25031037.732534409 38424693.356079102 0 0 0 0 -197667484.47662354 -92320901.938926697 0 -92320901.938926697 35021790.546173096 0 0 0 0 20231733.546783447 -14801056.236162186 0 -14801056.236162186 12854788.536113739 0 0 0 0 6456789.093609862 -7589934.814604789 0 -7589934.814604789 2717294.7467201315 0 0 0 0 27076095.341716766 -36043554.051452637 0 -36043554.051452637 27570851.135391235 0 0 0 0 34798056.784408569 -14483260.88854599 0 -14483260.88854599 -2392360.7645130157 0 0 0 0 39148757.377960205 -356863803.33760452 0 -356863803.33760452 80415418.231426239 0 0 0 0 -51343756.894187927 -81768214.104637146 0 -81768214.104637146 121605255.01093292 0 0 0 0 1982019.299393639 -3455062.0611599237 0 -3455062.0611599237 907448.51648343168 0 0 0 0 234497508.55725098 60814239.924751282 0 60814239.924751282 -329275249.32997131 0 0 0 0 -198237840.88342309 -170534034.36835843 0 -170534034.36835843 -51357790.395523071 0 0 0 0 -327349003.96972656 -187499187.7842865 0 -187499187.7842865 -34568500.634231567 0 0 0 0 217034090.06848145 88490956.776023865 0 88490956.776023865 -105745792.7207489 0 0 0 0 -267607893.62713623 -25199116.709236145 0 -25199116.709236145 29739960.540270805 0 0 0 0 2522697.1990403682 -2356610.4798888676 0 -2356610.4798888676 110958.04579451494 0 0 0 0 302305135.84231567 -179230704.06531143 0 -179230704.06531143 -271898314.99674988 0 0 0 0 -264900363.99389648 -551927149.20713043 0 -551927149.20713043 -410578668.89233398 0 0 0 0 -567097414.2532959 181369722.59337616 0 181369722.59337616 -302483570.44180059 0 0 0 0 -170386843.12487793 -248313286.16724777 0 -248313286.16724777 -330977984.20278931 0 0 0 0 -2486294.6106882468 -2126470.8071150035 0 -2126470.8071150035 4961255.8271950558 0 0 0 0 62198917.423309326 -98384591.369005203 0 -98384591.369005203 -271048126.45323181 0 0 0 0 61425794.9868927 14156805.764032364 0 14156805.764032364 -107958187.18291092 0 0 0 0 -22872688.002159119 -5820841.7987790108 0 -5820841.7987790108 7488454.3442001343 0 0 0 0 -125807392.24707031 -104633692.92178345 0 -104633692.92178345 -46091680.374099731 0 0 0 0 -5098305.710647583 11443503.501319885 0 11443503.501319885 -12475526.714355469 0 0 0 0 -15834881.802200317 12648426.776168823 0 12648426.776168823 244264.82496643066 0 0 0 0 -11535660.161636353 6553287.2720394135 0 6553287.2720394135 8506943.8072814941 0 0 0 0 -15688933.310775757 -16444159.449634552 0 -16444159.449634552 -17624498.671779156 0 0 0 0 -76019877.148345947 -77214442.949487686 0 -77214442.949487686 -8895352.2872772217 0 0 0 0 -129124215.45550537 -115555229.27184296 0 -115555229.27184296 39498254.421646118 0 0 0 0 -171043328.43812561 -127702044.68589401 0 -127702044.68589401 21468191.563903809 0 0 0 0 -131154954.37234497 -106436251.02172089 0 -106436251.02172089 8083025.8172347546 0 0 0 0 -121494813.19529724 -96046374.703166962 0 -96046374.703166962 16676957.361221313 0 0 0 0 -130337642.52679443 -74838889.235729218 0 -74838889.235729218 66831588.006271362 0 0 0 0 26896616.366577148 -92463033.970195293 0 -92463033.970195293 -31682265.492495537 0 0 0 0 -60577839.657745361 -85264154.269348621 0 -85264154.269348621 -24843132.42758894 0 0 0 0 -30057768.248069763 -167314142.91063714 0 -167314142.91063714 -96636459.030677795 0 0 0 0 -80221667.31741333 -94373382.415254354 0 -94373382.415254354 137759433.99468708 0 0 0 0 25375889.06287384 -108561727.57245654 0 -108561727.57245654 133657292.5620091 0 0 0 0 -57921542.548370361 -100452719.78745937 0 -100452719.78745937 309537759.70617235 0 0 0 0 -67305054.68359375 -37777093.004666328 0 -37777093.004666328 81627905.175136626 0 0 0 0 25288779.975189209 -286282312.2854284 0 -286282312.2854284 153033185.67465687 0 0 0 0 105454233.79043579 -75889843.422305107 0 -75889843.422305107 80934230.219231129 0 0 0 0 12506657.173675537 -142742978.7334795 0 -142742978.7334795 -63639439.532881737 0 0 0 0 -79586334.938278198 -113167444.25588226 0 -113167444.25588226 -64427664.480804443 0 0 0 0 5292386.1222956404 -3571876.7638157234 0 -3571876.7638157234 1384731.8897699956 0 0 0 0 85269605.001403809 -62627703.756361008 0 -62627703.756361008 20404328.176874638 0 0 0 0 12644106.071044922 17632494.28901577 0 17632494.28901577 -862947.09412288666 0 0 0 0 163219373.35494232 -99622302.411413431 0 -99622302.411413431 -7255085.4081277847 0 0 0 0 124945933.86682129 511815.27495956421 0 511815.27495956421 -55120488.66308403 0 0 0 0 -1913436.0717769265 -22795714.215500616 0 -22795714.215500616 -5631981.9978193063 0 0 0 0 8089426.3404388428 -27840174.985991478 0 -27840174.985991478 31251592.73282814 0 0 0 0 -23769977.050419465 -11475974.658350755 0 -11475974.658350755 15713634.144527258 0 0 0 0 -145639960.65140915 -268453910.47261596 0 -268453910.47261596 173461424.48911476 0 0 0 0 -7169640.3100450113 -19377366.566443708 0 -19377366.566443708 5978036.8507019756 0 0 0 0 -567726.89256286621 -16123771.03351593 0 -16123771.03351593 16941064.561693192 0 0 0 0 -258413.89270019531 -16625090.236650467 0 -16625090.236650467 13946261.913612366 0 0 0 0 -12950796.678464502 -19952743.650922041 0 -19952743.650922041 10183349.758505311 0 0 0 0 -442520.51773071289 -17941717.228155136 0 -17941717.228155136 15959614.159065247 0 0 0 0 -367949.26528930664 -17737989.46471405 0 -17737989.46471405 14597484.349462509 0 0 0 0 369815.20544017851 -13782605.597061915 0 -13782605.597061915 7025852.513381334 0 0 0 0 17006378.984853745 -32659002.546774149 0 -32659002.546774149 20861258.52299118 0 0 0 0 -4576859.7463378906 -15449090.635498047 0 -15449090.635498047 -630964.28411865234 0 0 0 0 7458394.5213109106 -11578417.878362972 0 -11578417.878362972 2873525.38757875 0 0 0 0 -67370364.39654541 27155354.627464294 0 27155354.627464294 504206051.32646942 0 0 0 0 119044091.33517456 -607098004.51688004 0 -607098004.51688004 -541484457.71949005 0 0 0 0 -749346558.97119904 477629912.73683357 0 477629912.73683357 270841115.40384674 0 0 0 0 454540731.39332581 259359066.46582413 0 259359066.46582413 -567214290.90977859 0 0 0 0 557661570.79115295 -17753744.201503754 0 -17753744.201503754 -147268308.01334 0 0 0 0 425015.87728881836 -6560503.3317298889 0 -6560503.3317298889 1871324.2276382446 0 0 0 0 3221315.3011821061 -10220087.228995468 0 -10220087.228995468 5850443.3611745536 0 0 0 0 149132655.69134521 34303417.747787476 0 34303417.747787476 189444846.06350708 0 0 0 0 -91519.619789123535 -7898918.544667244 0 -7898918.544667244 3046204.7027664185 0 0 0 0 14596676.533649731 -8236502.9624737874 0 -8236502.9624737874 1566716.5990516767 0 0 0 0 -603719.67700195312 -8486249.1771240234 0 -8486249.1771240234 998195.35687255859 0 0 0 0 4165523.3251570612 -19637168.672525071 0 -19637168.672525071 8194194.1552763125 0 0 0 0 -2474506.1214308366 -16418646.526613042 0 -16418646.526613042 7066555.4275148064 0 0 0 0 21347883.093066536 -12452695.539694436 0 -12452695.539694436 692465.39026890881 0 0 0 0 -1163418.6380310059 -14846372.23301506 0 -14846372.23301506 -1246336.5031814575 0 0 0 0 -4212398.1989135742 -15115454.711769104 0 -15115454.711769104 -1203166.5155792236 0 0 0 0 23284552.487943441 -20631376.50108511 0 -20631376.50108511 5489196.8786829729 0 0 0 0 -11551709.824005127 -8964447.802980423 0 -8964447.802980423 143192.8436756134 0 0 0 0 4194818.5667417943 -10485512.217817368 0 -10485512.217817368 5189192.4870177526 0 0 0 0 14845262.457539499 -12719423.35074733 0 -12719423.35074733 2790221.9946209085 0 0 0 0 4519344.2405357361 -10101302.775074959 0 -10101302.775074959 2575340.3207244873 0 0 0 0 -6916562.9116973877 -90846512.57704258 0 -90846512.57704258 -60611700.446757317 0 0 0 0 3694884.7819519043 -9392524.0474052429 0 -9392524.0474052429 1067457.0532374382 0 0 0 0 -957759.08509623259 -6282715.8078676164 0 -6282715.8078676164 3150457.6316237189 0 0 0 0 6479159.3343849182 -7654491.6198472977 0 -7654491.6198472977 -355910.38249778748 0 0 0 0 1388274.0268886536 -3753452.6985748205 0 -3753452.6985748205 746745.06472072285 0 0 0 0 15767209.405639648 -90991294.513192177 0 -90991294.513192177 -154106108.67232513 0 0 0 0 15742339.851348877 -140206549.11617184 0 -140206549.11617184 -384555460.44367409 0 0 0 0 -75732196.860961914 -673885102.02834702 0 -673885102.02834702 1175227130.7605553 0 0 0 0 -86435383.580169678 -773933761.36059761 0 -773933761.36059761 917531894.32264328 0 0 0 0 2972001.1099700928 -445458623.49346781 0 -445458623.49346781 855973657.5959549 0 0 0 0 195491882.44525146 -416082166.24895477 0 -416082166.24895477 838490078.92793274 0 0 0 0 1371203.1269598901 -5920863.808457315 0 -5920863.808457315 1991418.4891560925 0 0 0 0 155948409.53048706 -563434794.76797485 0 -563434794.76797485 946957387.10644531 0 0 0 0 204943296.32940674 -525705520.06542587 0 -525705520.06542587 513262629.49906158 0 0 0 0 -356100906.80157471 -237596823.18287468 0 -237596823.18287468 709927318.94249725 0 0 0 0 -943791.67663042992 -193263.17871730402 0 -193263.17871730402 696045.26121331565 0 0 0 0 55765693.724090576 -401388552.01730347 0 -401388552.01730347 424236797.95472717 0 0 0 0 809774086.84489441 -711702302.07772636 0 -711702302.07772636 483729961.43392944 0 0 0 0 189370310.41584778 -1004842347.9760494 0 -1004842347.9760494 793183726.20141602 0 0 0 0 847395509.49514771 -1326041583.2868099 0 -1326041583.2868099 881640632.86754894 0 0 0 0 302357440.51664734 -139516590.72848606 0 -139516590.72848606 507605778.62973976 0 0 0 0 95570259.732315063 -271103865.10735321 0 -271103865.10735321 427087626.54092407 0 0 0 0 231735162.19715881 4139871.8886556625 0 4139871.8886556625 -54095690.591648102 0 0 0 0 -4595689.3845056295 -7565696.9389325082 0 -7565696.9389325082 5335311.4845994469 0 0 0 0 464323648.5025177 -246048293.67079258 0 -246048293.67079258 60960605.293132782 0 0 0 0 -976745954.71377563 -779641180.90130234 0 -779641180.90130234 738870373.43639755 0 0 0 0 -17470348.034767151 -28897226.988931656 0 -28897226.988931656 7548671.3982987404 0 0 0 0 257067.13810082525 -9876220.7027146053 0 -9876220.7027146053 2127610.145819983 0 0 0 0 -9846037.5384674072 -36387968.488128662 0 -36387968.488128662 -14763528.767158508 0 0 0 0 -4579123.6480545066 -8925076.3604510874 0 -8925076.3604510874 8126627.2369534224 0 0 0 0 -3960299.8438836634 -8193988.2957428172 0 -8193988.2957428172 6355683.8395899814 0 0 0 0 -138138714.89629364 8531628.3309555054 0 8531628.3309555054 61677836.178039551 0 0 0 0 950604331.8037262 -1104285505.0341997 0 -1104285505.0341997 583476529.61376953 0 0 0 0 1110845135.8188477 -1011730708.3325653 0 -1011730708.3325653 617950165.66618443 0 0 0 0 1041638274.2595215 -599488226.37896347 0 -599488226.37896347 -345007095.8269577 0 0 0 0 1102545882.3630981 -230229600.48910522 0 -230229600.48910522 440928449.34226418 0 0 0 0 902929971.59442139 -1157541034.8433409 0 -1157541034.8433409 1001480973.8708344 0 0 0 0 -262881334.64634705 -1336809018.0192852 0 -1336809018.0192852 1373239340.3277092 0 0 0 0 612488.69466599822 -1735632.1771810651 0 -1735632.1771810651 2002407.4686766639 0 0 0 0 -1489844374.2303162 -829855854.92730713 0 -829855854.92730713 1190287246.6630411 0 0 0 0 1369348821.2911301 -1260385888.8209314 0 -1260385888.8209314 134195505.55051994 0 0 0 0 -17761262.831054688 -589543642.55379295 0 -589543642.55379295 -611099323.72765923 0 0 0 0 -907159588.91069031 81820715.058236122 0 81820715.058236122 228294315.46051407 0 0 0 0 -752434989.58544922 -531903983.19266319 0 -531903983.19266319 1145479043.1222286 0 0 0 0 -218866871.53761864 -554289140.62889218 0 -554289140.62889218 767791630.78886032 0 0 0 0 86013274.449478149 -160409193.16819572 0 -160409193.16819572 159471337.00133514 0 0 0 0 120629299.20355225 -27909444.670742035 0 -27909444.670742035 7203531.1960144043 0 0 0 0 -973808.04805921763 -1533934.3401248911 0 -1533934.3401248911 1427778.4308395348 0 0 0 0 -4763355.4306123033 -887511.89404486492 0 -887511.89404486492 589937.93843434565 0 0 0 0 -4887120.5889282227 -1933697.1039123535 0 -1933697.1039123535 7029108.6107635498 0 0 0 0 -4227253.9531402588 -2124065.9073867798 0 -2124065.9073867798 5223655.8157653809 0 0 0 0 -5088850.6494789124 -871180.08504295349 0 -871180.08504295349 6132477.3200683594 0 0 0 0 -4891159.7609100342 -329329.6386013031 0 -329329.6386013031 2436242.3294334412 0 0 0 0 -5971445.2036877275 758039.22298941482 0 758039.22298941482 1805208.8489795579 0 0 0 0 -5353814.5805358887 342472.93936920166 0 342472.93936920166 4515717.537481308 0 0 0 0 -3061090.981842041 -366205.15068054199 0 -366205.15068054199 4219833.8426971436 0 0 0 0 -6023567.1797205806 -73755.653277412988 0 -73755.653277412988 2158914.2614708515 0 0 0 0 -3052711.0529174805 -803400.30944061279 0 -803400.30944061279 6034418.932258606 0 0 0 0 -1583001.1947021484 -3194250.9459171295 0 -3194250.9459171295 8021611.8725280762 0 0 0 0 -5864471.1684570312 1006382.5935058594 0 1006382.5935058594 9515775.596950531 0 0 0 0 -171605.01820847392 7919.8386269882321 0 7919.8386269882321 52363.732158269733 0 0 0 0 -344771758.3343811 -7036241.4742889404 0 -7036241.4742889404 154030228.70816422 0 0 0 0 -2685055.9140701294 -4523613.7072124481 0 -4523613.7072124481 9720563.8731536865 0 0 0 0 -2845130.4424972534 -3771720.225561142 0 -3771720.225561142 9720606.7545852661 0 0 0 0 -5581282.6364421025 154257.26537649333 0 154257.26537649333 1051938.9287397917 0 0 0 0 -2937631.9234962836 -5558017.3190366076 0 -5558017.3190366076 2625663.2164992774 0 0 0 0 -178086244.29974365 -174560938.35822678 0 -174560938.35822678 16086049.83052063 0 0 0 0 -59552241.266983032 -142230360.33553314 0 -142230360.33553314 -271807604.52431488 0 0 0 0 181999296.80441666 -128220619.01476192 0 -128220619.01476192 65709817.308898926 0 0 0 0 375463422.40893555 -542048356.89083099 0 -542048356.89083099 764134945.34761429 0 0 0 0 -13210.508638054132 -395468.9865997145 0 -395468.9865997145 146825.04830998369 0 0 0 0 -140722924.14886475 -228369652.96355438 0 -228369652.96355438 -216427523.80555725 0 0 0 0 200094277.69315338 228406735.19547272 0 228406735.19547272 776402318.34957123 0 0 0 0 -393021163.67236328 -138080707.33145142 0 -138080707.33145142 557968206.49996948 0 0 0 0 313552905.19134521 -64997332.132774353 0 -64997332.132774353 -693607443.68451595 0 0 0 0 71866943.750976562 -185952804.71142578 0 -185952804.71142578 430607335.41799927 0 0 0 0 -394246.8302462101 -2482346.5531283319 0 -2482346.5531283319 882369.29708521254 0 0 0 0 -2321597.2714678943 -2140041.0797737204 0 -2140041.0797737204 117672.21797878388 0 0 0 0 101763844.22909546 68752067.838912964 0 68752067.838912964 -316600438.05604553 0 0 0 0 538685015.79388428 953315615.79869461 0 953315615.79869461 -93223909.43170166 0 0 0 0 -600634367.71502686 -115154652.605793 0 -115154652.605793 121121695.03419495 0 0 0 0 -59759631.628631592 -119505828.12442398 0 -119505828.12442398 -103039252.50066376 0 0 0 0 -115163889.98570251 -39268736.17105484 0 -39268736.17105484 29265361.66532135 0 0 0 0 -224270004.74961853 -100071405.29493332 0 -100071405.29493332 82333808.613883972 0 0 0 0 -76365820.273223877 11117217.638916016 0 11117217.638916016 89839781.737457275 0 0 0 0 -103134013.20033264 -54601330.734296799 0 -54601330.734296799 121181216.46446228 0 0 0 0 -113872130.18792725 -21547112.085422516 0 -21547112.085422516 90083193.001079559 0 0 0 0 30744882.971343994 -172314570.1538887 0 -172314570.1538887 188766662.93877411 0 0 0 0 -42563123.728652954 -32830093.749752045 0 -32830093.749752045 104477438.17956543 0 0 0 0 -8954107.0155906677 -120575690.47771931 0 -120575690.47771931 144195909.68553925 0 0 0 0 -80415886.383239746 -34125856.245864868 0 -34125856.245864868 138266724.58700466 0 0 0 0 -64569452.924591064 -51365127.21780014 0 -51365127.21780014 89866123.347946167 0 0 0 0 -75453013.452148438 65262583.487133026 0 65262583.487133026 108045841.67554569 0 0 0 0 -77383628.406402588 5713927.4708709717 0 5713927.4708709717 -52501039.847549438 0 0 0 0 -148786308.34724426 -75720762.621803284 0 -75720762.621803284 -211914299.84717941 0 0 0 0 -15897037.619659424 -115727515.54719496 0 -115727515.54719496 -200083609.86235809 0 0 0 0 -38600655.825613499 -130634291.82546926 0 -130634291.82546926 333218321.21469879 0 0 0 0 179006512.06907654 147611151.0320549 0 147611151.0320549 102158771.66473007 0 0 0 0 -31890901.609542847 -201535417.98779583 0 -201535417.98779583 -69384271.991371155 0 0 0 0 58343077.4972229 -277220328.93455648 0 -277220328.93455648 -2385347.7480392456 0 0 0 0 -138817263.59217834 53245331.23878479 0 53245331.23878479 458604339.99279785 0 0 0 0 -316768566.52870178 -631321734.58293343 0 -631321734.58293343 -583858907.96445155 0 0 0 0 -412325740.40834045 -434297637.17295456 0 -434297637.17295456 -338197089.46740341 0 0 0 0 -140835101.94683647 -358741394.74627006 0 -358741394.74627006 -609980858.64383698 0 0 0 0 -171245462.97488403 -101535889.70924377 0 -101535889.70924377 -130590856.24316788 0 0 0 0 -18911666.831970215 171938.63268280029 0 171938.63268280029 17640924.88999939 0 0 0 0 -16085907.856292725 -13346745.635940552 0 -13346745.635940552 12948162.977636337 0 0 0 0 -1667869.2368621826 7500680.5699615479 0 7500680.5699615479 11625432.419843674 0 0 0 0 -493714952.84170532 -200741426.5875473 0 -200741426.5875473 -514299224.22174835 0 0 0 0 -3605682.2277242765 -1797225.5666342936 0 -1797225.5666342936 3397517.1630362608 0 0 0 0 -662912354.49359131 -526533699.637146 0 -526533699.637146 -411967527.08537292 0 0 0 0 -323375961.24880981 -393603293.32771683 0 -393603293.32771683 -503737956.2052536 0 0 0 0 -581321137.66903687 -601769771.56671906 0 -601769771.56671906 -671485751.71931458 0 0 0 0 -229414.84014284611 -127389.00585141312 0 -127389.00585141312 198939.09501950629 0 0 0 0 -798627169.65718079 -22266510.982914925 0 -22266510.982914925 -599774128.62171936 0 0 0 0 128036590.04873657 -197089985.54317474 0 -197089985.54317474 -74528473.456993103 0 0 0 0 -394365082.4407959 -792531568.00722504 0 -792531568.00722504 -167866884.27540588 0 0 0 0 -327784241.78538513 -99808234.661834717 0 -99808234.661834717 -88661366.110366821 0 0 0 0 -544735598.69258118 -563365078.11985588 0 -563365078.11985588 -247696055.50033569 0 0 0 0 -44029202.251251221 -56673938.2420578 0 -56673938.2420578 -97948940.98903656 0 0 0 0 -58097680.806106567 -69360377.738536835 0 -69360377.738536835 -104768740.70586395 0 0 0 0 -42241490.979888916 -68010666.377426147 0 -68010666.377426147 -111865562.32437897 0 0 0 0 -54711600.14781189 -65474737.987522125 0 -65474737.987522125 -100507539.54779053 0 0 0 0 -29221040.803527832 -22245833.025871277 0 -22245833.025871277 -93162.92067527771 0 0 0 0 -7600665.9275512695 -15358406.908446312 0 -15358406.908446312 -7161130.5362548828 0 0 0 0 -7063841.6954040527 -3928617.692565918 0 -3928617.692565918 -3965309.4469852448 0 0 0 0 -12817047.926635742 -3737597.0520057678 0 -3737597.0520057678 12100071.242156982 0 0 0 0 35061720.209869385 -40296711.517311096 0 -40296711.517311096 26770295.082008362 0 0 0 0 -11132702.610626221 -1222410.7233734131 0 -1222410.7233734131 4677520.7398681641 0 0 0 0 -4059529.7131126747 -3552409.8523805654 0 -3552409.8523805654 2744446.0821494833 0 0 0 0 -7627724.0700950623 -9350942.9736604691 0 -9350942.9736604691 5597648.899017334 0 0 0 0 -643745.28445992619 -232539.88236973062 0 -232539.88236973062 247701.13592818007 0 0 0 0 3569466.6235692538 -3452293.281243043 0 -3452293.281243043 708641.01766389236 0 0 0 0 -13240334.944395065 -12996992.415997982 0 -12996992.415997982 -427178.72992706299 0 0 0 0 -32407815.733856201 -59010357.068832397 0 -59010357.068832397 -98303486.529945374 0 0 0 0 -5881775.1766649261 -4163627.1611628644 0 -4163627.1611628644 3088142.743694244 0 0 0 0 -119919504.25735474 4169983.1402053833 0 4169983.1402053833 252850248.21501923 0 0 0 0 -110789883.70407104 -130056014.216465 0 -130056014.216465 134953127.07296753 0 0 0 0 -178404924.47946167 -154574214.11281586 0 -154574214.11281586 178038820.1477356 0 0 0 0 -159846593.61422729 -148444416.15138245 0 -148444416.15138245 413164349.46742249 0 0 0 0 -150917248.5713501 35864161.98500061 0 35864161.98500061 224680454.53935242 0 0 0 0 -96082855.791534424 -240526040.84221077 0 -240526040.84221077 -149720371.66069031 0 0 0 0 -197784941.5791626 -234238431.2140274 0 -234238431.2140274 -10963032.462120056 0 0 0 0 -174854377.9942627 -189776669.24466705 0 -189776669.24466705 -121618387.56656647 0 0 0 0 58896041.460800171 -71235328.840557098 0 -71235328.840557098 -61264003.291854858 0 0 0 0 -329194354.18423462 -371226049.54412079 0 -371226049.54412079 -297638432.01638794 0 0 0 0 -305480008.49667358 -397491727.07772064 0 -397491727.07772064 -290305577.46411133 0 0 0 0 -166749475.71179199 -315607160.40655136 0 -315607160.40655136 -248619617.52112579 0 0 0 0 -259024438.32211304 -285018620.73204231 0 -285018620.73204231 -258691328.63475037 0 0 0 0 -169992691.98019409 -223179951.5852108 0 -223179951.5852108 -514292742.70387268 0 0 0 0 -173709636.87606812 -349858456.0261879 0 -349858456.0261879 -285287420.4412384 0 0 0 0 -445768628.93914795 -581716265.58431625 0 -581716265.58431625 -362317550.0602417 0 0 0 0 -86815486.368499756 -599909818.42683029 0 -599909818.42683029 -775063711.25399971 0 0 0 0 -182968724.92828369 -271653983.32575989 0 -271653983.32575989 -116414600.83785629 0 0 0 0 -77628644.022766113 -351902819.91847229 0 -351902819.91847229 -421020782.09289551 0 0 0 0 -95366770.142852783 -540685247.20800781 0 -540685247.20800781 -459405839.31879425 0 0 0 0 -261173499.84838867 -576667884.72245789 0 -576667884.72245789 -217397580.10254002 0 0 0 0 -116743247.5953598 -291256405.38139915 0 -291256405.38139915 -182511748.10003662 0 0 0 0 -99318269.63520813 -382817017.9331131 0 -382817017.9331131 -55593177.596340179 0 0 0 0 -989116.51178990863 708667.30622950569 0 708667.30622950569 51820.377556957304 0 0 0 0 107902522.96185303 -212604451.34273529 0 -212604451.34273529 54675688.838439941 0 0 0 0 -4432146.2867527008 -693095.28389763832 0 -693095.28389763832 2900456.6966323853 0 0 0 0 -6990550.2498175502 -2205080.6751810405 0 -2205080.6751810405 3330733.5729453955 0 0 0 0 -336212.92636199296 478220.643522311 0 478220.643522311 253265.35213547386 0 0 0 0 137646653.49754333 2163272.0660934448 0 2163272.0660934448 5176642.5041427612 0 0 0 0 -124435910.15756226 -182048967.74251175 0 -182048967.74251175 293428534.20379639 0 0 0 0 -403047104.91267395 -357437865.51944447 0 -357437865.51944447 -247721466.28440857 0 0 0 0 -552013692.65231323 -244571407.86868286 0 -244571407.86868286 -104541338.63627195 0 0 0 0 -354739288.24380493 -286536254.15882111 0 -286536254.15882111 -147947986.57724762 0 0 0 0 -552104986.12189484 -421391813.53081894 0 -421391813.53081894 -227441820.37272644 0 0 0 0 -364301748.87260437 -191401959.50121021 0 -191401959.50121021 -105612443.11869431 0 0 0 0 -4261253.9523817301 -494998.62188054621 0 -494998.62188054621 2233942.0485752095 0 0 0 0 -150056.72592163086 -1497992.5440979004 0 -1497992.5440979004 72834.236671447754 0 0 0 0 -3015130.8897323608 2335490.8984260559 0 2335490.8984260559 7899582.9088287354 0 0 0 0 2311025.6949157715 869578.16004180908 0 869578.16004180908 -222570.93916130066 0 0 0 0 -6188524.4386292212 1220721.5715388171 0 1220721.5715388171 1757660.850908637 0 0 0 0 -5638894.1353302002 -197381.62228393555 0 -197381.62228393555 4025105.0932769775 0 0 0 0 -5654342.5093612671 -508035.87145233154 0 -508035.87145233154 5517104.047668457 0 0 0 0 1344041.7465362549 3828181.1529426575 0 3828181.1529426575 -3487582.8533630371 0 0 0 0 -21298563.048900604 -35993.049273490906 0 -35993.049273490906 18399444.663551331 0 0 0 0 -2332767.0811396465 729012.70484602079 0 729012.70484602079 -6753.1025950871408 0 0 0 0 -687304.09030610695 323730.11680840328 0 323730.11680840328 -27545.656503949314 0 0 0 0 6719240.3163375854 -30181382.623249054 0 -30181382.623249054 40525644.338157654 0 0 0 0 29504320.42175293 -37589080.810768127 0 -37589080.810768127 15730956.354282379 0 0 0 0 26211890.423171997 -16812007.751358032 0 -16812007.751358032 2180535.932975769 0 0 0 0 -4736611.1380462646 -61159612.657138824 0 -61159612.657138824 57045007.650749207 0 0 0 0 19583726.016136169 -51993909.546079636 0 -51993909.546079636 56011099.182128906 0 0 0 0 8536486.8623504639 -26082929.816619873 0 -26082929.816619873 36487347.678379059 0 0 0 0 17394936.934921265 -44299301.003330231 0 -44299301.003330231 69888188.116851807 0 0 0 0 -5086151.103098385 -1897805.5869286442 0 -1897805.5869286442 1855673.2200778192 0 0 0 0 3621205.9109191895 -2410564.754322052 0 -2410564.754322052 26170770.301994324 0 0 0 0 13494875.375289917 -14300683.28213501 0 -14300683.28213501 14983629.788471222 0 0 0 0 -1582081.6322021484 4369336.0314712524 0 4369336.0314712524 8417347.1586990356 0 0 0 0 6200630.3165893555 4516834.8840866089 0 4516834.8840866089 1958231.925163269 0 0 0 0 -3434347.6031403542 -1470409.9342875946 0 -1470409.9342875946 1105630.7132101161 0 0 0 0 -3316785.6758918762 -9931410.7802858353 0 -9931410.7802858353 17424430.845718384 0 0 0 0 -19034897.057800293 14386721.827331543 0 14386721.827331543 22635591.335330963 0 0 0 0 -10141914.838806152 4544749.7448348999 0 4544749.7448348999 -4076063.6824569702 0 0 0 0 5008040.1022949219 -65384162.873069763 0 -65384162.873069763 206577780.74544525 0 0 0 0 -1958831.1228330657 -718254.88182609342 0 -718254.88182609342 1233012.3555417322 0 0 0 0 -39638238.296051025 54206296.179969788 0 54206296.179969788 -18764445.116226196 0 0 0 0 24556915.68951416 -104610063.05935669 0 -104610063.05935669 140024803.81769562 0 0 0 0 -6735646.4830474854 -59216713.889095306 0 -59216713.889095306 215547636.28902435 0 0 0 0 183346927.96572876 -14538497.097682953 0 -14538497.097682953 193420768.27857971 0 0 0 0 60521289.830963135 -91010849.31653595 0 -91010849.31653595 128836715.36369324 0 0 0 0 -1671895.3626861572 -53440350.416217804 0 -53440350.416217804 194501869.79475403 0 0 0 0 -8261599.835559845 -21864861.268253326 0 -21864861.268253326 106991246.1282959 0 0 0 0 4678116.6190490723 -90844955.21522522 0 -90844955.21522522 147651261.06784058 0 0 0 0 33878711.913787842 -115206704.37825775 0 -115206704.37825775 54891253.211273193 0 0 0 0 21716060.785354614 -120857202.21029663 0 -120857202.21029663 98050144.438034058 0 0 0 0 69383681.197715759 -126558691.9595108 0 -126558691.9595108 54044305.304031372 0 0 0 0 -762208.18016815186 -149371356.30904007 0 -149371356.30904007 81261476.155467987 0 0 0 0 -11516578.046127319 -86617502.033684731 0 -86617502.033684731 53612380.150764465 0 0 0 0 -24818700.361213684 -98916213.975421906 0 -98916213.975421906 44708660.301002502 0 0 0 0 15811721.046726227 -146257023.95026302 0 -146257023.95026302 111728599.85372162 0 0 0 0 118832818.90781403 -205261129.35599899 0 -205261129.35599899 146743156.46182251 0 0 0 0 -23361726.080993652 86771849.61151886 0 86771849.61151886 201244488.83896065 0 0 0 0 205934111.92891693 -34778182.222476959 0 -34778182.222476959 -30695261.998291016 0 0 0 0 219428505.62872791 -123872104.42544222 0 -123872104.42544222 6686683.438117981 0 0 0 0 -615172.54424824566 -111989.70405420288 0 -111989.70405420288 1445238.7268883549 0 0 0 0 -17513945.348678589 70920589.048774719 0 70920589.048774719 -22799402.104717255 0 0 0 0 72403679.176532745 -10668697.008205414 0 -10668697.008205414 46153473.400733948 0 0 0 0 52903781.545059204 -56584576.142056465 0 -56584576.142056465 29317424.285140991 0 0 0 0 46890971.773956299 -59831400.750068665 0 -59831400.750068665 43106532.127796173 0 0 0 0 47203039.743713379 -96989269.569503784 0 -96989269.569503784 79492387.312602997 0 0 0 0 -146112763.85430908 -104333583.81455612 0 -104333583.81455612 36807650.197896957 0 0 0 0 -118442802.84447861 -168910215.54281998 0 -168910215.54281998 -56227709.104408264 0 0 0 0 -315051068.39196014 -142837042.20563316 0 -142837042.20563316 80485047.38671875 0 0 0 0 83958992.49836731 -53720023.786468506 0 -53720023.786468506 -10772260.457141876 0 0 0 0 74353669.152801514 -120824171.76861954 0 -120824171.76861954 62870881.938272476 0 0 0 0 -143225848.87341309 -97487753.521663666 0 -97487753.521663666 62629859.318962097 0 0 0 0 337218496.03657532 -193275612.14593315 0 -193275612.14593315 -23756662.404640198 0 0 0 0 236546063.16904831 67144515.298451424 0 67144515.298451424 1694992.5067977905 0 0 0 0 -434603973.42019653 -200437753.11736488 0 -200437753.11736488 106944796.53292084 0 0 0 0 -169120754.19072723 -39272007.866914749 0 -39272007.866914749 98891117.026977539 0 0 0 0 -331723215.48936462 -95208568.322952271 0 -95208568.322952271 -35793962.076848984 0 0 0 0 -8860634.3079533912 -2885979.6934617721 0 -2885979.6934617721 -1425963.0348903276 0 0 0 0 -246022391.64532471 -168583985.03534508 0 -168583985.03534508 445894.76220703125 0 0 0 0 -179869575.01310349 -36481758.290148735 0 -36481758.290148735 34561243.710975647 0 0 0 0 -73710751.795898438 -11683756.240619659 0 -11683756.240619659 -25127276.945316315 0 0 0 0 -2654258.2834148966 -683035.89502565935 0 -683035.89502565935 -256971.24077583477 0 0 0 0 -29145871.572332382 -66369914.117480278 0 -66369914.117480278 179074294.48120117 0 0 0 0 -60866408.282295227 -134483132.70196915 0 -134483132.70196915 44774075.36681366 0 0 0 0 -403006985.24215698 -59499009.975831985 0 -59499009.975831985 142952468.27772903 0 0 0 0 -396775791.91541481 -325598518.86668396 0 -325598518.86668396 -156779070.51967621 0 0 0 0 -452120242.146492 -215329881.23507833 0 -215329881.23507833 317122398.13838959 0 0 0 0 -377404469.15280151 -21422921.273452759 0 -21422921.273452759 525105843.56945038 0 0 0 0 -184512809.37832642 129790038.04714203 0 129790038.04714203 558478776.01371002 0 0 0 0 65315466.454101562 -51837430.855743408 0 -51837430.855743408 179945281.43150663 0 0 0 0 -139634764.34640503 -538712494.84111023 0 -538712494.84111023 -1037043188.464653 0 0 0 0 -1365592.887210615 -749141.65729714371 0 -749141.65729714371 413892.31193657964 0 0 0 0 -300483869.8309021 -477893929.62831116 0 -477893929.62831116 -981394174.50292969 0 0 0 0 -236138966.57798004 -355527571.8291378 0 -355527571.8291378 -459796093.41854858 0 0 0 0 -192085269.36364746 -360575372.00302887 0 -360575372.00302887 -1007319309.2397919 0 0 0 0 -440480945.17015076 -180264996.44156647 0 -180264996.44156647 -541948130.71687317 0 0 0 0 -577495544.82881927 -384376738.39218903 0 -384376738.39218903 -266049497.86650848 0 0 0 0 -218703688.07449341 39351820.817064285 0 39351820.817064285 -183487848.55012512 0 0 0 0 -260741648.57600403 -634062713.57221222 0 -634062713.57221222 -860993965.83416748 0 0 0 0 -87561890.834411621 -103905666.44864655 0 -103905666.44864655 -54577324.273391724 0 0 0 0 84373578.736312866 7293965.5899925232 0 7293965.5899925232 -173975713.12262344 0 0 0 0 -57618964.055969238 -101389561.91867828 0 -101389561.91867828 -367180620.70903397 0 0 0 0 -62485846.943780899 -93240700.897540092 0 -93240700.897540092 -114993013.31108856 0 0 0 0 78426855.652175903 -54791546.731563568 0 -54791546.731563568 -145863719.31236076 0 0 0 0 94080507.055595398 -87213208.714668274 0 -87213208.714668274 -92400018.043525696 0 0 0 0 115709855.50665283 -52710022.839851379 0 -52710022.839851379 -46561599.398582458 0 0 0 0 136933963.36499023 -12819907.4453125 0 -12819907.4453125 -124460084.7314415 0 0 0 0 142467692.35996246 -21104057.759025574 0 -21104057.759025574 -43888226.571487427 0 0 0 0 70842222.848373413 -2339911.7277755737 0 -2339911.7277755737 -45823105.839447021 0 0 0 0 125895599.71979523 101318189.96686935 0 101318189.96686935 35694936.539123535 0 0 0 0 85111593.594665527 9150861.8302078247 0 9150861.8302078247 302454411.57670593 0 0 0 0 -104031652.02178955 -127774314.15872765 0 -127774314.15872765 369537914.91123962 0 0 0 0 150624802.91657257 -22743063.178741455 0 -22743063.178741455 -37131860.329517365 0 0 0 0 53687.169135026634 -1028180.7069735564 0 -1028180.7069735564 275700.90191760473 0 0 0 0 -6257592.7888031006 -69799065.429382324 0 -69799065.429382324 -146526862.99475861 0 0 0 0 37686437.442960739 -118628496.45558023 0 -118628496.45558023 -96862835.084075928 0 0 0 0 22615380.920181274 -192576526.87684631 0 -192576526.87684631 64785221.308425903 0 0 0 0 -8472481.9000854492 -121069840.38198853 0 -121069840.38198853 119022710.37379837 0 0 0 0 -704312.798828125 -53853073.517150879 0 -53853073.517150879 51971714.300506592 0 0 0 0 -50353054.200180054 -81707399.658901215 0 -81707399.658901215 325416946.41526031 0 0 0 0 -167840928.26989746 -169211714.81943512 0 -169211714.81943512 122080384.2207489 0 0 0 0 -14042234.339111328 -294218374.89188385 0 -294218374.89188385 -144027324.21112061 0 0 0 0 -291668299.6885376 -410770138.95885468 0 -410770138.95885468 -278538221.07624054 0 0 0 0 -306609061.02397537 -246313390.42941475 0 -246313390.42941475 -141460812.31867218 0 0 0 0 -128552464.37628174 -209323604.6900177 0 -209323604.6900177 -476534678.53440237 0 0 0 0 -203788230.93400574 -221196804.74239349 0 -221196804.74239349 153027933.93870544 0 0 0 0 -106794879.43887329 47586184.976974487 0 47586184.976974487 159303135.43826294 0 0 0 0 -281192913.03041077 -256461981.33088684 0 -256461981.33088684 -12588088.328147888 0 0 0 0 -21498521.71661377 11185904.304168701 0 11185904.304168701 -159368337.71137619 0 0 0 0 -49129443.23059082 228931394.61094666 0 228931394.61094666 686437078.533741 0 0 0 0 -70515638.136225224 -127023288.53521276 0 -127023288.53521276 332630514.27101135 0 0 0 0 326003.77496767044 -3422914.2263626633 0 -3422914.2263626633 768981.40542741772 0 0 0 0 -3617114.6791992188 -15422187.896629333 0 -15422187.896629333 648392521.87612772 0 0 0 0 -142855455.29714966 64913070.176662445 0 64913070.176662445 650967911.6909256 0 0 0 0 -42039271.293609619 -45866218.362754822 0 -45866218.362754822 -45119258.112281799 0 0 0 0 234904349.68731689 -100173688.84558868 0 -100173688.84558868 274082910.10090637 0 0 0 0 38055582.785583496 33985249.378967285 0 33985249.378967285 253346955.47489929 0 0 0 0 -79466.364596318454 -192765.0890729595 0 -192765.0890729595 7448.3342762999237 0 0 0 0 183312996.50360107 314841273.31446075 0 314841273.31446075 717959820.80082703 0 0 0 0 23875020.765380859 -87781426.321395874 0 -87781426.321395874 220295896.25120544 0 0 0 0 -8276848.0962524414 -224033722.9825592 0 -224033722.9825592 640325159.0319252 0 0 0 0 -80590946.272735596 -7315522.9236450195 0 -7315522.9236450195 255055231.61273956 0 0 0 0 69226485.764831543 -319404144.83070374 0 -319404144.83070374 215975007.14645386 0 0 0 0 -34124767.505811691 -67552978.983174324 0 -67552978.983174324 -72632548.509490967 0 0 0 0 -22873169.651748657 -59420775.705986023 0 -59420775.705986023 -109129909.04232788 0 0 0 0 -32315754.483169556 -65786786.539093018 0 -65786786.539093018 -104524534.58093643 0 0 0 0 -18233971.534179688 -71242801.122550964 0 -71242801.122550964 -139510195.87470245 0 0 0 0 -26836464.30065918 -40084478.408672333 0 -40084478.408672333 -66438335.544128418 0 0 0 0 -8328070.9944763184 -55966328.194810867 0 -55966328.194810867 -111232458.51705933 0 0 0 0 -37620862.95766449 -63361018.785804749 0 -63361018.785804749 -104958985.62845612 0 0 0 0 -54495699.528427124 -99117288.555980682 0 -99117288.555980682 -101971987.51405334 0 0 0 0 -43925020.473815918 -95341479.244750977 0 -95341479.244750977 -130330835.97872162 0 0 0 0 -36130070.8881073 -82445448.75412941 0 -82445448.75412941 -109601574.59212494 0 0 0 0 -46565846.507125854 -73860078.728725433 0 -73860078.728725433 -111237777.58898926 0 0 0 0 -29684536.337051392 -69478120.825004578 0 -69478120.825004578 -114916939.19617462 0 0 0 0 27973679.081359863 -112950155.86912537 0 -112950155.86912537 -217080571.74458694 0 0 0 0 23035918.173324585 -82107281.477760315 0 -82107281.477760315 -218891835.17316055 0 0 0 0 22892186.771850586 -36156952.707191467 0 -36156952.707191467 -200164380.34913254 0 0 0 0 -31063713.79006958 -68336891.912395477 0 -68336891.912395477 -63497084.911499023 0 0 0 0 -15646135.966827393 -129545958.53599548 0 -129545958.53599548 -397325.13516998291 0 0 0 0 42410019.507789612 -99184588.046329498 0 -99184588.046329498 -115515155.50180054 0 0 0 0 19491978.48859787 -55177544.913930893 0 -55177544.913930893 -65875580.188705444 0 0 0 0 -40463822.741012573 -41085233.279350281 0 -41085233.279350281 -105325135.01651335 0 0 0 0 -19604049.197418213 -63222138.358644485 0 -63222138.358644485 -189777228.92353821 0 0 0 0 4823665.294418335 -122009728.65061188 0 -122009728.65061188 -170930271.41970825 0 0 0 0 5631404.3689384796 -2686926.0825960524 0 -2686926.0825960524 -3712488.563617833 0 0 0 0 -147907867.32027578 -188294821.98313189 0 -188294821.98313189 -78247278.914108276 0 0 0 0 -86043642.256347656 -148158257.14967728 0 -148158257.14967728 -166814929.63796043 0 0 0 0 14591345.460759886 -22837596.027488507 0 -22837596.027488507 17189817.575267535 0 0 0 0 53563952.3776474 2857439.6781845093 0 2857439.6781845093 -87500816.551311493 0 0 0 0 18360832.018440247 -271686100.87295532 0 -271686100.87295532 -267302806.38041687 0 0 0 0 -128800768.65340424 -314818099.91186142 0 -314818099.91186142 -272323039.70567322 0 0 0 0 18426501.81502242 -25822808.674815606 0 -25822808.674815606 15000555.178188685 0 0 0 0 -37848622.350463867 -200479397.16751862 0 -200479397.16751862 -373091793.46578979 0 0 0 0 -145123094.28154087 -213393546.73856592 0 -213393546.73856592 -89020713.661819458 0 0 0 0 24520105.295257568 -84434217.730934143 0 -84434217.730934143 -291105434.69839478 0 0 0 0 14473455.039283752 -292947100.88484955 0 -292947100.88484955 -52578540.669033051 0 0 0 0 -157130281.58291078 -232386254.06550789 0 -232386254.06550789 -3414560.1047058105 0 0 0 0 -139268633.03479195 -114460753.97492409 0 -114460753.97492409 -89222184.371627808 0 0 0 0 -177752622.53887939 -171460958.08938599 0 -171460958.08938599 -63766449.305763245 0 0 0 0 -171682872.81826019 -156765810.26541901 0 -156765810.26541901 -93892956.250793457 0 0 0 0 -222684076.49058533 -231890325.04822731 0 -231890325.04822731 -153223044.72616577 0 0 0 0 -248187262.29403114 -137340690.22900295 0 -137340690.22900295 -42975766.494308472 0 0 0 0 -127226729.21379375 -98454280.145145416 0 -98454280.145145416 -90189406.661247253 0 0 0 0 -106152882.02384186 -150073783.14509583 0 -150073783.14509583 -346635621.27183533 0 0 0 0 -48176182.465820312 -67722990.617015839 0 -67722990.617015839 -122778595.46686554 0 0 0 0 -56805058.108078003 -74215077.431545258 0 -74215077.431545258 -112306251.19820786 0 0 0 0 -96729108.27456665 92359469.592842102 0 92359469.592842102 -126425344.5245018 0 0 0 0 9964274.4031309616 -12755244.706086565 0 -12755244.706086565 15625736.699893087 0 0 0 0 -54129004.370330811 -81039436.741359711 0 -81039436.741359711 -95258830.951356888 0 0 0 0 -3488462.9302985072 -5764336.6891900077 0 -5764336.6891900077 7993840.6920814514 0 0 0 0 -334599599.48330688 -283732081.23148346 0 -283732081.23148346 -167456198.01029968 0 0 0 0 441963857.05192566 -6399486.6356277466 0 -6399486.6356277466 -469863062.23544312 0 0 0 0 1448066833.2039948 -135026834.07831573 0 -135026834.07831573 -455048934.07789803 0 0 0 0 -309287718.86384583 -72181356.513999939 0 -72181356.513999939 -359404985.32049561 0 0 0 0 661435292.40272522 -523485847.58688545 0 -523485847.58688545 -257390427.12284851 0 0 0 0 2078927436.3429508 1112182471.8913527 0 1112182471.8913527 -871871491.8527298 0 0 0 0 -697692444.5934906 -114720087.91903687 0 -114720087.91903687 226188863.90550232 0 0 0 0 -634593651.9047699 -255858982.61850739 0 -255858982.61850739 404776562.91687727 0 0 0 0 585707825.5431366 -952891689.55513763 0 -952891689.55513763 323938079.79333496 0 0 0 0 5263702.8881010897 -8260746.1659844238 0 -8260746.1659844238 15050246.132566646 0 0 0 0 637792986.99580383 -928970935.93072128 0 -928970935.93072128 1766737921.199234 0 0 0 0 -325936690.43028641 -282109458.55160904 0 -282109458.55160904 -239484859.47000122 0 0 0 0 -349399495.5904541 -300342133.96775818 0 -300342133.96775818 -217170149.36242676 0 0 0 0 -420646324.43644714 -441336670.24003601 0 -441336670.24003601 -396327378.57748413 0 0 0 0 -300791647.86231613 -597119654.0362339 0 -597119654.0362339 -590527796.33470154 0 0 0 0 -625021787.88858032 -669975290.35032654 0 -669975290.35032654 -519455093.90979004 0 0 0 0 -841742707.53359985 -570582160.3159523 0 -570582160.3159523 -270089297.34255981 0 0 0 0 -719528930.26937866 -502134075.00271606 0 -502134075.00271606 -300495181.35707855 0 0 0 0 2182583324.4395599 672767257.23817825 0 672767257.23817825 -53848816.991134644 0 0 0 0 672697.88740793243 -1414867.6451100875 0 -1414867.6451100875 3368915.054539308 0 0 0 0 2996021.8202311955 -4913578.9030800164 0 -4913578.9030800164 10003538.131879736 0 0 0 0 -851725040.27268314 -668613448.24965024 0 -668613448.24965024 -449650930.84465027 0 0 0 0 24330326.294219971 -400662383.12183189 0 -400662383.12183189 -824615364.25307465 0 0 0 0 -9722180.9279098511 -311816091.25062943 0 -311816091.25062943 -545664739.89258575 0 0 0 0 -162670968.51622009 -344512862.38735962 0 -344512862.38735962 -458867297.88186264 0 0 0 0 -145244901.97980118 -299243726.0130806 0 -299243726.0130806 -355719245.76502991 0 0 0 0 -332722390.00060654 -461448814.58499646 0 -461448814.58499646 -469893480.82646179 0 0 0 0 60130987.430839539 -515908202.27433014 0 -515908202.27433014 -704391981.5109024 0 0 0 0 -96726420.018706322 -462243063.58649826 0 -462243063.58649826 -722690908.83995056 0 0 0 0 -101327368.48235321 -460990462.93928909 0 -460990462.93928909 -504069747.58405685 0 0 0 0 23687545.321498871 -440806361.11842537 0 -440806361.11842537 -853983101.539711 0 0 0 0 226330367.24285507 -641258126.3277874 0 -641258126.3277874 -774088885.44371033 0 0 0 0 265095372.85468197 -726855107.27022886 0 -726855107.27022886 -275211742.5509491 0 0 0 0 66839943.057365417 -567085010.19876862 0 -567085010.19876862 -401644898.80871201 0 0 0 0 116946127.02836227 -659990289.77653313 0 -659990289.77653313 -630999025.27618885 0 0 0 0 -186939862.95642853 -858921920.21273804 0 -858921920.21273804 -304577652.16885376 0 0 0 0 -99955994.227798462 -663300569.40568161 0 -663300569.40568161 -623071918.59621429 0 0 0 0 -222921187.80375671 -551456442.42898941 0 -551456442.42898941 -612952088.83573914 0 0 0 0 -366148166.98307037 -731505504.68399811 0 -731505504.68399811 -621582534.618927 0 0 0 0 -650547593.68687439 -604234897.37850189 0 -604234897.37850189 -503514293.75342178 0 0 0 0 -618487141.46508789 -655104785.36891937 0 -655104785.36891937 -509391817.7852211 0 0 0 0 -700382908.8036499 -713512855.96916962 0 -713512855.96916962 -603732338.20367432 0 0 0 0 -842090833.79418945 -530117091.82711792 0 -530117091.82711792 -632799115.65493774 0 0 0 0 -1102142070.6354523 -402161740.88741302 0 -402161740.88741302 -596898140.3282547 0 0 0 0 -1026634617.3901215 -624621739.52542114 0 -624621739.52542114 -510433732.37973785 0 0 0 0 -619422768.30450439 -726890294.00868988 0 -726890294.00868988 -583020086.05935669 0 0 0 0 -1768018057.0116348 -672515501.43545151 0 -672515501.43545151 -238369985.46989441 0 0 0 0 -1743938141.1092181 -1322962943.7586904 0 -1322962943.7586904 -114770892.45860291 0 0 0 0 -1057202899.204834 -946253487.65240097 0 -946253487.65240097 -246252030.6581955 0 0 0 0 -1082980837.7164268 -763387808.64500427 0 -763387808.64500427 -343569082.3815155 0 0 0 0 -640744784.37379456 -836937731.15854263 0 -836937731.15854263 -360289692.48175049 0 0 0 0 -998848723.01527405 -990304171.19412231 0 -990304171.19412231 -322457805.56991577 0 0 0 0 -960737091.42397308 -1018481531.4717674 0 -1018481531.4717674 -247486152.65784454 0 0 0 0 -562885073.31321716 -946443995.73874283 0 -946443995.73874283 -259518641.10270309 0 0 0 0 -1068135056.6530619 -1497532519.7941313 0 -1497532519.7941313 -294270724.21826172 0 0 0 0 -391730836.39447975 -692725621.23571777 0 -692725621.23571777 -101004784.39571381 0 0 0 0 -285104483.03521729 -693414009.5003891 0 -693414009.5003891 -535959796.98498154 0 0 0 0 -690019599.13772583 -789868284.93885994 0 -789868284.93885994 -276301481.8775177 0 0 0 0 -321444427.35099792 -747156460.85565567 0 -747156460.85565567 -315608832.08294106 0 0 0 0 -432324060.67224503 -716041149.15287781 0 -716041149.15287781 -15074379.671035767 0 0 0 0 -47389484.776134491 -562257534.46954727 0 -562257534.46954727 -165044536.05200195 0 0 0 0 -345992459.2315979 -697488497.55555344 0 -697488497.55555344 -222664361.88149309 0 0 0 0 -348849484.90360451 -732445776.03271294 0 -732445776.03271294 -638671783.39305115 0 0 0 0 -685873474.87023163 -1196700380.0662441 0 -1196700380.0662441 -499093782.33892822 0 0 0 0 -626252929.01617432 -920271144.10116386 0 -920271144.10116386 -206850346.33782196 0 0 0 0 -219864424.3415184 -390700375.50123787 0 -390700375.50123787 587320980.59442711 0 0 0 0 -165046158.12385559 -375390830.83221245 0 -375390830.83221245 -253485748.41633511 0 0 0 0 31214904.039661407 -761487551.67160416 0 -761487551.67160416 960815726.68100834 0 0 0 0 98550838.687522888 109582521.66236782 0 109582521.66236782 560677132.4388814 0 0 0 0 958484801.52170181 -561617985.66821909 0 -561617985.66821909 -237404364.52519608 0 0 0 0 19710991.362033844 -619990131.93464279 0 -619990131.93464279 -122676744.84362411 0 0 0 0 -28249387.474243164 -278202851.79310226 0 -278202851.79310226 -85675592.94965744 0 0 0 0 2807112.9863471985 -512571848.57333183 0 -512571848.57333183 -133727054.22492218 0 0 0 0 87529994.71534729 -490105425.40333366 0 -490105425.40333366 -216475656.0733881 0 0 0 0 90121728.181640625 -454390405.90444374 0 -454390405.90444374 -230347066.69719601 0 0 0 0 89559135.948486328 -393106957.27852821 0 -393106957.27852821 -180952008.22565842 0 0 0 0 -68831393.421386719 -406828575.3142662 0 -406828575.3142662 -176888339.97301865 0 0 0 0 -64562137.350986004 -301429452.19704616 0 -301429452.19704616 -150151036.74342346 0 0 0 0 -14470941.099884033 -434919858.39779663 0 -434919858.39779663 -163834424.7392807 0 0 0 0 -226116039.03546143 -427541160.35919571 0 -427541160.35919571 -109931606.43925095 0 0 0 0 -47600741.53843689 -519327700.94318199 0 -519327700.94318199 -124762383.91319275 0 0 0 0 -178207420.1217041 -332217727.94913006 0 -332217727.94913006 -155673595.13478088 0 0 0 0 -325652141.67617035 -429951514.16017723 0 -429951514.16017723 -234685549.15558624 0 0 0 0 -404461656.58877563 -268491575.28765106 0 -268491575.28765106 -183489957.25051117 0 0 0 0 -367966397.02462769 -336840239.90775681 0 -336840239.90775681 -123102645.85834885 0 0 0 0 -344538297.43130493 -407423460.80137634 0 -407423460.80137634 -94472945.213393211 0 0 0 0 331933829.73322248 -141937827.9529835 0 -141937827.9529835 -71549372.533485413 0 0 0 0 -100545098.73434448 -506541053.99326324 0 -506541053.99326324 -82894305.977924347 0 0 0 0 1316420634.1522064 -167479388.49848557 0 -167479388.49848557 -484414783.21609497 0 0 0 0 308309160.71073914 -651590866.44948196 0 -651590866.44948196 -189442450.05588341 0 0 0 0 -3741070.5112228394 -450286214.09584904 0 -450286214.09584904 -149991982.97062683 0 0 0 0 -1626360645.059967 -524579722.80333138 0 -524579722.80333138 -422529186.17276764 0 0 0 0 -1315424.5507872775 -302748.85504404828 0 -302748.85504404828 4594774.5715203453 0 0 0 0 -792251334.31480408 -379970613.1619339 0 -379970613.1619339 -707662287.97872162 0 0 0 0 -458489501.97789001 -335722889.42098618 0 -335722889.42098618 -627879356.15145111 0 0 0 0 -647671320.95024109 -671300890.23094177 0 -671300890.23094177 -436259222.77815437 0 0 0 0 -1573767376.346283 -866955326.29129791 0 -866955326.29129791 -293127695.89475632 0 0 0 0 -1158374287.1423721 56837762.209623337 0 56837762.209623337 216311914.43797302 0 0 0 0 50323713.506195068 -1012418978.9967041 0 -1012418978.9967041 -470281998.9324646 0 0 0 0 -499321.62764525414 -2910720.6413683444 0 -2910720.6413683444 9996428.8255358264 0 0 0 0 -311480638.96526146 -465003530.19927275 0 -465003530.19927275 -187844699.08195496 0 0 0 0 -306945598.83418274 -421727538.76454926 0 -421727538.76454926 -77690507.376659393 0 0 0 0 -111900355.3114624 -356043297.05050468 0 -356043297.05050468 -226198214.44026566 0 0 0 0 -368651765.1685791 -252462273.99473953 0 -252462273.99473953 -348799165.11368561 0 0 0 0 -264690991.93347931 -459738519.10078812 0 -459738519.10078812 -97917362.442123413 0 0 0 0 4130813843.7372589 -627490716.12358475 0 -627490716.12358475 -1667214224.1836853 0 0 0 0 2253022774.1213531 2008159352.4115257 0 2008159352.4115257 620940986.0635376 0 0 0 0 -268848384.14671326 -1471734846.1287689 0 -1471734846.1287689 -322313786.93018341 0 0 0 0 848803416.4312439 178516327.77280426 0 178516327.77280426 855780926.37062836 0 0 0 0 566998.51015363634 -1213751.2561631724 0 -1213751.2561631724 3708858.2782268487 0 0 0 0 -878299847.2928772 -506038096.56264639 0 -506038096.56264639 -19907429.666412354 0 0 0 0 1290805.140594814 -3922547.1445596814 0 -3922547.1445596814 8904831.5305270888 0 0 0 0 -762362556.00563049 -199675378.97919464 0 -199675378.97919464 -39797104.605434418 0 0 0 0 -227339143.91644287 -421893541.94001389 0 -421893541.94001389 -19161592.878387451 0 0 0 0 -359995277.59713745 -259595780.74775696 0 -259595780.74775696 -160771036.63120842 0 0 0 0 -521205245.63969421 -416918458.86856461 0 -416918458.86856461 7174272.0547103882 0 0 0 0 -457918243.01947021 -263032415.59957886 0 -263032415.59957886 -20558022.544178963 0 0 0 0 -422178272.88240051 -332940423.47755432 0 -332940423.47755432 109651404.00079346 0 0 0 0 -252504058.15536499 -253114642.33653259 0 -253114642.33653259 26046618.155469894 0 0 0 0 -97779171.774261475 -347942216.26253891 0 -347942216.26253891 45652901.095172882 0 0 0 0 -233322663.55288696 -324841544.46236801 0 -324841544.46236801 197306581.65180206 0 0 0 0 167422580.5652771 -425141216.92477417 0 -425141216.92477417 20508989.951019287 0 0 0 0 -97763172.934753418 -379813942.18888092 0 -379813942.18888092 342053335.91906738 0 0 0 0 66971238.521347046 -498679967.92250824 0 -498679967.92250824 43991306.652565002 0 0 0 0 -219104315.13137817 -384488089.93430233 0 -384488089.93430233 101608030.06013489 0 0 0 0 -45606212.676422119 -477007895.51898956 0 -477007895.51898956 -103812300.54253006 0 0 0 0 10695708.746788025 -391060805.92938805 0 -391060805.92938805 -155798097.7992897 0 0 0 0 354585293.67601013 -403466289.28667068 0 -403466289.28667068 -159288340.09197998 0 0 0 0 -6706812.1281280518 -345534698.75440979 0 -345534698.75440979 -168354582.45602036 0 0 0 0 72824795.529602051 -426671946.04280472 0 -426671946.04280472 109740958.88790131 0 0 0 0 156531727.96487427 -355559078.62983322 0 -355559078.62983322 88441806.72535038 0 0 0 0 289422151.0813446 -518660018.53128433 0 -518660018.53128433 282429480.98471069 0 0 0 0 238164265.05361176 -346796785.75922775 0 -346796785.75922775 651274549.81365967 0 0 0 0 386247760.25645447 -353724125.60210037 0 -353724125.60210037 699534511.68477631 0 0 0 0 858714885.51928711 -36678449.389461517 0 -36678449.389461517 571720790.53038025 0 0 0 0 66620661.558227539 -96322293.470096588 0 -96322293.470096588 823611331.17593956 0 0 0 0 49344263.10736084 -163928187.23535156 0 -163928187.23535156 626028276.67515182 0 0 0 0 -80501040.314697266 -175319733.79677582 0 -175319733.79677582 277148635.75864601 0 0 0 0 -21822255.04776001 -302047893.96573448 0 -302047893.96573448 520654688.10970306 0 0 0 0 -269471975.195755 -225441722.11758804 0 -225441722.11758804 283652431.4103775 0 0 0 0 -91285231.42565918 -220540770.39632797 0 -220540770.39632797 167201837.98578739 0 0 0 0 -112011576.76344299 -8837395.4091281891 0 -8837395.4091281891 208573329.60908508 0 0 0 0 -115481081.90153503 -48427701.883037567 0 -48427701.883037567 367994467.40842438 0 0 0 0 14593971.722991943 52045121.716323853 0 52045121.716323853 424149268.59156609 0 0 0 0 115252633.19447327 161266152.23947525 0 161266152.23947525 200836680.00637054 0 0 0 0 -40499351.015380859 77211301.368888855 0 77211301.368888855 158340127.10386276 0 0 0 0 -6756479.7991556078 -3568865.2308576554 0 -3568865.2308576554 2839991.3280805703 0 0 0 0 122882118.61164856 223266226.65023422 0 223266226.65023422 560159843.72622681 0 0 0 0 -43975443.185699463 -81704203.446430206 0 -81704203.446430206 -80173486.19103241 0 0 0 0 270127577.25378418 -69656743.450426102 0 -69656743.450426102 15943678.606781006 0 0 0 0 577096.87669373304 -4357114.5871070679 0 -4357114.5871070679 1766834.3654433214 0 0 0 0 -1215613.2779507041 -346113.02428612486 0 -346113.02428612486 1779738.2189982571 0 0 0 0 -693019514.83401489 -78368586.101379395 0 -78368586.101379395 51457329.06426239 0 0 0 0 -723224302.89388275 -136756127.52444172 0 -136756127.52444172 220854953.09158325 0 0 0 0 -615153625.30496216 -134930616.44849396 0 -134930616.44849396 -186173680.55437469 0 0 0 0 -562614967.45407104 -374447918.16262054 0 -374447918.16262054 -271946225.10740662 0 0 0 0 -723651519.41342163 -146058971.65614319 0 -146058971.65614319 138986441.9936676 0 0 0 0 -598309092.82977295 -230205645.38315582 0 -230205645.38315582 91561459.535003662 0 0 0 0 -274839627.84576416 -126601950.81018066 0 -126601950.81018066 80495050.659091949 0 0 0 0 -467955359.95723724 -258127867.38367844 0 -258127867.38367844 133121949.85526276 0 0 0 0 -616719305.17311859 -354981303.70921135 0 -354981303.70921135 48531829.399749756 0 0 0 0 -507283689.14221191 -178309091.04000664 0 -178309091.04000664 -28068133.949241638 0 0 0 0 -284632212.43991089 -165460706.83993912 0 -165460706.83993912 66358698.850356102 0 0 0 0 -275081723.33924866 -140171504.78899384 0 -140171504.78899384 133758314.22151184 0 0 0 0 -3705836.1899261475 75573770.401229858 0 75573770.401229858 91087536.568649292 0 0 0 0 -167147041.6179657 -217070586.84901047 0 -217070586.84901047 -58021328.016857147 0 0 0 0 -601117094.53785706 -317941532.72138977 0 -317941532.72138977 91565789.295425415 0 0 0 0 -621080975.04151154 -509349475.59729958 0 -509349475.59729958 -234553246.40818787 0 0 0 0 -708085737.61346436 -181065064.53345108 0 -181065064.53345108 176126372.42459869 0 0 0 0 -745853007.32733154 -216950812.37319946 0 -216950812.37319946 235336477.05828857 0 0 0 0 -1051964918.2424622 -151105445.86568451 0 -151105445.86568451 431196825.08690643 0 0 0 0 -1036031976.6767578 -372615103.20582581 0 -372615103.20582581 231292619.18067002 0 0 0 0 -718108200.52175903 -74075564.983924866 0 -74075564.983924866 250912082.44367981 0 0 0 0 -805934581.88708496 -156779065.84568405 0 -156779065.84568405 225807443.79911804 0 0 0 0 -2322493.3708162084 -1389974.2135511264 0 -1389974.2135511264 957633.80338279065 0 0 0 0 -422576.86149288714 -1385486.0521905841 0 -1385486.0521905841 1799611.9053149503 0 0 0 0 -1498440550.4494629 83302543.598358154 0 83302543.598358154 413643396.27529907 0 0 0 0 1320802411.4369202 -371403199.82876587 0 -371403199.82876587 362796597.0634985 0 0 0 0 27995265.713317871 -118629936.28287506 0 -118629936.28287506 -125121705.73802948 0 0 0 0 137356032.58679199 -226011634.53149033 0 -226011634.53149033 -76080245.481872559 0 0 0 0 -284555114.95944977 -87134644.164691925 0 -87134644.164691925 117678031.92650604 0 0 0 0 -101171270.3857193 -358121399.84044075 0 -358121399.84044075 515683617.76282501 0 0 0 0 48957078.605163574 -212915851.09227371 0 -212915851.09227371 -82280191.089321136 0 0 0 0 -113907976.63760376 -182723720.11940765 0 -182723720.11940765 -87380522.508201599 0 0 0 0 3811004.5900824554 -4214932.8689077999 0 -4214932.8689077999 2402617.1691008583 0 0 0 0 -9222874.5358886719 -77677954.754524231 0 -77677954.754524231 -135734966.6434803 0 0 0 0 -32436016.511276245 -157229182.76261139 0 -157229182.76261139 -93149743.351076126 0 0 0 0 -50825429.46635437 -74572719.602394104 0 -74572719.602394104 -116153809.50773621 0 0 0 0 -23153142.417755127 -16514034.181375504 0 -16514034.181375504 95280.400707244873 0 0 0 0 -38263292.924674988 -17804813.690565109 0 -17804813.690565109 25912215.641746521 0 0 0 0 -30119722.444725037 -36264984.901325226 0 -36264984.901325226 -4175116.5790138245 0 0 0 0 3308564.6669260263 -4875156.3963475451 0 -4875156.3963475451 4195909.5562133454 0 0 0 0 -227859224.73022461 26827358.763019562 0 26827358.763019562 3403944.4108486176 0 0 0 0 -20240913.740699768 -4623759.3555107117 0 -4623759.3555107117 2774455.0650863647 0 0 0 0 -9570083.7292022705 -9989545.5726013184 0 -9989545.5726013184 -9202270.4317131042 0 0 0 0 -8374415.0439605713 -14491743.498577118 0 -14491743.498577118 1676434.0909500122 0 0 0 0 -2477605.9391479492 19532485.442046165 0 19532485.442046165 34125835.564754486 0 0 0 0 -1920822.9420520142 -1501298.5538799148 0 -1501298.5538799148 2636168.8627894744 0 0 0 0 23493816.379959106 21680119.670024872 0 21680119.670024872 30776237.035606384 0 0 0 0 -89227815.922637939 -37024884.650157928 0 -37024884.650157928 71463424.319503784 0 0 0 0 -289729618.95613098 -480759828.30682182 0 -480759828.30682182 -326382823.42640305 0 0 0 0 15881764.561925888 62960725.463804722 0 62960725.463804722 278915044.5385437 0 0 0 0 -714780.01438910514 -596540.23259275034 0 -596540.23259275034 1088904.367397191 0 0 0 0 -100151028.17019653 -198025408.31642914 0 -198025408.31642914 -375698163.98009491 0 0 0 0 -139385023.39076233 -53244484.225852966 0 -53244484.225852966 -56620545.634912491 0 0 0 0 -285175733.94673157 -109795285.45145607 0 -109795285.45145607 -59114858.149497986 0 0 0 0 -2670411.1821346991 -6889427.9647308439 0 -6889427.9647308439 4205913.5468025059 0 0 0 0 -189954564.11457062 -282443680.08732986 0 -282443680.08732986 57362598.778774261 0 0 0 0 -305611890.71633911 -116292388.86526871 0 -116292388.86526871 -66415183.024662018 0 0 0 0 -890572707.60891724 -57613830.142435074 0 -57613830.142435074 298670659.70752811 0 0 0 0 -825012.98278486729 -3854772.5874901488 0 -3854772.5874901488 3615099.9489781447 0 0 0 0 3125706637.257225 -1335487381.2364841 0 -1335487381.2364841 -162667188.95230484 0 0 0 0 2668805772.3751755 -397055668.86807632 0 -397055668.86807632 231224639.15763092 0 0 0 0 717316.22804956138 -259487.66704124212 0 -259487.66704124212 4476869.8818968926 0 0 0 0 2873952473.7483215 -552560237.83725929 0 -552560237.83725929 -204483779.52558708 0 0 0 0 -1058105710.9931335 614258889.87284851 0 614258889.87284851 123398220.54425812 0 0 0 0 -1611955011.2619781 461377445.0291481 0 461377445.0291481 343540532.9602623 0 0 0 0 -562081474.45941162 -91340670.30729866 0 -91340670.30729866 168308616.77465057 0 0 0 0 -428498820.34112549 86267074.125743866 0 86267074.125743866 373010119.7636261 0 0 0 0 -305651451.37042236 -336814654.59635448 0 -336814654.59635448 602050399.32649994 0 0 0 0 312336949.99194336 -664825354.10892487 0 -664825354.10892487 424133067.55158424 0 0 0 0 -33951359.605102539 -300985069.81452942 0 -300985069.81452942 349891303.63666153 0 0 0 0 -40542284.329467773 -442108101.05291748 0 -442108101.05291748 758491109.08789825 0 0 0 0 942288453.24707031 -144443199.22595215 0 -144443199.22595215 614810815.72639084 0 0 0 0 430860677.98937988 -614509415.20179367 0 -614509415.20179367 541398626.44724274 0 0 0 0 305936781.38946533 -385209259.8115387 0 -385209259.8115387 812590157.54389954 0 0 0 0 283022197.56481934 -603057782.70398712 0 -603057782.70398712 581722194.41948318 0 0 0 0 337329.06743674725 -1593208.6874990417 0 -1593208.6874990417 645494.01524564624 0 0 0 0 63434290.174186707 -542109233.65872192 0 -542109233.65872192 1074171627.6332932 0 0 0 0 110871372.25827026 -139659888.92486954 0 -139659888.92486954 -307608542.50439453 0 0 0 0 100711320.27708435 -704870443.77353477 0 -704870443.77353477 916821572.86526871 0 0 0 0 37535118.138473511 -464914015.20040131 0 -464914015.20040131 860275992.74427795 0 0 0 0 201418651.8659668 -423633321.12677765 0 -423633321.12677765 311964181.90218902 0 0 0 0 -304140127.98618954 -464963628.64264399 0 -464963628.64264399 862975690.95516205 0 0 0 0 187491384.22479248 -231671062.52325821 0 -231671062.52325821 173341961.0961628 0 0 0 0 -671092830.02650452 -716292021.32035732 0 -716292021.32035732 -247631826.0426178 0 0 0 0 1369454.7938890308 -3383139.00871915 0 -3383139.00871915 3184265.9926284701 0 0 0 0 -1037055151.699913 -1105952298.1522818 0 -1105952298.1522818 -147168221.64276886 0 0 0 0 -364126345.92495728 -242493131.14207458 0 -242493131.14207458 120053245.4906311 0 0 0 0 -222314074.42286682 -274936587.03549004 0 -274936587.03549004 -399077658.54183912 0 0 0 0 553474117.70385742 -283598590.49329948 0 -283598590.49329948 -418562311.76342964 0 0 0 0 532135179.4506073 -925412657.81271839 0 -925412657.81271839 661567668.54723358 0 0 0 0 1802177455.3372498 -674038055.66950035 0 -674038055.66950035 -225972900.87149811 0 0 0 0 2286711893.3808212 -1529926288.9879017 0 -1529926288.9879017 407557458.66751099 0 0 0 0 1989432871.5232391 -297981688.45838356 0 -297981688.45838356 184034311.20100713 0 0 0 0 1651753153.1765747 -983471112.09062099 0 -983471112.09062099 -634316839.64778137 0 0 0 0 1088822228.4069138 -95820554.591084957 0 -95820554.591084957 -104226073.6019249 0 0 0 0 1618024690.5540619 -1113227119.6492996 0 -1113227119.6492996 314924080.43998337 0 0 0 0 3997548.2049145051 -602346.2923887372 0 -602346.2923887372 -2723417.7909058593 0 0 0 0 -56680390.342758179 -118808533.36270905 0 -118808533.36270905 296855954.73018265 0 0 0 0 -4775336.3243560791 -38801814.628396988 0 -38801814.628396988 -67145466.212614059 0 0 0 0 -96536449.180505276 -306160301.74345648 0 -306160301.74345648 -429089724.16596222 0 0 0 0 1275611.8430070183 226860.46548123658 0 226860.46548123658 -849383.96872423589 0 0 0 0 500852525.17562866 -243433990.71069717 0 -243433990.71069717 199916846.55262184 0 0 0 0 -168814181.71406555 -501017313.66527367 0 -501017313.66527367 -307155164.21881485 0 0 0 0 31027661.588768005 -210245965.62356734 0 -210245965.62356734 -754397482.59724808 0 0 0 0 -37164990.355239868 -1742093.6488742828 0 -1742093.6488742828 -96066905.650806427 0 0 0 0 5395689.3933163434 -4548046.1542178802 0 -4548046.1542178802 -3134676.4511516374 0 0 0 0 665601553.93991089 -759589541.85022736 0 -759589541.85022736 832320942.29822159 0 0 0 0 -608723464.87371826 -483867331.71617126 0 -483867331.71617126 -504133724.06068802 0 0 0 0 -985039204.26429749 -571007254.56698036 0 -571007254.56698036 -398294841.00637054 0 0 0 0 1163138133.6244965 -1052938511.7304792 0 -1052938511.7304792 122074567.7828598 0 0 0 0 1213959636.2613525 -948386836.0195694 0 -948386836.0195694 295418444.22770691 0 0 0 0 853625509.8082428 -1075971998.4693413 0 -1075971998.4693413 994434398.16754532 0 0 0 0 287710695.96751404 -523708518.31020164 0 -523708518.31020164 460613021.96158218 0 0 0 0 470037042.5210762 -206453618.07428312 0 -206453618.07428312 74797099.662166595 0 0 0 0 7808590.5778889656 -6099347.2413332723 0 -6099347.2413332723 -5164831.3685165551 0 0 0 0 249189911.95805359 -234535749.494524 0 -234535749.494524 300776979.89393806 0 0 0 0 6256697.0275105201 -4015943.9759414457 0 -4015943.9759414457 -9639725.5536766909 0 0 0 0 -87111786.448838711 -99563091.420227319 0 -99563091.420227319 -98311106.903846741 0 0 0 0 371718182.34255981 -481408204.05856323 0 -481408204.05856323 499667549.08896637 0 0 0 0 14052699.40742927 -1085977.0303198472 0 -1085977.0303198472 -5016926.3917298317 0 0 0 0 734276520.01322937 -175570595.641119 0 -175570595.641119 -4341977.2130470276 0 0 0 0 13216301.12979126 -319220694.23683357 0 -319220694.23683357 286292605.68547821 0 0 0 0 822061825.04554749 178447655.8253212 0 178447655.8253212 -39672078.994169235 0 0 0 0 -169792051.44153738 77914404.829271108 0 77914404.829271108 95405613.772754669 0 0 0 0 830564549.2071991 -123211464.15278721 0 -123211464.15278721 -181926781.45686722 0 0 0 0 3412677.186679367 -3417857.9991319999 0 -3417857.9991319999 -6006598.3279004861 0 0 0 0 1083716177.7595582 -487499137.77549583 0 -487499137.77549583 174148770.86523056 0 0 0 0 1133426351.2468567 -895544849.00761414 0 -895544849.00761414 260768719.5345211 0 0 0 0 948997599.29977417 -302902112.27529335 0 -302902112.27529335 -29574968.226301193 0 0 0 0 1673849531.7641602 -482984581.98570061 0 -482984581.98570061 88724868.686319351 0 0 0 0 1677791061.8586273 -932354489.6033287 0 -932354489.6033287 142233502.54225922 0 0 0 0 1330180146.1607132 -806729583.94372654 0 -806729583.94372654 132360124.06690598 0 0 0 0 -1657632281.5532074 -7327592.823802948 0 -7327592.823802948 -215751735.51592541 0 0 0 0 -965783320.48031616 -82264817.746768951 0 -82264817.746768951 -281915582.30779266 0 0 0 0 100120530.83666992 -129935435.36038208 0 -129935435.36038208 -99861571.94071579 0 0 0 0 -206899237.23649597 -143026097.78112793 0 -143026097.78112793 -90674288.120634079 0 0 0 0 -237918029.05863953 11050278.482278824 0 11050278.482278824 419241698.71584272 0 0 0 0 468699597.28472137 -297300912.58106041 0 -297300912.58106041 -24280290.121730804 0 0 0 0 -1175246.7123285159 136624.15034816787 0 136624.15034816787 2331848.5991433952 0 0 0 0 -299605023.43701935 265413733.40047169 0 265413733.40047169 -140351994.625 0 0 0 0 -529472605.57849121 76716830.234287262 0 76716830.234287262 503814532.42446327 0 0 0 0 -573023447.25588226 -95674648.886167526 0 -95674648.886167526 -136362101.17749023 0 0 0 0 -289090090.89172363 259762095.21866131 0 259762095.21866131 -331408817.33460236 0 0 0 0 -994123167.34442139 323393480.35132599 0 323393480.35132599 221501582.774333 0 0 0 0 -1089182499.2984619 89615965.557584763 0 89615965.557584763 -325569385.78098297 0 0 0 0 -1131459203.9468212 726822104.90380907 0 726822104.90380907 -361674882.53591919 0 0 0 0 805295691.05981445 923689733.17722321 0 923689733.17722321 80846207.291995049 0 0 0 0 3082725312.0590973 -2215253036.6019735 0 -2215253036.6019735 1457851325.2867088 0 0 0 0 5334172.12690451 -298665.37572245672 0 -298665.37572245672 -1470735.3679634104 0 0 0 0 5039998808.8256226 -37599752.727743149 0 -37599752.727743149 -646955379.83164978 0 0 0 0 825209672.56335449 150927897.16443062 0 150927897.16443062 155210018.63989353 0 0 0 0 3473491742.5303192 -23234138.143754959 0 -23234138.143754959 -107062955.19144058 0 0 0 0 -1841819797.3199768 562057534.64941978 0 562057534.64941978 -123125043.01670265 0 0 0 0 2340454475.0171509 -1306787500.6626792 0 -1306787500.6626792 690933243.95504761 0 0 0 0 2979562747.2102203 -2367466097.6976433 0 -2367466097.6976433 2009099942.305582 0 0 0 0 614722.34484898672 590715.30139077455 0 590715.30139077455 2594422.9395286404 0 0 0 0 1662302901.6371689 -905951411.45042253 0 -905951411.45042253 1210700044.1314926 0 0 0 0 56151482.558044434 1077099367.5374374 0 1077099367.5374374 -736331708.32566285 0 0 0 0 1993729987.749382 307052.46023654938 0 307052.46023654938 -296036947.67142868 0 0 0 0 1655767424.5937815 -541431320.06767333 0 -541431320.06767333 -279247919.55150986 0 0 0 0 832794892.49168396 -96596939.946842194 0 -96596939.946842194 -282276678.32809496 0 0 0 0 1671642310.3716736 -461584731.68453026 0 -461584731.68453026 -787836639.33277726 0 0 0 0 -317430870.21819067 -386155212.78986752 0 -386155212.78986752 -58453703.142341614 0 0 0 0 -185055.29591779411 -729247.45302053541 0 -729247.45302053541 2400680.6900501791 0 0 0 0 -315911692.87969971 -135888473.35594368 0 -135888473.35594368 -151564224.67343903 0 0 0 0 -306621158.20306396 -144766286.48599625 0 -144766286.48599625 -154800075.52425766 0 0 0 0 -312749099.32565308 -165980657.49985313 0 -165980657.49985313 -121533883.91011047 0 0 0 0 -295490266.06156921 -127179890.8806324 0 -127179890.8806324 -169749982.64759827 0 0 0 0 -272823494.04089355 -143244573.18761826 0 -143244573.18761826 -165380477.48093414 0 0 0 0 -1341977.1483721957 -677612.74822967872 0 -677612.74822967872 4627203.7279087193 0 0 0 0 -247658862.43005371 -152589988.27248764 0 -152589988.27248764 -176831487.98395634 0 0 0 0 -244351917.00167847 -208908841.40462303 0 -208908841.40462303 -121109968.22533417 0 0 0 0 -1037959838.4629974 -1258393170.8960171 0 -1258393170.8960171 1527738011.3202591 0 0 0 0 -192850958.17672729 -242734629.68674088 0 -242734629.68674088 -155863320.58091402 0 0 0 0 71361043.303543091 -264154308.57180023 0 -264154308.57180023 -154227590.87720871 0 0 0 0 -168059100.27139282 -220902717.30217934 0 -220902717.30217934 -153762829.62178802 0 0 0 0 -277815372.00265503 -179247262.45542908 0 -179247262.45542908 -165793726.81726456 0 0 0 0 -267314997.08761597 -276573989.16480255 0 -276573989.16480255 -141531430.90105152 0 0 0 0 -216887952.33746338 -232674491.23516846 0 -232674491.23516846 -157693732.70149231 0 0 0 0 -341171200.40359497 -225866395.70867538 0 -225866395.70867538 -150806403.09368324 0 0 0 0 -275063351.3090744 -174927556.4481988 0 -174927556.4481988 -160872620.27550507 0 0 0 0 -330257523.79544067 -201696395.93648911 0 -201696395.93648911 -189575080.81546402 0 0 0 0 -289708484.3644104 -160866506.4523735 0 -160866506.4523735 -173832165.70233536 0 0 0 0 -303205740.24080658 -221079908.74747753 0 -221079908.74747753 -183440673.26527405 0 0 0 0 -438448100.60336304 -250923690.94189072 0 -250923690.94189072 -190024458.61442947 0 0 0 0 -521686440.5148468 -300412502.9677372 0 -300412502.9677372 -300351394.93405914 0 0 0 0 -387809994.78393555 -220998980.4147377 0 -220998980.4147377 -462083336.95283508 0 0 0 0 -429642878.14996338 -245358454.1684494 0 -245358454.1684494 -263045705.88881683 0 0 0 0 -331171436.80441284 -174627166.17027473 0 -174627166.17027473 -258560892.6086731 0 0 0 0 -403373421.395401 -175741742.79179096 0 -175741742.79179096 -543818945.35808945 0 0 0 0 -252478504.845047 -260107334.16632271 0 -260107334.16632271 -497729517.33288193 0 0 0 0 -595450810.81228638 -317388688.77206802 0 -317388688.77206802 -461692813.05591744 0 0 0 0 -498627079.4021759 -251124193.32911682 0 -251124193.32911682 -843202854.94142532 0 0 0 0 -188827570.64912415 -468806388.69128418 0 -468806388.69128418 -747480522.04630852 0 0 0 0 -168352099.44483948 -359705264.23889637 0 -359705264.23889637 -511097839.43721867 0 0 0 0 772157274.06775665 -379045918.91477656 0 -379045918.91477656 -1058489244.147316 0 0 0 0 127954763.45730591 -379066705.44840813 0 -379066705.44840813 -537221687.51792717 0 0 0 0 -214321362.9569931 -375465375.91260767 0 -375465375.91260767 -158381523.48002625 0 0 0 0 332779285.19570923 -956666036.66637611 0 -956666036.66637611 181150509.12196922 0 0 0 0 650142769.84932709 -141461780.25741291 0 -141461780.25741291 -70590863.317904949 0 0 0 0 1428998189.3432159 -526316775.89773369 0 -526316775.89773369 -994143076.5716095 0 0 0 0 757236214.35513306 -332744594.75033379 0 -332744594.75033379 -1041608657.4636803 0 0 0 0 685068313.62229156 -247130813.27248001 0 -247130813.27248001 -943708977.78501511 0 0 0 0 1052968329.8457336 -378673308.63423538 0 -378673308.63423538 -1090640439.8201199 0 0 0 0 1105195247.1499786 -300613035.69276953 0 -300613035.69276953 -978091272.2467041 0 0 0 0 927698492.29722595 -372540434.37901974 0 -372540434.37901974 -789268789.04092026 0 0 0 0 995282778.75680542 -307746757.1289854 0 -307746757.1289854 -945823575.41420221 0 0 0 0 10744516.517906189 -125780050.97106981 0 -125780050.97106981 -319176933.71587944 0 0 0 0 -86946483.781829834 -283153214.74404907 0 -283153214.74404907 -425673679.05916882 0 0 0 0 -1157028762.4653625 -836203098.33593464 0 -836203098.33593464 -694680506.71529579 0 0 0 0 -1541556597.495285 -196714895.4678421 0 -196714895.4678421 -825397289.11629677 0 0 0 0 32694516.210678101 -302886312.05494547 0 -302886312.05494547 -1286807245.7172852 0 0 0 0 167357530.48847961 -524360384.05493832 0 -524360384.05493832 -1004484221.6471233 0 0 0 0 1968794422.564621 -871964245.69686127 0 -871964245.69686127 16713560.717277527 0 0 0 0 1600560538.5489941 -986811413.43541813 0 -986811413.43541813 179838498.86133194 0 0 0 0 1588132543.6887283 -923401125.84421825 0 -923401125.84421825 257109423.10515404 0 0 0 0 1918914967.256485 -679946936.17549515 0 -679946936.17549515 145442160.69859123 0 0 0 0 855249.13848959166 -510308.12245910615 0 -510308.12245910615 -1609913.2112712972 0 0 0 0 2221080133.3959198 -767713927.00430202 0 -767713927.00430202 85477030.721702576 0 0 0 0 2064052.3605868919 -2105945.4584991336 0 -2105945.4584991336 -3952885.3168625981 0 0 0 0 -283493902.98581696 -65799794.821657181 0 -65799794.821657181 12427436.061004639 0 0 0 0 -904784228.7934494 -849168357.79550838 0 -849168357.79550838 -591848460.56468773 0 0 0 0 621691190.47977066 -245153360.08297157 0 -245153360.08297157 -353425296.50626755 0 0 0 0 1393143309.5872765 -898390803.43171501 0 -898390803.43171501 -1337821303.3524456 0 0 0 0 1436528295.8696899 -584123177.51107216 0 -584123177.51107216 -829106125.07687759 0 0 0 0 1464273399.6592865 -1415458149.0385027 0 -1415458149.0385027 -751894101.6401844 0 0 0 0 3613904626.6039658 -634265168.02285326 0 -634265168.02285326 -670698413.2285881 0 0 0 0 2239440086.6467285 -1278334911.4389439 0 -1278334911.4389439 -971341442.43908787 0 0 0 0 2067919393.3286667 -1164655525.0318556 0 -1164655525.0318556 -647871484.35163498 0 0 0 0 2075276627.0738068 -1226571206.1314812 0 -1226571206.1314812 -828864260.28919411 0 0 0 0 1710655550.341217 -1174915377.8662739 0 -1174915377.8662739 -758173232.29103088 0 0 0 0 2221148298.2676973 -932774856.55729926 0 -932774856.55729926 -654739415.17264557 0 0 0 0 1558786269.1231384 -1155638593.5380306 0 -1155638593.5380306 -177395962.08166313 0 0 0 0 44795211.280170441 -31909959.808302402 0 -31909959.808302402 43810558.702148438 0 0 0 0 3847746.2254558429 -3713202.4757394195 0 -3713202.4757394195 2653414.5613796432 0 0 0 0 68388929.081413269 -99548623.592390537 0 -99548623.592390537 41244206.984466553 0 0 0 0 2117175192.0271912 -236230446.7378056 0 -236230446.7378056 -31513194.062915802 0 0 0 0 1910071559.6463013 -908569383.56715775 0 -908569383.56715775 -372859980.21600342 0 0 0 0 2005183013.8298721 -1154970853.3403716 0 -1154970853.3403716 -343824121.38344193 0 0 0 0 1780111632.8022079 -1212398974.8889914 0 -1212398974.8889914 423164077.1850338 0 0 0 0 1920955140.2563324 -1322971816.6312885 0 -1322971816.6312885 -336418493.64187139 0 0 0 0 1562565163.0854034 -1306259871.5566206 0 -1306259871.5566206 384019031.36795807 0 0 0 0 1884963347.9331055 -1251338275.1741791 0 -1251338275.1741791 52651777.255809784 0 0 0 0 2274560649.9104919 -1597277963.1971245 0 -1597277963.1971245 119184457.00918508 0 0 0 0 1871528478.6841888 -1502419494.4028435 0 -1502419494.4028435 -376835744.06532097 0 0 0 0 1863604338.3822021 -1062269615.7008142 0 -1062269615.7008142 -654314403.50537634 0 0 0 0 1871602632.2527235 -877484969.57371688 0 -877484969.57371688 -347604490.39411545 0 0 0 0 2725966184.3438263 -1349535215.2075233 0 -1349535215.2075233 -186528438.75183916 0 0 0 0 2173050620.9983234 -1260747832.2594247 0 -1260747832.2594247 242861958.18846512 0 0 0 0 5233731110.0746841 -2017612181.8636808 0 -2017612181.8636808 429829033.48713493 0 0 0 0 12480787.129724249 -1990152.7554705464 0 -1990152.7554705464 -3476997.9918406531 0 0 0 0 1314215250.0309067 -2284834098.7494621 0 -2284834098.7494621 3233134734.0576897 0 0 0 0 1664294308.65168 -1571221482.5109162 0 -1571221482.5109162 1073313738.7589417 0 0 0 0 15405091.519932337 -3449505.0207705423 0 -3449505.0207705423 -7306731.3458352536 0 0 0 0 13702630.841026306 -4736556.8398666382 0 -4736556.8398666382 -871618.11740112305 0 0 0 0 14536012.934028625 -10740009.548262261 0 -10740009.548262261 -5726364.5804632716 0 0 0 0 25270107.235641479 -16270231.694675446 0 -16270231.694675446 -21527656.507781982 0 0 0 0 612624628.90640259 -491332479.2322464 0 -491332479.2322464 879023766.53346241 0 0 0 0 16836565.62739563 -17204416.556793213 0 -17204416.556793213 -17184994.587272644 0 0 0 0 20370379.028972626 -12488452.867733002 0 -12488452.867733002 -12793294.567565918 0 0 0 0 23780165.561752319 -22232211.280349731 0 -22232211.280349731 -7680787.7675018311 0 0 0 0 15412360.095833004 -5873684.4871927574 0 -5873684.4871927574 -13156964.315426288 0 0 0 0 -1248023837.6298065 -151360522.94042206 0 -151360522.94042206 324074003.33385849 0 0 0 0 -997597724.70105743 -155465304.30645084 0 -155465304.30645084 -51477997.515069962 0 0 0 0 -275812167.17733765 98332197.559691191 0 98332197.559691191 31984370.196769714 0 0 0 0 -9488668.3568878174 -223984667.21976233 0 -223984667.21976233 -318046601.42822647 0 0 0 0 1865545509.3447232 -211737341.92208043 0 -211737341.92208043 -770433946.39704323 0 0 0 0 1394861247.4589386 -408681504.48922539 0 -408681504.48922539 -418348404.96977234 0 0 0 0 2937984056.2879791 -17715595.030508995 0 -17715595.030508995 -334775720.6534853 0 0 0 0 1404455468.3268433 17172009.649288177 0 17172009.649288177 -116652729.75254911 0 0 0 0 852178397.64798737 361867311.66971874 0 361867311.66971874 -98547332.323940277 0 0 0 0 1425044637.8229065 134889381.48983002 0 134889381.48983002 325972821.28571129 0 0 0 0 3025365440.3995056 -21925352.808944702 0 -21925352.808944702 241848334.3227458 0 0 0 0 4098792351.4322548 1252832620.5189426 0 1252832620.5189426 1713677733.7622223 0 0 0 0 2212617306.9498596 -949104783.47275162 0 -949104783.47275162 4687899791.133831 0 0 0 0 895634120.96801472 26106455.005499959 0 26106455.005499959 152494218.85340118 0 0 0 0 2191388446.3689728 -606935538.92407608 0 -606935538.92407608 522339364.05966949 0 0 0 0 893825740.64344788 94576501.424617767 0 94576501.424617767 2130419940.9376793 0 0 0 0 -436058866.58685303 -346598838.54112434 0 -346598838.54112434 1037500769.5348253 0 0 0 0 -693441215.25440216 283468877.13038445 0 283468877.13038445 -481394190.08113098 0 0 0 0 -411188294.13744354 238256153.09594536 0 238256153.09594536 933573580.7317028 0 0 0 0 -456187537.08923388 -266415503.80928713 0 -266415503.80928713 -221408710.3469696 0 0 0 0 -3475242.8160286658 -13200321.428482182 0 -13200321.428482182 13818575.356846195 0 0 0 0 -1619468747.84552 -521026130.5898304 0 -521026130.5898304 459731779.27793312 0 0 0 0 -1941661113.0829468 -1216494655.6122208 0 -1216494655.6122208 -651014418.30183411 0 0 0 0 -33477481.553840637 -23159292.565652847 0 -23159292.565652847 26672041.589260101 0 0 0 0 -29157642.570566177 -21879999.812767267 0 -21879999.812767267 22617952.57257843 0 0 0 0 -31808506.329864502 -9996464.5967826843 0 -9996464.5967826843 47008395.800796509 0 0 0 0 -30687923.418434143 -17478689.063594818 0 -17478689.063594818 32189290.865978241 0 0 0 0 -34940277.35243988 -17887538.569944382 0 -17887538.569944382 28391622.651298523 0 0 0 0 -43136993.544616699 -20594572.835330963 0 -20594572.835330963 36731614.884155273 0 0 0 0 -34247806.245231628 -31596233.782827377 0 -31596233.782827377 9696572.5255126953 0 0 0 0 -67238311.186275482 -85402135.539018631 0 -85402135.539018631 20202787.251396179 0 0 0 0 -7787792.1682662964 -32559714.281497955 0 -32559714.281497955 5338712.8987617493 0 0 0 0 -1151744.6571030542 -13516165.031839639 0 -13516165.031839639 16484969.958532512 0 0 0 0 29443393.148178101 -21658056.986129761 0 -21658056.986129761 -4898878.7685852051 0 0 0 0 1512080.3033933863 -2690030.9796627238 0 -2690030.9796627238 1880164.1634443179 0 0 0 0 -123642289.9440918 -1858963.7600288391 0 -1858963.7600288391 27449456.96509552 0 0 0 0 -62207473.147529602 -104716807.01432991 0 -104716807.01432991 68320144.759403229 0 0 0 0 -280546.40104354173 -17445039.712784532 0 -17445039.712784532 16003400.711251829 0 0 0 0 43264380.415908813 13302467.241939545 0 13302467.241939545 -20920605.135858536 0 0 0 0 11691257.738336727 -28390335.405146528 0 -28390335.405146528 -15841435.674413161 0 0 0 0 15920559.157745361 -79942905.28364563 0 -79942905.28364563 112844572.3647511 0 0 0 0 84093362.699783325 -53306401.009807587 0 -53306401.009807587 -19921440.714035034 0 0 0 0 69921748.865020752 -20304480.80247879 0 -20304480.80247879 -20297202.178569794 0 0 0 0 79397809.771827698 -55965819.519952774 0 -55965819.519952774 987461.40321350098 0 0 0 0 37483031.840454102 -57529974.910243988 0 -57529974.910243988 -3700754.2860794067 0 0 0 0 90417136.137229919 -52124733.698799133 0 -52124733.698799133 -27080276.542098999 0 0 0 0 101416413.86488342 -27271608.951705933 0 -27271608.951705933 -9637587.1619367599 0 0 0 0 -3126434.7361760065 -2001311.6227167845 0 -2001311.6227167845 -798404.62303950265 0 0 0 0 -31686792.749107361 -53106616.809108734 0 -53106616.809108734 -5543495.6763305664 0 0 0 0 27019697.9175006 -41654002.680970475 0 -41654002.680970475 3344714.9712250829 0 0 0 0 -81070159.51209259 50532501.4205513 0 50532501.4205513 -12756170.284210205 0 0 0 0 148961347.00305939 -415085831.66308594 0 -415085831.66308594 -265149922.61740494 0 0 0 0 160976151.8969574 -230126770.35647202 0 -230126770.35647202 1254663.7204201221 0 0 0 0 -243472981.34003079 -340046892.64199829 0 -340046892.64199829 48577233.796569824 0 0 0 0 18433701.426980518 -50537722.155173555 0 -50537722.155173555 27658039.785777137 0 0 0 0 204752517.11638641 -83280248.907852173 0 -83280248.907852173 -348737088.1557312 0 0 0 0 -237540751.05940068 -156677000.30212402 0 -156677000.30212402 126416770.61138916 0 0 0 0 -36902031.97309494 -18241285.487005234 0 -18241285.487005234 37309783.739356995 0 0 0 0 -65945449.959228516 -10894889.615325928 0 -10894889.615325928 78400032.345703125 0 0 0 0 1268840.4578484669 -12456597.860423081 0 -12456597.860423081 10409856.339885727 0 0 0 0 -26218400.746719755 -16525073.700016651 0 -16525073.700016651 33464217.648777112 0 0 0 0 -15812804.864341736 -20448353.405324936 0 -20448353.405324936 31342443.630523682 0 0 0 0 -29888608.490959167 -5703886.0261802673 0 -5703886.0261802673 46175232.901227951 0 0 0 0 -15925906.77421521 -24484285.755501404 0 -24484285.755501404 49220270.385357566 0 0 0 0 -186568431.00671959 -198761331.6427002 0 -198761331.6427002 384636387.85798645 0 0 0 0 187022330.0513413 -265596214.66317463 0 -265596214.66317463 127768921.31695557 0 0 0 0 193745298.8160013 -416060831.58452225 0 -416060831.58452225 252596045.55981445 0 0 0 0 -316316852.3680687 -27322963.485443115 0 -27322963.485443115 76676091.493862152 0 0 0 0 -317946795.27344131 134437352.40397644 0 134437352.40397644 271208.09121704102 0 0 0 0 -279648255.70209122 53154797.169143677 0 53154797.169143677 167703985.31130981 0 0 0 0 -547909125.32876778 399801109.45074463 0 399801109.45074463 394407155.68014526 0 0 0 0 -240233129.96592188 -208856166.01237488 0 -208856166.01237488 508585284.18597412 0 0 0 0 -621694917.01434135 219957221.37103271 0 219957221.37103271 600326431.16650391 0 0 0 0 14199396.304357529 -661968165.11567688 0 -661968165.11567688 964813745.50292969 0 0 0 0 38186605.257583618 -580054817.68811035 0 -580054817.68811035 875363394.31170654 0 0 0 0 -906223229.26868439 163585252.56286621 0 163585252.56286621 1502701466.013916 0 0 0 0 -434602679.86288071 204688318.9675293 0 204688318.9675293 386231520.50311279 0 0 0 0 966160807.0892601 -911960116.12205505 0 -911960116.12205505 683489290.10272217 0 0 0 0 -34127318.969905853 131933207.67529297 0 131933207.67529297 787502686.04920197 0 0 0 0 1018307871.7186227 -202407010.42179966 0 -202407010.42179966 -2143487.7059936523 0 0 0 0 3497598.9420401538 -8612121.4354421943 0 -8612121.4354421943 -1970898.9027035087 0 0 0 0 -22459116.800827026 2204073124.8547363 0 2204073124.8547363 1189608008.8439026 0 0 0 0 -557766196.71294022 -511756757.71142578 0 -511756757.71142578 2525640182.4095459 0 0 0 0 237841398.37379456 -1156822189.4013062 0 -1156822189.4013062 1793263182.6621094 0 0 0 0 614083360.3351059 -394604231.46482849 0 -394604231.46482849 164586778.78887939 0 0 0 0 -61381599.800640106 -5541936.2238006592 0 -5541936.2238006592 111269596.95423889 0 0 0 0 -329324512.12928009 -699356683.12564087 0 -699356683.12564087 1383434020.4474182 0 0 0 0 -209784209.08284378 -508643152.57421875 0 -508643152.57421875 101873227.49169922 0 0 0 0 -98244012.648090363 -270347578.9193573 0 -270347578.9193573 21038492.162979126 0 0 0 0 -124785214.27458954 -296280227.55519867 0 -296280227.55519867 4093553.2949523926 0 0 0 0 -153901273.20895386 -335910010.27249146 0 -335910010.27249146 466830075.74429321 0 0 0 0 -9653179.6947441101 -57012505.6615448 0 -57012505.6615448 -74298948.533203125 0 0 0 0 -18458042.096110344 -113512852.31927586 0 -113512852.31927586 -110516032.762146 0 0 0 0 -14195274.921085358 -53394198.629455566 0 -53394198.629455566 -41892720.612770081 0 0 0 0 -22704025.220835209 -92215034.535271645 0 -92215034.535271645 -14170816.508239746 0 0 0 0 8674523.3132040501 -25010809.170968551 0 -25010809.170968551 -5363455.8106997684 0 0 0 0 -26851222.163299561 -55942020.147247314 0 -55942020.147247314 -19023005.411766052 0 0 0 0 2153620.7375729829 -1055066.4296066985 0 -1055066.4296066985 -6818218.9786547199 0 0 0 0 231259478.48475075 -166996560.73405457 0 -166996560.73405457 -86115327.630981445 0 0 0 0 356899004.34847832 28518565.609786987 0 28518565.609786987 -98529244.814819336 0 0 0 0 597792849.48026657 -176306214.67687988 0 -176306214.67687988 -117284780.41699219 0 0 0 0 559295508.77140617 71732639.712539673 0 71732639.712539673 -105824986.66003418 0 0 0 0 -257528989.56885529 -364208586.43234253 0 -364208586.43234253 -28756710.54148674 0 0 0 0 -70979938.537815571 -186656130.21367693 0 -186656130.21367693 -187119549.02459717 0 0 0 0 -252125999.51599693 -293037922.0484581 0 -293037922.0484581 -124380409.67529297 0 0 0 0 -35227475.218201265 -56580079.383132122 0 -56580079.383132122 10718400.101025388 0 0 0 0 -80748158.851604462 -268225428.08958912 0 -268225428.08958912 -28993747.524688721 0 0 0 0 -19479744.575405661 -56477015.126174808 0 -56477015.126174808 11764658.784676179 0 0 0 0 -247555211.60655212 -323800120.34497452 0 -323800120.34497452 -170299429.70904541 0 0 0 0 -109702957.03642273 -113578124.43038177 0 -113578124.43038177 -90336943.491775513 0 0 0 0 -209191783.75892639 -95910856.392303467 0 -95910856.392303467 -166081007.74316406 0 0 0 0 -34743126.549972534 -65579944.056900024 0 -65579944.056900024 -31317572.027252197 0 0 0 0 -127641581.34194183 -211245749.90504074 0 -211245749.90504074 -48167470.294403076 0 0 0 0 46705403.496773243 -192320257.00527716 0 -192320257.00527716 54132850.351623535 0 0 0 0 44820930.192153931 -215673159.94756699 0 -215673159.94756699 -164843168.62197876 0 0 0 0 82383998.23110199 11766318.707550049 0 11766318.707550049 20818751.696121216 0 0 0 0 264241155.25783539 102545680.7477169 0 102545680.7477169 -265924782.58903313 0 0 0 0 8813899.5232257508 -2439948.7168996539 0 -2439948.7168996539 -15002036.256429402 0 0 0 0 42700324.367396355 -60149126.798690245 0 -60149126.798690245 23726279.89354825 0 0 0 0 150603377.23957825 -36677347.575897217 0 -36677347.575897217 -99600245.056846619 0 0 0 0 -200459028.83128357 -110873949.57880783 0 -110873949.57880783 33596064.957668304 0 0 0 0 70660132.591228485 -178342382.50624084 0 -178342382.50624084 -109255766.12686157 0 0 0 0 -23236360.092671044 -31612755.436641507 0 -31612755.436641507 46109293.415491872 0 0 0 0 -23719072.807983398 -58405901.043266296 0 -58405901.043266296 6478925.8729858398 0 0 0 0 -34356605.698677063 -105408243.44115448 0 -105408243.44115448 -109481703.72707784 0 0 0 0 -29220173.5206604 -49576603.181921005 0 -49576603.181921005 2268909.1425876617 0 0 0 0 -148596890.12440491 -57391160.05973053 0 -57391160.05973053 -109010817.03179932 0 0 0 0 2387710.2599757165 -40688507.427822895 0 -40688507.427822895 26463145.808836341 0 0 0 0 -8296461.6527824402 -28897970.9164505 0 -28897970.9164505 19268643.542419434 0 0 0 0 3007060.4731003772 -18077913.056981593 0 -18077913.056981593 -1871473.4058710299 0 0 0 0 -52031539.270996094 -51450275.472946167 0 -51450275.472946167 -44277808.241210938 0 0 0 0 27565077.433555603 -26934088.26955986 0 -26934088.26955986 -69234939.006969452 0 0 0 0 19388608.983823605 -29182597.606108539 0 -29182597.606108539 -32077515.412997842 0 0 0 0 5246316.6754150391 -23288545.589477539 0 -23288545.589477539 -13489326.96472168 0 0 0 0 29695961.606793635 -56060207.500988387 0 -56060207.500988387 14741730.924042054 0 0 0 0 16409716.036511958 -48409429.777474493 0 -48409429.777474493 23612577.358297821 0 0 0 0 9435981.9336633757 -12933017.319595804 0 -12933017.319595804 -15158900.554271916 0 0 0 0 28542936.158798218 -56171969.754226685 0 -56171969.754226685 -166706304.34549713 0 0 0 0 -39463360.7889328 -91302742.692848206 0 -91302742.692848206 -158397758.47208405 0 0 0 0 -1316920.3723544795 -1508124.7059961092 0 -1508124.7059961092 3259874.7137903832 0 0 0 0 6421701.9133377075 -141748134.162323 0 -141748134.162323 -142485429.56175423 0 0 0 0 -140632571.63348389 -116212638.66920853 0 -116212638.66920853 27079344.842391968 0 0 0 0 23619764.633411407 -21012555.501708984 0 -21012555.501708984 -26850070.856262207 0 0 0 0 28236499.421398215 -18091215.663329534 0 -18091215.663329534 -54870133.056232385 0 0 0 0 27326415.455460221 -21902652.589713428 0 -21902652.589713428 -21695818.363491938 0 0 0 0 7310553.8644499145 -25719184.783176452 0 -25719184.783176452 6436141.0250292271 0 0 0 0 60346336.723262787 -47534317.903318405 0 -47534317.903318405 -109746031.2291851 0 0 0 0 50563485.310020447 -15218462.480062485 0 -15218462.480062485 -49881926.034536362 0 0 0 0 12558981.851708651 -22824857.975217283 0 -22824857.975217283 99834186.370740891 0 0 0 0 -6148855.4973106384 -169321838.40454865 0 -169321838.40454865 -24830578.937416077 0 0 0 0 -146140899.52734375 -133461324.48474121 0 -133461324.48474121 -7149443.4966812134 0 0 0 0 28370930.491790771 -6724117.0267533958 0 -6724117.0267533958 62504334.126919568 0 0 0 0 -27614687.092216492 -9277750.8046479225 0 -9277750.8046479225 95359577.440235138 0 0 0 0 85484029.122138977 86982628.817510605 0 86982628.817510605 -384959310.40475464 0 0 0 0 -110104894.81440735 -164073113.43836403 0 -164073113.43836403 96144802.382492065 0 0 0 0 47352635.577526093 132165182.03822517 0 132165182.03822517 -36071484.420747757 0 0 0 0 -144877967.327811 -177803675.32434094 0 -177803675.32434094 24102119.703636169 0 0 0 0 -1223565.1631636545 -11126736.756970337 0 -11126736.756970337 13476186.884331249 0 0 0 0 -50307259.830596924 34548262.998076439 0 34548262.998076439 154736488.6606226 0 0 0 0 57183618.530830383 141620632.40293205 0 141620632.40293205 77158291.054582268 0 0 0 0 -47986400.719089508 81802413.797170401 0 81802413.797170401 -36703390.879043579 0 0 0 0 -148400115.4746933 -25693051.985293776 0 -25693051.985293776 35788763.453961015 0 0 0 0 -43777645.794372559 43923022.675453484 0 43923022.675453484 51765432.505939126 0 0 0 0 245769654.63570976 -18581171.427174568 0 -18581171.427174568 -411949710.91645432 0 0 0 0 49968852.787115678 -49699788.472747035 0 -49699788.472747035 26729489.269152958 0 0 0 0 -117831808.41154194 -483730879.47581053 0 -483730879.47581053 -295251891.77773476 0 0 0 0 72651882.398405075 -119461460.25381804 0 -119461460.25381804 -68346019.482852936 0 0 0 0 202451533.22213745 46825163.325609207 0 46825163.325609207 7383374.5446195602 0 0 0 0 1086691.5690006502 -2002019.7324550198 0 -2002019.7324550198 -2761291.2602555044 0 0 0 0 -281173886.73620605 -444992561.21559906 0 -444992561.21559906 488176182.27293396 0 0 0 0 351677995.08494568 136804132.54343414 0 136804132.54343414 -199235116.11506462 0 0 0 0 326470140.43940735 64291012.250545502 0 64291012.250545502 -313466679.81222916 0 0 0 0 191012420.89731455 -54485443.771198153 0 -54485443.771198153 -230455140.73853302 0 0 0 0 315561700.57233429 -152781696.7204628 0 -152781696.7204628 -193127100.03694153 0 0 0 0 389562624.5720129 68994351.034276485 0 68994351.034276485 -333883643.47468185 0 0 0 0 515848955.31164932 6242721.2565937042 0 6242721.2565937042 -85384654.399459839 0 0 0 0 326939581.84283829 2997637.9434041977 0 2997637.9434041977 281978979.05302811 0 0 0 0 -2896412.4622108713 -4083481.3099355604 0 -4083481.3099355604 10547691.099765867 0 0 0 0 420157612.3964653 -147107883.66383171 0 -147107883.66383171 -94164564.896081924 0 0 0 0 277817058.22373962 460558522.950243 0 460558522.950243 -495167064.42716408 0 0 0 0 82942039.92550087 -8173589.2317321301 0 -8173589.2317321301 -9621056.2320899963 0 0 0 0 -2098141.0678677876 -551840.63712188695 0 -551840.63712188695 4779249.8890666012 0 0 0 0 1136806221.0989838 198052739.53504944 0 198052739.53504944 164964322.84249496 0 0 0 0 -131583950.57232666 10548918.801402092 0 10548918.801402092 -200580898.22070497 0 0 0 0 -70012025.431922913 -88507290.304509163 0 -88507290.304509163 -47182446.353336334 0 0 0 0 167837458.81917572 122431880.10046864 0 122431880.10046864 -59076957.793787003 0 0 0 0 121817199.73442841 -48834959.451937675 0 -48834959.451937675 -18436617.190637589 0 0 0 0 -32290191.582969666 56257057.720283508 0 56257057.720283508 -56357475.831943512 0 0 0 0 -15483160.475837708 -97515830.026132584 0 -97515830.026132584 -150337141.55493355 0 0 0 0 -3625425.6108932495 24733125.987329483 0 24733125.987329483 47062258.456298828 0 0 0 0 -327582021.70620728 -343017470.02890587 0 -343017470.02890587 -52523365.353656769 0 0 0 0 -326553691.34254694 -504217575.69105375 0 -504217575.69105375 -413491441.80707169 0 0 0 0 -62863890.851676941 -56825717.929426193 0 -56825717.929426193 -170675784.29334641 0 0 0 0 -236050989.81990051 -206397644.69333839 0 -206397644.69333839 -198150606.36443347 0 0 0 0 -243276363.46828461 -125119479.79117012 0 -125119479.79117012 -405783965.68950653 0 0 0 0 -738549166.56803894 -589615678.30903625 0 -589615678.30903625 -423299483.82027817 0 0 0 0 -362466052.282547 -317689870.2918148 0 -317689870.2918148 -671909515.12633514 0 0 0 0 -462671187.55849457 -267413931.24922848 0 -267413931.24922848 -322363635.76704025 0 0 0 0 -243811675.06719971 -77300260.164374352 0 -77300260.164374352 -329904169.89671743 0 0 0 0 -227737007.48049927 -301942141.12272072 0 -301942141.12272072 -500101908.95662308 0 0 0 0 -554110599.52568054 -397215935.52627659 0 -397215935.52627659 -430964827.76039886 0 0 0 0 -382450842.88564301 -227731616.4576726 0 -227731616.4576726 -232888174.81684494 0 0 0 0 -294317907.66012573 -84817612.094342232 0 -84817612.094342232 -134285438.78795147 0 0 0 0 -245125967.02922058 -144845327.25291872 0 -144845327.25291872 -142521641.50214195 0 0 0 0 193486429.15878296 -139460138.97532463 0 -139460138.97532463 -642802378.60379171 0 0 0 0 -91951466.38710022 -42808674.63141346 0 -42808674.63141346 -104085977.36786461 0 0 0 0 -150580753.32641602 -165052586.56013489 0 -165052586.56013489 -360248452.08128738 0 0 0 0 -209725983.39318848 -283397783.67379189 0 -283397783.67379189 -397873729.37185955 0 0 0 0 -252158189.85748291 -618517317.97859192 0 -618517317.97859192 -820633792.82480431 0 0 0 0 91239951.632568359 -263937627.00691605 0 -263937627.00691605 -713336317.10217285 0 0 0 0 744067251.61810303 -328852691.03421974 0 -328852691.03421974 -1192320370.5211449 0 0 0 0 41121651.312362671 -350897771.43653011 0 -350897771.43653011 -745355284.68432236 0 0 0 0 116079421.1421051 -953160305.25061417 0 -953160305.25061417 -1688788406.4788971 0 0 0 0 421891160.70318604 -1496192752.4754715 0 -1496192752.4754715 -1219547391.4866791 0 0 0 0 -319887983.3915863 -1435984863.7970276 0 -1435984863.7970276 -1156346043.2737427 0 0 0 0 -1886415314.7436352 -1604901367.8006976 0 -1604901367.8006976 -652211829.05762863 0 0 0 0 -1057887064.226532 -774207873.49156189 0 -774207873.49156189 -599034369.96478653 0 0 0 0 -228452639.13647461 -586966736.57436562 0 -586966736.57436562 -778642563.67742157 0 0 0 0 -644513686.94299316 -750069606.30797386 0 -750069606.30797386 -869747494.94577789 0 0 0 0 788371355.60878754 -1185356497.3375893 0 -1185356497.3375893 -471885724.72219849 0 0 0 0 -976290187.53227234 -1316238108.9690609 0 -1316238108.9690609 288160588.83036041 0 0 0 0 -257965253.84667969 -519297189.72931862 0 -519297189.72931862 -912175886.75326538 0 0 0 0 -643250913.99682617 -720608732.12099075 0 -720608732.12099075 -1007738658.0147438 0 0 0 0 -1982990626.0949097 131963467.88456726 0 131963467.88456726 -118924757.29966164 0 0 0 0 430402124.47442627 -1965030468.5515995 0 -1965030468.5515995 -2657303417.343811 0 0 0 0 -500820128.80484009 -417853599.45061111 0 -417853599.45061111 -462676499.81019974 0 0 0 0 -348664497.6335144 -273237628.57977486 0 -273237628.57977486 -298883157.34102631 0 0 0 0 -94914328.520225525 -513185009.4353981 0 -513185009.4353981 -258882790.7205658 0 0 0 0 -390650934.80715942 -267524677.33138657 0 -267524677.33138657 -324831439.69905281 0 0 0 0 -487246638.13690186 -561156249.61113739 0 -561156249.61113739 -187625898.0022049 0 0 0 0 -660343798.11422729 -648734914.11649323 0 -648734914.11649323 -955874269.61831284 0 0 0 0 -551789412.0663147 -577650813.99892044 0 -577650813.99892044 -808715007.04573822 0 0 0 0 -424702916.94810486 -269198133.281991 0 -269198133.281991 -403245315.2650528 0 0 0 0 -556278745.75515747 -386214582.4654541 0 -386214582.4654541 -1079959131.5616379 0 0 0 0 -478552747.01250076 -249946528.75806761 0 -249946528.75806761 -748819704.9686203 0 0 0 0 -511636976.45861816 -479568411.43452644 0 -479568411.43452644 -715113932.62535095 0 0 0 0 -434005206.03430176 -248966559.86495972 0 -248966559.86495972 -530850863.91638947 0 0 0 0 -1001433245.9615707 -1079194749.8170748 0 -1079194749.8170748 -710328244.87166786 0 0 0 0 -510237975.63616943 -423857475.00681305 0 -423857475.00681305 -789316745.52163315 0 0 0 0 -1079909521.3579712 -911936685.23003578 0 -911936685.23003578 -980389574.46051598 0 0 0 0 -440315340.60121155 -715184163.40316582 0 -715184163.40316582 -1757981572.9317017 0 0 0 0 -1300111088.5810699 -1454369319.3437347 0 -1454369319.3437347 -1181453088.1481304 0 0 0 0 1038560.3044940531 579160.47544971481 0 579160.47544971481 -3669339.8622426074 0 0 0 0 -1441688934.5720673 -2038389004.3255749 0 -2038389004.3255749 -2033310748.4698925 0 0 0 0 1191284842.8282547 303599668.93175292 0 303599668.93175292 -1064378530.082695 0 0 0 0 829770638.21276855 -440974420.26687241 0 -440974420.26687241 -2481579055.3807364 0 0 0 0 -546207994.88571167 -297763781.46679688 0 -297763781.46679688 -2755765379.2956696 0 0 0 0 326716889.98442078 173644543.1800108 0 173644543.1800108 71732258.468097687 0 0 0 0 6499814.6261661835 -2853978.5044139437 0 -2853978.5044139437 -12777345.832462177 0 0 0 0 126887294.09248352 -262732614.50791979 0 -262732614.50791979 108265378.45926476 0 0 0 0 401091443.13993073 -127889381.66054821 0 -127889381.66054821 8550333.9312610626 0 0 0 0 -79205030.234191895 -350090881.80288887 0 -350090881.80288887 -1149212713.7659302 0 0 0 0 -1192394705.1342278 -1013273580.8279727 0 -1013273580.8279727 -659569838.59462166 0 0 0 0 2769153.8404994607 -3336696.2987336703 0 -3336696.2987336703 -2049335.6612659674 0 0 0 0 -1408177254.8997002 56658091.264090061 0 56658091.264090061 32167742.213008881 0 0 0 0 -751633633.13535309 113353708.63147736 0 113353708.63147736 -60756558.929977417 0 0 0 0 115001337.50691605 -138728611.96284318 0 -138728611.96284318 42155221.931324959 0 0 0 0 15879459.805564813 -19900642.01071012 0 -19900642.01071012 -19350381.972326644 0 0 0 0 -6954466.8700408936 -70365281.354409814 0 -70365281.354409814 88838236.235818386 0 0 0 0 63597773.945652008 -206958207.50281233 0 -206958207.50281233 56165952.140586376 0 0 0 0 -46717631.495025635 -72112649.793669701 0 -72112649.793669701 112298206.68728036 0 0 0 0 -8622855.5226135254 -37257878.224572182 0 -37257878.224572182 104143461.37025452 0 0 0 0 -138695526.32550049 -24525010.74110353 0 -24525010.74110353 103986563.2573629 0 0 0 0 -85973891.4413414 -115912598.53639543 0 -115912598.53639543 67546067.395803452 0 0 0 0 -159549754.86372375 29867482.691526771 0 29867482.691526771 -70282849.568010986 0 0 0 0 -206358319.95104599 -151552112.49707007 0 -151552112.49707007 -96478960.153949738 0 0 0 0 -168480793.53190613 -43598213.944293022 0 -43598213.944293022 32198649.681150675 0 0 0 0 -89073300.066390991 -238249892.46165133 0 -238249892.46165133 -69816670.664090037 0 0 0 0 47872969.592159271 -106738959.65283889 0 -106738959.65283889 45843887.672969818 0 0 0 0 250854265.91903305 -1719568382.3820634 0 -1719568382.3820634 -111741229.39413071 0 0 0 0 -23937840.477294922 -1439268735.2305965 0 -1439268735.2305965 648539310.38987732 0 0 0 0 2927631.7809448242 -2064600121.9055405 0 -2064600121.9055405 1053545645.6725979 0 0 0 0 154729532.02392578 -1327126802.1078491 0 -1327126802.1078491 323613381.9346199 0 0 0 0 -290108914.86419678 -1864503533.077282 0 -1864503533.077282 -32778257.092216492 0 0 0 0 448937241.42843628 -1740706120.2319775 0 -1740706120.2319775 -1204234500.4449234 0 0 0 0 -1891509.5957794189 -1805568088.0865173 0 -1805568088.0865173 -1830838072.6355209 0 0 0 0 540920618.6078186 -1322605043.274147 0 -1322605043.274147 -168816793.54072618 0 0 0 0 264579435.20182037 -1092838145.9773884 0 -1092838145.9773884 -241270831.55796051 0 0 0 0 -219373724.00585938 -1138125804.9215622 0 -1138125804.9215622 215325445.86301231 0 0 0 0 254999598.72012329 -1049647902.3772697 0 -1049647902.3772697 173381476.2603035 0 0 0 0 -247752255.45058823 -890875396.74079967 0 -890875396.74079967 415209698.41903687 0 0 0 0 -555001012.59387207 -920600347.992939 0 -920600347.992939 563439966.95792198 0 0 0 0 -41422772.798828125 -1311359937.2540131 0 -1311359937.2540131 369815853.41981888 0 0 0 0 -351087400.25236511 -124010438.78468513 0 -124010438.78468513 1597259528.9863625 0 0 0 0 -323877320.76998901 -1352443736.0988588 0 -1352443736.0988588 1353058036.9150963 0 0 0 0 -432136882.26391602 -515157792.78116989 0 -515157792.78116989 446956375.14908695 0 0 0 0 -997810760.7117691 -1318242117.93787 0 -1318242117.93787 544398946.35612488 0 0 0 0 -406136031.22969818 -1392225937.0596151 0 -1392225937.0596151 -1176910367.9549065 0 0 0 0 -253398162.03295898 -321901239.54648018 0 -321901239.54648018 368124679.21885681 0 0 0 0 -730435987.15127563 -663024618.94269371 0 -663024618.94269371 476808539.08582306 0 0 0 0 -179222326.32000732 18259376.899288177 0 18259376.899288177 871975720.97576118 0 0 0 0 -529982233.85267639 -517705073.42166615 0 -517705073.42166615 841980958.75811386 0 0 0 0 -208709817.20002747 -59446088.140651703 0 -59446088.140651703 1024808359.1007423 0 0 0 0 -196027360.91981506 -36955274.622409821 0 -36955274.622409821 1047038827.8235016 0 0 0 0 -139282191.58325195 -1462436154.1957359 0 -1462436154.1957359 659565539.59144402 0 0 0 0 -377257492.50220871 -1509046881.9298868 0 -1509046881.9298868 2923815090.7139626 0 0 0 0 65113.023776934046 -21358964.913067795 0 -21358964.913067795 4663544.2629013062 0 0 0 0 201465649.66499329 1030640310.2521172 0 1030640310.2521172 3825397456.2538505 0 0 0 0 1793337.7543329746 -1986428.258441247 0 -1986428.258441247 1183573.6411417089 0 0 0 0 -33839645.457748413 -60531151.511230946 0 -60531151.511230946 -34550715.844540596 0 0 0 0 152803508.72418213 428699950.90198135 0 428699950.90198135 911678700.53492737 0 0 0 0 4552540.5583673418 -6090530.423688028 0 -6090530.423688028 3495460.0102531482 0 0 0 0 -35642165.650745153 26942773.904995829 0 26942773.904995829 28404944.077045441 0 0 0 0 23701375.398132324 -14644257.717812538 0 -14644257.717812538 -14157823.098191261 0 0 0 0 -395065.71127319336 -44639259.33026576 0 -44639259.33026576 -68545442.231084824 0 0 0 0 -97728579.298812866 -173319699.12868214 0 -173319699.12868214 -231907207.61128521 0 0 0 0 -145351581.40710449 28663681.262861729 0 28663681.262861729 -2156295.9675035477 0 0 0 0 49721829.856811523 39544554.7848351 0 39544554.7848351 -86536609.560115814 0 0 0 0 -395694365.8891983 -127517673.65007767 0 -127517673.65007767 93626185.565419674 0 0 0 0 -1461345.7264102697 -1099129.7625865452 0 -1099129.7625865452 1534279.0195284842 0 0 0 0 -27253254.242004395 205709214.6971637 0 205709214.6971637 61973806.347325668 0 0 0 0 -1660763614.8978271 -1441101117.4173646 0 -1441101117.4173646 -155113583.24515927 0 0 0 0 -466901610.51890564 -519665315.23118639 0 -519665315.23118639 -266890498.2514253 0 0 0 0 -195327.83674621582 -364453002.89488029 0 -364453002.89488029 -1425617541.1600261 0 0 0 0 -97244923.149841309 -574348853.26857126 0 -574348853.26857126 -514127945.73318911 0 0 0 0 -4521074.8998413086 -112877005.13072139 0 -112877005.13072139 289665425.14663529 0 0 0 0 6059004.096282959 2452511.3099811077 0 2452511.3099811077 68712256.855734825 0 0 0 0 212530450.60377502 -111265129.30318904 0 -111265129.30318904 -47062997.778196931 0 0 0 0 -4163963.6821899414 275224529.19543862 0 275224529.19543862 216694978.15756422 0 0 0 0 58982938.061477661 54315849.265580058 0 54315849.265580058 -143246903.64167857 0 0 0 0 87191248.076908112 -55115170.43453455 0 -55115170.43453455 1554481.9051618576 0 0 0 0 -1972275.1181120574 -4252563.897930257 0 -4252563.897930257 2722942.7731702812 0 0 0 0 25903716.688949585 -103152054.70838997 0 -103152054.70838997 -67501142.368150234 0 0 0 0 23852182.75201416 423426.89094769955 0 423426.89094769955 -13438081.389730215 0 0 0 0 2857418.7854691893 -224991.40617530048 0 -224991.40617530048 -3518276.7274182588 0 0 0 0 6140149.0371284485 -9240767.6040041447 0 -9240767.6040041447 146149289.98288727 0 0 0 0 6196139.1065250337 -8758355.9332868718 0 -8758355.9332868718 -4642393.2394214161 0 0 0 0 13715668.458953857 -124281895.92949295 0 -124281895.92949295 286844913.71552467 0 0 0 0 38508398.68927002 25296724.52380085 0 25296724.52380085 -9877553.9106696844 0 0 0 0 7733867.0429720879 19310346.576571167 0 19310346.576571167 277099461.80158615 0 0 0 0 7981063.5508305803 -10807551.490868054 0 -10807551.490868054 3202058.3020266239 0 0 0 0 -42901000.731811523 74051743.738105774 0 74051743.738105774 283726726.9769268 0 0 0 0 -190563760.89579773 -139490251.5079813 0 -139490251.5079813 294490331.90989685 0 0 0 0 -121074767.57064819 4096844.5773391724 0 4096844.5773391724 543361298.34777832 0 0 0 0 -393441643.71340942 -242047951.18379402 0 -242047951.18379402 576870834.32590103 0 0 0 0 -261689639.70864868 -339494082.62041473 0 -339494082.62041473 337083805.05802059 0 0 0 0 -138108326.40319824 -200086578.11405563 0 -200086578.11405563 361675228.09135723 0 0 0 0 314124434.82366943 -356201673.58100128 0 -356201673.58100128 65913324.89258194 0 0 0 0 377757666.51916504 -281841093.30191994 0 -281841093.30191994 152900278.52689362 0 0 0 0 2549554.4335420951 -1096981.9776870161 0 -1096981.9776870161 -2292399.8880790398 0 0 0 0 -177608169.24554443 -368715816.78960037 0 -368715816.78960037 218547459.92773819 0 0 0 0 -2337502686.0676727 -444369584.23636055 0 -444369584.23636055 819802.30394363403 0 0 0 0 -985958779.69009399 -28968040.995262146 0 -28968040.995262146 -683428588.73934174 0 0 0 0 -230504133.77294922 -1204058576.6183739 0 -1204058576.6183739 -797383206.7916193 0 0 0 0 165751.27229532599 -2143488.8495556973 0 -2143488.8495556973 393965.22765900195 0 0 0 0 8543379.8048095703 36265637.671062469 0 36265637.671062469 -581241073.07817459 0 0 0 0 -1236885183.4167023 -983499385.34835434 0 -983499385.34835434 -943560698.9098053 0 0 0 0 -1217107790.856781 -446015426.94786453 0 -446015426.94786453 -44487487.336235046 0 0 0 0 4156208.7782897949 -25704589.739092663 0 -25704589.739092663 -6760249.3028049469 0 0 0 0 5677952.6276741475 -13894186.143772285 0 -13894186.143772285 9082719.7689501718 0 0 0 0 14125454.075500488 -167065834.86766434 0 -167065834.86766434 130996227.80696297 0 0 0 0 7587000.4997050315 -7753525.3574681915 0 -7753525.3574681915 -5181374.0840434004 0 0 0 0 5363954.9816589355 -19463841.991712838 0 -19463841.991712838 -2200615.9383430481 0 0 0 0 14162615.110198975 -14363425.281217337 0 -14363425.281217337 -4512395.5447041988 0 0 0 0 15893708.536315918 -18197367.407580495 0 -18197367.407580495 -12703927.443553209 0 0 0 0 19434390.871883392 -15321983.593064368 0 -15321983.593064368 -10400335.537065983 0 0 0 0 -13433271.3542099 -42833138.416840553 0 -42833138.416840553 5209186.4799714088 0 0 0 0 16939315.563751221 -19813579.295822084 0 -19813579.295822084 -10359702.069459945 0 0 0 0 10369695.523712158 -21691186.416577935 0 -21691186.416577935 -10883843.807075977 0 0 0 0 1791186.7841491699 -17833813.803574651 0 -17833813.803574651 3999702.1016139984 0 0 0 0 22301164.125818253 -59838410.945420459 0 -59838410.945420459 6695846.2936223745 0 0 0 0 -9813903.2412109375 -30973087.932353616 0 -30973087.932353616 99520942.285836995 0 0 0 0 -1027391777.2969971 -978787539.94087791 0 -978787539.94087791 -819980897.89735794 0 0 0 0 -790710359.14549255 -1135740455.6008615 0 -1135740455.6008615 -766602315.2072506 0 0 0 0 5924230.2829648405 -13164938.463429447 0 -13164938.463429447 6532998.1932671908 0 0 0 0 -23182111.728790283 -24070427.498898268 0 -24070427.498898268 30525220.33995989 0 0 0 0 6081123.3859850615 -13275248.460232381 0 -13275248.460232381 8604397.401820641 0 0 0 0 -1470803583.4532166 -1119516350.8386536 0 -1119516350.8386536 -346411947.09415436 0 0 0 0 -1374791749.95961 -819411355.74137592 0 -819411355.74137592 -70789398.105800629 0 0 0 0 -835727386.19290161 -860077642.17483521 0 -860077642.17483521 155021636.00916672 0 0 0 0 -1019624925.7318115 -586164293.90790176 0 -586164293.90790176 -252911777.58597183 0 0 0 0 -1382257994.7197266 -733597341.35083771 0 -733597341.35083771 -355542081.488572 0 0 0 0 -1134588212.2424431 -972103474.59998846 0 -972103474.59998846 -169606621.05250549 0 0 0 0 -793398100.08818054 -511053432.042799 0 -511053432.042799 -445118386.35098267 0 0 0 0 -963070983.81149292 -476658382.53785324 0 -476658382.53785324 -102606903.87511015 0 0 0 0 -657443409.78061676 -69756212.535466194 0 -69756212.535466194 169516830.32737732 0 0 0 0 -544051179.19259644 -202559274.01209068 0 -202559274.01209068 323827298.74863815 0 0 0 0 -889208745.40489197 -85971189.757761002 0 -85971189.757761002 330156279.09470367 0 0 0 0 -600113301.87916565 -1058629741.8708954 0 -1058629741.8708954 -939992933.47335052 0 0 0 0 -632772255.9551239 458613042.03935623 0 458613042.03935623 1339049029.9168663 0 0 0 0 -1629897.3673923165 -443869.70062697167 0 -443869.70062697167 331732.28384671826 0 0 0 0 -102732419.99205017 13910160.175720215 0 13910160.175720215 133233888.51932907 0 0 0 0 -1059167270.0235596 -203565855.12005615 0 -203565855.12005615 240569572.43066788 0 0 0 0 -2030534154.1086884 -1051236735.8291292 0 -1051236735.8291292 111783488.17469025 0 0 0 0 -529303421.3314209 -663575726.65987396 0 -663575726.65987396 205363564.05265045 0 0 0 0 -544901875.03189087 -954812550.24157715 0 -954812550.24157715 122459409.24190712 0 0 0 0 -188959611.29224014 -721677862.08097672 0 -721677862.08097672 -168206151.74837494 0 0 0 0 -624315709.18002319 -1003348849.8725586 0 -1003348849.8725586 92888009.094661713 0 0 0 0 -399126567.85296631 -694973473.69175148 0 -694973473.69175148 -43675054.405436516 0 0 0 0 -696430342.76637268 -820697663.93109894 0 -820697663.93109894 449967209.05082321 0 0 0 0 -2987344.6808886379 -1196655.8532536332 0 -1196655.8532536332 795805.91593687003 0 0 0 0 -541751087.61833191 -354824767.55293465 0 -354824767.55293465 968294885.9708519 0 0 0 0 -295904350.324646 -456845781.64074516 0 -456845781.64074516 538332132.73766994 0 0 0 0 -266591519.47253418 -312187801.71551514 0 -312187801.71551514 1716244578.471478 0 0 0 0 -1355795.5028515458 -752668.44144502841 0 -752668.44144502841 416489.39209123654 0 0 0 0 -93434034.550180435 -627814669.78249454 0 -627814669.78249454 71100132.440063477 0 0 0 0 -514426719.56417847 -1050879400.7444534 0 -1050879400.7444534 -139663277.20706081 0 0 0 0 -709655888.43274307 -700821518.87914538 0 -700821518.87914538 -318847577.37889481 0 0 0 0 -753425659.65042114 -842613332.69511223 0 -842613332.69511223 -46849003.828983307 0 0 0 0 -1151163787.5256348 -822486373.25970459 0 -822486373.25970459 -351530750.00685501 0 0 0 0 -222298902.77530289 -672137464.66973162 0 -672137464.66973162 -569474479.78453827 0 0 0 0 -227356131.60353088 -478175171.26186752 0 -478175171.26186752 -545027093.95814133 0 0 0 0 -788680977.08512878 -363290336.77418327 0 -363290336.77418327 -276139892.32464409 0 0 0 0 -537036604.58964539 -774690228.65996361 0 -774690228.65996361 -294525274.98869324 0 0 0 0 -524464854.21063232 -687403900.46503448 0 -687403900.46503448 -674961715.78980637 0 0 0 0 -671141835.38516235 -845236008.58191299 0 -845236008.58191299 -763204942.16222954 0 0 0 0 -145087089.88251495 -825597352.677948 0 -825597352.677948 -837270808.44484711 0 0 0 0 -55460298.414100647 -629321599.9138031 0 -629321599.9138031 -669850558.53170013 0 0 0 0 -343875943.79338074 -734569503.97936153 0 -734569503.97936153 -531636103.0307579 0 0 0 0 156659708.25561523 -882129610.68128967 0 -882129610.68128967 -85649552.438962936 0 0 0 0 -224811928.17823029 -517152086.22475624 0 -517152086.22475624 -314817657.53129578 0 0 0 0 236239809.81732368 -1429688805.0120566 0 -1429688805.0120566 294101111.2437706 0 0 0 0 336653162.08660889 -737469726.64150476 0 -737469726.64150476 10424901.413108826 0 0 0 0 291462752.86335754 -947332733.32489395 0 -947332733.32489395 245941303.68210793 0 0 0 0 501253365.12033081 -362519779.60731888 0 -362519779.60731888 36732418.848011017 0 0 0 0 -294791554.74036407 -360987831.9883709 0 -360987831.9883709 88493038.082717896 0 0 0 0 -231448215.41296387 -438768777.97367477 0 -438768777.97367477 -319867539.31477118 0 0 0 0 -309156146.7011795 71764999.820615768 0 71764999.820615768 496647048.64720154 0 0 0 0 93107565.148757935 -519796059.99281025 0 -519796059.99281025 351486117.68565369 0 0 0 0 -26520210.471996307 -644293073.62833571 0 -644293073.62833571 1704288295.8367271 0 0 0 0 1006764997.0687256 -82313913.723537445 0 -82313913.723537445 475086055.92673492 0 0 0 0 -42712685.116821289 -789168723.50929832 0 -789168723.50929832 541084545.6596148 0 0 0 0 -892104313.72692871 -1254372471.5128975 0 -1254372471.5128975 533634293.39792442 0 0 0 0 -506459083.66284561 -350073109.21293402 0 -350073109.21293402 248620258.70118523 0 0 0 0 1195509979.7991486 -587456770.25120926 0 -587456770.25120926 925600831.01030636 0 0 0 0 820306198.75326538 -2111047563.7425785 0 -2111047563.7425785 1678575558.6195374 0 0 0 0 219960731.4864502 -1464950261.9585228 0 -1464950261.9585228 988543599.79174042 0 0 0 0 752807255.96947479 -2454089865.3788404 0 -2454089865.3788404 183179324.71463394 0 0 0 0 254586545.22464371 -1385497917.185863 0 -1385497917.185863 -570706788.55277634 0 0 0 0 -30596162.968978882 -2639051897.7719879 0 -2639051897.7719879 -338477306.98979378 0 0 0 0 -3371605.5229418576 -6308561.1481569931 0 -6308561.1481569931 751027.03250402026 0 0 0 0 337788452.22998047 74595214.981164932 0 74595214.981164932 -169711470.15713406 0 0 0 0 26139868.258895874 -102136070.84913635 0 -102136070.84913635 -90943461.122516632 0 0 0 0 915370.87497128546 -494557.00327614695 0 -494557.00327614695 -314939.21155618224 0 0 0 0 882758551.72113609 -1263056592.7183523 0 -1263056592.7183523 115946368.91664124 0 0 0 0 3178031460.5530701 -1618563615.7204971 0 -1618563615.7204971 119163947.3093853 0 0 0 0 2836986241.5220642 -1097135592.4210186 0 -1097135592.4210186 916927540.91591263 0 0 0 0 4922650552.7600718 -2045277270.522321 0 -2045277270.522321 266410850.59699249 0 0 0 0 -1055966.8176237415 -2400575.4073160291 0 -2400575.4073160291 4301873.3049891442 0 0 0 0 1657108401.9259033 -2048319214.5182467 0 -2048319214.5182467 4245409759.4303284 0 0 0 0 61633870.209715605 309520181.87067997 0 309520181.87067997 1463783826.8180847 0 0 0 0 95457656.300521851 -1311640556.1702061 0 -1311640556.1702061 2193118206.1795673 0 0 0 0 1435450157.6323776 -1963212267.9436932 0 -1963212267.9436932 1102896534.4076767 0 0 0 0 2443821281.6750183 -483227897.26310825 0 -483227897.26310825 781896396.90406799 0 0 0 0 1109268916.3053284 -1076807308.8692474 0 -1076807308.8692474 541400739.8930912 0 0 0 0 924237806.10333347 -770525720.76153505 0 -770525720.76153505 283374649.04689026 0 0 0 0 807856338.81061935 -1649683357.4676614 0 -1649683357.4676614 499146905.46006012 0 0 0 0 478645201.23985291 -1475604478.2267895 0 -1475604478.2267895 382939185.51951408 0 0 0 0 611178288.56034851 -1644658720.5945625 0 -1644658720.5945625 516744449.09189606 0 0 0 0 739228367.29502869 -1413791677.5852337 0 -1413791677.5852337 -103906966.65202522 0 0 0 0 289990025.70544052 -1171897943.0482235 0 -1171897943.0482235 801531945.23455048 0 0 0 0 147698899.15220642 -819109230.42362213 0 -819109230.42362213 143031961.71955109 0 0 0 0 482007836.84315491 -1433519360.6942596 0 -1433519360.6942596 816565961.94031143 0 0 0 0 188387467.02989197 -870499483.02882385 0 -870499483.02882385 636376083.86844826 0 0 0 0 -934004.24044346809 -4151977.1482662223 0 -4151977.1482662223 -694802.1938839322 0 0 0 0 801473059.16539001 -557248125.87595749 0 -557248125.87595749 233188476.69519043 0 0 0 0 802173542.48614502 -570672070.34395504 0 -570672070.34395504 138227727.68157196 0 0 0 0 715383180.08777618 -338800924.14153385 0 -338800924.14153385 2374396.3176841736 0 0 0 0 111853415.32128143 -169293022.82683706 0 -169293022.82683706 57609209.84803772 0 0 0 0 844457449.42778015 -659214751.52615738 0 -659214751.52615738 -333663735.52048969 0 0 0 0 819722235.81384277 -702943245.99291229 0 -702943245.99291229 -6182420.7992315292 0 0 0 0 -251325601.65245819 -245030964.97455215 0 -245030964.97455215 -3021186.282371521 0 0 0 0 1028987611.9220886 -988824898.43252373 0 -988824898.43252373 -297666511.58449841 0 0 0 0 -1079927704.234127 -974533793.03687763 0 -974533793.03687763 -922786773.40506363 0 0 0 0 832900.11912658811 -1702427.8342370614 0 -1702427.8342370614 1104004.0252718925 0 0 0 0 1674844762.8096619 -620258101.93029404 0 -620258101.93029404 -1863605358.5594635 0 0 0 0 -198616.0091946274 -1575904.7519293167 0 -1575904.7519293167 -498319.16749976017 0 0 0 0 719377847.36613464 -1547106170.725152 0 -1547106170.725152 1367987882.8349972 0 0 0 0 1346967691.9938965 -1081693472.7713776 0 -1081693472.7713776 -3743613263.4017525 0 0 0 0 1485838984.2505875 -2311003187.4707661 0 -2311003187.4707661 942022119.19989014 0 0 0 0 981997314.82284546 -1530086015.7420311 0 -1530086015.7420311 -3016179236.121563 0 0 0 0 815370571.83163452 -2388934913.3531532 0 -2388934913.3531532 3278448987.6891098 0 0 0 0 2037467109.1997681 303966930.12663269 0 303966930.12663269 -3122076941.8148222 0 0 0 0 -835662367.95822144 86074636.490318298 0 86074636.490318298 -1580337110.8077755 0 0 0 0 2168216.5126862526 -2002120.5483489074 0 -2002120.5483489074 -1180080.7026180532 0 0 0 0 1099774183.3445435 -1112965629.8020983 0 -1112965629.8020983 314537558.36397552 0 0 0 0 1413319041.7241211 -1805570621.2792778 0 -1805570621.2792778 1134782193.8801994 0 0 0 0 674329898.03198051 -850050810.23263025 0 -850050810.23263025 1733324589.9630966 0 0 0 0 1345844722.6737976 -1251659045.8175621 0 -1251659045.8175621 326334958.21637535 0 0 0 0 1254937918.1593018 -1220825781.8330245 0 -1220825781.8330245 583825541.52894592 0 0 0 0 707934562.26005554 -1674156995.7971001 0 -1674156995.7971001 209004117.4113636 0 0 0 0 257514285.8565979 -1375622777.4641228 0 -1375622777.4641228 456038467.47295666 0 0 0 0 385968736.52249146 -1654853082.6917648 0 -1654853082.6917648 585938762.99121094 0 0 0 0 466012018.69989014 -1370793243.0360088 0 -1370793243.0360088 303833335.58032608 0 0 0 0 -509920413.17329407 -1211856025.1688499 0 -1211856025.1688499 117971816.32677269 0 0 0 0 382306909.62275696 -1244257589.8215065 0 -1244257589.8215065 33321976.1875 0 0 0 0 1115664286.1524506 -1132763422.0490322 0 -1132763422.0490322 -122165189.44741917 0 0 0 0 442749895.6020813 -1791220319.017961 0 -1791220319.017961 -766446719.39865875 0 0 0 0 -2494532981.6701508 -2041059223.1330023 0 -2041059223.1330023 -714736437.63146758 0 0 0 0 1618700.3148532808 -1481469.9907976352 0 -1481469.9907976352 -680971.76975600049 0 0 0 0 2535828394.7607574 -1293698743.4561424 0 -1293698743.4561424 -71955948.353407383 0 0 0 0 1829505438.6987381 -745361739.23508644 0 -745361739.23508644 275241540.29177094 0 0 0 0 1689550973.3855438 -1055698714.8154526 0 -1055698714.8154526 120619295.51977921 0 0 0 0 1548244426.5128021 -1367262886.3382854 0 -1367262886.3382854 -77235098.071495056 0 0 0 0 1234316663.3461685 -1398362846.4151869 0 -1398362846.4151869 135746863.21779823 0 0 0 0 1727397802.1617508 -167968073.55887222 0 -167968073.55887222 61519385.727256775 0 0 0 0 1504658598.2122345 -1050522217.4978895 0 -1050522217.4978895 134068511.10896301 0 0 0 0 1563966815.2310276 -868700801.18611693 0 -868700801.18611693 359946632.8414917 0 0 0 0 3978580587.894104 517895736.44062805 0 517895736.44062805 125445148.7908783 0 0 0 0 -473836087.63667297 -1048120677.2689123 0 -1048120677.2689123 -1251065391.9149418 0 0 0 0 -1704024093.4507141 -1458756739.3746672 0 -1458756739.3746672 -957840361.44056702 0 0 0 0 5140793.6612134725 -4112752.8153093196 0 -4112752.8153093196 -3750101.9307496734 0 0 0 0 1610452392.0249634 619887441.93384552 0 619887441.93384552 448655888.2144165 0 0 0 0 1308237802.5538483 43326086.70434761 0 43326086.70434761 139073266.25073206 0 0 0 0 797117676.99043083 243673724.10301828 0 243673724.10301828 631321307.81415176 0 0 0 0 968933066.84975433 -322063908.36124873 0 -322063908.36124873 -595970837.67486954 0 0 0 0 570147974.80493164 -587862678.17596817 0 -587862678.17596817 -175412904.55471039 0 0 0 0 983543251.34994507 -438057966.32537079 0 -438057966.32537079 -1253102110.6568642 0 0 0 0 1056955277.7091675 -71775157.231685638 0 -71775157.231685638 -1926549473.351017 0 0 0 0 804155327.4618454 396809215.32143688 0 396809215.32143688 -2329410650.594101 0 0 0 0 850310016.80366516 -415444525.61269855 0 -415444525.61269855 -639845142.86507034 0 0 0 0 1049057027.0552979 7884529.7865600586 0 7884529.7865600586 -1033109495.0229568 0 0 0 0 777765552.50805664 -83922791.597019196 0 -83922791.597019196 -1063344088.8697929 0 0 0 0 950873257.10084534 -158822064.30208206 0 -158822064.30208206 -1510370307.7769165 0 0 0 0 638661053.52754211 -382025161.16230392 0 -382025161.16230392 -1215908597.6510277 0 0 0 0 601934381.2986145 -58186548.371547699 0 -58186548.371547699 -980877424.99661064 0 0 0 0 -95095645.858825684 -603754327.39069939 0 -603754327.39069939 -520134722.55060196 0 0 0 0 1113405275.0144653 -546375654.83959293 0 -546375654.83959293 -550450211.58527756 0 0 0 0 593969769.04716492 -445282463.06008911 0 -445282463.06008911 465812.35582733154 0 0 0 0 783129920.83781433 -1222207225.6288376 0 -1222207225.6288376 -336845567.77513504 0 0 0 0 1606358317.7249737 -882288120.73075986 0 -882288120.73075986 -198618209.92144775 0 0 0 0 1717326505.6187596 -1065086756.3951222 0 -1065086756.3951222 -991780224.04010391 0 0 0 0 333559671.90274048 -1715910699.9315338 0 -1715910699.9315338 -1220296909.9287148 0 0 0 0 -501955621.54916382 -266453637.41434288 0 -266453637.41434288 -783448345.8649559 0 0 0 0 -152157622.02307129 -570832296.22237396 0 -570832296.22237396 -1864945382.4048634 0 0 0 0 4405562.8308926672 -799555.09904795513 0 -799555.09904795513 -3286122.9012767877 0 0 0 0 -991791277.2959137 -793612551.78047752 0 -793612551.78047752 -186927299.73348236 0 0 0 0 1678701.3412350416 -1519401.9574115574 0 -1519401.9574115574 -1310084.8763397578 0 0 0 0 116010486.4836731 -925242611.66536331 0 -925242611.66536331 -2205128698.0753059 0 0 0 0 68783047.20526123 149275974.68789673 0 149275974.68789673 -1711120000.9721375 0 0 0 0 431435193.9347229 -280899032.88564491 0 -280899032.88564491 -911047651.36665726 0 0 0 0 -61572017.20417881 -444313825.72077096 0 -444313825.72077096 -809952888.01721954 0 0 0 0 -15001406.455062866 -153390925.67617702 0 -153390925.67617702 -125937101.06469345 0 0 0 0 16079795.146064758 -18359052.261245728 0 -18359052.261245728 -1387614.5887832642 0 0 0 0 8781692.3884109035 -13755665.679826215 0 -13755665.679826215 2642418.1674289033 0 0 0 0 -99370163.498474121 28568760.54186058 0 28568760.54186058 -164619970.44619352 0 0 0 0 14165954.486675173 -3652080.3748421893 0 -3652080.3748421893 -9721663.492939923 0 0 0 0 13213850.171630859 -13545108.367652893 0 -13545108.367652893 -2215096.8834967613 0 0 0 0 8944022.2443084717 -19600652.047193527 0 -19600652.047193527 -10738715.048793793 0 0 0 0 -4113688.3327941895 21806160.675087929 0 21806160.675087929 -104130502.25020218 0 0 0 0 9514799.8388005048 -14576362.909584515 0 -14576362.909584515 2507475.1012967415 0 0 0 0 7629185.6204223633 -16971625.917549133 0 -16971625.917549133 -10395230.13303709 0 0 0 0 7427438.677257061 -20810013.28198874 0 -20810013.28198874 -18541640.531524658 0 0 0 0 17957593.202232361 -16651247.774400711 0 -16651247.774400711 -25444932.764686584 0 0 0 0 7542921.8921930157 -11150327.248608992 0 -11150327.248608992 -19634369.971709654 0 0 0 0 1719652852.9070969 -43555112.913949966 0 -43555112.913949966 139602735.48646545 0 0 0 0 1524145865.9639587 218594449.11400604 0 218594449.11400604 12199208.446899414 0 0 0 0 42911556.464599609 -63689429.417022705 0 -63689429.417022705 16215973.713456154 0 0 0 0 13131053.327521853 -18012889.163527139 0 -18012889.163527139 -2984538.123899281 0 0 0 0 7532614.2758307457 -18877430.842294335 0 -18877430.842294335 -15967055.609817505 0 0 0 0 -60259763.541488647 -46548158.450944901 0 -46548158.450944901 31205894.98602581 0 0 0 0 3206179.9230844937 -7472065.8758803234 0 -7472065.8758803234 -14262910.032052018 0 0 0 0 2812762339.9113159 -560020848.84594154 0 -560020848.84594154 -1147115057.0558395 0 0 0 0 -34192187.051300049 -7339783.379524231 0 -7339783.379524231 -138727535.13838387 0 0 0 0 160008311.37575912 -36784773.039022923 0 -36784773.039022923 -201639748.09256744 0 0 0 0 83471472.414047241 12944272.231771469 0 12944272.231771469 -911682235.94070816 0 0 0 0 541290378.47070312 75465547.491531372 0 75465547.491531372 -906590196.45633364 0 0 0 0 402543814.5790863 407565563.45531368 0 407565563.45531368 -1540226928.064743 0 0 0 0 457587714.15483856 -205971731.32897663 0 -205971731.32897663 -1499600240.7881966 0 0 0 0 421013.03632139415 -3410839.344531104 0 -3410839.344531104 -5258320.4260702543 0 0 0 0 -760135791.41353607 1211661172.0556927 0 1211661172.0556927 -1326668668.3343582 0 0 0 0 -308395081.94628906 546726205.71576309 0 546726205.71576309 -528319325.17785454 0 0 0 0 409160120.1937561 371443237.60623932 0 371443237.60623932 -1513638792.9496651 0 0 0 0 420618792.5567472 893732823.67960775 0 893732823.67960775 -2339636151.3098907 0 0 0 0 684338045.94537354 -2607297271.0151863 0 -2607297271.0151863 -1168017110.2295914 0 0 0 0 185400566.91415405 -2045996412.1448135 0 -2045996412.1448135 -580326636.88750458 0 0 0 0 876500220.82168579 -1993752946.7206593 0 -1993752946.7206593 -930523053.32246017 0 0 0 0 12563312.100839399 -11949896.385505684 0 -11949896.385505684 -2860196.372898221 0 0 0 0 82105730.975021362 -342800000.26563835 0 -342800000.26563835 -494369452.43679428 0 0 0 0 898622396.11734009 -591174679.81108856 0 -591174679.81108856 964075548.61126328 0 0 0 0 901350270.49276733 -891575364.27694321 0 -891575364.27694321 -2309772843.3065033 0 0 0 0 1368742585.7136993 -414270564.3895874 0 -414270564.3895874 -852940549.35984802 0 0 0 0 1363483582.085144 63278587.610275269 0 63278587.610275269 120449442.75098801 0 0 0 0 -1204412882.8704376 564742559.71999359 0 564742559.71999359 -593257097.55565643 0 0 0 0 -3215969322.4408302 -1939301733.4075308 0 -1939301733.4075308 -181556885.58561707 0 0 0 0 -2764675617.3260918 -4499748670.8898239 0 -4499748670.8898239 -140419193.35331726 0 0 0 0 2433376109.9875336 -1356236628.7357254 0 -1356236628.7357254 -608994748.05018997 0 0 0 0 824350761.64030457 -4503150945.0883465 0 -4503150945.0883465 -1324303221.9040527 0 0 0 0 1399182774.0873108 -270309181.3039856 0 -270309181.3039856 46348894.118278503 0 0 0 0 1520675522.9052429 -749145138.5195694 0 -749145138.5195694 1252519043.237484 0 0 0 0 1112560462.6435318 320093216.91483116 0 320093216.91483116 587981365.2507019 0 0 0 0 5896229.5785927176 -1316917.7280445462 0 -1316917.7280445462 -1336426.2680428438 0 0 0 0 4153561340.4608459 1483357010.580225 0 1483357010.580225 -1221589828.9835587 0 0 0 0 3361770240.5516205 1471685537.2912674 0 1471685537.2912674 -1174332739.4325142 0 0 0 0 -198418154.28285217 309176974.6979332 0 309176974.6979332 -240250960.98066711 0 0 0 0 5102452003.3364716 1175321942.0452309 0 1175321942.0452309 -1585286904.9732018 0 0 0 0 -4137334294.1284332 237175505.52861214 0 237175505.52861214 1970632073.2285404 0 0 0 0 4705416993.6658325 949347736.23068237 0 949347736.23068237 -1211796133.0723801 0 0 0 0 1166065768.1539459 -47391866.595539093 0 -47391866.595539093 48123949.480690002 0 0 0 0 1949640299.1387634 2566413312.2410507 0 2566413312.2410507 3591392586.3724785 0 0 0 0 10991713.952412255 -13519382.703168027 0 -13519382.703168027 6571993.3805005923 0 0 0 0 413090979.57054138 -808335468.78739166 0 -808335468.78739166 1547835503.072094 0 0 0 0 2479121099.4911499 -1268744655.8088379 0 -1268744655.8088379 -136594585.75828552 0 0 0 0 972161142.95645475 -1156904673.9540513 0 -1156904673.9540513 -800641287.66436005 0 0 0 0 988696946.91158295 -559397392.36231697 0 -559397392.36231697 -474153388.73074341 0 0 0 0 1229097716.2199249 -916315136.75656128 0 -916315136.75656128 -1027812332.2123642 0 0 0 0 1170507247.4204407 291500662.60760498 0 291500662.60760498 -190631839.88352013 0 0 0 0 659309584.35601807 -518720554.83865929 0 -518720554.83865929 -761295400.72028732 0 0 0 0 64610763.200141907 -391390021.24289894 0 -391390021.24289894 -611035574.43140411 0 0 0 0 692332522.98054504 -864836507.02501678 0 -864836507.02501678 -941227993.56032562 0 0 0 0 621381744.02145004 -1453899188.7145758 0 -1453899188.7145758 -1576764800.2071228 0 0 0 0 480551316.85261536 -1149133253.6073189 0 -1149133253.6073189 -1208564900.8695335 0 0 0 0 131804746.6357432 -1194238747.756397 0 -1194238747.756397 -982025564.24822998 0 0 0 0 152199160.55819702 -1178422220.2170334 0 -1178422220.2170334 -969895440.10418129 0 0 0 0 -190937153.73016357 -1153504751.5647373 0 -1153504751.5647373 -967242286.26200581 0 0 0 0 -187764338.80023193 -1231231372.4619331 0 -1231231372.4619331 -747887361.72229004 0 0 0 0 -121617878.43890381 -1001013629.571806 0 -1001013629.571806 -941306458.24781418 0 0 0 0 -35458664.91558075 -894388475.30797577 0 -894388475.30797577 -895701695.10655212 0 0 0 0 43740454.16796875 -843399359.34199524 0 -843399359.34199524 -929645215.13750076 0 0 0 0 -747951731.61584473 -730797993.80257225 0 -730797993.80257225 -590374586.96162605 0 0 0 0 -129720561.03179932 -413123338.51981831 0 -413123338.51981831 -430030945.39970016 0 0 0 0 8913403.6954728737 -6867935.8230004236 0 -6867935.8230004236 -6839386.4224726949 0 0 0 0 -703251945.72717285 2705251993.0042772 0 2705251993.0042772 -114935971.99087524 0 0 0 0 -848292415.45019531 -985014561.01673889 0 -985014561.01673889 -730593026.08639526 0 0 0 0 -225472146.72616577 -809958418.80719948 0 -809958418.80719948 -863003059.44921112 0 0 0 0 -228174416.60183716 -975514927.94801712 0 -975514927.94801712 -911245248.49719238 0 0 0 0 -670298343.03186035 -936256896.0587101 0 -936256896.0587101 -845119649.63030434 0 0 0 0 -348170395.97270203 -993837658.84007263 0 -993837658.84007263 -1032099609.8664017 0 0 0 0 -699038954.79214478 -827675489.57871246 0 -827675489.57871246 -854946347.56369305 0 0 0 0 -341765169.30444336 -749389162.92907524 0 -749389162.92907524 -1002131592.3947945 0 0 0 0 -352240240.95422745 -739398571.20330405 0 -739398571.20330405 -668233009.19371033 0 0 0 0 -399130741.95269775 -1036252961.5697918 0 -1036252961.5697918 -747634682.66772461 0 0 0 0 -308871255.58227539 -944230715.10940742 0 -944230715.10940742 -830503710.41136551 0 0 0 0 -323190910.41861725 -922222723.45086288 0 -922222723.45086288 -858542184.17284393 0 0 0 0 -591700318.66963196 -1245991030.4579868 0 -1245991030.4579868 -129257326.91568756 0 0 0 0 -493018231.55233765 -1197828831.0974274 0 -1197828831.0974274 -501877651.7849431 0 0 0 0 -432377181.72267151 -1124881342.3881721 0 -1124881342.3881721 -414144513.48429489 0 0 0 0 -568743373.15562439 -914833950.1563282 0 -914833950.1563282 -480005430.55086136 0 0 0 0 -410608386.44012451 -989033509.17064953 0 -989033509.17064953 -209192773.56420898 0 0 0 0 -250427052.05580139 -981071425.1595192 0 -981071425.1595192 -2798126.2015380859 0 0 0 0 -471456100.55015564 -915187140.9697628 0 -915187140.9697628 251673472.1303606 0 0 0 0 -176665332.88978195 -644336338.5714736 0 -644336338.5714736 237410835.61714172 0 0 0 0 -614748917.44780159 -924240138.35642433 0 -924240138.35642433 246645029.38687134 0 0 0 0 -549990022.59806824 -1250860888.1945915 0 -1250860888.1945915 -218801704.84012604 0 0 0 0 -161335439.41482544 -792894810.6518631 0 -792894810.6518631 51930861.04173851 0 0 0 0 -624609928.73873901 -1138500233.2492294 0 -1138500233.2492294 79091473.456199646 0 0 0 0 -485794034.84254456 -1207951399.6951675 0 -1207951399.6951675 -302139746.43351746 0 0 0 0 -627676757.29981232 -1185520603.6145506 0 -1185520603.6145506 -272791965.73488617 0 0 0 0 -750904101.75341797 -1388265451.985218 0 -1388265451.985218 -257066289.13513851 0 0 0 0 -879339496.21903992 -1367274774.555254 0 -1367274774.555254 -45294496.735389709 0 0 0 0 -705068118.27092743 -1309843577.481657 0 -1309843577.481657 -766794413.58170319 0 0 0 0 -944199716.73162842 -1547115847.2239685 0 -1547115847.2239685 -470994608.0677166 0 0 0 0 -596359702.03622437 -1550937735.4893322 0 -1550937735.4893322 -1026313775.9449959 0 0 0 0 -750863857.50733948 -1522872788.840332 0 -1522872788.840332 -641285282.00972748 0 0 0 0 -397631134.10882568 -1648446136.8630829 0 -1648446136.8630829 -1034931931.8485107 0 0 0 0 -533552214.09954834 -1456290828.3820953 0 -1456290828.3820953 -653896119.78458405 0 0 0 0 -526086612.6652832 -1398392564.7215347 0 -1398392564.7215347 -472752008.27828312 0 0 0 0 -296274957.64035797 -1400133465.9046154 0 -1400133465.9046154 -827387933.2192688 0 0 0 0 -327562740.0927124 -1508110892.7218056 0 -1508110892.7218056 -851987228.71904087 0 0 0 0 130006245.85620916 -1511353301.5175154 0 -1511353301.5175154 -1190732887.6036301 0 0 0 0 -124625851.30688477 -1700514745.2992134 0 -1700514745.2992134 -1527086706.8694305 0 0 0 0 -68705989.325561523 -1471635933.7052841 0 -1471635933.7052841 -1129425276.8993874 0 0 0 0 -1002344175.1028423 -1090393619.299901 0 -1090393619.299901 -1715674561.779274 0 0 0 0 -592025016.02848053 -1638662818.8832455 0 -1638662818.8832455 -1592531976.963028 0 0 0 0 -671596778.57177734 -1608110509.5392456 0 -1608110509.5392456 -1023562664.2239923 0 0 0 0 -906422748.38119507 -1723294818.9340553 0 -1723294818.9340553 -1363907228.3086433 0 0 0 0 469177819.05340576 -826748869.32812881 0 -826748869.32812881 -1003871565.8237915 0 0 0 0 318746502.46432495 -1485493923.5423088 0 -1485493923.5423088 -2457266885.4885063 0 0 0 0 50003933.713272095 -116928482.74399948 0 -116928482.74399948 269529258.05614281 0 0 0 0 850218.45840454102 -279225983.38686371 0 -279225983.38686371 -192949695.31036758 0 0 0 0 189592659.60626221 203969238.37781525 0 203969238.37781525 -1034755343.5542297 0 0 0 0 145475929.12934113 228728517.20609379 0 228728517.20609379 -127868477.26089478 0 0 0 0 283829.11623743176 431474.6152703464 0 431474.6152703464 -3959563.5887405388 0 0 0 0 12867392.765853882 -111166659.26588249 0 -111166659.26588249 -71764434.434616089 0 0 0 0 13476989.213223159 -5199892.9034313317 0 -5199892.9034313317 -4092357.7456307448 0 0 0 0 -87095103.660095215 -30169368.505087852 0 -30169368.505087852 159484499.13980865 0 0 0 0 -126082855.84240723 -824312597.23937988 0 -824312597.23937988 -1201283648.2490578 0 0 0 0 -129037100.05159569 -1458691618.3937612 0 -1458691618.3937612 300133226.68341064 0 0 0 0 -949146.00543083251 -4794227.0613102168 0 -4794227.0613102168 -3985652.9042011648 0 0 0 0 -505913812.34928894 228792723.2154808 0 228792723.2154808 -130491623.01029587 0 0 0 0 -152533800.80714798 -584365574.62433958 0 -584365574.62433958 -3792675291.84758 0 0 0 0 -1158086.6234573424 -3265485.1730381139 0 -3265485.1730381139 101000.70128381625 0 0 0 0 17684985.244967654 -9297043.6692932025 0 -9297043.6692932025 -8995447.3668668233 0 0 0 0 55104395.191665649 241157221.58428574 0 241157221.58428574 -1484441281.774231 0 0 0 0 4364373.1634019613 -96898.842946391553 0 -96898.842946391553 -13628071.467419215 0 0 0 0 94776622.196258545 -43920143.117683411 0 -43920143.117683411 -32935369.833011627 0 0 0 0 -804331352.3139801 -2213954979.800621 0 -2213954979.800621 -2982542228.4947815 0 0 0 0 -608522142.61981201 -1799587331.2612648 0 -1799587331.2612648 -2117902257.3901596 0 0 0 0 -1112657770.905365 -2362265420.1914482 0 -2362265420.1914482 -3237695418.267807 0 0 0 0 -506556126.88311768 -1758674259.5306816 0 -1758674259.5306816 -2711688103.094902 0 0 0 0 -955937325.97058868 -1490890245.9713931 0 -1490890245.9713931 -2164096546.8153229 0 0 0 0 -895550388.95782471 -1991072982.7209435 0 -1991072982.7209435 -2563721902.1831532 0 0 0 0 -741313241.72109985 -1549608936.8829288 0 -1549608936.8829288 -1804722584.7636337 0 0 0 0 -539758003.12249756 -1477070528.9569855 0 -1477070528.9569855 -3021209019.8260698 0 0 0 0 -710798287.68710327 -1631960459.3575535 0 -1631960459.3575535 -1795372984.1987457 0 0 0 0 -982099848.59454346 -1532267204.4358902 0 -1532267204.4358902 -1026888977.6144927 0 0 0 0 -1079981458.1346893 -1630958199.4020443 0 -1630958199.4020443 -890579531.7911377 0 0 0 0 -1453692065.1106873 -1647209754.2784309 0 -1647209754.2784309 -1495517995.5050735 0 0 0 0 -741980602.60293579 -1272132998.7867661 0 -1272132998.7867661 -1357732779.176302 0 0 0 0 -1304164317.8676376 -1185578968.0669336 0 -1185578968.0669336 -988509960.28698349 0 0 0 0 -724470613.14196777 -681785763.41130066 0 -681785763.41130066 -887990014.23178482 0 0 0 0 -1916003611.0807343 -932263076.65554428 0 -932263076.65554428 -2419636836.7440577 0 0 0 0 -898515221.21631622 -1377773029.5275707 0 -1377773029.5275707 -2326417193.8067551 0 0 0 0 -2128460893.4763184 -2031539009.3728828 0 -2031539009.3728828 -2405826762.4736519 0 0 0 0 -313459366.97427368 -2143171845.0672455 0 -2143171845.0672455 -3780182337.8379927 0 0 0 0 -712962078.5933609 -1430572703.9288111 0 -1430572703.9288111 -2474417629.1510315 0 0 0 0 -795968529.39727783 -1110762057.3936157 0 -1110762057.3936157 -3644082016.7863617 0 0 0 0 -436676895.36172485 -1743571976.0189056 0 -1743571976.0189056 -2275821306.9630127 0 0 0 0 -765517503.3969574 -2122493476.0268555 0 -2122493476.0268555 -2443183715.5902328 0 0 0 0 -607284286.22402954 -2141313380.5553436 0 -2141313380.5553436 -1705199374.4261398 0 0 0 0 -849825542.16207886 -1405056750.1250191 0 -1405056750.1250191 -763848877.22642517 0 0 0 0 -1666157773.2414551 -2712796744.8974304 0 -2712796744.8974304 -1993874264.8260117 0 0 0 0 -2019933756.9559631 -1286193903.7653008 0 -1286193903.7653008 -284823099.97865295 0 0 0 0 -555605969.96661377 -1315738534.1703415 0 -1315738534.1703415 -1141398061.6237106 0 0 0 0 -177130287.82949829 -2424674709.1144485 0 -2424674709.1144485 -2943244339.0415726 0 0 0 0 -13874425.332672119 -2157891283.0510597 0 -2157891283.0510597 -2547706112.8670349 0 0 0 0 -949993509.66494751 -2323055086.854187 0 -2323055086.854187 -2030911817.4528427 0 0 0 0 -1124891556.4814329 -2992820745.94944 0 -2992820745.94944 -3068266492.4381332 0 0 0 0 -1020332841.6061096 -1784181164.0251617 0 -1784181164.0251617 -2772177818.2134247 0 0 0 0 -58240.263458251953 -21246603.835865021 0 -21246603.835865021 -27823012.046646118 0 0 0 0 2722108.2746029347 -5411047.3602725156 0 -5411047.3602725156 -7094560.6496677622 0 0 0 0 -3615227616.76297 -3049552854.5421944 0 -3049552854.5421944 -2322781792.8390961 0 0 0 0 60525.83447265625 -21151984.348491669 0 -21151984.348491669 -27912376.327281952 0 0 0 0 -1257037095.6577454 -1632160617.7494831 0 -1632160617.7494831 -2135819982.4950638 0 0 0 0 -1252886970.3589172 -1565619297.7504292 0 -1565619297.7504292 -1401510381.6065865 0 0 0 0 3518299.7138110697 -5092559.9505021572 0 -5092559.9505021572 -8079109.6269843057 0 0 0 0 -22234946.001342773 -7982453.8949584961 0 -7982453.8949584961 29000747.459014893 0 0 0 0 -26018654.550079346 -33208987.89307785 0 -33208987.89307785 -5733246.2675476074 0 0 0 0 -3530859.5624401374 41004754.641503982 0 41004754.641503982 35434996.846849456 0 0 0 0 23003429.319335938 -275939.6305847168 0 -275939.6305847168 -12243986.332847595 0 0 0 0 -4579861.2998352051 2985867.1544113159 0 2985867.1544113159 -10686590.200705528 0 0 0 0 5012362.9317932129 3356496.2721328735 0 3356496.2721328735 -1261879.2965583801 0 0 0 0 -3880611.4202968031 -5133167.9194036573 0 -5133167.9194036573 -739741.09852805734 0 0 0 0 759237000.87245178 -66513030.22167778 0 -66513030.22167778 4635779.7167358398 0 0 0 0 378360.54296875 -5981791.2463722229 0 -5981791.2463722229 3263692.9679489136 0 0 0 0 -7200329.9090881348 -1808265.3074913025 0 -1808265.3074913025 3627822.1895904541 0 0 0 0 290213882.48399353 -228221272.03078079 0 -228221272.03078079 170165705.56650162 0 0 0 0 402117.09368400276 -5260816.7341136336 0 -5260816.7341136336 -6284522.0319109708 0 0 0 0 87992045.400695801 13978596.391550064 0 13978596.391550064 1852339.5072727203 0 0 0 0 -361567.23213496804 1711824.1253479533 0 1711824.1253479533 -4740286.9880679827 0 0 0 0 -3177157.7930713147 -2566999.7497825064 0 -2566999.7497825064 -1740643.4140189323 0 0 0 0 145266951.62210083 -74986753.977027893 0 -74986753.977027893 14787743.712852478 0 0 0 0 120525825.04501343 -552787198.82086182 0 -552787198.82086182 578393275.74142456 0 0 0 0 167253134.45031738 -441912056.99662781 0 -441912056.99662781 318893432.39178085 0 0 0 0 -45614782.902008057 -284419661.86903381 0 -284419661.86903381 528885589.24481583 0 0 0 0 -5566202.238879934 -3150826.0289936624 0 -3150826.0289936624 -160154.3708111993 0 0 0 0 134524316.03085327 -146279193.70499039 0 -146279193.70499039 271642314.53524399 0 0 0 0 -4785602.5536804199 -4335719.80585289 0 -4335719.80585289 -4650071.8502807617 0 0 0 0 -22955517.392501831 -5868756.5183601379 0 -5868756.5183601379 1584230.9212799072 0 0 0 0 3310381.3562602252 -4435848.5600411892 0 -4435848.5600411892 -7554886.8686831743 0 0 0 0 -932389884.4102478 -808431621.84465599 0 -808431621.84465599 -869514880.89408875 0 0 0 0 -474237895.24346924 -645580352.16782379 0 -645580352.16782379 -994503300.49806213 0 0 0 0 -663340271.46218872 -867590117.3405304 0 -867590117.3405304 -1045350492.6839752 0 0 0 0 237416.1668638438 -976811.75120578706 0 -976811.75120578706 -1476752.1180131612 0 0 0 0 -882450811.49783325 -1533304214.7517815 0 -1533304214.7517815 -731584911.24222946 0 0 0 0 -641810540.02081299 -1007624376.3339539 0 -1007624376.3339539 -227944470.21250534 0 0 0 0 -420904620.69845581 -1181908041.790844 0 -1181908041.790844 -90537422.532844543 0 0 0 0 -441912200.24377441 -698011466.5148468 0 -698011466.5148468 692970731.52362061 0 0 0 0 -480137907.42144775 -1023073335.3107681 0 -1023073335.3107681 -82730492.917850733 0 0 0 0 -213156134.66650391 89873678.658477783 0 89873678.658477783 1248640059.152195 0 0 0 0 562559.86277270317 -1173268.6935772374 0 -1173268.6935772374 -616112.85160505399 0 0 0 0 529615642.57946777 -757255020.15808868 0 -757255020.15808868 1049736278.4820633 0 0 0 0 -464898116.63496971 -956553120.88825917 0 -956553120.88825917 1266655231.1881332 0 0 0 0 540453510.70153809 -314220676.63464355 0 -314220676.63464355 501456911.05793762 0 0 0 0 425891228.21636963 -910217323.21573639 0 -910217323.21573639 967745677.84789848 0 0 0 0 839890877.16549683 -577748981.93904877 0 -577748981.93904877 467163011.03851318 0 0 0 0 62224245.467559814 -510554841.05614471 0 -510554841.05614471 266106623.30771732 0 0 0 0 246129992.46447754 -594052455.39156342 0 -594052455.39156342 466723539.88759756 0 0 0 0 487245626.70274353 -733095722.19202232 0 -733095722.19202232 253242060.70288086 0 0 0 0 385635993.90905762 -318412380.6028595 0 -318412380.6028595 503525816.22169876 0 0 0 0 321771848.8861084 -695991290.26973152 0 -695991290.26973152 39781860.404212952 0 0 0 0 -148384521.2618103 -699544642.67494583 0 -699544642.67494583 246510995.92418671 0 0 0 0 -200122338.50366974 -688848746.83868551 0 -688848746.83868551 240922506.82201385 0 0 0 0 -204740666.98547363 -715651958.96156693 0 -715651958.96156693 422288870.11357868 0 0 0 0 -54143133.281295776 -681462267.95110893 0 -681462267.95110893 238207047.42253113 0 0 0 0 284799868.33721924 -730497673.22492981 0 -730497673.22492981 40890680.685134888 0 0 0 0 58113504.858398438 -847522811.29378319 0 -847522811.29378319 54369909.504211426 0 0 0 0 432222299.94491577 -801092638.97002411 0 -801092638.97002411 -191515787.13358688 0 0 0 0 522556908.65478516 -722112287.65714073 0 -722112287.65714073 -163223441.39382935 0 0 0 0 492391855.26904297 -614583909.71346283 0 -614583909.71346283 -160033256.25918102 0 0 0 0 1417316044.1748047 -224050970.03064537 0 -224050970.03064537 -516789486.93925476 0 0 0 0 200222.47700156085 -1929104.5023561344 0 -1929104.5023561344 -2280955.4879184961 0 0 0 0 1006665962.568573 -719809164.25136566 0 -719809164.25136566 -1114649106.9527392 0 0 0 0 -1031959754.7042389 -1038914464.5550652 0 -1038914464.5550652 -837112891.43101501 0 0 0 0 568221582.49417114 -262754149.24742889 0 -262754149.24742889 140927618.77423859 0 0 0 0 -1083171.0238190012 204351055.42693251 0 204351055.42693251 130377697.41265869 0 0 0 0 237116375.30264282 -271931824.93533707 0 -271931824.93533707 141913208.12021637 0 0 0 0 318193221.05728149 -471749512.04649734 0 -471749512.04649734 315812291.81175613 0 0 0 0 350441829.63323975 -574450104.59811783 0 -574450104.59811783 182859930.52619934 0 0 0 0 339314523.82575989 -661386110.80622482 0 -661386110.80622482 107681111.34841156 0 0 0 0 552150698.73999023 -495171473.32667542 0 -495171473.32667542 4931074.9357757568 0 0 0 0 349834557.83238411 -584934537.53826141 0 -584934537.53826141 131131218.17404175 0 0 0 0 226125904.6053772 -170598178.70908356 0 -170598178.70908356 126563296.33059692 0 0 0 0 144072587.92863464 -364193665.33123779 0 -364193665.33123779 590438255.96255946 0 0 0 0 -328216.93774414062 -240361777.66557312 0 -240361777.66557312 518495268.85415649 0 0 0 0 10885656.496536255 -200469605.73719025 0 -200469605.73719025 587547180.31232262 0 0 0 0 44502525.74911499 -461879924.14578247 0 -461879924.14578247 1085623397.5673981 0 0 0 0 -117230533.70374298 127489757.80149841 0 127489757.80149841 643924205.39479065 0 0 0 0 780648110.18135071 -663497892.55207062 0 -663497892.55207062 564378988.77626038 0 0 0 0 77955206.271392822 144094835.24188232 0 144094835.24188232 59181392.751327515 0 0 0 0 -691591.06448885053 -1215100.4088581726 0 -1215100.4088581726 2813806.6276252046 0 0 0 0 -91465443.271194458 164387.2596244812 0 164387.2596244812 48693903.173049927 0 0 0 0 -42515907.157592773 -45866439.282180786 0 -45866439.282180786 79674055.683200836 0 0 0 0 -1723330.5491437726 -2340767.9435661733 0 -2340767.9435661733 7395608.2061721385 0 0 0 0 13699134.546661377 -35292744.643173218 0 -35292744.643173218 16807050.21522522 0 0 0 0 771893.19784545898 -3129688.9387779236 0 -3129688.9387779236 111971405.21994019 0 0 0 0 -3146426.9830742776 -11696787.5106754 0 -11696787.5106754 -12533773.92697385 0 0 0 0 -1461153.5089569092 -32721059.414810181 0 -32721059.414810181 18075535.665122986 0 0 0 0 5526346.801940918 -41028230.821922302 0 -41028230.821922302 -23018105.634750366 0 0 0 0 -10257120.236999512 -10682617.443893433 0 -10682617.443893433 5414027.5493621826 0 0 0 0 161883145.83590698 -63566773.22820282 0 -63566773.22820282 14235954.424545288 0 0 0 0 197963207.43894196 -143430099.1998806 0 -143430099.1998806 161088605.02838135 0 0 0 0 272291.68389892578 -147339431.63319016 0 -147339431.63319016 274603943.54645538 0 0 0 0 -43556.258773803711 -54212203.34469986 0 -54212203.34469986 71921621.702140808 0 0 0 0 105897466.48843384 -178617484.47677612 0 -178617484.47677612 217236685.32455444 0 0 0 0 90426805.815647125 -39355705.012566566 0 -39355705.012566566 -16093397.242507935 0 0 0 0 89812633.122493744 -40572830.482315063 0 -40572830.482315063 37700566.249649048 0 0 0 0 74284716.797698975 -149889243.09277344 0 -149889243.09277344 -50349871.444660187 0 0 0 0 -3435420.6147367284 -4304794.0531108901 0 -4304794.0531108901 11832869.874005243 0 0 0 0 88604630.559951782 -45591989.068256378 0 -45591989.068256378 53486655.475837708 0 0 0 0 -110472142.27645874 -305618596.5870266 0 -305618596.5870266 -795805377.58569336 0 0 0 0 -442229680.26519775 638498072.89014816 0 638498072.89014816 -627838875.86158752 0 0 0 0 -721244806.45874023 1163886355.4164734 0 1163886355.4164734 -1582384347.3491516 0 0 0 0 -353117.68384642899 -2743000.2561592385 0 -2743000.2561592385 -1835059.057058081 0 0 0 0 1006005707.5011597 -452355331.85871887 0 -452355331.85871887 -3923448774.6269684 0 0 0 0 175426268.89628601 388091307.44843674 0 388091307.44843674 -1359590170.9971008 0 0 0 0 581205.14707946777 77711716.355621338 0 77711716.355621338 -694233694.55007935 0 0 0 0 73638709.965515137 -115753995.62851715 0 -115753995.62851715 70394462.77419281 0 0 0 0 -355980.42956233025 477857.35227509588 0 477857.35227509588 1476719.4846216813 0 0 0 0 -1131640372.3098145 1110793462.697876 0 1110793462.697876 285096502.23867798 0 0 0 0 -87765400.752563477 -1772953581.9316559 0 -1772953581.9316559 -2850690727.8476639 0 0 0 0 174107805.2791748 -640277341.84436035 0 -640277341.84436035 -2993628268.5372772 0 0 0 0 -3180866.5216471106 523962.46612530947 0 523962.46612530947 -258617.12762930244 0 0 0 0 324245337.98007202 -1391685.1716346741 0 -1391685.1716346741 -1220807495.1545715 0 0 0 0 -25577793.003456116 462711048.86405754 0 462711048.86405754 314226819.70327759 0 0 0 0 -269917012.77082825 -378829071.98686981 0 -378829071.98686981 -270116608.12721252 0 0 0 0 -288109105.37420654 -1405721811.5561295 0 -1405721811.5561295 -1638198055.5337486 0 0 0 0 450393086.40328979 -499221939.1962738 0 -499221939.1962738 -1791651727.6647339 0 0 0 0 -210983667.0717926 -1800656886.3511772 0 -1800656886.3511772 -1943483340.5142517 0 0 0 0 75351937.735168457 -1009191221.7494698 0 -1009191221.7494698 -1242150521.9241943 0 0 0 0 -607920714.04660034 -1832944084.1254196 0 -1832944084.1254196 -1439482809.8812408 0 0 0 0 4697567.1311974199 -1973694795.5178204 0 -1973694795.5178204 -2536773492.9559631 0 0 0 0 -439072695.11380005 -2018384307.3935242 0 -2018384307.3935242 -2066204756.7863922 0 0 0 0 -266322227.72329712 -2128758660.5665512 0 -2128758660.5665512 -2549125301.5405464 0 0 0 0 -100098611.27244568 -1462927058.0830765 0 -1462927058.0830765 -2197803884.8200073 0 0 0 0 -155494140.31472778 -229124504.02561188 0 -229124504.02561188 30128179.787506104 0 0 0 0 -573403036.43493652 101380529.29579926 0 101380529.29579926 430504074.15499115 0 0 0 0 -1289380056.3483582 -1039979645.52631 0 -1039979645.52631 -337674677.8067627 0 0 0 0 -193027284.09555054 -235620235.58210754 0 -235620235.58210754 71144722.475662231 0 0 0 0 239153139.11883545 -1187549801.2586784 0 -1187549801.2586784 -894368526.39427185 0 0 0 0 -182688666.14141846 -1254617219.6286621 0 -1254617219.6286621 -1138191513.469368 0 0 0 0 -470230170.84968567 -1519650580.4771538 0 -1519650580.4771538 -436654474.06584167 0 0 0 0 -22942561.943725586 -922525245.008255 0 -922525245.008255 101470666.4586792 0 0 0 0 -197492118.13296509 -701677978.65800476 0 -701677978.65800476 -94329946.112117767 0 0 0 0 -353919134.44030762 -356890095.68745422 0 -356890095.68745422 -66949844.686698914 0 0 0 0 -461961623.49337769 -1180026299.6892624 0 -1180026299.6892624 -559682524.45365906 0 0 0 0 -577813247.41229248 -688378207.88036346 0 -688378207.88036346 831944435.16000366 0 0 0 0 -740190272.73422241 28681768.832420349 0 28681768.832420349 877591665.99091005 0 0 0 0 1366019.4156649634 -3834115.7357978374 0 -3834115.7357978374 183443.7021099329 0 0 0 0 1714605441.5011902 27178140.863521576 0 27178140.863521576 -34374574.118553162 0 0 0 0 298357997.42414856 -1547488719.0802536 0 -1547488719.0802536 1281161736.2415161 0 0 0 0 955332586.08825684 -1250063764.1867428 0 -1250063764.1867428 786477676.38822937 0 0 0 0 -735553014.91125488 -226018417.7756958 0 -226018417.7756958 1881492978.992836 0 0 0 0 1651107660.8291321 350207152.90509605 0 350207152.90509605 -865416352.05105591 0 0 0 0 -194650584.04571533 606489496.3036499 0 606489496.3036499 -608045153.24727631 0 0 0 0 -617392557.26882935 -33073893.36013031 0 -33073893.36013031 607215951.15379333 0 0 0 0 -30928329.508590698 -141752466.52302551 0 -141752466.52302551 -1191230705.906723 0 0 0 0 -2414375.8660765737 -374818.6555038169 0 -374818.6555038169 -365869.27589540184 0 0 0 0 -583317527.35710144 233052144.22651672 0 233052144.22651672 -634357409.80145264 0 0 0 0 -422110494.21075439 270609862.6333313 0 270609862.6333313 -1246283183.4918098 0 0 0 0 -535853310.63336182 365784201.9318161 0 365784201.9318161 -567643143.33482552 0 0 0 0 -2786000.3590040058 -7620064.190434359 0 -7620064.190434359 -8312434.1118041091 0 0 0 0 -22863864.086235046 -23329103.137369156 0 -23329103.137369156 24690783.190139771 0 0 0 0 -314198854.35302734 519701745.33423615 0 519701745.33423615 -576215731.80317688 0 0 0 0 317714970.26046753 148406924.86727905 0 148406924.86727905 -830085849.97563171 0 0 0 0 591688539.76211166 -381188220.8781271 0 -381188220.8781271 -193297772.62606812 0 0 0 0 685625504.79564285 341689957.68011475 0 341689957.68011475 -738977477.17819214 0 0 0 0 -296089827.69024658 329544948.45827484 0 329544948.45827484 -593708647.35523987 0 0 0 0 107593243.29347229 -88493369.160850525 0 -88493369.160850525 -169322705.37539673 0 0 0 0 -166319323.67852783 -53268596.627258301 0 -53268596.627258301 108316164.48086548 0 0 0 0 -21463718.032073975 188894352.91101074 0 188894352.91101074 -470661224.70150757 0 0 0 0 867251074.35835266 866303050.67642975 0 866303050.67642975 -335207102.55546951 0 0 0 0 -47442194.420043945 -539941091.08811188 0 -539941091.08811188 1076978162.0904312 0 0 0 0 766423344.72298336 -794229159.88825274 0 -794229159.88825274 322771246.57092285 0 0 0 0 163237694.71710205 -455320353.46404266 0 -455320353.46404266 141711116.59262085 0 0 0 0 185327689.44419861 -538065437.99835205 0 -538065437.99835205 448971620.79884338 0 0 0 0 434172138.14544678 -305132338.26967621 0 -305132338.26967621 158802452.58468628 0 0 0 0 183387477.47454834 -586408209.98264313 0 -586408209.98264313 333327768.60747528 0 0 0 0 138747925.34037781 -387924945.28572083 0 -387924945.28572083 -41030260.633705139 0 0 0 0 -17190161.877990723 -20512850.587108612 0 -20512850.587108612 132767112.46714783 0 0 0 0 -132129533.30628967 -127943736.98719788 0 -127943736.98719788 1206348678.7578468 0 0 0 0 14635825.552886963 -108300920.17261505 0 -108300920.17261505 41692727.749557495 0 0 0 0 29899901.880523682 -239945630.5699234 0 -239945630.5699234 493470837.0949192 0 0 0 0 114339233.62512207 -59314981.480733871 0 -59314981.480733871 63611594.329727173 0 0 0 0 -11081001.401012421 17709766.350140572 0 17709766.350140572 -35346248.084594727 0 0 0 0 82890180.935886383 8827053.3261394501 0 8827053.3261394501 -62439306.10874939 0 0 0 0 -3196573.9602457434 -21109053.141817853 0 -21109053.141817853 -8253516.4168637469 0 0 0 0 -396392108.77282715 -85051695.930850983 0 -85051695.930850983 -30894223.463298798 0 0 0 0 575797295.45089722 44423523.164207458 0 44423523.164207458 -7721507.68932724 0 0 0 0 -48733078.632194519 -81002149.258692741 0 -81002149.258692741 6613653.4441375732 0 0 0 0 4416391.1864366233 -12551319.740367696 0 -12551319.740367696 -1184496.3697155491 0 0 0 0 24736982.263320923 -127325110.63774586 0 -127325110.63774586 35769750.869110107 0 0 0 0 556509011.74609375 122706420.25885773 0 122706420.25885773 -179638932.1975174 0 0 0 0 -713176198.69448853 -287141252.23576355 0 -287141252.23576355 248024913.38350677 0 0 0 0 -591868240.40992737 -852566770.60368156 0 -852566770.60368156 1551147934.0178833 0 0 0 0 -815208365.71279144 -275872408.6580286 0 -275872408.6580286 383666318.78443909 0 0 0 0 -358539332.74703979 -387134176.19916534 0 -387134176.19916534 97900225.790306091 0 0 0 0 -18413838.752006531 61400906.984912395 0 61400906.984912395 11555040.716087341 0 0 0 0 -1570612767.04075 -300983146.37007332 0 -300983146.37007332 2289980362.0281754 0 0 0 0 -994631.89987824857 -17603770.204340279 0 -17603770.204340279 -6441638.4510491453 0 0 0 0 -1526245828.0662384 1497673410.5235596 0 1497673410.5235596 194625004.7618022 0 0 0 0 -36608516.398910522 28656396.750198364 0 28656396.750198364 408111954.10381317 0 0 0 0 -913056.84235647321 -8217143.3957667239 0 -8217143.3957667239 1364401.9875968508 0 0 0 0 -89316490.368682861 -71356792.402900696 0 -71356792.402900696 7244212.3896360397 0 0 0 0 117100333.76660156 61872444.093688965 0 61872444.093688965 -32857667.939163208 0 0 0 0 740310089.24405766 -171605666.05240166 0 -171605666.05240166 -74448331.138183594 0 0 0 0 -278179984.98895264 -1019800147.2858658 0 -1019800147.2858658 672011208.36291695 0 0 0 0 -1050859.1007522047 -2818230.6542287245 0 -2818230.6542287245 1533138.3119824193 0 0 0 0 -31651903.394348145 443874768.28469849 0 443874768.28469849 1303555087.9310455 0 0 0 0 -153336738.00488281 -65304844.780128479 0 -65304844.780128479 150064459.61871338 0 0 0 0 -138177788.62114906 -155179067.76299286 0 -155179067.76299286 251051884.09127808 0 0 0 0 16631341.191192627 -38457446.895126343 0 -38457446.895126343 -95854127.289634705 0 0 0 0 -58033432.163841248 -5300252.5264701843 0 -5300252.5264701843 -50153806.163040161 0 0 0 0 24652018.530685425 -15146040.793809891 0 -15146040.793809891 -58233791.060409546 0 0 0 0 -15384057.775924683 -72742527.920740128 0 -72742527.920740128 9091762.0493621826 0 0 0 0 -17228247.881192669 -19830854.645714037 0 -19830854.645714037 -12103863.943352077 0 0 0 0 1904317.6576843262 -45827733.884376526 0 -45827733.884376526 61364276.741035461 0 0 0 0 2207271.5063807815 -7532508.8148976825 0 -7532508.8148976825 -3501740.2456214726 0 0 0 0 -10868341.434844971 6430528.2247543335 0 6430528.2247543335 -25411799.376838684 0 0 0 0 272462828.21965027 -684352870.46207047 0 -684352870.46207047 -1073595392.2676392 0 0 0 0 2117753.4549946785 -8359772.1796160676 0 -8359772.1796160676 -9189680.5314331781 0 0 0 0 404460645.5565033 -175598511.79057693 0 -175598511.79057693 -1472926985.8864746 0 0 0 0 5469247.6850280762 -33031706.779418945 0 -33031706.779418945 -39736821.595443726 0 0 0 0 -11543578.167092711 -16177153.84072715 0 -16177153.84072715 -10248478.042400185 0 0 0 0 -624253.26095488667 -2586576.028034769 0 -2586576.028034769 -3649722.7330334298 0 0 0 0 85268761.202026367 617795232.67669678 0 617795232.67669678 -930402603.63395119 0 0 0 0 -4292795.5436096191 -29846699.812759399 0 -29846699.812759399 61645280.551330566 0 0 0 0 -378289733.40011597 432513751.04351807 0 432513751.04351807 -185265676.4724071 0 0 0 0 -38359657.808410645 -31053439.775932312 0 -31053439.775932312 174622293.18864441 0 0 0 0 -13807353.558441162 -30734440.868080139 0 -30734440.868080139 107059174.36273193 0 0 0 0 -47365546.456634521 -58363891.596084595 0 -58363891.596084595 101244458.25763512 0 0 0 0 -12341340.131072998 -40309179.162033081 0 -40309179.162033081 56034155.930557251 0 0 0 0 13928537.13861084 -76004941.989936829 0 -76004941.989936829 72850792.861625671 0 0 0 0 -29144071.067565918 -76682262.220497131 0 -76682262.220497131 102371656.17776489 0 0 0 0 22064911.264556885 -94385088.856811523 0 -94385088.856811523 104613707.69288254 0 0 0 0 704910.09710693359 -69072903.346679688 0 -69072903.346679688 118798742.47784424 0 0 0 0 -176781238.75440979 -39978591.610557556 0 -39978591.610557556 175051076.18373489 0 0 0 0 -88467805.710281372 -137248519.6145668 0 -137248519.6145668 191384293.20710754 0 0 0 0 41640038.491546631 -203987332.7355423 0 -203987332.7355423 219052250.71384811 0 0 0 0 87727190.92755127 -78592895.681251526 0 -78592895.681251526 156298582.06503296 0 0 0 0 60264187.092163086 -58497106.574279785 0 -58497106.574279785 104360069.86558533 0 0 0 0 27785513.143493652 -105525218.09906769 0 -105525218.09906769 144328243.46083832 0 0 0 0 -5971450.3589324951 -43481768.083263397 0 -43481768.083263397 149304451.66294861 0 0 0 0 -12756630.853397369 -67866173.149427414 0 -67866173.149427414 103363575.14970398 0 0 0 0 3070.1355972290039 -32703533.996952057 0 -32703533.996952057 84161038.569259644 0 0 0 0 33886089.612487793 -73140433.672241211 0 -73140433.672241211 69625884.085227966 0 0 0 0 -32827192.552028328 -24077840.69022321 0 -24077840.69022321 -7406204.7707877047 0 0 0 0 -255364431.93193054 284243300.00057602 0 284243300.00057602 -187589550.90447998 0 0 0 0 -307576962.97262573 246655285.41029358 0 246655285.41029358 -192460498.68303871 0 0 0 0 -267569607.5491333 337538138.11193085 0 337538138.11193085 -163732946.55270386 0 0 0 0 -151233580.30516052 157456417.21156311 0 157456417.21156311 -141280489.94056129 0 0 0 0 -23928050.382025167 -22757937.999734364 0 -22757937.999734364 -11782341.582379684 0 0 0 0 -11577804.031280518 -63263914.278617859 0 -63263914.278617859 111377045.52695465 0 0 0 0 -19419727.340621948 -53609652.823612213 0 -53609652.823612213 149747694.15692139 0 0 0 0 -15353786.529968262 -47484692.618530273 0 -47484692.618530273 136195045.37594986 0 0 0 0 -21216447.359390259 -49710538.849227905 0 -49710538.849227905 164522511.39964294 0 0 0 0 -17324825.991539001 -54535815.439352036 0 -54535815.439352036 133673166.18930054 0 0 0 0 6890418.7934570312 -22033086.587799072 0 -22033086.587799072 163128539.18130493 0 0 0 0 80133620.832519531 -41285941.135864258 0 -41285941.135864258 88203260.669311523 0 0 0 0 5964377.4982910156 -44754963.077423096 0 -44754963.077423096 118811985.05459595 0 0 0 0 2946941.0274658203 -79727041.576843262 0 -79727041.576843262 87848604.543151855 0 0 0 0 8553949.6608963013 -76126999.89689064 0 -76126999.89689064 81653658.325500488 0 0 0 0 79728577.65222168 210092947.24201965 0 210092947.24201965 -935995557.56533813 0 0 0 0 25869206.688537598 -87739900.531707764 0 -87739900.531707764 69440017.392150879 0 0 0 0 -14252821.54675293 -111956514.73046875 0 -111956514.73046875 60116005.854812622 0 0 0 0 -33949224.052956298 -33955159.852639183 0 -33955159.852639183 -9773756.6227706186 0 0 0 0 -44517893.016906738 -133845890.80194092 0 -133845890.80194092 89432991.606658936 0 0 0 0 -97291178.651367188 -142907503.54376221 0 -142907503.54376221 89492625.456939697 0 0 0 0 -9736879.8250069767 6150347.9393451065 0 6150347.9393451065 9667638.6930259541 0 0 0 0 74415653.607116699 390979221.82693481 0 390979221.82693481 -902756504.60031128 0 0 0 0 61354248.84375 -43742350.698730469 0 -43742350.698730469 99341170.902801514 0 0 0 0 6768917.7934570312 -72562395.783508301 0 -72562395.783508301 92129410.848632812 0 0 0 0 29126127.925170898 -88175422.380157471 0 -88175422.380157471 76775605.094482422 0 0 0 0 33631938.560302734 -91795704.64050293 0 -91795704.64050293 78186433.537475586 0 0 0 0 -5696888.3153076172 -109974397.99090576 0 -109974397.99090576 71904192.722671509 0 0 0 0 -3258113.9174194336 -113497407.05281067 0 -113497407.05281067 78447753.965515137 0 0 0 0 762937.60949707031 -120266474.38172913 0 -120266474.38172913 58858608.657592773 0 0 0 0 -59344918.876586914 -143416870.41461182 0 -143416870.41461182 60796792.221427917 0 0 0 0 -37749648.064208984 -114755284.83032227 0 -114755284.83032227 59643980.749481201 0 0 0 0 -37041466.51953125 -131163801.56274414 0 -131163801.56274414 61660720.946533203 0 0 0 0 -87749292.160858154 -120273691.75660706 0 -120273691.75660706 42189363.168395996 0 0 0 0 -43245088.633422852 -126704885.60235596 0 -126704885.60235596 70944720.347839355 0 0 0 0 6417081.0899658203 -123147125.5020752 0 -123147125.5020752 70373656.724182129 0 0 0 0 130445386.24572754 337980619.12332153 0 337980619.12332153 -858595373.84686756 0 0 0 0 115849285.55895996 385512395.25643921 0 385512395.25643921 -797593768.49627686 0 0 0 0 83726765.851867676 314507675.85626221 0 314507675.85626221 -683079739.85514832 0 0 0 0 84638918.366027832 301110463.63130188 0 301110463.63130188 -720079660.01416016 0 0 0 0 93593421.594726562 298103161.21121216 0 298103161.21121216 -815649617.42588043 0 0 0 0 55256787.623535156 196490622.33169556 0 196490622.33169556 -860920561.97615671 0 0 0 0 26297405.881103516 206788517.20111084 0 206788517.20111084 -764822093.1289978 0 0 0 0 -71651517.848205566 73166516.732498169 0 73166516.732498169 -874178504.97555542 0 0 0 0 -157559200.01855469 43298223.912628174 0 43298223.912628174 -809214893.60574341 0 0 0 0 86763516.623291016 -62756629.383720398 0 -62756629.383720398 87972705.193847656 0 0 0 0 52417821.627685547 -96541033.580871582 0 -96541033.580871582 82653599.298217773 0 0 0 0 -367264614.36181641 118766526.7494812 0 118766526.7494812 440750755.27017212 0 0 0 0 -318830727.02438354 -47617758.94329071 0 -47617758.94329071 -635346377.59069824 0 0 0 0 403741711.6592865 -283417319.00421143 0 -283417319.00421143 -462439239.20202637 0 0 0 0 484941434.21325684 12525358.778808594 0 12525358.778808594 -888281595.18084717 0 0 0 0 -385809748.28808594 372731802.73454285 0 372731802.73454285 -673691303.9831543 0 0 0 0 -498535328.60913086 178440980.3675766 0 178440980.3675766 -591559008.4675293 0 0 0 0 -141772619.90252686 -143144970.71838379 0 -143144970.71838379 92695279.06072998 0 0 0 0 -214401341.79638672 -136001191.09613037 0 -136001191.09613037 95511286.586090088 0 0 0 0 -101645544.98724365 -133264674.98817444 0 -133264674.98817444 61277387.883544922 0 0 0 0 -182453738.51245117 446514108.62515259 0 446514108.62515259 -739800313.2244873 0 0 0 0 86891291.73904705 333473777.23431993 0 333473777.23431993 -688620766.82543945 0 0 0 0 87356189.042724609 386390929.94851685 0 386390929.94851685 -768813970.10263062 0 0 0 0 -64310887.536804199 352057108.25984192 0 352057108.25984192 -644123560.48025513 0 0 0 0 91693506.541442871 362169733.55123901 0 362169733.55123901 -738876872.72915649 0 0 0 0 -64484416.572631836 447320833.20231628 0 447320833.20231628 -755256272.08136368 0 0 0 0 -105460828.11912537 295096220.01831436 0 295096220.01831436 -652964926.48284912 0 0 0 0 -119961746.16604614 141023948.35638428 0 141023948.35638428 -595809338.39672852 0 0 0 0 -216811491.86810303 263134168.34780884 0 263134168.34780884 -623112668.79623413 0 0 0 0 43837950.485351562 212994558.37513733 0 212994558.37513733 -622160702.41059113 0 0 0 0 -49272556.115966797 148932556.84776306 0 148932556.84776306 -572571883.72502136 0 0 0 0 122954151.26977539 52657631.268615723 0 52657631.268615723 -610112583.36402893 0 0 0 0 45364597.105773926 -83481567.498504639 0 -83481567.498504639 -641364050.44033813 0 0 0 0 -209595987.31945801 67476762.104980469 0 67476762.104980469 -610739500.27796173 0 0 0 0 268992838.15762329 178073574.96760559 0 178073574.96760559 -503912813.55735779 0 0 0 0 183276381.2816925 141758299.36959457 0 141758299.36959457 -401904405.10630798 0 0 0 0 185971695.09924316 106655307.19952393 0 106655307.19952393 -565291771.79747009 0 0 0 0 52987754.949401855 271651014.3928299 0 271651014.3928299 -534308165.56964111 0 0 0 0 244615133.22143555 192262806.01705933 0 192262806.01705933 -503327321.82501984 0 0 0 0 120373991.9225769 312520847.47001648 0 312520847.47001648 -361390505.81228638 0 0 0 0 75376972.369750977 365460573.59848022 0 365460573.59848022 -661027163.57023621 0 0 0 0 107860455.22698975 258995723.7361145 0 258995723.7361145 -596602597.36506653 0 0 0 0 72610230.184692383 289352851.01734924 0 289352851.01734924 -542218957.48748779 0 0 0 0 91065927.482070923 336079948.14022064 0 336079948.14022064 -667141310.362854 0 0 0 0 94661580.114196777 346374691.27212524 0 346374691.27212524 -468044637.84130859 0 0 0 0 131110857.04840088 267614610.91203308 0 267614610.91203308 -546977988.4897747 0 0 0 0 126432978.81826782 407153216.53105927 0 407153216.53105927 -166800946.39569092 0 0 0 0 235954316.0788269 241524235.16956329 0 241524235.16956329 -346063652.4080677 0 0 0 0 436938649.13319397 165976687.9954071 0 165976687.9954071 -399997582.50340271 0 0 0 0 205757660.99685669 265850800.66900635 0 265850800.66900635 -182490696.1519928 0 0 0 0 -335492981.90736389 147216874.76317596 0 147216874.76317596 -400393643.41247559 0 0 0 0 -134388656.95172119 246326978.64172363 0 246326978.64172363 -421095794.09744263 0 0 0 0 -232177047.28027344 194636690.8888092 0 194636690.8888092 -322987466.77507782 0 0 0 0 -267238183.02337646 278906805.14044189 0 278906805.14044189 -197071117.39017487 0 0 0 0 -257649940.65866089 42833532.80721283 0 42833532.80721283 -643124183.66912842 0 0 0 0 -215928490.84844971 122682145.94174194 0 122682145.94174194 -491332394.64764404 0 0 0 0 -93609276.390441895 155897469.91574097 0 155897469.91574097 -611109495.7454834 0 0 0 0 -69782180.079345703 128779582.06787872 0 128779582.06787872 -711268816.04089355 0 0 0 0 -4427302.5160522461 197936740.35036469 0 197936740.35036469 -683482517.47518921 0 0 0 0 -22648785.346069336 234949048.44836426 0 234949048.44836426 -559016484.27072144 0 0 0 0 37864732.664916992 258407556.68395996 0 258407556.68395996 -551727344.55143738 0 0 0 0 45095524.715515137 287685301.57722473 0 287685301.57722473 -596092597.32199097 0 0 0 0 -81060093.204833984 240085034.47496033 0 240085034.47496033 -425029891.88977051 0 0 0 0 599548.93823242188 301204508.26269531 0 301204508.26269531 -404794378.80230713 0 0 0 0 -100727247.77427673 184963707.01438522 0 184963707.01438522 -547993039.86816406 0 0 0 0 -166129114.80795288 299448204.67992401 0 299448204.67992401 -208905887.35319519 0 0 0 0 79948362.40826416 325873728.59005737 0 325873728.59005737 -308421684.77068329 0 0 0 0 -23503097.34197998 277423324.1492157 0 277423324.1492157 -323926482.26747131 0 0 0 0 -84100988.706451416 355373805.11485291 0 355373805.11485291 -129078015.275177 0 0 0 0 -63606392.757553101 369394302.98247528 0 369394302.98247528 -183534696.27401733 0 0 0 0 -197603377.8192749 337833296.12863159 0 337833296.12863159 -73561773.17388916 0 0 0 0 -271037071.97109985 319715579.74482727 0 319715579.74482727 -89538641.488235474 0 0 0 0 -163784074.76141357 282293103.99345398 0 282293103.99345398 -279758917.38529205 0 0 0 0 -200224265.71984863 362443434.07814026 0 362443434.07814026 -177651877.91436386 0 0 0 0 -362162596.02758789 356210880.65715027 0 356210880.65715027 81852893.746841431 0 0 0 0 -213962366.01190948 415002417.45370865 0 415002417.45370865 31057703.859954834 0 0 0 0 -99598554.718231201 437035631.70314789 0 437035631.70314789 25954591.355957031 0 0 0 0 55187086.778320312 365469467.16931152 0 365469467.16931152 -128350092.74090385 0 0 0 0 -84715002.075744629 384425981.13485718 0 384425981.13485718 41925698.196029663 0 0 0 0 -32291760.504333496 457088938.85366058 0 457088938.85366058 134632392.98898315 0 0 0 0 259411411.21029663 415290216.22312164 0 415290216.22312164 103020904.98006439 0 0 0 0 -216722032.31842041 499111957.64803314 0 499111957.64803314 203053600.04742432 0 0 0 0 -377927221.71740723 400488199.9230957 0 400488199.9230957 211005953.54770374 0 0 0 0 393495121.21215057 72446264.242162704 0 72446264.242162704 -59924822.262451172 0 0 0 0 534485376.5632019 294408023.39483643 0 294408023.39483643 -189607926.47271729 0 0 0 0 271926803.53186035 397158316.49177551 0 397158316.49177551 -67016051.301177979 0 0 0 0 207863184.56570435 317562065.34680939 0 317562065.34680939 53162701.004302979 0 0 0 0 25241645.292770386 324844877.99106216 0 324844877.99106216 -81193628.833953857 0 0 0 0 562424749.09628296 344765007.14332581 0 344765007.14332581 24077149.937202454 0 0 0 0 204762169.16299438 364210491.19403076 0 364210491.19403076 233316703.45820618 0 0 0 0 466557986.40169525 241635092.89995766 0 241635092.89995766 341401602.71266174 0 0 0 0 1319958401.3520355 -32469771.924812317 0 -32469771.924812317 177934894.16933441 0 0 0 0 697184988.3321476 -82446200.73059082 0 -82446200.73059082 417985828.84869385 0 0 0 0 701086081.11505127 113141858.9263916 0 113141858.9263916 263998887.04348755 0 0 0 0 643398554.78000641 356711874.72886372 0 356711874.72886372 104096241.8813324 0 0 0 0 807356758.90429688 165557233.18849945 0 165557233.18849945 272634601.53883362 0 0 0 0 -454302396.06069946 569197208.77533722 0 569197208.77533722 307072987.32747841 0 0 0 0 -425491044.84952164 458619308.78196526 0 458619308.78196526 334832925.64941406 0 0 0 0 -83865310.243179321 626303633.24131012 0 626303633.24131012 291524031.65478516 0 0 0 0 -342218814.6159668 714483704.14290619 0 714483704.14290619 103123395.74030685 0 0 0 0 451451545.91566467 776449926.49534416 0 776449926.49534416 16913417.36289978 0 0 0 0 -1314255044.9927979 694759568.87957001 0 694759568.87957001 356916852.25208282 0 0 0 0 -1013518055.5879517 -94848806.670318604 0 -94848806.670318604 815006824.72481251 0 0 0 0 -553971197.51246643 119200052.4424324 0 119200052.4424324 233529483.16142273 0 0 0 0 -774278087.80162048 -116311856.50154877 0 -116311856.50154877 275712975.27262878 0 0 0 0 -483048437.29528809 461541571.11475754 0 461541571.11475754 342310103.45603943 0 0 0 0 -359831429.89664078 155057780.61005998 0 155057780.61005998 119298499.31811523 0 0 0 0 -653272265.20669556 267570658.52340317 0 267570658.52340317 243658934.64190674 0 0 0 0 -344126512.39520454 294363605.229105 0 294363605.229105 48332081.262969971 0 0 0 0 -364373004.16967773 354771328.46379852 0 354771328.46379852 212571379.56836891 0 0 0 0 -215379047.16442871 -65918015.340766907 0 -65918015.340766907 45067505.170082092 0 0 0 0 -560922521.0340271 66629070.657775879 0 66629070.657775879 112770077.48001671 0 0 0 0 -221657519.85551453 -146432645.87787628 0 -146432645.87787628 -139621449.83984375 0 0 0 0 -465527120.46603394 -349085927.33449554 0 -349085927.33449554 -265108370.66133118 0 0 0 0 442149.48046435416 -4054026.093542207 0 -4054026.093542207 -547520.25930820499 0 0 0 0 -252355916.61425781 -465782747.16880798 0 -465782747.16880798 378655597.55501175 0 0 0 0 -160640717.61974001 -295151077.30440736 0 -295151077.30440736 23557507.851119995 0 0 0 0 92948354.065856934 -480891500.80802155 0 -480891500.80802155 -462939029.01459312 0 0 0 0 66073221.770812988 -60043556.863380432 0 -60043556.863380432 200105468.01350403 0 0 0 0 -1538796299.6356201 1757465042.4779625 0 1757465042.4779625 -1054284821.3076172 0 0 0 0 -3108347800.9107056 593438834.3781662 0 593438834.3781662 758211084.99398994 0 0 0 0 -1151673101.8771362 -1249786358.632019 0 -1249786358.632019 -297844127.41758728 0 0 0 0 -1017699.057181485 -3999148.8376639113 0 -3999148.8376639113 -1810096.4380186498 0 0 0 0 -3249271866.8096313 -380854628.94609833 0 -380854628.94609833 414998151.97401428 0 0 0 0 -850106103.01092529 -319996387.25518799 0 -319996387.25518799 -2115919010.7700653 0 0 0 0 -1764952986.1550598 418680384.86340332 0 418680384.86340332 610906567.66392517 0 0 0 0 -3049520044.5995817 1598902004.6873126 0 1598902004.6873126 -248340581.57748413 0 0 0 0 -1419432030.7774658 467189742.44406128 0 467189742.44406128 29741133.635055542 0 0 0 0 -2050595974.1220322 83918496.887901306 0 83918496.887901306 916917207.44833374 0 0 0 0 -859319520.23025513 -374596235.76087952 0 -374596235.76087952 654164345.54072571 0 0 0 0 -770527995.99261475 -36898894.315296173 0 -36898894.315296173 -23128464.53049469 0 0 0 0 -46700163.464758873 -139800726.47502279 0 -139800726.47502279 301534918.92338562 0 0 0 0 -3132624.4264604375 -11960032.473688498 0 -11960032.473688498 -3483905.0178565681 0 0 0 0 -1433033327.1131744 -387008990.25853348 0 -387008990.25853348 14909791.188794136 0 0 0 0 5063110.1342893019 -15538308.578418601 0 -15538308.578418601 6484241.0655831955 0 0 0 0 5268568687.0084839 -3297350342.0074768 0 -3297350342.0074768 30842025.727935791 0 0 0 0 -1433411660.9702911 -223083181.97867584 0 -223083181.97867584 479204109.54885864 0 0 0 0 -947019108.69456482 -605500522.2563324 0 -605500522.2563324 773313854.46502686 0 0 0 0 2723267.1156121567 -5936923.8643710148 0 -5936923.8643710148 3204031.9695105702 0 0 0 0 -214943190.65576172 -439716235.02675629 0 -439716235.02675629 -821237704.79130554 0 0 0 0 -3855255940.0888138 103753406.11552429 0 103753406.11552429 -1167816280.7579803 0 0 0 0 4599344.4775675237 -6064021.2260412425 0 -6064021.2260412425 5118760.493690677 0 0 0 0 5405067502.6882782 649470681.08567047 0 649470681.08567047 -1733446811.3163757 0 0 0 0 5420963088.3127441 -1607711932.8850517 0 -1607711932.8850517 -311586139.25511169 0 0 0 0 4301352022.6444092 -941785543.49861145 0 -941785543.49861145 47810533.709197998 0 0 0 0 2720819095.2657471 -2429525974.4618835 0 -2429525974.4618835 2071935094.3179703 0 0 0 0 2558974972.8022156 -439207054.49237823 0 -439207054.49237823 -131532144.90784073 0 0 0 0 2604019341.5280151 -1627242518.7834702 0 -1627242518.7834702 -171160985.13556671 0 0 0 0 2613140668.2666712 -600313036.15472615 0 -600313036.15472615 -583547072.90492249 0 0 0 0 569349208.88401794 -1676898872.468235 0 -1676898872.468235 348604899.52915192 0 0 0 0 717702044.05963135 -2167224499.6122932 0 -2167224499.6122932 -937543442.61779022 0 0 0 0 752622621.49428558 -2026040877.9446468 0 -2026040877.9446468 1012226678.0081177 0 0 0 0 1928932147.2489624 -1488381933.4572563 0 -1488381933.4572563 -35968840.264785767 0 0 0 0 548668220.88220215 -1363025967.4192505 0 -1363025967.4192505 149912451.52734375 0 0 0 0 -571167297.52462769 -306559070.46084595 0 -306559070.46084595 565198238.90367508 0 0 0 0 -162261043.36083221 -1055326388.7221298 0 -1055326388.7221298 1486118224.6476135 0 0 0 0 756215437.41629028 -930121173.45545197 0 -930121173.45545197 1069190445.4336014 0 0 0 0 3884679342.4120178 -3170124082.1720314 0 -3170124082.1720314 1398918457.1393127 0 0 0 0 972972459.61820984 -1799051109.2524872 0 -1799051109.2524872 4197997188.9260559 0 0 0 0 5433754975.7472 -1318474982.8039055 0 -1318474982.8039055 -843640384.68292236 0 0 0 0 5294218962.1678925 -458109362.83850098 0 -458109362.83850098 380838923.12670135 0 0 0 0 2149223093.0171204 941036374.70518494 0 941036374.70518494 2687222254.6965637 0 0 0 0 -910622854.88128662 -573671131.73454285 0 -573671131.73454285 1835444477.994278 0 0 0 0 805858124.04336548 -499122064.91395569 0 -499122064.91395569 1166484142.8353271 0 0 0 0 -742713732.05914307 -656487958.83883667 0 -656487958.83883667 233825731.26550674 0 0 0 0 344931151.11465454 211897381.3588562 0 211897381.3588562 831344995.63430786 0 0 0 0 -259133948.47052002 794198287.54877472 0 794198287.54877472 -165427313.64881897 0 0 0 0 544885833.06749725 -79921427.911579132 0 -79921427.911579132 -190805268.70716858 0 0 0 0 2095225606.7505493 820844121.00993347 0 820844121.00993347 223202936.48976898 0 0 0 0 1018461711.223999 755438132.32203674 0 755438132.32203674 -437657510.52055359 0 0 0 0 -361287815.51681519 642955447.53561401 0 642955447.53561401 -19888165.434082031 0 0 0 0 2028904671.3520813 -476000205.56158447 0 -476000205.56158447 13607963.30027771 0 0 0 0 2403579572.7999582 -913964945.8989749 0 -913964945.8989749 327898677.84892273 0 0 0 0 1506591784.7527122 -478336402.81339455 0 -478336402.81339455 308915785.95283508 0 0 0 0 2570213925.2490997 -1616178319.4470901 0 -1616178319.4470901 691621399.98246765 0 0 0 0 2283953341.5221863 -1726981866.5676498 0 -1726981866.5676498 989140275.62300873 0 0 0 0 2179046626.004776 -1598796748.3631592 0 -1598796748.3631592 889392300.93476105 0 0 0 0 800997200.17533112 -958899379.40486526 0 -958899379.40486526 1286421961.8266068 0 0 0 0 -1383424640.3567047 -656776800.33686256 0 -656776800.33686256 -163470485.75202942 0 0 0 0 4264386.3963675201 -8107122.9714775681 0 -8107122.9714775681 10470635.714811407 0 0 0 0 2181356410.6563454 -2357326496.7505493 0 -2357326496.7505493 2570001815.9631958 0 0 0 0 2874166699.0972519 1199538959.9149799 0 1199538959.9149799 487036609.82271576 0 0 0 0 8262091.6170745492 -7978691.0163973626 0 -7978691.0163973626 -792544.56721089408 0 0 0 0 13864268.941368077 -25790828.363724034 0 -25790828.363724034 -9303760.2395920753 0 0 0 0 4662377.6348419189 -22691937.839410782 0 -22691937.839410782 -19471565.688476562 0 0 0 0 -28157201.004806519 -24230677.960227966 0 -24230677.960227966 13588097.230184555 0 0 0 0 -280169.98128761351 -2216218.4996068068 0 -2216218.4996068068 -5410739.0988693908 0 0 0 0 2525855086.7683516 410724358.08100009 0 410724358.08100009 48886870.069168091 0 0 0 0 12323253.229032755 -25710975.395168066 0 -25710975.395168066 -33651389.980155945 0 0 0 0 18133061.639366575 -26823835.264153179 0 -26823835.264153179 -5670825.3417997807 0 0 0 0 12040082.230102539 -19708539.33895874 0 -19708539.33895874 -21440598.765144348 0 0 0 0 3870819.2441864014 -421612810.64813995 0 -421612810.64813995 -308286203.19112015 0 0 0 0 8457682.0066375732 -24438829.063724518 0 -24438829.063724518 -25809171.764335632 0 0 0 0 8829134.6153354049 -28182949.352143876 0 -28182949.352143876 2330322.4560524225 0 0 0 0 258494009.91889191 -111070925.72327423 0 -111070925.72327423 -733996299.72928619 0 0 0 0 19037428.399215698 -391198838.19784546 0 -391198838.19784546 -1043611745.2612762 0 0 0 0 1519166666.7773209 -580992736.9565506 0 -580992736.9565506 -1023897811.0212517 0 0 0 0 643463655.19379425 202781166.43086243 0 202781166.43086243 -439110563.58822632 0 0 0 0 -44671951.02256012 -1450164875.3864708 0 -1450164875.3864708 -421145708.34465027 0 0 0 0 2359149331.3237 -1434482913.3153419 0 -1434482913.3153419 -451481499.2364893 0 0 0 0 3065123988.1179228 1060887089.0085812 0 1060887089.0085812 -148832320.62141418 0 0 0 0 2572552771.8873444 -3167199230.0690842 0 -3167199230.0690842 4061856616.6811523 0 0 0 0 7340721773.0464954 123058817.53445053 0 123058817.53445053 -72034712.293060303 0 0 0 0 -1205045.2341788374 -6020504.5426400909 0 -6020504.5426400909 9514686.2794620395 0 0 0 0 6499349466.3813248 -2716213751.9503021 0 -2716213751.9503021 803347904.78994751 0 0 0 0 3298089762.1916962 555545442.62454224 0 555545442.62454224 187982119.72338867 0 0 0 0 2947282599.5866241 -1721148886.3471527 0 -1721148886.3471527 708809205.94113159 0 0 0 0 4369757977.0554657 -1336525749.520195 0 -1336525749.520195 -283488432.59790039 0 0 0 0 -2054334858.9057655 -326466463.30229759 0 -326466463.30229759 2994762053.5453796 0 0 0 0 180399564.97061157 -155515807.31028748 0 -155515807.31028748 -598559594.2168045 0 0 0 0 2743949.4688236825 518888.39061551169 0 518888.39061551169 2893168.3569218814 0 0 0 0 -4569608872.6844101 -915493209.40550232 0 -915493209.40550232 4004032970.037735 0 0 0 0 79152333.634399414 -1374126794.7893372 0 -1374126794.7893372 3295583901.4084854 0 0 0 0 3627713002.3077431 -3170343963.8174038 0 -3170343963.8174038 1817367873.3891449 0 0 0 0 1075494073.6090088 -765381040.08433533 0 -765381040.08433533 1261303023.8035851 0 0 0 0 2347984127.8957825 -1417237977.4411049 0 -1417237977.4411049 548841929.52192688 0 0 0 0 650468532.91244507 -213325162.55870819 0 -213325162.55870819 579677377.57538605 0 0 0 0 1019278410.5103149 -103412190.40247345 0 -103412190.40247345 598956292.50836182 0 0 0 0 744226148.820755 216599557.40405655 0 216599557.40405655 -116147180.22097778 0 0 0 0 844670240.52461243 189811559.29490662 0 189811559.29490662 -38087482.288757324 0 0 0 0 -245767801.12956238 20129633.327629089 0 20129633.327629089 1988913028.9385376 0 0 0 0 1315496147.5019379 -975857522.64209747 0 -975857522.64209747 1086606079.4502869 0 0 0 0 485217022.96643066 -64141815.913108826 0 -64141815.913108826 689541394.40317154 0 0 0 0 857016474.44547272 -14556153.588006973 0 -14556153.588006973 -384004569.15490723 0 0 0 0 790596369.50627136 -330275799.5698204 0 -330275799.5698204 -359419292.51486206 0 0 0 0 -70759518.236557007 -355023786.12090683 0 -355023786.12090683 -244768958.06706238 0 0 0 0 -185307766.42720032 -40820342.988040924 0 -40820342.988040924 -997934473.1529541 0 0 0 0 494012626.55142212 -104890059.55004597 0 -104890059.55004597 -551883280.58303833 0 0 0 0 590248681.66590881 -400543636.29395294 0 -400543636.29395294 -1032814957.9351501 0 0 0 0 67724486.320892334 -535156188.02662659 0 -535156188.02662659 -752150728.51342773 0 0 0 0 264519622.92514038 -334200184.56206512 0 -334200184.56206512 -672780292.93159485 0 0 0 0 275925779.28689575 -517737862.32833862 0 -517737862.32833862 -822351753.17485046 0 0 0 0 158577203.83995819 -815001384.45721912 0 -815001384.45721912 -1435663529.3311462 0 0 0 0 -749993376.65858459 -1075230460.3178368 0 -1075230460.3178368 -758392615.94280243 0 0 0 0 397464075.1652832 226886160.56576538 0 226886160.56576538 -164537778.86904144 0 0 0 0 669087037.78175354 -5997972.3936576843 0 -5997972.3936576843 -490467623.52032471 0 0 0 0 648236621.53823853 -227101791.51954651 0 -227101791.51954651 -459608578.39594269 0 0 0 0 489356703.64950562 -5026531.8663482666 0 -5026531.8663482666 -163089991.98575783 0 0 0 0 521161626.75444031 -109143625.96105385 0 -109143625.96105385 -668726926.48046875 0 0 0 0 446403418.38574219 -345265911.47360992 0 -345265911.47360992 -768976229.20655823 0 0 0 0 336868541.2739563 -27367669.394691467 0 -27367669.394691467 -480553872.56828117 0 0 0 0 364027891.58385468 -57947949.752422333 0 -57947949.752422333 -602295486.16171265 0 0 0 0 -42442332.119714648 -42306623.148398235 0 -42306623.148398235 529176.16780536622 0 0 0 0 92850207.076538086 -144261083.57009888 0 -144261083.57009888 -665217630.1628952 0 0 0 0 81426042.856811523 -280148724.83377075 0 -280148724.83377075 70902739.890304565 0 0 0 0 78957756.395935059 -103472207.4143219 0 -103472207.4143219 -660518648.67961884 0 0 0 0 179964645.76626587 -146235509.58358002 0 -146235509.58358002 -698994763.34823608 0 0 0 0 81558468.211120605 -56109362.177726746 0 -56109362.177726746 -642393139.54187012 0 0 0 0 109984013.66704559 -81106108.276821136 0 -81106108.276821136 -631147972.87805176 0 0 0 0 199701888.28961182 -28519863.515090942 0 -28519863.515090942 -606913232.52972412 0 0 0 0 323926826.14700317 -139150375.56496429 0 -139150375.56496429 -694413414.04437256 0 0 0 0 170521635.60577393 -129480300.12242126 0 -129480300.12242126 -705316511.71354675 0 0 0 0 182129768.11065674 -142945130.42404175 0 -142945130.42404175 -694135673.92803955 0 0 0 0 160377312.8359375 -157977130.41116333 0 -157977130.41116333 -690032493.3829422 0 0 0 0 207622022.15105438 -221196798.36617851 0 -221196798.36617851 -671112212.96411133 0 0 0 0 122880556.02307129 -207298947.72485352 0 -207298947.72485352 -673291285.29641724 0 0 0 0 224346386.12133789 -165283640.82795715 0 -165283640.82795715 -696215945.71459961 0 0 0 0 257353282.0246582 -209811250.16055298 0 -209811250.16055298 -695044945.39278412 0 0 0 0 256508208.81060791 -213962764.30630493 0 -213962764.30630493 -683781879.57411194 0 0 0 0 232228122.43610001 -355608095.03349304 0 -355608095.03349304 -685411816.94515991 0 0 0 0 92461047.525390625 -208908924.085495 0 -208908924.085495 -563672218.94851685 0 0 0 0 83313295.099395752 -264415179.90714264 0 -264415179.90714264 -553615971.74145508 0 0 0 0 133797465.40039062 -230501576.92799377 0 -230501576.92799377 -626796014.82290649 0 0 0 0 86432282.627990723 -185201622.79603577 0 -185201622.79603577 -612161257.81692505 0 0 0 0 125342545.51171875 -153346944.86443329 0 -153346944.86443329 -680013527.58139038 0 0 0 0 187365103.04431152 -177282237.77159119 0 -177282237.77159119 -677877282.83459473 0 0 0 0 -13085962.836517334 -127039412.33241272 0 -127039412.33241272 -668016491.67750549 0 0 0 0 -127728156.62338257 -80960520.796600342 0 -80960520.796600342 -141117279.3581543 0 0 0 0 -397800013.58094215 -54933898.991080284 0 -54933898.991080284 31544132.501052856 0 0 0 0 -105255599.44389343 -299634088.65267658 0 -299634088.65267658 -263022473.62286377 0 0 0 0 -324690894.70309448 -438221744.25144958 0 -438221744.25144958 -346679339.96644592 0 0 0 0 -114526246.5328064 -535214474.12475586 0 -535214474.12475586 -301941814.20942688 0 0 0 0 -94819586.162597656 -572490513.62018585 0 -572490513.62018585 -615869052.65925598 0 0 0 0 74826501.179748535 -336929436.61739349 0 -336929436.61739349 -598477740.7624054 0 0 0 0 69362879.810760498 -414667678.84723663 0 -414667678.84723663 -479492052.03642273 0 0 0 0 -89502145.937950134 -376131360.68345928 0 -376131360.68345928 -458393937.8732605 0 0 0 0 -23602344.877258301 -269342014.67849731 0 -269342014.67849731 -380793635.8631897 0 0 0 0 -42279877.906616211 -33882716.476211548 0 -33882716.476211548 -503456491.81925964 0 0 0 0 -58812946.703552246 -242937360.17068481 0 -242937360.17068481 -396094905.70605469 0 0 0 0 -6675745.2321777344 -236888086.19900513 0 -236888086.19900513 -561952068.26438904 0 0 0 0 -1651206.7120056152 -266572564.48564911 0 -266572564.48564911 -475074193.16290283 0 0 0 0 15827843.440673828 -158103638.58882141 0 -158103638.58882141 -581864231.01539612 0 0 0 0 -52814176.160644531 -154770469.75244141 0 -154770469.75244141 -466294647.72302055 0 0 0 0 -68266285.339614868 -232037807.01573563 0 -232037807.01573563 -289779361.92788696 0 0 0 0 -88808870.973358154 -34788958.400123596 0 -34788958.400123596 -365940936.47845459 0 0 0 0 -89538842.413970947 -31314417.710914612 0 -31314417.710914612 -145330450.18690491 0 0 0 0 -47859711.851516724 -184910004.10971451 0 -184910004.10971451 -295845017.79205322 0 0 0 0 -138423061.18211365 -206236331.42445374 0 -206236331.42445374 -66896303.824234009 0 0 0 0 -33653561.700942993 -198198511.86506271 0 -198198511.86506271 -300546041.50326538 0 0 0 0 -20646883.128947359 -22180422.038455881 0 -22180422.038455881 25401688.522220261 0 0 0 0 -666613575.10946655 -137829685.09700012 0 -137829685.09700012 363523140.59558105 0 0 0 0 -8051177.5842210073 -22670436.071063414 0 -22670436.071063414 11338630.644747451 0 0 0 0 -266139155.01641083 -95277556.148277283 0 -95277556.148277283 98723390.668655396 0 0 0 0 2797836747.7421303 -1021341019.1928825 0 -1021341019.1928825 -84868985.065826416 0 0 0 0 -684779468.4658947 147894871.65846062 0 147894871.65846062 240589155.86230469 0 0 0 0 2411212417.1752167 -1241506909.2366486 0 -1241506909.2366486 -91789670.732635498 0 0 0 0 -3077405.5886858851 -4738743.2468998767 0 -4738743.2468998767 1959691.2910672873 0 0 0 0 2586619217.2445679 -1122174018.6588135 0 -1122174018.6588135 -17255886.391807556 0 0 0 0 2755887407.1978455 -1000869033.5409927 0 -1000869033.5409927 -353235148.71109009 0 0 0 0 1001735289.3353443 -35483628.538953781 0 -35483628.538953781 429944509.86480713 0 0 0 0 2580441714.0455322 -959019414.80384827 0 -959019414.80384827 -75054012.896713257 0 0 0 0 -4906025.4041889831 -19345458.966566667 0 -19345458.966566667 23526673.82360252 0 0 0 0 1018390440.8897247 -47813383.971359253 0 -47813383.971359253 -472885002.36056519 0 0 0 0 -1075280496.5050201 -1070380611.1248436 0 -1070380611.1248436 -954801396.67637634 0 0 0 0 -808674162.60728455 -1449513169.1786041 0 -1449513169.1786041 -463047710.7956953 0 0 0 0 -1384404584.3661499 -470042796.02883911 0 -470042796.02883911 114614346.4132719 0 0 0 0 -4406904.2640938461 -6666040.4957926534 0 -6666040.4957926534 4946517.2668359168 0 0 0 0 -8776312.1524505615 -28675748.661079407 0 -28675748.661079407 16041055.011611938 0 0 0 0 -10291696.173538208 -33822856.746147156 0 -33822856.746147156 11078174.665252686 0 0 0 0 -12108424.707748413 -23076549.434799194 0 -23076549.434799194 7584626.7768554688 0 0 0 0 -14004219.095588684 -25789065.642490387 0 -25789065.642490387 27485045.294158936 0 0 0 0 -9775449.6389770508 -46388167.480804443 0 -46388167.480804443 44097603.1277771 0 0 0 0 -10902872.026016235 -35241702.33694458 0 -35241702.33694458 7928111.0430908203 0 0 0 0 -13976895.360717773 -26329971.813110352 0 -26329971.813110352 26875238.080291748 0 0 0 0 -226880999.26748729 -165111408.52709746 0 -165111408.52709746 -252702215.08023071 0 0 0 0 -12265395.501820736 -24019266.093718156 0 -24019266.093718156 10844550.081020638 0 0 0 0 -345853111.26323795 -187691229.40039444 0 -187691229.40039444 201164830.51800537 0 0 0 0 -362047533.54696655 -99238139.212753296 0 -99238139.212753296 472641.28066253662 0 0 0 0 -6074532.9466751423 -8996619.762921337 0 -8996619.762921337 3291891.6201260686 0 0 0 0 -209878235.62770438 451743724.15729165 0 451743724.15729165 -212858769.25390625 0 0 0 0 3633087.1975102685 -6548293.1095658094 0 -6548293.1095658094 -1362058.8022147752 0 0 0 0 2112935303.664772 -687875454.71221924 0 -687875454.71221924 584079610.91766357 0 0 0 0 -297717540.35105896 216511412.52960205 0 216511412.52960205 -63858854.58984375 0 0 0 0 440088.10940170288 -18394098.204017639 0 -18394098.204017639 1955464.5501251221 0 0 0 0 -6037924.1104736328 -13852144.007873535 0 -13852144.007873535 -8025580.492980957 0 0 0 0 -1365025.8593068942 -18552144.097219795 0 -18552144.097219795 3149248.3485494033 0 0 0 0 -11473700.711395264 -11573099.150527954 0 -11573099.150527954 6780866.9443359375 0 0 0 0 17049550.754051208 679892.84499359131 0 679892.84499359131 -21725450.371368408 0 0 0 0 8018249.9171264805 -29825006.600711275 0 -29825006.600711275 -1987286.0708125383 0 0 0 0 6795506.2436397746 -48373300.653114021 0 -48373300.653114021 -20206291.875062507 0 0 0 0 -190807123.33139038 -117698367.91233826 0 -117698367.91233826 326930672.36129761 0 0 0 0 -4780904.5749511719 -90085865.130249023 0 -90085865.130249023 83571663.40053463 0 0 0 0 9337278.3149108887 -54258506.03755188 0 -54258506.03755188 33157996.86844635 0 0 0 0 13727041.527130127 -106630334.59936523 0 -106630334.59936523 10990281.193237305 0 0 0 0 14502514.850898743 -41698134.875263214 0 -41698134.875263214 -12282038.327819824 0 0 0 0 -33819499.652526855 -71465671.015151978 0 -71465671.015151978 -5475289.067741394 0 0 0 0 1556078.1561407819 -3667752.5173011459 0 -3667752.5173011459 -2875717.6103216112 0 0 0 0 -13744865.583526611 -18758301.230827332 0 -18758301.230827332 30187211.56463623 0 0 0 0 37947967.199371338 -122054715.68611908 0 -122054715.68611908 -7013935.8096923828 0 0 0 0 107645324.20443726 66815916.695953369 0 66815916.695953369 -12874567.980548382 0 0 0 0 69304272.611114502 -93372802.196762085 0 -93372802.196762085 43794833.500106812 0 0 0 0 -11296161.718170166 -38658798.987747192 0 -38658798.987747192 56429534.291595459 0 0 0 0 14923953.28012085 -43793126.569335938 0 -43793126.569335938 -1233229.3108215332 0 0 0 0 15340065.9168396 -23554495.548355103 0 -23554495.548355103 -48848464.445999146 0 0 0 0 -15153127.917053223 -25864559.074317932 0 -25864559.074317932 -6293433.8723602295 0 0 0 0 -74158738.342712402 -12660306.964344025 0 -12660306.964344025 -7709487.9294509888 0 0 0 0 45556913.656768799 -58880022.673488617 0 -58880022.673488617 -40105818.156204224 0 0 0 0 26059464.564804625 -32113779.975914504 0 -32113779.975914504 -8413431.7015765756 0 0 0 0 1148157.2286063135 -26693473.420094252 0 -26693473.420094252 8591698.4178022332 0 0 0 0 8808318.0257110596 -43455295.641204834 0 -43455295.641204834 -7547662.7426071167 0 0 0 0 8633040.8003768921 -40718412.310653687 0 -40718412.310653687 -28719376.513549805 0 0 0 0 9180687.8404464722 -35310127.649536133 0 -35310127.649536133 -22228911.756576538 0 0 0 0 11971634.638000488 -46061122.301193237 0 -46061122.301193237 -26760213.039001465 0 0 0 0 3883803.1465759277 -38100762.329185486 0 -38100762.329185486 -13210669.98815918 0 0 0 0 9393430.4186701775 -22667754.746641345 0 -22667754.746641345 910737.50006942824 0 0 0 0 -2343708.5555114746 -47745329.576751709 0 -47745329.576751709 7980277.8511047363 0 0 0 0 -851657808.02632141 442460724.56630707 0 442460724.56630707 309662439.37435913 0 0 0 0 -15075464.340350408 -22339083.931257479 0 -22339083.931257479 16218328.397953823 0 0 0 0 10256203.531738281 -18359508.797943115 0 -18359508.797943115 5905627.9719657898 0 0 0 0 88252192.332321167 -37008528.810577393 0 -37008528.810577393 -29577197.099853516 0 0 0 0 37913341.530662537 -64116275.849365234 0 -64116275.849365234 -43114092.040222168 0 0 0 0 15839786.62109375 -19547928.784790039 0 -19547928.784790039 -53413503.689758301 0 0 0 0 4943559.5880047381 -21274723.767221555 0 -21274723.767221555 -11652226.461273164 0 0 0 0 -8838117.1562042236 -54321864.55229187 0 -54321864.55229187 -21508938.084411621 0 0 0 0 3557163.2302856445 -55832565.461273193 0 -55832565.461273193 -38077792.028106689 0 0 0 0 1045720.8402366452 1924483.4885302782 0 1924483.4885302782 -1088840.1367585957 0 0 0 0 -17557608.865119934 -34798879.960800171 0 -34798879.960800171 -215248.45199584961 0 0 0 0 -3500228.1407394409 -45772218.97052002 0 -45772218.97052002 -8493918.5133056641 0 0 0 0 19831184.609481812 -39680495.473861694 0 -39680495.473861694 -7651499.3840866089 0 0 0 0 3718810.9498596191 -19324817.768157959 0 -19324817.768157959 11018330.726409912 0 0 0 0 16659317.088111877 -47041276.538536072 0 -47041276.538536072 -16689284.89743042 0 0 0 0 12035562.456184983 -50451854.025487781 0 -50451854.025487781 -17604350.336883545 0 0 0 0 11005371.508735657 -45282880.530754089 0 -45282880.530754089 -187934.92965698242 0 0 0 0 17559026.462089539 -45724227.498111725 0 -45724227.498111725 -6343939.0844726562 0 0 0 0 25503253.605529785 -34099009.918632507 0 -34099009.918632507 464024.32754516602 0 0 0 0 72878692.181224823 -28909278.571090698 0 -28909278.571090698 -2846589.017364502 0 0 0 0 53752685.911773682 -10693780.512680054 0 -10693780.512680054 2988059.1934585571 0 0 0 0 27614947.832481384 -36727344.1536026 0 -36727344.1536026 3474188.5050964355 0 0 0 0 49261673.951644897 -23617458.739929199 0 -23617458.739929199 3220300.178360939 0 0 0 0 49588205.638733864 -25734565.343719482 0 -25734565.343719482 13270451.958190918 0 0 0 0 29741658.781051636 -38284310.471969604 0 -38284310.471969604 2829514.4826812744 0 0 0 0 20917872.450721741 -31332952.121391296 0 -31332952.121391296 1446962.4654083252 0 0 0 0 23859677.96395874 -38543227.35647583 0 -38543227.35647583 -8730.1520472748798 0 0 0 0 47918024.683563232 -20849233.56111908 0 -20849233.56111908 5985433.5790710449 0 0 0 0 60276684.45403862 -34969931.501594543 0 -34969931.501594543 21976.999801635742 0 0 0 0 1188993.184627533 -38962702.105804443 0 -38962702.105804443 38413.36018371582 0 0 0 0 11112196.577796936 -29568268.613780975 0 -29568268.613780975 622521.85786437988 0 0 0 0 12737192.90687561 -44235787.510070801 0 -44235787.510070801 -6022190.282623291 0 0 0 0 -2718458.1312141418 -34732516.016576767 0 -34732516.016576767 -23998706.656402588 0 0 0 0 -1308765.8650665283 -40847104.584495544 0 -40847104.584495544 -3730063.5860137939 0 0 0 0 12275373.197807312 -48133803.970930099 0 -48133803.970930099 -18296898.235534668 0 0 0 0 12036004.142234802 -44905360.744407654 0 -44905360.744407654 -5414315.3239593506 0 0 0 0 32723.802841186523 -49246342.680183411 0 -49246342.680183411 -11247913.509796143 0 0 0 0 74470896.355007172 -11658124.488510132 0 -11658124.488510132 -82716881.011428833 0 0 0 0 -2649036.3300056458 -54595179.44278717 0 -54595179.44278717 -19815172.883865356 0 0 0 0 12350223.531695616 -8650364.3916469887 0 -8650364.3916469887 -9109282.9582442492 0 0 0 0 33628078.441101074 -12325622.758049011 0 -12325622.758049011 -9288960.6066856384 0 0 0 0 651381.89860010147 239392.69343440607 0 239392.69343440607 245257.2089882344 0 0 0 0 194810663.92272186 12331690.448348999 0 12331690.448348999 -29564117.727401733 0 0 0 0 -64575635.313713074 -67380721.355670929 0 -67380721.355670929 -1477563.7855377197 0 0 0 0 80783272.54196167 -36283306.143760681 0 -36283306.143760681 -33430.988342285156 0 0 0 0 38489739.436019897 -69411537.128013611 0 -69411537.128013611 -4269212.5128517151 0 0 0 0 56608561.714830399 -45346845.854206085 0 -45346845.854206085 12927.099044799805 0 0 0 0 61128015.138198853 -30633686.874679565 0 -30633686.874679565 19675735.838287354 0 0 0 0 69854367.990882874 -46395219.661811829 0 -46395219.661811829 -15206770.101791382 0 0 0 0 78406250.830581665 -69786935.059074402 0 -69786935.059074402 28023137.492790222 0 0 0 0 26608309.064437866 -47617147.124069214 0 -47617147.124069214 18521479.309379578 0 0 0 0 23145734.80052352 -66477837.375688195 0 -66477837.375688195 -25013532.148986816 0 0 0 0 22541729.148551941 -41911897.518257141 0 -41911897.518257141 -7215505.0932159424 0 0 0 0 69426580.13420105 -58759599.602378845 0 -58759599.602378845 -105785755.1572876 0 0 0 0 -26031900.661582947 -209990377.09953117 0 -209990377.09953117 -302227698.70037842 0 0 0 0 -1173301.6602728367 25945.813393376768 0 25945.813393376768 675027.47047112137 0 0 0 0 -121210402.75511026 -184405411.1140238 0 -184405411.1140238 201558406.5045166 0 0 0 0 -116893111.27926636 -308083533.79880524 0 -308083533.79880524 -69691666.805793762 0 0 0 0 48305225.015487671 -113342373.02666473 0 -113342373.02666473 -243717027.64562988 0 0 0 0 -105714151.25391769 -97784473.445575714 0 -97784473.445575714 -124169702.39518738 0 0 0 0 39074965.319238536 -21570712.328823861 0 -21570712.328823861 3696093.314754881 0 0 0 0 42525193.125104576 -30512329.98702449 0 -30512329.98702449 2338726.0780867673 0 0 0 0 20093704.437164307 -74637261.996772766 0 -74637261.996772766 -36656156.079730988 0 0 0 0 47761154.583068848 -83739813.367881775 0 -83739813.367881775 -54420535.628799438 0 0 0 0 -47713642.672103882 -168780844.02864838 0 -168780844.02864838 26103430.013183594 0 0 0 0 -48978760.477416992 -163337780.7492485 0 -163337780.7492485 2904399.1652679443 0 0 0 0 -80506327.015533447 -134019609.24868774 0 -134019609.24868774 12237143.877708435 0 0 0 0 -45437291.464599609 -140330902.06566238 0 -140330902.06566238 33361442.039459229 0 0 0 0 -7517888.9020690918 -129718308.39389801 0 -129718308.39389801 -77294637.774806976 0 0 0 0 -9456697.5288085938 -74310566.728034973 0 -74310566.728034973 -10167732.418464661 0 0 0 0 -101043009.48883057 -63963321.621276855 0 -63963321.621276855 29094022.300964355 0 0 0 0 -130452127.08764648 -74679557.031723022 0 -74679557.031723022 25198190.078933716 0 0 0 0 -80098989.143226624 -129279354.80215836 0 -129279354.80215836 27757125.915496826 0 0 0 0 -181239158.3309021 -121642254.40300369 0 -121642254.40300369 31786912.577911377 0 0 0 0 -104684999.91485596 -130594095.02880859 0 -130594095.02880859 -2907382.4960327148 0 0 0 0 -218363867.50341797 -101262933.85760498 0 -101262933.85760498 52791700.597183228 0 0 0 0 -267977082.67004395 -127065896.91333008 0 -127065896.91333008 94344462.746139526 0 0 0 0 -18618446.718887329 8598802.3227424622 0 8598802.3227424622 -107954800.56988525 0 0 0 0 -138448559.97232056 -55280553.953491211 0 -55280553.953491211 -14288144.969787598 0 0 0 0 -488496880.66131592 44977194.61920166 0 44977194.61920166 22727415.806152344 0 0 0 0 -148379771.99707031 355795191.9871521 0 355795191.9871521 -499994208.21627808 0 0 0 0 -21761315.109375 32426620.049316406 0 32426620.049316406 -126104139.34469604 0 0 0 0 -48929985.151748657 -133433678.22889709 0 -133433678.22889709 55449731.582702637 0 0 0 0 -59442284.709899902 -156807551.62677002 0 -156807551.62677002 31688853.539367676 0 0 0 0 -41087210.162414551 -137702730.95318604 0 -137702730.95318604 19290347.315063477 0 0 0 0 -100167511.42321777 -147875181.98258209 0 -147875181.98258209 47636948.323608398 0 0 0 0 -82216208.798339844 -130286739.77116394 0 -130286739.77116394 40991677.40423584 0 0 0 0 -73733436.965576172 -150989866.53552246 0 -150989866.53552246 36129878.685119629 0 0 0 0 -49616829.832885742 -124149294.08534241 0 -124149294.08534241 37559116.179870605 0 0 0 0 -19512587.158996582 -108341098.70333862 0 -108341098.70333862 57830362.020202637 0 0 0 0 -14039419.333496094 -122063759.26184082 0 -122063759.26184082 41629908.278762817 0 0 0 0 -36942908.855224609 -136050088.60354614 0 -136050088.60354614 46784941.114974976 0 0 0 0 -27599744.854370117 -85841857.632568359 0 -85841857.632568359 113326263.35507202 0 0 0 0 -31618570.322937012 -110929604.19554138 0 -110929604.19554138 70061222.878890991 0 0 0 0 -14989472.360076904 -77759165.097503662 0 -77759165.097503662 94680489.932800293 0 0 0 0 -58277951.864013672 -120964771.34629822 0 -120964771.34629822 80757544.606678009 0 0 0 0 -34218810.650238037 -145483735.82138062 0 -145483735.82138062 35452666.400817871 0 0 0 0 -21133280.985412598 -78454786.085983276 0 -78454786.085983276 99376533.738128662 0 0 0 0 -23302622.43270874 -88292196.421180725 0 -88292196.421180725 114240951.15222931 0 0 0 0 536369.71004104614 -28119836.144163132 0 -28119836.144163132 154112412.31344604 0 0 0 0 -21899101.315063477 -61473917.786453247 0 -61473917.786453247 139956936.59825516 0 0 0 0 -54005409.622871399 -65324441.783176422 0 -65324441.783176422 208929498.79299927 0 0 0 0 -132059496.55090332 -167548882.70846558 0 -167548882.70846558 99719587.744613647 0 0 0 0 -37161023.198791504 -161346690.39916992 0 -161346690.39916992 19143627.0779953 0 0 0 0 -2159439.9538441747 -55727.221602171659 0 -55727.221602171659 1197158.5000422597 0 0 0 0 68485620.870452881 -270226651.35560608 0 -270226651.35560608 240682942.13685608 0 0 0 0 78876105.814727783 -91041251.861068726 0 -91041251.861068726 147364536.94017673 0 0 0 0 41794966.534248352 -133363450.95476723 0 -133363450.95476723 253934157.29528809 0 0 0 0 -1299400.3534781486 68724.440910831094 0 68724.440910831094 857363.92632834613 0 0 0 0 -128218859.60299683 -268993082.00214386 0 -268993082.00214386 399270106.81402588 0 0 0 0 -19245630.785873413 -232217997.60337067 0 -232217997.60337067 25625352.320892334 0 0 0 0 116997233.25875854 -219020067.80560303 0 -219020067.80560303 22928164.012390137 0 0 0 0 19907721.656066895 -108679495.55323029 0 -108679495.55323029 338875422.97225189 0 0 0 0 162124757.72685242 -91976405.93062973 0 -91976405.93062973 -20974381.796356201 0 0 0 0 105043835.55615544 -189464209.39356613 0 -189464209.39356613 -118138215.65522766 0 0 0 0 104740318.02514648 -77705899.046867371 0 -77705899.046867371 -220559424.36445618 0 0 0 0 202009527.33499146 -103183398.86721039 0 -103183398.86721039 -368463504.18748474 0 0 0 0 138955435.47868347 -42637512.094772339 0 -42637512.094772339 -375311103.88171387 0 0 0 0 121400022.37075806 3393570.6653213501 0 3393570.6653213501 -461362201.02600098 0 0 0 0 26891562.055664062 -13194352.269226074 0 -13194352.269226074 -238265753.78106689 0 0 0 0 64924265.4581604 -136566458.83213806 0 -136566458.83213806 -360797944.32765198 0 0 0 0 51456250.245605469 -100463.11507415771 0 -100463.11507415771 -572575532.75679016 0 0 0 0 18446274.954315186 -140098596.2250061 0 -140098596.2250061 -345833790.29560852 0 0 0 0 57522760.507850647 -228243366.43940735 0 -228243366.43940735 -283215302.58033752 0 0 0 0 -50859798.595184326 -120860863.23529053 0 -120860863.23529053 -371441929.15433502 0 0 0 0 148333574.79434204 -107981324.20466614 0 -107981324.20466614 -371518255.88506317 0 0 0 0 125267066.47390747 -226326893.90856171 0 -226326893.90856171 -305619162.55418396 0 0 0 0 163975262.6058197 -44538734.560005188 0 -44538734.560005188 -156812561.4509201 0 0 0 0 102029449.80090332 -208785527.33305359 0 -208785527.33305359 -398708493.8456192 0 0 0 0 33123610.684930444 -19055563.937750455 0 -19055563.937750455 5724137.3692035675 0 0 0 0 29061070.945602417 -53838461.485031128 0 -53838461.485031128 -64153750.079772949 0 0 0 0 17210219.459190369 -41779987.552009583 0 -41779987.552009583 -9798941.7155761719 0 0 0 0 25809501.426339865 -19520988.714987889 0 -19520988.714987889 9022649.6700284928 0 0 0 0 57410483.772293091 -137246317.221138 0 -137246317.221138 -518687109.15951538 0 0 0 0 20749534.511894226 -43156866.511627197 0 -43156866.511627197 -12906810.69128418 0 0 0 0 14183493.561050415 -51595141.208992004 0 -51595141.208992004 -12713341.180597544 0 0 0 0 9801699.1773223877 -49807985.687309265 0 -49807985.687309265 3952098.3788604736 0 0 0 0 26519491.604278564 -44108947.138305664 0 -44108947.138305664 -1154420.2101211548 0 0 0 0 4873933.896194458 -48026126.428390503 0 -48026126.428390503 1436749.9743347168 0 0 0 0 13514673.147331238 -46956408.647407532 0 -46956408.647407532 1557483.6527404785 0 0 0 0 13297110.27016449 -54635377.503147125 0 -54635377.503147125 5707.6481628417969 0 0 0 0 -49049597.547264099 -20830564.957515717 0 -20830564.957515717 15991699.536590576 0 0 0 0 11644913.974600166 -4647064.3391088322 0 -4647064.3391088322 903204.19415955245 0 0 0 0 5606125.3622741699 -47242731.668655396 0 -47242731.668655396 785095.43132019043 0 0 0 0 -17662167.439865112 -55677236.789985657 0 -55677236.789985657 7638.4763488769531 0 0 0 0 6671314.6127166748 -17099132.651481628 0 -17099132.651481628 16154125.682922363 0 0 0 0 10410269.0050354 -27562706.219314575 0 -27562706.219314575 7555138.1674995422 0 0 0 0 -19377285.584289551 -36831402.775390625 0 -36831402.775390625 8984983.1004943848 0 0 0 0 21829845.866779968 -15142118.276232412 0 -15142118.276232412 6172373.2917929143 0 0 0 0 17302821.095672607 -26397268.92766571 0 -26397268.92766571 6018218.9279785156 0 0 0 0 44986878.124816895 -89827672.143173218 0 -89827672.143173218 38002528.163818359 0 0 0 0 11748487.464920044 -42146957.809249878 0 -42146957.809249878 -8009068.8433380127 0 0 0 0 45152473.274414062 57633133.506500244 0 57633133.506500244 -412005700.39179993 0 0 0 0 -20798314.7973423 -260593835.07565117 0 -260593835.07565117 -683635260.68283081 0 0 0 0 5410529.1628430039 2238481.2175333463 0 2238481.2175333463 -6164564.5541781634 0 0 0 0 76735541.379943848 -80837723.504852295 0 -80837723.504852295 -448474936.07418823 0 0 0 0 -1506064.9413609505 -3871043.8772384264 0 -3871043.8772384264 3281112.6581445485 0 0 0 0 89727090.163391113 -113069878.82209778 0 -113069878.82209778 -390558283.23638916 0 0 0 0 713526.466796875 -69262750.808968544 0 -69262750.808968544 -420758570.05142212 0 0 0 0 78798463.709777832 -77031738.37387085 0 -77031738.37387085 -458452781.98130322 0 0 0 0 137256283.90066528 -24386835.624450684 0 -24386835.624450684 -419959999.17138672 0 0 0 0 136117086.56921387 -35543342.471427917 0 -35543342.471427917 -344566520.23922729 0 0 0 0 124508043.65924072 41896403.28163147 0 41896403.28163147 -438427951.7922821 0 0 0 0 121746453.17080688 55011512.236480713 0 55011512.236480713 -312913759.20024109 0 0 0 0 47497776.570068359 -9302710.8646850586 0 -9302710.8646850586 -156653111.32876587 0 0 0 0 9774973.51171875 68431750.497795105 0 68431750.497795105 -299046786.29214478 0 0 0 0 65817263.660888672 1978867.1356964111 0 1978867.1356964111 -326719569.55493927 0 0 0 0 80104987.033798218 -93781002.580421448 0 -93781002.580421448 -106445673.45007324 0 0 0 0 -40186526.502044678 14435743.428390503 0 14435743.428390503 -114754891.42129517 0 0 0 0 -115243406.51260376 188462820.36424255 0 188462820.36424255 -215987621.18304443 0 0 0 0 8651344.2593182921 -1335779.8331088126 0 -1335779.8331088126 3352396.5886375532 0 0 0 0 6644495.4324035645 7349720.7295150757 0 7349720.7295150757 -130323180.37525177 0 0 0 0 19245911.366439819 -6317777.3709259033 0 -6317777.3709259033 15273566.675048828 0 0 0 0 52856635.644348145 -31223241.668411255 0 -31223241.668411255 -5381440.5510864258 0 0 0 0 3215955.2070245072 -8332238.788543947 0 -8332238.788543947 1130000.6357832551 0 0 0 0 15937847.182580084 -13333121.51207871 0 -13333121.51207871 7461509.6255167276 0 0 0 0 -4342573.7192382812 51446513.653930664 0 51446513.653930664 -46843895.82556808 0 0 0 0 13993181.70800209 -11728640.19750309 0 -11728640.19750309 13206448.542724609 0 0 0 0 7736693.9649963379 49379451.948455811 0 49379451.948455811 -81130034.483978271 0 0 0 0 10658876.920379639 3830730.6668395996 0 3830730.6668395996 -46513181.506317139 0 0 0 0 51190992.262386322 -15719685.677729607 0 -15719685.677729607 -118508695.1204834 0 0 0 0 15924944.140380859 19541472.164642334 0 19541472.164642334 -158803903.16931534 0 0 0 0 10996764.966400146 -17801826.00970459 0 -17801826.00970459 10299742.746887207 0 0 0 0 20519725.708831787 -29940938.641693115 0 -29940938.641693115 5487363.8316650391 0 0 0 0 12362709.577737048 -6921394.7056802735 0 -6921394.7056802735 3564630.5726882219 0 0 0 0 33384671.622215271 -25514888.482341766 0 -25514888.482341766 2812957.6506652832 0 0 0 0 3146514.6142883301 -2490487.7617492676 0 -2490487.7617492676 780969.70764160156 0 0 0 0 9696265.0830274373 -12261809.461044587 0 -12261809.461044587 7749646.7460534945 0 0 0 0 23972596.53302002 -13184050.698928833 0 -13184050.698928833 20928666.555297852 0 0 0 0 12419133.21484375 -6351078.1083984375 0 -6351078.1083984375 -2688452.9744873047 0 0 0 0 408713.68626880646 -427325.96093840152 0 -427325.96093840152 274499.12487689406 0 0 0 0 7691159.5355104953 -4210795.0078781918 0 -4210795.0078781918 1523196.8789634034 0 0 0 0 13253315.802490234 -13018132.361572266 0 -13018132.361572266 3992437.6229248047 0 0 0 0 5758374.1930541992 -20276489.821228027 0 -20276489.821228027 6330701.5027160645 0 0 0 0 10157983.245910645 -10872884.780700684 0 -10872884.780700684 3630952.3887138367 0 0 0 0 27094664.466064453 -19545365.132751465 0 -19545365.132751465 2932669.548034668 0 0 0 0 -7721463.4348754883 -8624741.7281646729 0 -8624741.7281646729 11903273.352493286 0 0 0 0 10007574.546435177 -3923598.3704529852 0 -3923598.3704529852 1393900.0086813122 0 0 0 0 16884278.684951782 -26072766.668060303 0 -26072766.668060303 21441.531845092773 0 0 0 0 40599275.145996094 -17862048.625442505 0 -17862048.625442505 2056460.7329711914 0 0 0 0 14494294.518356323 -27830730.833229065 0 -27830730.833229065 7605356.2870788574 0 0 0 0 4873341272.2205811 -2537066597.3006592 0 -2537066597.3006592 -580753.95984333684 0 0 0 0 -410769.04541015625 -852445711.66790771 0 -852445711.66790771 511605791.94151306 0 0 0 0 3840628335.6191254 -4872060485.7673187 0 -4872060485.7673187 1786355828.1976089 0 0 0 0 1032864072.3569489 574105477.13275909 0 574105477.13275909 117067715.89823914 0 0 0 0 2150183.1401865482 -1973632.1146419421 0 -1973632.1146419421 722503.18181104213 0 0 0 0 78353812.609733582 -122911363.29019165 0 -122911363.29019165 182986032.93634033 0 0 0 0 -63023572.348724365 51176696.184310913 0 51176696.184310913 439852471.38647079 0 0 0 0 5783078.3164805472 -5974308.1928320564 0 -5974308.1928320564 2167839.3316929638 0 0 0 0 5398109.2273675762 -7686914.4816131517 0 -7686914.4816131517 3224478.1087287068 0 0 0 0 400906162.13774109 -116283554.76552582 0 -116283554.76552582 660037.6496887207 0 0 0 0 102442879.64453125 55278884.142822266 0 55278884.142822266 40965319.309761047 0 0 0 0 318693615.87310791 31427764.304840088 0 31427764.304840088 -10024647.974060059 0 0 0 0 177770890.93325806 -67628108.690765381 0 -67628108.690765381 26534970.372241974 0 0 0 0 414584352.17400646 -457001238.31547976 0 -457001238.31547976 284005014.06826782 0 0 0 0 395194632.84631443 -141320263.5899272 0 -141320263.5899272 -3102676.4615478516 0 0 0 0 1718409.1030996442 -2707354.9832257181 0 -2707354.9832257181 6349906.3395281956 0 0 0 0 1197336.4797620773 -2707031.5349555984 0 -2707031.5349555984 1579632.106226638 0 0 0 0 48859626.508277893 -34584607.974407196 0 -34584607.974407196 104511369.44091797 0 0 0 0 -37964745.652664185 -27138137.847106934 0 -27138137.847106934 -2366581.1474914551 0 0 0 0 12242467.215255737 -82271273.765861511 0 -82271273.765861511 -178833967.33391571 0 0 0 0 -356775.72732621431 -1510179.8887043595 0 -1510179.8887043595 6877754.4667344913 0 0 0 0 80670723.569763184 -433612823.2776947 0 -433612823.2776947 -1220131678.9781303 0 0 0 0 -30368.761997510959 12566840.240045147 0 12566840.240045147 -279816974.32107544 0 0 0 0 -331335924.0725708 279664328.9081955 0 279664328.9081955 -919867370.90568161 0 0 0 0 -307775397.56349182 -411028585.04347229 0 -411028585.04347229 -592838021.06359863 0 0 0 0 116950550.70834351 -385863900.25675201 0 -385863900.25675201 -1149314909.5920715 0 0 0 0 -311186271.96150208 557169238.37989044 0 557169238.37989044 -815966984.14039612 0 0 0 0 172855605.13256836 -107817172.26330566 0 -107817172.26330566 -76601171.389953613 0 0 0 0 -300666.27971304208 -2760080.7464270517 0 -2760080.7464270517 820355.04040510952 0 0 0 0 177597719.81552124 157235759.5509491 0 157235759.5509491 -1292895938.3450012 0 0 0 0 56874737.341491699 193002837.69738007 0 193002837.69738007 -535817910.60479736 0 0 0 0 188258403.44570923 19527295.652099609 0 19527295.652099609 -604985203.72435379 0 0 0 0 71655033.309753418 87942183.783672333 0 87942183.783672333 -620041869.00170898 0 0 0 0 175816451.53961182 5037420.9175872803 0 5037420.9175872803 -459929651.93835449 0 0 0 0 165320620.71817017 14619796.030662537 0 14619796.030662537 -468408990.24674988 0 0 0 0 167643480.40296936 -98181606.212417603 0 -98181606.212417603 -280751712.87496948 0 0 0 0 206635908.83728027 -111486162.77186584 0 -111486162.77186584 -517966384.08569336 0 0 0 0 192200411.78430176 -210471526.02277374 0 -210471526.02277374 -324295743.54136658 0 0 0 0 191939316.2852478 -203246170.46180725 0 -203246170.46180725 -286920719.34301138 0 0 0 0 66470943.073654175 -100894887.39287567 0 -100894887.39287567 -573069762.50471497 0 0 0 0 259033481.02761841 -179379363.09915161 0 -179379363.09915161 -730777884.69065094 0 0 0 0 228935777.80462646 -393393884.76889801 0 -393393884.76889801 -447834640.079319 0 0 0 0 98704814.015365601 -256687627.84827042 0 -256687627.84827042 -28216331.045791626 0 0 0 0 281670419.92147827 -405902900.29321289 0 -405902900.29321289 -134244109.94934845 0 0 0 0 21702309.303787231 -364130760.39411163 0 -364130760.39411163 320056124.50434875 0 0 0 0 156950154.93325806 -165408639.14859772 0 -165408639.14859772 -276214689.48208618 0 0 0 0 70320942.733337402 -650611395.85137939 0 -650611395.85137939 657584853.84567916 0 0 0 0 -169295778.42798615 -362989288.32997704 0 -362989288.32997704 321532218.28210449 0 0 0 0 613097652.01784515 -439641014.52113724 0 -439641014.52113724 36830145.111694336 0 0 0 0 191629908.76124573 50150032.770767212 0 50150032.770767212 644166412.29684448 0 0 0 0 -101344921.09251404 88192095.209609985 0 88192095.209609985 207023875.71445465 0 0 0 0 46595.282887002395 -167829835.37537217 0 -167829835.37537217 -338423013.19154358 0 0 0 0 -90427190.978851318 -81698530.801795959 0 -81698530.801795959 -178306556.42085266 0 0 0 0 52824627.84419632 -283747505.02182198 0 -283747505.02182198 -32674617.819229126 0 0 0 0 -236454014.93830967 -721803457.63080978 0 -721803457.63080978 -1274270177.4749756 0 0 0 0 30788886.937326517 -54466824.974747181 0 -54466824.974747181 55130934.718492061 0 0 0 0 -1332151201.9149551 -1114718416.5562286 0 -1114718416.5562286 -721730355.78158569 0 0 0 0 -846766129.3751564 129211982.44483948 0 129211982.44483948 -593926299.35372925 0 0 0 0 -1212058180.5477448 -661607264.19216919 0 -661607264.19216919 -1165496901.0856781 0 0 0 0 -3683738413.9799232 -980640920.59147644 0 -980640920.59147644 -187891387.02862549 0 0 0 0 -1518615582.1300049 -1213514877.0651245 0 -1213514877.0651245 -1295146082.8537598 0 0 0 0 -836530210.42871094 -813485978.65138626 0 -813485978.65138626 -283377969.46203613 0 0 0 0 -638578787.11355591 -101220588.26623535 0 -101220588.26623535 98654482.095724106 0 0 0 0 9185025.9541714545 -11940469.948787676 0 -11940469.948787676 -6370271.0654886812 0 0 0 0 -1020134204.9123688 -541534586.48382568 0 -541534586.48382568 412563594.16939926 0 0 0 0 -322178101.6696167 -86359207.29839325 0 -86359207.29839325 48141204.462104797 0 0 0 0 -342003897.61227417 -78555013.86296463 0 -78555013.86296463 670620606.78260803 0 0 0 0 329626712.28077698 571197.88591957092 0 571197.88591957092 874056785.64208221 0 0 0 0 304719983.39172363 -149895873.53595352 0 -149895873.53595352 231805838.64070892 0 0 0 0 377658785.20524597 -677224262.11642456 0 -677224262.11642456 -709680288.20104218 0 0 0 0 173129431.99991608 -58300478.216526031 0 -58300478.216526031 -438942653.64816284 0 0 0 0 138512071.74464798 -109558522.19810867 0 -109558522.19810867 533643896.49301147 0 0 0 0 319986235.02393341 -782217757.73531342 0 -782217757.73531342 169586179.91654968 0 0 0 0 -796738891.50386047 -66674406.785560608 0 -66674406.785560608 449438743.14466095 0 0 0 0 -1133253866.3636107 -1352405179.9696245 0 -1352405179.9696245 -985542110.76921082 0 0 0 0 37885786.429362282 -42204575.264268845 0 -42204575.264268845 31141535.237310797 0 0 0 0 -1062122128.8186207 -913074934.56907654 0 -913074934.56907654 -571538924.70944214 0 0 0 0 -967122601.89741516 -1422108007.4329376 0 -1422108007.4329376 -63165430.822380066 0 0 0 0 -1296609390.7854309 -1781486637.6532288 0 -1781486637.6532288 -1727476150.065506 0 0 0 0 -621086260.05194473 -953703624.44692993 0 -953703624.44692993 -1250805613.3944855 0 0 0 0 -500791312.14383221 -419521299.08350182 0 -419521299.08350182 -606365847.53399658 0 0 0 0 -105237998.69742584 -1077010124.5765381 0 -1077010124.5765381 -957264259.77414322 0 0 0 0 -800126487.55722809 -377646042.43685913 0 -377646042.43685913 -272111753.01309204 0 0 0 0 -77636418.428649902 -1030369867.2186279 0 -1030369867.2186279 -959886344.59780884 0 0 0 0 -5909865.2617943566 -3521316.120478794 0 -3521316.120478794 2487628.6034238636 0 0 0 0 -911845814.22980499 -800094920.40182495 0 -800094920.40182495 -751044878.16433716 0 0 0 0 -676623396.13783646 -581423948.46807861 0 -581423948.46807861 -299862088.62496948 0 0 0 0 -1553391116.7711077 -513532171.23363876 0 -513532171.23363876 -370623690.39318848 0 0 0 0 -1006108118.6303482 -499825322.21588135 0 -499825322.21588135 -269348643.28262329 0 0 0 0 -639061169.87406158 -424750290.45233154 0 -424750290.45233154 -430191569.03018188 0 0 0 0 127727826.47859573 -14355375.171600342 0 -14355375.171600342 -788865398.8183136 0 0 0 0 -571018706.21703339 -683769825.8197937 0 -683769825.8197937 -1998933132.994339 0 0 0 0 -370153849.83244324 -608047171.13970947 0 -608047171.13970947 -429300567.8583374 0 0 0 0 -30817940.769874573 -754454857.35214233 0 -754454857.35214233 -2647043884.0322266 0 0 0 0 -370732062.92320251 -1156729644.6168671 0 -1156729644.6168671 -344138464.38275146 0 0 0 0 -755353292.71247864 -1713485446.8586731 0 -1713485446.8586731 -843429968.04650879 0 0 0 0 -217741125.58415985 -1262620141.8104858 0 -1262620141.8104858 -727374524.19020081 0 0 0 0 -827139664.30846214 -1061101377.0955105 0 -1061101377.0955105 -213917769.67889404 0 0 0 0 -505057548.24130249 -660722967.39215088 0 -660722967.39215088 -9892087.4272155762 0 0 0 0 151316162.54942322 -354511535.48716736 0 -354511535.48716736 105246692.38627625 0 0 0 0 -143371229.63587761 -488606117.77078247 0 -488606117.77078247 -2418371871.3837204 0 0 0 0 -717444.57887293957 -3604274.8546255901 0 -3604274.8546255901 -1906897.1886109859 0 0 0 0 -28790300.82087186 -128960753.33097076 0 -128960753.33097076 -631208635.91928101 0 0 0 0 -27650165.77214241 -60420999.07624054 0 -60420999.07624054 -913447022.7958374 0 0 0 0 133449123.21753931 -638678651.00926971 0 -638678651.00926971 -1277954261.7655563 0 0 0 0 -3209408.6739593716 -1933050.6797253415 0 -1933050.6797253415 1337867.1279904395 0 0 0 0 -60725592.860387802 227036995.68760681 0 227036995.68760681 -701251554.85198975 0 0 0 0 20925279.582868576 -92562709.123901367 0 -92562709.123901367 -546699031.99549866 0 0 0 0 13586347.020439148 -108824623.15167236 0 -108824623.15167236 -148100230.87020874 0 0 0 0 -19870737.858917236 -252655303.06311035 0 -252655303.06311035 -323970385.10449219 0 0 0 0 27803153.695737839 -122436906.06015778 0 -122436906.06015778 -650152222.50202942 0 0 0 0 -3429804.8140028724 -7743786.7557317019 0 -7743786.7557317019 -3443166.5421240106 0 0 0 0 130642195.60626388 -698459572.12937164 0 -698459572.12937164 -613223163.98267365 0 0 0 0 78292596.453886867 -285689889.58496094 0 -285689889.58496094 -929337364.28341675 0 0 0 0 114674587.20953321 -428211898.83783722 0 -428211898.83783722 -371050052.92068481 0 0 0 0 -89734957.487833977 -465432871.65393448 0 -465432871.65393448 -178635684.11547852 0 0 0 0 -44304110.960967064 -533641621.25331116 0 -533641621.25331116 -437153671.85263062 0 0 0 0 -270677006.21412373 -643616599.53629303 0 -643616599.53629303 -76557840.89648819 0 0 0 0 417494.47077846527 -734748126.30765533 0 -734748126.30765533 -122360060.72480774 0 0 0 0 -364156298.58255434 -641202635.88249969 0 -641202635.88249969 482486069.28063965 0 0 0 0 -501929897.77745247 928556510.74028015 0 928556510.74028015 724680131.13027954 0 0 0 0 1095231572.61234 491373343.31517792 0 491373343.31517792 -735829267.69384766 0 0 0 0 588757614.33414745 -1420923992.9465027 0 -1420923992.9465027 -185490385.42208862 0 0 0 0 -1612822901.9111052 -1585191393.246582 0 -1585191393.246582 1631556489.8363647 0 0 0 0 -1486691073.9884758 -2506466333.7080536 0 -2506466333.7080536 410733899.03330994 0 0 0 0 1678912814.5372524 809590880.92342377 0 809590880.92342377 -453584715.80355835 0 0 0 0 774256.18005788978 -4960563.1186988056 0 -4960563.1186988056 3600790.2041035444 0 0 0 0 977706834.61985207 21178327.736175537 0 21178327.736175537 -391755408.07402039 0 0 0 0 162348268.27824402 -861147714.04571533 0 -861147714.04571533 -693835930.50427055 0 0 0 0 -975098815.13567162 -723422914.29684448 0 -723422914.29684448 -153297311.30154419 0 0 0 0 -265119020.04573786 -517050864.19683647 0 -517050864.19683647 -385493239.58953857 0 0 0 0 1006406.8632926892 -16556608.180309542 0 -16556608.180309542 10641415.606947914 0 0 0 0 -39154614.813514948 -185535682.48866272 0 -185535682.48866272 -330535834.05534172 0 0 0 0 -171024472.86844635 -245635258.43756104 0 -245635258.43756104 -148150665.6572876 0 0 0 0 -6218008.6853592079 -31901798.221236363 0 -31901798.221236363 18426758.134979978 0 0 0 0 -290911194.75647736 230276162.91131592 0 230276162.91131592 -173688807.00146484 0 0 0 0 32398519.443473935 -331727155.85512972 0 -331727155.85512972 -172745699.78671265 0 0 0 0 -33378555.976119995 -343272117.33312988 0 -343272117.33312988 -163149079.06240845 0 0 0 0 36390393.708470583 -272438953.03304625 0 -272438953.03304625 -141418279.31866455 0 0 0 0 -29767153.732540131 -24056012.319259644 0 -24056012.319259644 67885710.160522461 0 0 0 0 -7549446.5555540333 -2808813.7039470151 0 -2808813.7039470151 9481004.9417632818 0 0 0 0 -979899217.43865061 -231584331.00812531 0 -231584331.00812531 99378085.193481445 0 0 0 0 -422538610.01281166 -728326709.91079712 0 -728326709.91079712 -153382320.6786387 0 0 0 0 50993598.665851593 -328109648.62486267 0 -328109648.62486267 -176383402.61273575 0 0 0 0 116616659.515728 -427880104.11540222 0 -427880104.11540222 -243100731.552948 0 0 0 0 18186073.713186264 -439824618.73549652 0 -439824618.73549652 -218982720.64630127 0 0 0 0 -10663768.904760361 -409396317.3952179 0 -409396317.3952179 27956221.299346924 0 0 0 0 39805192.460380554 -622221743.25656128 0 -622221743.25656128 81760480.709758759 0 0 0 0 -234064504.67790604 -457236906.59359741 0 -457236906.59359741 -187412887.49847412 0 0 0 0 -347307710.57936716 -187954667.7211647 0 -187954667.7211647 -112484863.503479 0 0 0 0 -363633386.30444145 -133272637.15097809 0 -133272637.15097809 99861056.043884277 0 0 0 0 -457637853.46334839 137171716.55020142 0 137171716.55020142 -216485433.80225372 0 0 0 0 158435895.41895199 -233760889.49658585 0 -233760889.49658585 -1064842261.6564331 0 0 0 0 664192981.43589401 -1826180095.5647583 0 -1826180095.5647583 -171924214.70397949 0 0 0 0 512822172.70979977 990668616.37689209 0 990668616.37689209 -2462036682.227356 0 0 0 0 -974311.78406865057 -5923020.9072497785 0 -5923020.9072497785 4629172.8324356955 0 0 0 0 -380095238.05888224 -177519609.61758041 0 -177519609.61758041 105793865.91168213 0 0 0 0 -33045282.791182891 -7589428.2412584908 0 -7589428.2412584908 37659265.273423344 0 0 0 0 -333354211.07113361 530252055.2795105 0 530252055.2795105 -456633075.24176025 0 0 0 0 448607.1810760498 -17743138.973075867 0 -17743138.973075867 8938544.1427955627 0 0 0 0 -77070944.208618164 -17231708.872953415 0 -17231708.872953415 65072114.918800354 0 0 0 0 -7934230.0352695137 -38302380.639353454 0 -38302380.639353454 51018145.593457542 0 0 0 0 -56526416.543642044 -73320236.375289917 0 -73320236.375289917 -71828717.614013672 0 0 0 0 -8254028.0693461336 -26466667.481620491 0 -26466667.481620491 37536879.161984168 0 0 0 0 -155631386.131073 25305942.100152016 0 25305942.100152016 81336472.244354248 0 0 0 0 -46098362.415024929 -6880437.0735716298 0 -6880437.0735716298 43929998.946183026 0 0 0 0 -200284073.52770996 121040296.1021347 0 121040296.1021347 10491133.455970764 0 0 0 0 -195178500.25234985 94688168.385719299 0 94688168.385719299 93417207.495002747 0 0 0 0 -268794100.94662476 -25902814.854873657 0 -25902814.854873657 64744117.076358795 0 0 0 0 -334912187.72305298 61292594.507644653 0 61292594.507644653 88261931.451247215 0 0 0 0 -106506896.01330495 -298574463.74195862 0 -298574463.74195862 -127470462.2479248 0 0 0 0 -379520079.01670837 -96617.629943847656 0 -96617.629943847656 123782819.18125916 0 0 0 0 768661.46744806925 -14638422.884518996 0 -14638422.884518996 13068506.038863972 0 0 0 0 8398247.4198384881 -59119311.307125494 0 -59119311.307125494 76151117.509907842 0 0 0 0 -1047772624.229239 -245085077.36325645 0 -245085077.36325645 204415904.31176758 0 0 0 0 -337641822.34545898 55379345.620111465 0 55379345.620111465 118699884.80418396 0 0 0 0 -258817973.84788513 191727734.26497459 0 191727734.26497459 179517251.97572327 0 0 0 0 -471448647.49690247 6570659.0685396194 0 6570659.0685396194 272232844.46768188 0 0 0 0 -422995145.20977783 -125476805.70122147 0 -125476805.70122147 -22283953.828395844 0 0 0 0 -785381152.95681763 -210686192.57684708 0 -210686192.57684708 261313143.70042419 0 0 0 0 27449378.811560154 -67312569.568607852 0 -67312569.568607852 67968533.035223931 0 0 0 0 -269383455.3231225 54917099.841522217 0 54917099.841522217 312870387.40383911 0 0 0 0 -23159899.776270494 4115331.8505951464 0 4115331.8505951464 18027614.546070442 0 0 0 0 -1426145610.2389812 -2629019909.5205078 0 -2629019909.5205078 -436442948.92948914 0 0 0 0 370765059.68567657 3355174.4063129425 0 3355174.4063129425 377449869.72504425 0 0 0 0 399368647.03347015 123127557.83078957 0 123127557.83078957 851913292.16622925 0 0 0 0 87790861.930587769 266601006.58192444 0 266601006.58192444 408678584.78172302 0 0 0 0 -321095369.19252014 96464676.681999207 0 96464676.681999207 249583838.12840271 0 0 0 0 -330160135.39291382 93282612.8474617 0 93282612.8474617 482330706.76578522 0 0 0 0 -656550986.61251068 -106896304.55497169 0 -106896304.55497169 415616243.0196991 0 0 0 0 10339436.730133057 154882173.45124435 0 154882173.45124435 228769755.95107269 0 0 0 0 -131248454.79266357 276321045.67758179 0 276321045.67758179 282010872.87283134 0 0 0 0 9882030.2329101562 184152907.29501915 0 184152907.29501915 534407361.68856812 0 0 0 0 339618733.74728394 279557873.29219818 0 279557873.29219818 235146412.76617432 0 0 0 0 108259655.89751434 233080900.28840733 0 233080900.28840733 47671517.236587524 0 0 0 0 65270752.113113403 110280594.64250183 0 110280594.64250183 133487251.49718475 0 0 0 0 -201365300.78323364 59416424.83159256 0 59416424.83159256 -48296879.352413177 0 0 0 0 -120429838.1534729 206882292.02204895 0 206882292.02204895 98933919.888325632 0 0 0 0 -202867182.66983795 161688811.2483387 0 161688811.2483387 99748532.355667114 0 0 0 0 -84821137.823013306 259320127.58722305 0 259320127.58722305 -68136535.616088867 0 0 0 0 -32342684.93687164 1500839.1603629626 0 1500839.1603629626 24193081.64192272 0 0 0 0 -196491658.9499054 -28137975.415534973 0 -28137975.415534973 105776160.87065506 0 0 0 0 -38826192.831085205 51095479.16872406 0 51095479.16872406 26412777.690814972 0 0 0 0 -38878931.444454342 99381384.040109292 0 99381384.040109292 -156291608.40072632 0 0 0 0 -15754168.62659689 -1372142.599154029 0 -1372142.599154029 15308167.174966415 0 0 0 0 -24513517.465968862 3327992.7703832276 0 3327992.7703832276 18451410.495509893 0 0 0 0 20969107.57975769 49059530.170649529 0 49059530.170649529 13531737.02028656 0 0 0 0 155302063.89098358 44886291.448706627 0 44886291.448706627 -239923378.94863892 0 0 0 0 53095.342224121094 144994925.14471626 0 144994925.14471626 -193358120.13154125 0 0 0 0 93289442.056785583 -24619604.098407745 0 -24619604.098407745 -168383467.58137512 0 0 0 0 -31427734.169326782 -45838066.455608368 0 -45838066.455608368 -125026659.73069 0 0 0 0 -3422855.7891941555 1225375.5460777692 0 1225375.5460777692 -214184.73702013493 0 0 0 0 -871490530.99340057 -434272572.37568283 0 -434272572.37568283 152418424.53231812 0 0 0 0 -2812425915.2099609 137917030.17393494 0 137917030.17393494 186585776.34732199 0 0 0 0 -925932.3229342401 -851560.90965240449 0 -851560.90965240449 1035732.053555962 0 0 0 0 -4762.5633596852422 -1296124.1998774596 0 -1296124.1998774596 -898270.27087671682 0 0 0 0 -155802481.45040131 -622075561.51246071 0 -622075561.51246071 176227702.88290405 0 0 0 0 222919924.91152191 -32187333.781820774 0 -32187333.781820774 -173797840.53651428 0 0 0 0 265778412.00566101 104581337.20377731 0 104581337.20377731 31641865.880020142 0 0 0 0 614562502.21640015 -883588688.00108719 0 -883588688.00108719 -192648765.12716484 0 0 0 0 861030214.58856201 -1289177472.1156464 0 -1289177472.1156464 132665376.18268204 0 0 0 0 -1338120055.3546753 -919799919.9281311 0 -919799919.9281311 188797282.43519592 0 0 0 0 -1076683276.7865906 -1679324524.584816 0 -1679324524.584816 -630085765.76362944 0 0 0 0 557078453.99572754 -1661866389.3814697 0 -1661866389.3814697 280991980.62198257 0 0 0 0 241847602.10333252 -812108430.22099304 0 -812108430.22099304 -136246728.25761414 0 0 0 0 1774060051.7773285 -2088545322.3518353 0 -2088545322.3518353 1950472173.655899 0 0 0 0 1412764026.9623718 -1199890529.0937843 0 -1199890529.0937843 -62629890.642810822 0 0 0 0 4488016793.7515869 -3068661438.7483883 0 -3068661438.7483883 1747728378.6924267 0 0 0 0 3177867533.4578705 -1479027092.5547504 0 -1479027092.5547504 -110965000.60754395 0 0 0 0 2032092524.6051483 -1454088378.3160667 0 -1454088378.3160667 -152074728.29392242 0 0 0 0 2720990946.6661911 -1778597241.7233849 0 -1778597241.7233849 -112709694.73334503 0 0 0 0 840028153.42926788 -1797074707.3580494 0 -1797074707.3580494 486239492.60968781 0 0 0 0 2141046741.4128113 -1926971793.6256523 0 -1926971793.6256523 -60995654.898181915 0 0 0 0 1695576589.6363831 -1755473023.0783272 0 -1755473023.0783272 -109607916.13702774 0 0 0 0 1969295928.3339615 -1699414519.7051659 0 -1699414519.7051659 -129631783.48336029 0 0 0 0 2023008399.7568665 -1500893366.5610886 0 -1500893366.5610886 -210318837.46653366 0 0 0 0 1205163751.2198792 -1050637199.8040543 0 -1050637199.8040543 -290345891.27942467 0 0 0 0 2828995287.6182709 -1283301322.9029121 0 -1283301322.9029121 -264614703.27915573 0 0 0 0 1982287431.6232376 -1692190473.4260321 0 -1692190473.4260321 -359412423.5402832 0 0 0 0 1944158963.6241989 -648224241.22409821 0 -648224241.22409821 -342381636.33409882 0 0 0 0 801724683.56758118 -753344738.77393341 0 -753344738.77393341 -280372123.2089386 0 0 0 0 28229733.192005157 -2198150649.6331301 0 -2198150649.6331301 -681715870.4866333 0 0 0 0 728511432.27894974 -681749124.58006477 0 -681749124.58006477 -316972391.54086304 0 0 0 0 3220416064.3900681 -1935004522.6150665 0 -1935004522.6150665 -609090431.62182808 0 0 0 0 2012791999.7991333 -1539503161.6086502 0 -1539503161.6086502 -95074746.257804871 0 0 0 0 2045970445.9464417 -1550093987.3116989 0 -1550093987.3116989 -494474686.63482666 0 0 0 0 2252012720.8778343 -932780917.68165684 0 -932780917.68165684 285955511.27154541 0 0 0 0 2194696190.8325043 -1500418955.9675598 0 -1500418955.9675598 1195134527.4358864 0 0 0 0 4789408860.2059021 -2022665217.726059 0 -2022665217.726059 516604535.02452087 0 0 0 0 1631102966.2449646 -595176738.98085785 0 -595176738.98085785 1084265187.9512863 0 0 0 0 1579353725.407547 61093884.111930847 0 61093884.111930847 458289948.86587524 0 0 0 0 2461373984.7474518 -183580376.66690063 0 -183580376.66690063 382958378.91075897 0 0 0 0 1139737182.9489136 143306826.46356964 0 143306826.46356964 222268543.43662262 0 0 0 0 1152033531.71208 -484681435.27572608 0 -484681435.27572608 500514531.0921936 0 0 0 0 376945248.61177063 -127394760.5798893 0 -127394760.5798893 262134889.83161926 0 0 0 0 1449799117.1376038 -395122370.0333786 0 -395122370.0333786 152939482.37730026 0 0 0 0 1467261262.6528358 -1200006062.6177206 0 -1200006062.6177206 -97353573.11466217 0 0 0 0 1607892133.159256 -1372088845.183567 0 -1372088845.183567 44957861.801261902 0 0 0 0 -197009115.38001633 641574816.12704849 0 641574816.12704849 -975910131.39328003 0 0 0 0 141411092.60700226 -52600544.892162323 0 -52600544.892162323 -62653868.286659241 0 0 0 0 7676841.3114556372 -22131840.038880613 0 -22131840.038880613 -25845638.333252281 0 0 0 0 22091313.029266357 -20744199.222957611 0 -20744199.222957611 -25766431.474998474 0 0 0 0 68253567.471572876 -12078353.154331207 0 -12078353.154331207 -11158495.561000824 0 0 0 0 31430632.949808903 -1469620.5153237693 0 -1469620.5153237693 -24881018.66000849 0 0 0 0 19391615.29947938 2744521.1778466785 0 2744521.1778466785 -16667059.283244984 0 0 0 0 9609258.1989418194 -3526935.0639308915 0 -3526935.0639308915 596120.41878017411 0 0 0 0 -21348662.767017365 63038982.620803833 0 63038982.620803833 -41817541.519493103 0 0 0 0 136748192.3265686 44315177.456436157 0 44315177.456436157 -123511551.09137344 0 0 0 0 484038317.22582626 379951493.61155319 0 379951493.61155319 302917068.37884521 0 0 0 0 1862740147.512146 -95290065.342914581 0 -95290065.342914581 -265172702.17558289 0 0 0 0 2628422169.6257668 1633166759.7210331 0 1633166759.7210331 1015444700.8963852 0 0 0 0 27804824.655944824 -1532517.1308021545 0 -1532517.1308021545 21255026.531673431 0 0 0 0 4222376.4194147624 -740622.26452212781 0 -740622.26452212781 -2675356.4019713383 0 0 0 0 5864201122.0552731 -406447581.17496347 0 -406447581.17496347 -624325720.14707947 0 0 0 0 2405560941.5819855 166150232.58804703 0 166150232.58804703 -631010505.43057156 0 0 0 0 1934961517.2074661 -469942711.75261688 0 -469942711.75261688 -556946721.66385651 0 0 0 0 3834130765.979229 -591953961.87952805 0 -591953961.87952805 -556996014.73374939 0 0 0 0 2235044055.7341919 -219261895.9080658 0 -219261895.9080658 -369972143.82608795 0 0 0 0 1634900201.5882568 -314374876.8393631 0 -314374876.8393631 -328403944.07200241 0 0 0 0 1599532851.0458145 -306196854.38648987 0 -306196854.38648987 -514037776.97016907 0 0 0 0 1505877795.224762 -251111616.91937256 0 -251111616.91937256 -116812034.15870667 0 0 0 0 2119970822.3134232 23461880.888317108 0 23461880.888317108 -312245598.87339783 0 0 0 0 936514.26741123199 -3344909.3122077137 0 -3344909.3122077137 2341305.3409803882 0 0 0 0 39527812.329978943 393563340.36994743 0 393563340.36994743 -208000826.51914215 0 0 0 0 2136685051.274704 -84391438.633651733 0 -84391438.633651733 -270995333.83964348 0 0 0 0 2294611676.0025787 -131128586.22124863 0 -131128586.22124863 -394920367.30555344 0 0 0 0 1695434.0416759551 -12065673.177472062 0 -12065673.177472062 -15569895.126029886 0 0 0 0 225681895.09392166 -171641188.3781538 0 -171641188.3781538 -11844896.98349762 0 0 0 0 -1332730886.6953049 1994595278.7310715 0 1994595278.7310715 -346590367.20977783 0 0 0 0 83961977.859954834 290535859.21047974 0 290535859.21047974 -862334568.59727097 0 0 0 0 744675734.07545471 147958006.08782578 0 147958006.08782578 -1162221623.5147247 0 0 0 0 2946985287.4285126 -1667314884.0933533 0 -1667314884.0933533 199910024.01233482 0 0 0 0 1184604811.2280407 -2011968888.2528267 0 -2011968888.2528267 1486988086.1601868 0 0 0 0 1650804396.2914734 -868713382.99402618 0 -868713382.99402618 1094591590.9016609 0 0 0 0 694928305.84043884 273405673.37737274 0 273405673.37737274 3903700282.1573486 0 0 0 0 619235046.08774185 1367471695.0316415 0 1367471695.0316415 941931800.63748169 0 0 0 0 109766610.3533783 -1250292009.8256073 0 -1250292009.8256073 2066753761.513443 0 0 0 0 -195607396.09912491 31510000.856403351 0 31510000.856403351 171726437.47927856 0 0 0 0 -1986699267.9626465 -171558932.61369324 0 -171558932.61369324 1052300130.3751068 0 0 0 0 -576217555.50296783 -911337562.17887115 0 -911337562.17887115 1133449134.971138 0 0 0 0 829682984.11618614 -926545312.85433578 0 -926545312.85433578 133072377.86401367 0 0 0 0 -513172329.10379338 157644028.07592535 0 157644028.07592535 -817056301.42840576 0 0 0 0 -513113440.77303314 -674636510.43759155 0 -674636510.43759155 157170460.97342682 0 0 0 0 -1189461617.3449402 1011556008.0277786 0 1011556008.0277786 -1418318014.2182617 0 0 0 0 -2573402020.5629749 1518139572.9241133 0 1518139572.9241133 194826357.85896301 0 0 0 0 1709767668.0212784 -324872681.26661682 0 -324872681.26661682 -350300283.2328949 0 0 0 0 1696797309.6467514 -654687953.33690262 0 -654687953.33690262 172662427.5663662 0 0 0 0 -2417988.1829385534 -7137457.2530656531 0 -7137457.2530656531 -5702995.1386605129 0 0 0 0 1001012939.7535858 -831701160.97634125 0 -831701160.97634125 653243136.31156158 0 0 0 0 1537819507.8657303 -228546761.75746155 0 -228546761.75746155 -162098100.72027588 0 0 0 0 1033294942.177948 -613787090.22312927 0 -613787090.22312927 -366454779.67205429 0 0 0 0 1821264970.4453125 -1722771152.9787369 0 -1722771152.9787369 121675481.33755112 0 0 0 0 -2808195.8299989551 -3276307.4764029272 0 -3276307.4764029272 -26471.21457131952 0 0 0 0 1407736090.2641602 -778921984.76758194 0 -778921984.76758194 -1123840480.5308685 0 0 0 0 849903599.614151 -977419463.69396973 0 -977419463.69396973 -1435415182.0501709 0 0 0 0 450206238.64720154 -1421728707.3366756 0 -1421728707.3366756 -475075879.41967773 0 0 0 0 17573290.857179642 754458810.5413065 0 754458810.5413065 430574113.01876831 0 0 0 0 3100248048.7265625 636448388.42311096 0 636448388.42311096 -277976385.4233017 0 0 0 0 1913390919.907074 -1075363963.9603043 0 -1075363963.9603043 270645719.08437347 0 0 0 0 195732459.94692993 -820366670.49650574 0 -820366670.49650574 308902366.74916077 0 0 0 0 871142502.02355957 -1341255657.4951706 0 -1341255657.4951706 -19104111.160125732 0 0 0 0 561380406.11162567 -1212494490.6369476 0 -1212494490.6369476 480353647.52185059 0 0 0 0 -93088172.191268921 -763223447.46783447 0 -763223447.46783447 -183976134.8164444 0 0 0 0 811659042.57452393 -1615692026.3061218 0 -1615692026.3061218 484407587.06066513 0 0 0 0 666653944.67272949 -1504400808.6543541 0 -1504400808.6543541 3794050.4413452148 0 0 0 0 266879923.60343933 -534075874.36773682 0 -534075874.36773682 -487308332.53207397 0 0 0 0 1088202684.1425018 -1377876003.9848022 0 -1377876003.9848022 9098418.5798492432 0 0 0 0 1076987732.9841242 -1420767904.4910116 0 -1420767904.4910116 369743114.70285034 0 0 0 0 1584412518.297287 -1260019060.3232269 0 -1260019060.3232269 369542552.99067688 0 0 0 0 1560170114.075058 -1204434560.5700989 0 -1204434560.5700989 341099820.05300903 0 0 0 0 2388076732.213089 -1125266338.0765533 0 -1125266338.0765533 65051475.867721558 0 0 0 0 1964510957.2411957 -1258161094.2298279 0 -1258161094.2298279 23838840.898338318 0 0 0 0 2371954037.726799 -1414909268.1403084 0 -1414909268.1403084 -223722419.1652832 0 0 0 0 1749137009.6002121 -1592433281.5089493 0 -1592433281.5089493 -92505645.760543823 0 0 0 0 1554647688.2462082 -1215028059.3822098 0 -1215028059.3822098 3533199.1192626953 0 0 0 0 1978441348.2416382 -1783681904.3515167 0 -1783681904.3515167 241382611.33094788 0 0 0 0 2980231588.3304367 -1319864576.5846634 0 -1319864576.5846634 -208884422.81112671 0 0 0 0 4316616914.9320297 978507683.55007935 0 978507683.55007935 574979273.92523193 0 0 0 0 3834539642.6528931 -282091328.31928253 0 -282091328.31928253 550071883.23001647 0 0 0 0 3549090652.9623413 264957000.26144409 0 264957000.26144409 -155983912.99690247 0 0 0 0 2300467307.2268982 -580049405.90851593 0 -580049405.90851593 381657873.99372292 0 0 0 0 1525171404.3445129 374606499.34397888 0 374606499.34397888 1549372.8964538574 0 0 0 0 1998083626.9422607 393233201.24216461 0 393233201.24216461 470362604.9260745 0 0 0 0 1771215744.3083344 -402256090.0388031 0 -402256090.0388031 371370909.6432724 0 0 0 0 3330265704.0909424 84302158.594421387 0 84302158.594421387 444836059.02420044 0 0 0 0 7001464350.3031006 -189242497.81240845 0 -189242497.81240845 -572821857.9947052 0 0 0 0 3575149364.8418732 -695506067.21330261 0 -695506067.21330261 505476217.73780823 0 0 0 0 3704228.9736054111 -9045223.1704851687 0 -9045223.1704851687 -496200.54986301064 0 0 0 0 -307421071.01981354 28244228.96686554 0 28244228.96686554 455261693.17575836 0 0 0 0 3808564.037963625 -6420520.1119374298 0 -6420520.1119374298 -3271372.5783440396 0 0 0 0 -1985015618.4503708 -1814894241.5991707 0 -1814894241.5991707 341554103.23197937 0 0 0 0 -1502191050.5968933 -280848388.22341919 0 -280848388.22341919 212887939.35305786 0 0 0 0 153098489.60344696 5643334.1166954041 0 5643334.1166954041 -783067412.34573364 0 0 0 0 -189731908.72361755 -1136749736.2118454 0 -1136749736.2118454 -387844069.73398018 0 0 0 0 617570417.32657623 -124169247.40345001 0 -124169247.40345001 -488801088.55912781 0 0 0 0 1005386685.4699974 -877526969.6780138 0 -877526969.6780138 -507861504.82090759 0 0 0 0 703825683.15716553 -507093219.67740822 0 -507093219.67740822 -188248033.96672058 0 0 0 0 1237015978.2478409 -862386321.98170471 0 -862386321.98170471 -341116270.77672195 0 0 0 0 6942609.7117859162 -11111804.95832758 0 -11111804.95832758 -6219272.9664984941 0 0 0 0 700498152.76542664 -493373931.39763641 0 -493373931.39763641 -28941057.127857208 0 0 0 0 770324766.97724152 -441742353.30779648 0 -441742353.30779648 -219658789.96167755 0 0 0 0 777477805.23827362 -460902832.14696884 0 -460902832.14696884 -346739442.77262878 0 0 0 0 7426520.4670362649 -18605574.644510746 0 -18605574.644510746 1857357.3342627957 0 0 0 0 -899266009.32345581 -829928605.64831543 0 -829928605.64831543 489490937.63639832 0 0 0 0 3886516.0633001272 -5958812.0640556794 0 -5958812.0640556794 -3693955.6780093312 0 0 0 0 7291608.3077011108 349063696.25887299 0 349063696.25887299 247499095.89804077 0 0 0 0 3036112268.5240479 -550929253.16970825 0 -550929253.16970825 -158779723.22330093 0 0 0 0 3559896619.5124893 639718003.14257431 0 639718003.14257431 96985281.553146362 0 0 0 0 2319674817.9435883 -400114686.06135559 0 -400114686.06135559 87844786.12991333 0 0 0 0 4881390312.6193142 122819113.07053566 0 122819113.07053566 -551951181.50689697 0 0 0 0 2339982455.899826 -493686095.29340363 0 -493686095.29340363 -570197263.97428894 0 0 0 0 589844453.34334183 565988493.46062851 0 565988493.46062851 -793760251.42340088 0 0 0 0 1920380248.513504 -837638573.59858704 0 -837638573.59858704 -506986899.52849007 0 0 0 0 30004318.55593184 -27129797.676552162 0 -27129797.676552162 15401683.630861133 0 0 0 0 -1531122109.0058517 -1120396818.5908051 0 -1120396818.5908051 -1576354490.4244995 0 0 0 0 -800757381.85231781 -1182309864.1972046 0 -1182309864.1972046 -1605114615.5414734 0 0 0 0 -1170444900.4896393 -565811972.84439087 0 -565811972.84439087 -411607072.62962341 0 0 0 0 -1039197967.8353729 -1148237057.3095245 0 -1148237057.3095245 496266008.62374878 0 0 0 0 12398763.090981327 -9354274.7563137896 0 -9354274.7563137896 3939037.4885369539 0 0 0 0 -1206473342.7918797 -1936799280.5445981 0 -1936799280.5445981 1114849155.6085815 0 0 0 0 7324199764.1324081 3317109961.5289154 0 3317109961.5289154 -2429883313.357399 0 0 0 0 1966265498.7774963 -116459029.2254281 0 -116459029.2254281 -94376902.227966309 0 0 0 0 3190403240.1386032 1960179.9074325562 0 1960179.9074325562 -376790129.98395538 0 0 0 0 7813045.7248735614 -20575280.933633868 0 -20575280.933633868 10714450.338699907 0 0 0 0 3752665660.2939873 -215544212.35811615 0 -215544212.35811615 -630800257.07672119 0 0 0 0 2029692858.8072968 -5791087.4442825317 0 -5791087.4442825317 -519461714.9394455 0 0 0 0 824172830.18729019 -1025438620.4659691 0 -1025438620.4659691 -288611418.16815186 0 0 0 0 2361310361.4773178 -168623368.46497726 0 -168623368.46497726 87735325.047393799 0 0 0 0 -1182822007.1622925 -1794957064.2205124 0 -1794957064.2205124 7560754752.6740723 0 0 0 0 3086968861.9115067 -458224195.01198578 0 -458224195.01198578 34553774.401687622 0 0 0 0 5869949991.3194733 -2989837217.6549759 0 -2989837217.6549759 -1907215677.625 0 0 0 0 5617542.5582586974 -14914476.051670182 0 -14914476.051670182 16888720.879934043 0 0 0 0 3402169705.59729 -177440667.73987579 0 -177440667.73987579 259500718.43177795 0 0 0 0 3416502034.9501715 -1691533571.4343379 0 -1691533571.4343379 540621223.67706299 0 0 0 0 7891024343.5536804 -863773721.73763275 0 -863773721.73763275 -194441168.90875244 0 0 0 0 2415506384.5647278 -1410581344.0805359 0 -1410581344.0805359 1234393738.3189545 0 0 0 0 2388079.6723486083 -4910255.4669648185 0 -4910255.4669648185 8309319.14786686 0 0 0 0 -4015550.068862915 414102993.21999359 0 414102993.21999359 -1467261879.5983582 0 0 0 0 -1013454591.6972771 140122826.78427124 0 140122826.78427124 452522285.56390381 0 0 0 0 1570262299.2889023 -1223481224.1825104 0 -1223481224.1825104 13400549.027618408 0 0 0 0 679796948.17939758 -1711601598.7385864 0 -1711601598.7385864 -263502326.15314484 0 0 0 0 1574664322.191658 -1224087009.0170898 0 -1224087009.0170898 -89071954.486457825 0 0 0 0 705743870.23271942 -1545269164.5353851 0 -1545269164.5353851 251087525.89855957 0 0 0 0 -384616408.65740967 -1276703873.0106812 0 -1276703873.0106812 261325279.41503429 0 0 0 0 -34693735.9966259 -1509953720.824276 0 -1509953720.824276 335018933.97799683 0 0 0 0 -402322683.43621063 -2282969362.2886314 0 -2282969362.2886314 491194866.78005981 0 0 0 0 2665480919.646698 -1096293717.7906189 0 -1096293717.7906189 -2771867350.5891037 0 0 0 0 1012228361.3518066 -3515821489.2007294 0 -3515821489.2007294 1497834888.3929214 0 0 0 0 2221249650.4611893 -2625729189.5952911 0 -2625729189.5952911 170718278.47647095 0 0 0 0 1394910344.4143753 -949530540.93412018 0 -949530540.93412018 422544794.37319946 0 0 0 0 1450900705.9298019 -1082950758.2171249 0 -1082950758.2171249 444506951.42298889 0 0 0 0 1500087456.6496887 -968066510.43592834 0 -968066510.43592834 596839891.28921509 0 0 0 0 1744468552.6418991 -1133835195.4177399 0 -1133835195.4177399 367811870.28570557 0 0 0 0 1335003232.3328857 -1354424421.3676147 0 -1354424421.3676147 421050424.00698853 0 0 0 0 1409440159.130661 -1102024926.4410248 0 -1102024926.4410248 646632294.49539185 0 0 0 0 1369577291.8768234 -1220281550.2072983 0 -1220281550.2072983 531792629.465271 0 0 0 0 1335996632.1645508 -1206448932.3453445 0 -1206448932.3453445 609137765.18539429 0 0 0 0 953674576.10488129 -1269088741.4454498 0 -1269088741.4454498 615927798.90620422 0 0 0 0 966311118.22788048 -1325328112.1281538 0 -1325328112.1281538 633738613.86004639 0 0 0 0 913408367.87863159 -1336819856.1362762 0 -1336819856.1362762 645730131.65281677 0 0 0 0 884533303.5714798 -1317020719.8496933 0 -1317020719.8496933 706231456.7833252 0 0 0 0 838446680.99760437 -1115553881.5541382 0 -1115553881.5541382 594966635.99569702 0 0 0 0 873806242.90439606 -1276910515.3153534 0 -1276910515.3153534 662138221.58511353 0 0 0 0 1084652562.5113525 -1481142049.4545288 0 -1481142049.4545288 699907972.70252991 0 0 0 0 850066977.23623657 -1317635914.9931641 0 -1317635914.9931641 736936796.04245186 0 0 0 0 975536959.01165771 -1425864083.4971313 0 -1425864083.4971313 749934519.67000008 0 0 0 0 1055811680.559433 -1361963355.278595 0 -1361963355.278595 521432704.10925293 0 0 0 0 975368477.55853462 -1210594044.8262234 0 -1210594044.8262234 568759757.00369263 0 0 0 0 1251870598.7781906 -1222394545.6094589 0 -1222394545.6094589 567454022.50854492 0 0 0 0 1752298517.9738922 -1330642841.2843704 0 -1330642841.2843704 508143262.68978882 0 0 0 0 1600769954.8055725 -1087557137.0985756 0 -1087557137.0985756 407261108.91650391 0 0 0 0 1845466603.7462502 -1992656954.1202488 0 -1992656954.1202488 958224199.06466675 0 0 0 0 2282622201.1249619 -956221082.51287842 0 -956221082.51287842 418995835.33302689 0 0 0 0 2375905721.8968582 -1615670767.404007 0 -1615670767.404007 722035398.56447983 0 0 0 0 688294638.75414991 -1749243435.8823414 0 -1749243435.8823414 1576033824.0033569 0 0 0 0 617884571.50443268 -904727603.52957916 0 -904727603.52957916 533317088.36888885 0 0 0 0 515513471.88682175 -1604675796.8799133 0 -1604675796.8799133 1140451715.2516937 0 0 0 0 1135536133.1036301 -1313180132.1792908 0 -1313180132.1792908 608456878.74742126 0 0 0 0 203171933.08054352 -864557802.24433136 0 -864557802.24433136 506427093.37805939 0 0 0 0 473565379.4777298 -1233567507.84198 0 -1233567507.84198 815064190.35888672 0 0 0 0 -383551388.82135773 79555356.244308472 0 79555356.244308472 -258913250.43340302 0 0 0 0 73420400.197975159 -969447855.64875793 0 -969447855.64875793 460024283.44934082 0 0 0 0 3250088.6428070068 -353377942.96799469 0 -353377942.96799469 -355106172.9899826 0 0 0 0 -6416870.7963821162 -8460500.1498900875 0 -8460500.1498900875 3615430.7045125961 0 0 0 0 -276889449.43857384 -486075228.55727768 0 -486075228.55727768 552824081.25547791 0 0 0 0 -176520934.25204468 379406852.76328278 0 379406852.76328278 -204492941.35916138 0 0 0 0 513728019.36694384 -537321652.78487206 0 -537321652.78487206 243977022.45762634 0 0 0 0 59377561.301757812 -51210794.179878235 0 -51210794.179878235 -11537271.998908997 0 0 0 0 1948539.8870498575 3554376.2608908117 0 3554376.2608908117 -1995571.8831438124 0 0 0 0 2442013.2033607811 -4486640.154958874 0 -4486640.154958874 -5234658.0157546699 0 0 0 0 76031581.293233871 14151286.054750443 0 14151286.054750443 12756888.824249268 0 0 0 0 -455823527.11192322 662795258.17173004 0 662795258.17173004 586432874.12500763 0 0 0 0 3449996.3344351724 -11569667.40705768 0 -11569667.40705768 -9394095.1311056912 0 0 0 0 -4955635.6947936267 -5373397.8848774508 0 -5373397.8848774508 3027099.668117255 0 0 0 0 -2008462584.2458496 362795918.86058807 0 362795918.86058807 710634864.93530273 0 0 0 0 -1652299.6841888428 -402097274.96185303 0 -402097274.96185303 -780662531.02371216 0 0 0 0 -1212341193.4699478 -701006340.58210754 0 -701006340.58210754 279606758.73660278 0 0 0 0 -743668530.29040527 714523894.6414032 0 714523894.6414032 1231356377.3598175 0 0 0 0 -880184334.63076019 672325070.58348083 0 672325070.58348083 -757292133.65140533 0 0 0 0 -770246753.40100861 -731941347.842453 0 -731941347.842453 449608441.88642883 0 0 0 0 -360386512.82929993 -127459876.79353333 0 -127459876.79353333 497472127.0133667 0 0 0 0 -428167987.02865744 -1061438048.0993595 0 -1061438048.0993595 1094260939.4418335 0 0 0 0 -79938850.363927841 -1145138846.9780903 0 -1145138846.9780903 1429264630.520874 0 0 0 0 1358145496.7581787 -807623602.85865784 0 -807623602.85865784 1137113758.3924942 0 0 0 0 885176514.33942413 -30086291.759994507 0 -30086291.759994507 330530897.32315063 0 0 0 0 1201052342.0603857 -1161019688.6184177 0 -1161019688.6184177 2241271303.8021545 0 0 0 0 642286538.16018772 -1082673100.1897888 0 -1082673100.1897888 216884210.68655396 0 0 0 0 282376574.13074875 87555001.381235123 0 87555001.381235123 -261982958.09912109 0 0 0 0 553454768.692379 -244426732.13164139 0 -244426732.13164139 -147877539.20646667 0 0 0 0 137724382.26328278 -866929462.56728745 0 -866929462.56728745 -419457955.94303894 0 0 0 0 -1932880269.7146606 -792339753.84236145 0 -792339753.84236145 -1127402.7670440674 0 0 0 0 -2081688456.5664902 -974218047.56518555 0 -974218047.56518555 73266521.910652161 0 0 0 0 -3464172083.2823982 942982223.61615372 0 942982223.61615372 544106923.78018188 0 0 0 0 -1871374.2875673622 -1520487.857587114 0 -1520487.857587114 1036242.4163657874 0 0 0 0 122476559.14865875 -334889164.73472595 0 -334889164.73472595 -1291653623.5238953 0 0 0 0 53635911.256160736 -69081594.227882385 0 -69081594.227882385 -642.79405212402344 0 0 0 0 -2877132821.6409454 -327753535.35601807 0 -327753535.35601807 1709563777.2791138 0 0 0 0 2503216.226371849 -591842.1605694145 0 -591842.1605694145 -2126872.4477969557 0 0 0 0 2146417.9238665141 3916638.2491034046 0 3916638.2491034046 -2103111.0907557756 0 0 0 0 98032933.111763 -21927120.757156372 0 -21927120.757156372 -3176826.9765014648 0 0 0 0 3199763.2722549438 -5234143.4332962036 0 -5234143.4332962036 18507177.537628174 0 0 0 0 45535599.103412628 -26945788.090835571 0 -26945788.090835571 15023729.355804443 0 0 0 0 2400300972.6173096 -2505168815.7873688 0 -2505168815.7873688 1193121442.0139999 0 0 0 0 978307301.55695724 -1322153788.7152023 0 -1322153788.7152023 965275779.61807251 0 0 0 0 920508131.76619434 -960944946.46334171 0 -960944946.46334171 612621920.99481201 0 0 0 0 812494647.90241623 -1329691866.3937149 0 -1329691866.3937149 340409978.44085693 0 0 0 0 776524608.08043289 -1864529356.5966392 0 -1864529356.5966392 1858979137.9326172 0 0 0 0 -718784612.4746933 -349054567.65270996 0 -349054567.65270996 1180854446.8811188 0 0 0 0 5753072203.856823 -3025545248.9677582 0 -3025545248.9677582 970198504.95661926 0 0 0 0 2729284659.7144718 -2795115222.7366791 0 -2795115222.7366791 2375841966.3575592 0 0 0 0 2827568643.9750137 -319030964.07268524 0 -319030964.07268524 418386132.48207855 0 0 0 0 3715354928.7400513 -1798489405.1324825 0 -1798489405.1324825 -72831294.253997803 0 0 0 0 2101845293.3259239 -1306965995.1334686 0 -1306965995.1334686 -702758.30961608887 0 0 0 0 2161825045.9189987 -1280276893.3612747 0 -1280276893.3612747 -123404656.87059021 0 0 0 0 2235153997.760582 -1377533422.2016258 0 -1377533422.2016258 -150506.41075134277 0 0 0 0 1267845773.0966263 -1467475346.0328293 0 -1467475346.0328293 474225492.05665588 0 0 0 0 1437630478.6384125 -1070762172.0137024 0 -1070762172.0137024 599177.85455322266 0 0 0 0 1868689136.472559 -1548890487.7724571 0 -1548890487.7724571 481334834.24830627 0 0 0 0 1288197891.1837387 -1165172985.5149536 0 -1165172985.5149536 351641713.21546936 0 0 0 0 1005657722.524477 -848922134.13657379 0 -848922134.13657379 119984.22972106934 0 0 0 0 948435756.12260818 -1120173069.743988 0 -1120173069.743988 535522873.25660706 0 0 0 0 1175512045.8964157 -801908354.89464569 0 -801908354.89464569 511723633.99689102 0 0 0 0 528927289.07045174 -580065466.22549438 0 -580065466.22549438 318463.59594726562 0 0 0 0 802849187.94815254 -893719473.61761093 0 -893719473.61761093 359382098.08995056 0 0 0 0 304515839.05821609 -713259258.06968689 0 -713259258.06968689 381596798.6654377 0 0 0 0 406634438.25153542 -595811102.16276932 0 -595811102.16276932 513970953.4753418 0 0 0 0 1995526.2275701463 -78385.303345791996 0 -78385.303345791996 -2223840.1755833179 0 0 0 0 -256180679.05141449 -232035158.94548035 0 -232035158.94548035 418891002.18798828 0 0 0 0 32249484.61491394 -852090515.3995533 0 -852090515.3995533 757286548.67887878 0 0 0 0 -319082014.65811539 -191666557.1206665 0 -191666557.1206665 115906843.9780426 0 0 0 0 66731938.214323044 -181835135.89392853 0 -181835135.89392853 -233306115.61148071 0 0 0 0 69668717.413936615 -136995631.92762756 0 -136995631.92762756 -380461916.21102905 0 0 0 0 369526235.63601494 -400431196.5539856 0 -400431196.5539856 -347585617.1131897 0 0 0 0 935704317.40906525 -982279803.19902802 0 -982279803.19902802 965803513.67289734 0 0 0 0 -1477784.6447405443 -710575.10436873883 0 -710575.10436873883 3135183.2100621462 0 0 0 0 1128750604.2841072 -841898142.58976746 0 -841898142.58976746 139498498.76608276 0 0 0 0 861789775.96128082 -194377229.7677269 0 -194377229.7677269 -130952780.3855896 0 0 0 0 943626088.65798664 -1006732803.3315487 0 -1006732803.3315487 183031517.83282471 0 0 0 0 930755028.38552094 -1235645221.6258011 0 -1235645221.6258011 671506331.08493042 0 0 0 0 507447700.77108765 -1062862481.841217 0 -1062862481.841217 201399062.13398743 0 0 0 0 242637381.40965271 -876940208.99493408 0 -876940208.99493408 82869180.901992798 0 0 0 0 -82601525.195350647 -886814350.47142029 0 -886814350.47142029 209783122.40538025 0 0 0 0 -116680890.26620483 -750432224.34172058 0 -750432224.34172058 47739155.484222412 0 0 0 0 -625027388.86309814 -451696082.69857788 0 -451696082.69857788 71546238.29045105 0 0 0 0 -608033295.72166443 61658539.641784668 0 61658539.641784668 55804519.799453735 0 0 0 0 -122168882.51376438 -337231552.68513823 0 -337231552.68513823 45842401.231811523 0 0 0 0 -101828348.0474205 -35007957.87521553 0 -35007957.87521553 46066246.750793457 0 0 0 0 -53065399.424003601 -395066933.71592712 0 -395066933.71592712 90448194.323532104 0 0 0 0 524329833.12294483 -375241026.48299074 0 -375241026.48299074 -175234983.34143066 0 0 0 0 -367536404.75533473 -70748268.227760315 0 -70748268.227760315 57807080.015594482 0 0 0 0 -2364681.9641953725 -2633706.8585997447 0 -2633706.8585997447 5700179.0246463567 0 0 0 0 -358409437.80921936 50577440.106155396 0 50577440.106155396 132972031.73473358 0 0 0 0 -20482738.57576108 -35536246.455751657 0 -35536246.455751657 -273435436.7197876 0 0 0 0 -17261553.756999969 -131132208.41013336 0 -131132208.41013336 -250672830.09720993 0 0 0 0 -336738532.00023651 8075742.0094451904 0 8075742.0094451904 -35610024.544158936 0 0 0 0 -222597486.33870697 -20059979.084487915 0 -20059979.084487915 -38920856.214288712 0 0 0 0 -332580685.04652405 -43157493.155059814 0 -43157493.155059814 79359147.724731445 0 0 0 0 -352751768.72855568 125231077.68064117 0 125231077.68064117 -31320257.94744873 0 0 0 0 -1378861888.8439178 149261424.21282959 0 149261424.21282959 -21428127.908569336 0 0 0 0 919626.06261878647 -1016215.8660710901 0 -1016215.8660710901 -1898819.9374877661 0 0 0 0 3794069.6071660519 36404177.210946083 0 36404177.210946083 757605148.0335083 0 0 0 0 -931854.41665533837 -871072.22440446913 0 -871072.22440446913 1873706.3288202435 0 0 0 0 1472166.6276785806 -2820092.6483636424 0 -2820092.6483636424 -3704673.2169472873 0 0 0 0 7335349.0163383484 54932325.28704834 0 54932325.28704834 372502626.41854858 0 0 0 0 -12369872.282802582 -442097073.73413086 0 -442097073.73413086 616009009.50876617 0 0 0 0 729618268.42640495 -796430433.9810791 0 -796430433.9810791 790498016.39691162 0 0 0 0 227553380.82629585 -224427597.20289612 0 -224427597.20289612 166856826.4677124 0 0 0 0 81395931.670951843 -808618506.7290802 0 -808618506.7290802 -398950838.46548462 0 0 0 0 477989690.37371445 -720681513.98228455 0 -720681513.98228455 -76715715.477661133 0 0 0 0 -284877071.21606445 -691248275.81967926 0 -691248275.81967926 379148895.57467651 0 0 0 0 1625299.6973590851 -864894086.80359268 0 -864894086.80359268 -554507067.6184082 0 0 0 0 179960995.56570435 -430403616.01770782 0 -430403616.01770782 -144504181.36178589 0 0 0 0 -726417954.63911819 -966942176.61331177 0 -966942176.61331177 -367218145.41461182 0 0 0 0 -245564004.61227417 -1027482812.9747314 0 -1027482812.9747314 -320881408.75894165 0 0 0 0 -316509662.6435051 -838628805.60676575 0 -838628805.60676575 -724850583.41680908 0 0 0 0 -3255407.9751159847 -2222351.1621010602 0 -2222351.1621010602 1544735.1059914976 0 0 0 0 -544888882.39963198 11813458.475133896 0 11813458.475133896 -764970925.47470093 0 0 0 0 -748922928.147789 -76220912.372406006 0 -76220912.372406006 31687707.902557373 0 0 0 0 -1249384145.7080917 -602455095.30384827 0 -602455095.30384827 -452678320.27490234 0 0 0 0 -537807321.25183868 -650019729.02520752 0 -650019729.02520752 -486760890.70411682 0 0 0 0 -755239299.95540619 -412788230.70265198 0 -412788230.70265198 -237164247.22857666 0 0 0 0 -604973306.43547821 -738379020.229599 0 -738379020.229599 126210815.35197449 0 0 0 0 -388940536.86369896 -392789194.12926865 0 -392789194.12926865 -195817645.35733032 0 0 0 0 -965138267.35657501 -735108539.65298462 0 -735108539.65298462 -611233593.18648911 0 0 0 0 -766945520.28118134 -449584424.75298309 0 -449584424.75298309 -204282343.53540039 0 0 0 0 -24602328.699867249 -56391178.229183197 0 -56391178.229183197 139836205.33364868 0 0 0 0 -46573782.1263237 -129079132.44943237 0 -129079132.44943237 351286889.2598877 0 0 0 0 27614493.655982971 -186293197.18093872 0 -186293197.18093872 252295883.26599121 0 0 0 0 1447266.3704910278 -112936864.57542419 0 -112936864.57542419 209733874.58517456 0 0 0 0 1855499.6975898743 -74734363.330352783 0 -74734363.330352783 92380617.789871216 0 0 0 0 23583005.163149238 -63999196.483242989 0 -63999196.483242989 45127317.765197754 0 0 0 0 20497807.764917135 -91360693.186000824 0 -91360693.186000824 106498207.30300903 0 0 0 0 -12196597.51497823 -25056272.686498642 0 -25056272.686498642 67735031.500183105 0 0 0 0 -9798896.1530971527 -46668200.84375 0 -46668200.84375 126711686.33929443 0 0 0 0 -6817541.7970389035 -8315270.7604541779 0 -8315270.7604541779 -2511848.4996919036 0 0 0 0 -5342752.0055844784 -2231350.8554458618 0 -2231350.8554458618 50004338.600708008 0 0 0 0 -28466029.261073589 -3138628.2121810913 0 -3138628.2121810913 87642273.207763672 0 0 0 0 -3175017.5898151398 44070986.934364319 0 44070986.934364319 -19540601.717041016 0 0 0 0 66096.69478808064 -6713596.5276880488 0 -6713596.5276880488 -1094100.4831681903 0 0 0 0 -9510838.2511253357 -41335039.372161865 0 -41335039.372161865 4179326.4942016602 0 0 0 0 -24252287.161372185 -35676212.005706787 0 -35676212.005706787 153913534.03233337 0 0 0 0 86044534.02466011 81068662.637794495 0 81068662.637794495 57308029.919464111 0 0 0 0 -199613274.14134979 104411797.45773315 0 104411797.45773315 293744042.5289917 0 0 0 0 -225937811.98742676 -121228043.64396667 0 -121228043.64396667 477200691.02185059 0 0 0 0 772091861.61360168 -30161366.172424316 0 -30161366.172424316 236266013.47650146 0 0 0 0 549056317.87043762 -48075068.852386475 0 -48075068.852386475 54837805.6745224 0 0 0 0 361624989.72859383 -216365444.75073242 0 -216365444.75073242 159306896.61026001 0 0 0 0 218581.01669012569 -2392414.1096162274 0 -2392414.1096162274 -213579.63886371627 0 0 0 0 956408934.45281458 116236640.80722427 0 116236640.80722427 351872578.73242188 0 0 0 0 1039931515.7965965 -359958761.31797028 0 -359958761.31797028 109045639.04324341 0 0 0 0 433766635.33390427 27519799.666625977 0 27519799.666625977 818417341.12799072 0 0 0 0 406024645.17469788 -608177965.58850098 0 -608177965.58850098 825524826.77766633 0 0 0 0 -97440763.444250107 -153658801.48031616 0 -153658801.48031616 510713643.05529785 0 0 0 0 -10658876.536388397 -109096085.05206299 0 -109096085.05206299 276789161.05566788 0 0 0 0 106862371.07565308 -167640646.40383911 0 -167640646.40383911 406007845.83688354 0 0 0 0 80140531.207344055 -269185174.38870239 0 -269185174.38870239 571187063.66975403 0 0 0 0 240294298.76230621 -319800486.07634735 0 -319800486.07634735 324355085.24285889 0 0 0 0 110141489.91270447 -345669989.34002686 0 -345669989.34002686 460868887.03450775 0 0 0 0 164730287.15475273 -278163422.22702789 0 -278163422.22702789 198234941.58508301 0 0 0 0 173654368.09828281 -409811087.62091064 0 -409811087.62091064 222578885.42355347 0 0 0 0 253249259.93230438 -406703456.28040314 0 -406703456.28040314 357886827.69250488 0 0 0 0 441679495.9205246 -135211269.19009399 0 -135211269.19009399 57071646.55273819 0 0 0 0 556713923.38968658 -406164112.20848846 0 -406164112.20848846 170287809.96308899 0 0 0 0 3205716.6890902007 -3044637.4499816298 0 -3044637.4499816298 -4276656.6141602099 0 0 0 0 196432605.57332993 -32756195.635238647 0 -32756195.635238647 -302643195.158638 0 0 0 0 344609000.1058712 -321873996.97729492 0 -321873996.97729492 163199555.31842041 0 0 0 0 284539533.65945244 -601740346.47392273 0 -601740346.47392273 159084834.55628538 0 0 0 0 1687196.5290387934 -1009550.0646960735 0 -1009550.0646960735 -2180232.6899154782 0 0 0 0 326336053.65401649 -540407261.45683289 0 -540407261.45683289 -373697582.34263611 0 0 0 0 149749299.21297455 -313301449.6265564 0 -313301449.6265564 3543224.398223877 0 0 0 0 297262074.29675865 -279513615.47003174 0 -279513615.47003174 -260232073.88146973 0 0 0 0 229633053.05982113 -386584201.25688171 0 -386584201.25688171 11330573.876480103 0 0 0 0 154677586.06786537 -272366575.02166748 0 -272366575.02166748 92943306.020927429 0 0 0 0 59797954.496828079 -183070603.40788269 0 -183070603.40788269 107184148.60656738 0 0 0 0 49894220.670435429 -198805422.4019599 0 -198805422.4019599 139245687.73245239 0 0 0 0 46580582.132520676 -262148328.23950195 0 -262148328.23950195 295294817.06945801 0 0 0 0 77107620.546426773 -151822123.70013428 0 -151822123.70013428 55498042.140762329 0 0 0 0 124316704.01111603 -201089478.02709961 0 -201089478.02709961 -51728673.469604492 0 0 0 0 75654418.597975731 -140039646.62805176 0 -140039646.62805176 39113644.046325684 0 0 0 0 172788553.51290703 -175114600.37301636 0 -175114600.37301636 -72700667.154876709 0 0 0 0 275769296.55918777 -169466260.11011791 0 -169466260.11011791 -119024699.00421143 0 0 0 0 341793512.13192177 -113179767.71461487 0 -113179767.71461487 -175207529.80929565 0 0 0 0 391345682.953619 -58321606.585784912 0 -58321606.585784912 -134637371.64866638 0 0 0 0 392240817.61554432 -209563171.56206894 0 -209563171.56206894 -232834880.56365967 0 0 0 0 389046879.0679245 -136843999.72310257 0 -136843999.72310257 -751086744.75012207 0 0 0 0 415177517.5760479 -99303866.826370239 0 -99303866.826370239 -349333433.84637451 0 0 0 0 231581169.65598679 5119863.4876098633 0 5119863.4876098633 -108714791.72987366 0 0 0 0 402181857.42768478 -150247000.04081726 0 -150247000.04081726 32596099.00994873 0 0 0 0 458496201.04527187 22421477.878860474 0 22421477.878860474 -86124702.866851807 0 0 0 0 521771165.67591977 122873353.6348033 0 122873353.6348033 -50610552.145690918 0 0 0 0 506009021.96189117 -41255316.245716095 0 -41255316.245716095 -5021149.8648376465 0 0 0 0 354798747.30187058 86792750.147514343 0 86792750.147514343 7450214.6246032715 0 0 0 0 465875683.70120239 -61515310.787689209 0 -61515310.787689209 -149838846.4994812 0 0 0 0 -7586224.7223615646 376269991.23509216 0 376269991.23509216 -820309832.24591064 0 0 0 0 164881382.61722946 -403631855.84927368 0 -403631855.84927368 -686246778.94277573 0 0 0 0 -70126618.658843994 41812589.873336792 0 41812589.873336792 -152059277.56086731 0 0 0 0 208092316.44020355 -189622735.14658165 0 -189622735.14658165 29608321.562133789 0 0 0 0 240095432.69129944 -141024085.14390564 0 -141024085.14390564 54620684.018859863 0 0 0 0 231469989.02699995 -538741.73267555237 0 -538741.73267555237 62836222.98600769 0 0 0 0 320020082.40892315 -455014014.27530289 0 -455014014.27530289 319931586.91383362 0 0 0 0 279413331.99401665 -473908911.219841 0 -473908911.219841 192071699.61834526 0 0 0 0 3628894.5334437797 -267396.02730190754 0 -267396.02730190754 -3878534.4246837199 0 0 0 0 157882400.22407341 -166417061.64303589 0 -166417061.64303589 260711577.02822876 0 0 0 0 4205056.4370686784 -43072.921256437898 0 -43072.921256437898 -3779755.4259274006 0 0 0 0 493135400.2408905 -360177538.28990936 0 -360177538.28990936 534980.58639526367 0 0 0 0 184980038.69713211 -252082864.89909363 0 -252082864.89909363 331534742.67063141 0 0 0 0 509874685.81576538 -475711610.48491669 0 -475711610.48491669 321458296.51673508 0 0 0 0 447047596.98237538 120829048.74001312 0 120829048.74001312 39196661.642623901 0 0 0 0 680525579.39928627 -44757929.064361572 0 -44757929.064361572 181357112.55836964 0 0 0 0 1089945165.9363031 52994815.90272522 0 52994815.90272522 108930660.19684601 0 0 0 0 920068143.85906792 108213626.91525269 0 108213626.91525269 187426035.38179398 0 0 0 0 805697146.47771931 462955811.98016357 0 462955811.98016357 89252735.807487488 0 0 0 0 265084.53869132535 -371326.09287585318 0 -371326.09287585318 -138717.00778831542 0 0 0 0 695349500.14843273 14525309.726898193 0 14525309.726898193 5249103.3329467773 0 0 0 0 394442542.19730759 -117035087.17832947 0 -117035087.17832947 69360326.039825439 0 0 0 0 310546307.19030762 -260279685.63842773 0 -260279685.63842773 249645728.2194519 0 0 0 0 553880323.03469992 -258991598.09646988 0 -258991598.09646988 136445360.52780151 0 0 0 0 927201225.58261681 -198279315.24438477 0 -198279315.24438477 132646939.29811478 0 0 0 0 988568878.53735352 -450543255.04109192 0 -450543255.04109192 590668.3713149057 0 0 0 0 188797130.58897877 -242637264.90448952 0 -242637264.90448952 280894531.11743164 0 0 0 0 367113784.2363596 -427159408.88233185 0 -427159408.88233185 203186063.06747437 0 0 0 0 1498968702.1013985 71366367.825462341 0 71366367.825462341 -79450071.478607178 0 0 0 0 -4495475.9055706346 1708584.3815123439 0 1708584.3815123439 2704159.7908997983 0 0 0 0 -5010021.5118947029 -5958358.4527740479 0 -5958358.4527740479 -2378.4846343994141 0 0 0 0 -1117388.4419116974 -3761380.7959976196 0 -3761380.7959976196 444932.96272277832 0 0 0 0 385036.23067374714 -4396722.763230972 0 -4396722.763230972 -1000900.6670216061 0 0 0 0 -10222978.90426302 -4167351.9138259888 0 -4167351.9138259888 9745092.4748306274 0 0 0 0 -19339479.296795845 15389906.734962463 0 15389906.734962463 -7685780.3615722656 0 0 0 0 -25735986.501838923 -1584530.9775924683 0 -1584530.9775924683 31130209.380401611 0 0 0 0 1727073.5557842255 -5579788.1748733521 0 -5579788.1748733521 14119.158493041992 0 0 0 0 2284739.0239524841 43893495.964401245 0 43893495.964401245 -42501284.420700073 0 0 0 0 937895.62937736232 -3924496.5654598475 0 -3924496.5654598475 -1314085.280102808 0 0 0 0 2777819.3327579498 -3110071.5201721191 0 -3110071.5201721191 3296469.100692749 0 0 0 0 4219195.3074531555 -993597.64532470703 0 -993597.64532470703 -42271.820877075195 0 0 0 0 -23151673.804679871 -42313269.703857422 0 -42313269.703857422 34312893.058135986 0 0 0 0 -41250686.205844879 2520335.833190918 0 2520335.833190918 82828336.058349609 0 0 0 0 -54377.572023425251 -608292.79331412911 0 -608292.79331412911 186379.05210304074 0 0 0 0 30277307.776924133 -13347084.179260254 0 -13347084.179260254 46665088.065925598 0 0 0 0 71369792.757564545 -23889711.063949585 0 -23889711.063949585 -10853331.814071655 0 0 0 0 20073767.830171585 -28139569.269760132 0 -28139569.269760132 18443524.770690918 0 0 0 0 21896171.324747086 5857928.7269668579 0 5857928.7269668579 -3129208.0883560181 0 0 0 0 9392833.5491957292 -17823.084045231342 0 -17823.084045231342 -4285521.3230075836 0 0 0 0 15325081.040213704 -4188688.8139057159 0 -4188688.8139057159 302391.78561401367 0 0 0 0 16837002.956822872 -5512775.6885910034 0 -5512775.6885910034 1371321.1371459961 0 0 0 0 -6459282.6975646019 -6004925.2613525391 0 -6004925.2613525391 2301005.8841552734 0 0 0 0 7078772.5460030967 -18175.150359921157 0 -18175.150359921157 -3484129.2490409315 0 0 0 0 1501720.6905212402 -8948500.9381561279 0 -8948500.9381561279 3105264.5542526245 0 0 0 0 -886352.32991644961 -946735.16480720416 0 -946735.16480720416 3588534.0015643239 0 0 0 0 207248953.22658753 -5080032.5191345215 0 -5080032.5191345215 -38890440.558502197 0 0 0 0 184378794.89194518 -35238727.175964355 0 -35238727.175964355 -37995154.729187012 0 0 0 0 -763740.15111089067 554291.64977535978 0 554291.64977535978 3227464.534763664 0 0 0 0 -49806590.200424194 31647647.568237305 0 31647647.568237305 41237240.112870216 0 0 0 0 -165416384.32234573 -56950219.559516907 0 -56950219.559516907 18007642.582275391 0 0 0 0 -62548375.101860046 -23886725.520256042 0 -23886725.520256042 26132647.611938477 0 0 0 0 -54001707.401519775 -27451846.832801819 0 -27451846.832801819 45389.537231445312 0 0 0 0 -48071491.327732086 -22083940.856460571 0 -22083940.856460571 4182450.3787994385 0 0 0 0 -53268958.73704052 -30216115.863050461 0 -30216115.863050461 8182239.1838378906 0 0 0 0 -79847823.26789093 -43106054.715087891 0 -43106054.715087891 6745912.747964859 0 0 0 0 -48114153.353912354 -33169253.088874817 0 -33169253.088874817 -11283.66731262207 0 0 0 0 -13399003.5272789 -18189187.107460022 0 -18189187.107460022 -9290687.6609802246 0 0 0 0 -53920580.54958725 -49600455.77911377 0 -49600455.77911377 -10847643.742401123 0 0 0 0 -37217749.32730484 -61857279.892807007 0 -61857279.892807007 -63582917.764648438 0 0 0 0 -20155741.577209473 -17672743.578720093 0 -17672743.578720093 -3468366.2523536682 0 0 0 0 -9003668.9723682404 -4422446.1770515442 0 -4422446.1770515442 -2345670.1406555176 0 0 0 0 6051911.5172119141 -9236365.8880615234 0 -9236365.8880615234 -1561973.497253418 0 0 0 0 692796.65636781882 113003.0448700618 0 113003.0448700618 -285861.80607122183 0 0 0 0 -29854994.753173828 -45649890.363769531 0 -45649890.363769531 60655.734191894531 0 0 0 0 -72793319.286951065 -11121866.00553894 0 -11121866.00553894 -2969252.1369171143 0 0 0 0 5307130.988366466 -700515.01711076871 0 -700515.01711076871 -4106675.6906679571 0 0 0 0 -35153428.216739655 -135505174.45504761 0 -135505174.45504761 -26687670.802711487 0 0 0 0 730799.48254966363 -2182965.1152048633 0 -2182965.1152048633 -835532.68099685758 0 0 0 0 53062335.134529114 44385988.402816772 0 44385988.402816772 39594682.968078613 0 0 0 0 50104416.534276962 -17372449.860931396 0 -17372449.860931396 -63455435.724090576 0 0 0 0 -2327659.5973052979 -11719845.669769287 0 -11719845.669769287 -9474002.9196014404 0 0 0 0 5918748.9674033336 -841003.42982439324 0 -841003.42982439324 -4134638.1871003211 0 0 0 0 -3367629.8653392792 -2322914.1532287598 0 -2322914.1532287598 1884005.6005859375 0 0 0 0 20391017.736442566 -54763648.482753754 0 -54763648.482753754 20390210.354980469 0 0 0 0 5674347.0686502066 -5803698.9912001491 0 -5803698.9912001491 661383.24322260916 0 0 0 0 13490155.223137856 -6945024.9326934814 0 -6945024.9326934814 1386985.0691833496 0 0 0 0 14053211.195157528 -7772333.4390659332 0 -7772333.4390659332 2401538.974609375 0 0 0 0 25510662.219875336 -40448666.056808472 0 -40448666.056808472 -38755912.784576416 0 0 0 0 -304808.84934997559 11253887.810829163 0 11253887.810829163 -2125680.4678649902 0 0 0 0 -1035307.5657365415 -1708710.2815577462 0 -1708710.2815577462 -588729.29834331572 0 0 0 0 -14296358.3595047 -16432090.40435791 0 -16432090.40435791 72472215.216537476 0 0 0 0 -2919352.7116576731 -4783123.5094470307 0 -4783123.5094470307 1864998.6531879213 0 0 0 0 -44748160.069292068 -80367572.63105011 0 -80367572.63105011 -55476641.139770508 0 0 0 0 -10824131.645362854 49693243.610824585 0 49693243.610824585 -141106441.13547516 0 0 0 0 -5391877.8363113403 17917347.25642395 0 17917347.25642395 -65680100.005859375 0 0 0 0 -14936153.292655945 -96351937.331916809 0 -96351937.331916809 -107307039.5300293 0 0 0 0 15435829.807846069 -15781143.192840576 0 -15781143.192840576 -111198487.8269043 0 0 0 0 -382484603.10335541 -121163010.07458496 0 -121163010.07458496 12422158.222045898 0 0 0 0 -1098203.4744683132 -1854126.5171208233 0 -1854126.5171208233 678097.20217692107 0 0 0 0 -176325495.73423958 89957689.989860535 0 89957689.989860535 80338128.716064453 0 0 0 0 1639942.8449355848 221189.36595751345 0 221189.36595751345 -2085560.5788031518 0 0 0 0 -185839183.23535156 -172022291.77038574 0 -172022291.77038574 -142526459.86012268 0 0 0 0 -191680568.84093094 452249026.66820526 0 452249026.66820526 77448039.832458496 0 0 0 0 -404586866.40432739 -44544444.491882324 0 -44544444.491882324 45400578.749751091 0 0 0 0 -193969544.78987694 -12432503.341888428 0 -12432503.341888428 32666804.566680908 0 0 0 0 -9142123.7873659134 4793638.2175884247 0 4793638.2175884247 33724799.0599823 0 0 0 0 -9077629.48662588 -9648771.7638364658 0 -9648771.7638364658 -3001734.7792636305 0 0 0 0 -41753101.69291687 -33316643.219268799 0 -33316643.219268799 120783178.384552 0 0 0 0 -19258385.794189453 34360910.725944519 0 34360910.725944519 17724258.43813324 0 0 0 0 -9559654.3495635986 -2160815.2013244629 0 -2160815.2013244629 73919550.123214722 0 0 0 0 12501033.987987518 14922479.541465759 0 14922479.541465759 -10273344.048126221 0 0 0 0 -2470890.4170288499 -1528729.5497979 0 -1528729.5497979 16539.834024906158 0 0 0 0 24137741.07174778 -11875017.984672546 0 -11875017.984672546 909925.88520812988 0 0 0 0 12261288.230815887 13333508.821430206 0 13333508.821430206 4338214.7219238281 0 0 0 0 1220759.7356996536 -4883841.6539802551 0 -4883841.6539802551 3023866.1579284668 0 0 0 0 177965582.96966934 -305475925.57494354 0 -305475925.57494354 309528633.55052185 0 0 0 0 196706120.09692383 -256238073.86849976 0 -256238073.86849976 106763417.74082947 0 0 0 0 162082603.96363831 -479710451.63173676 0 -479710451.63173676 738612806.44377136 0 0 0 0 -7124207.6870122328 -10747754.157830626 0 -10747754.157830626 -3669746.4585987031 0 0 0 0 -363628458.18497467 -157182514.53108215 0 -157182514.53108215 1094360376.8431091 0 0 0 0 286008286.7737751 -277623208.17216873 0 -277623208.17216873 210489643.85232544 0 0 0 0 104584027.579216 -551875047.54867554 0 -551875047.54867554 -67221410.183380127 0 0 0 0 155467584.47993088 -413194951.74328232 0 -413194951.74328232 -865633287.92358398 0 0 0 0 -1128279603.0158539 -724575376.49455261 0 -724575376.49455261 433898663.54933167 0 0 0 0 71064051.042778015 -360064641.9356842 0 -360064641.9356842 420674464.78659058 0 0 0 0 115202769.55980492 200891079.90728378 0 200891079.90728378 880248159.54498291 0 0 0 0 -153793693.79734802 -794764899.43496704 0 -794764899.43496704 1498929086.9924774 0 0 0 0 -64995607.52911377 -46056558.366485596 0 -46056558.366485596 -15318788.303619385 0 0 0 0 -26762535.428476572 -32555297.018173218 0 -32555297.018173218 -115184804.86364746 0 0 0 0 -34805289.779824734 -109929690.18701172 0 -109929690.18701172 -135708728.33766937 0 0 0 0 10911541.303993225 -33067366.207229614 0 -33067366.207229614 -100828207.16546631 0 0 0 0 -12626178.87217474 -30393947.242858887 0 -30393947.242858887 18959841.084381104 0 0 0 0 -27090513.466804504 -55022531.782592773 0 -55022531.782592773 -16473776.131313324 0 0 0 0 -39274540.869293347 -26887503.765228271 0 -26887503.765228271 24341194.216644287 0 0 0 0 -6408433.8955497742 -29833610.473327637 0 -29833610.473327637 -6140992.5205688477 0 0 0 0 -5066328.665907383 -36962671.808563232 0 -36962671.808563232 -23158506.732727051 0 0 0 0 15374650.458024979 -53224897.996337891 0 -53224897.996337891 34055489.759307861 0 0 0 0 15604847.408243179 -50955307.223449707 0 -50955307.223449707 13327727.176116943 0 0 0 0 86937491.781400561 -112457918.03870773 0 -112457918.03870773 -7198520.7064819336 0 0 0 0 59002327.914160728 -71691999.429504395 0 -71691999.429504395 -65645233.543640137 0 0 0 0 -41385274.884661198 -41425798.088348389 0 -41425798.088348389 -18900552.536483765 0 0 0 0 51106400.902558327 -75617437.23638916 0 -75617437.23638916 -29608322.154983521 0 0 0 0 19416189.948904037 -32072865.70085144 0 -32072865.70085144 -85980597.849609375 0 0 0 0 -89778636.368498087 -112851589.8878479 0 -112851589.8878479 -15761756.489440918 0 0 0 0 87211055.701496899 -38892948.152404785 0 -38892948.152404785 -4717690.5834960938 0 0 0 0 -56070930.276265144 -53209981.678833008 0 -53209981.678833008 -69385995.44190979 0 0 0 0 200082144.32039309 -105335837.06484222 0 -105335837.06484222 -81912254.021484375 0 0 0 0 85837059.020983696 -34246699.878387451 0 -34246699.878387451 -110504779.34793091 0 0 0 0 99220819.625154495 -114493626.91372681 0 -114493626.91372681 -55224250.424362183 0 0 0 0 9942428.6565704346 -7840621.4140014648 0 -7840621.4140014648 -2373201.6598815918 0 0 0 0 18387625.023906946 21761190.936805725 0 21761190.936805725 -10781460.583221436 0 0 0 0 -63315085.286846876 -98740321.882965088 0 -98740321.882965088 -136817786.36682129 0 0 0 0 579809.07946361799 157315.07322203368 0 157315.07322203368 -50695.289687424898 0 0 0 0 712490.6086417496 -149148.96410734206 0 -149148.96410734206 -521383.51757729053 0 0 0 0 16543741.891280174 -3138060.5340652466 0 -3138060.5340652466 -17822319.455444336 0 0 0 0 13838577.199046731 -15540873.076303482 0 -15540873.076303482 -11281876.493743896 0 0 0 0 21216010.383159637 -5761212.8567352295 0 -5761212.8567352295 -5723297.970916748 0 0 0 0 18360357.681032181 -29682802.087249756 0 -29682802.087249756 2146355.6075439453 0 0 0 0 16385429.111671448 -25157874.148178101 0 -25157874.148178101 7302625.2314605713 0 0 0 0 16514588.970541 -30545798.295135498 0 -30545798.295135498 -34176602.884277344 0 0 0 0 16801331.174967527 -24510867.21081543 0 -24510867.21081543 938668.78091430664 0 0 0 0 -10626467.946721077 -51069459.321533203 0 -51069459.321533203 3520372.8856201172 0 0 0 0 18472754.106461525 -30334618.625549316 0 -30334618.625549316 -2587954.0000610352 0 0 0 0 -995614.20738649368 -31278456.261901855 0 -31278456.261901855 31586288.896026611 0 0 0 0 -10945289.066763148 -10404458.184048556 0 -10404458.184048556 -1502401.2545499168 0 0 0 0 -7554205.1692690849 -41449305.178436279 0 -41449305.178436279 39207308.456054688 0 0 0 0 96051935.23184967 -260690066.29278564 0 -260690066.29278564 448413868.13020325 0 0 0 0 -6171146.1300461795 -2466739.1591684222 0 -2466739.1591684222 2433435.5110654086 0 0 0 0 -3770685.4230531938 -12435098.551916309 0 -12435098.551916309 -4662092.5028546825 0 0 0 0 -8450614.2745275497 -2765810.7044143677 0 -2765810.7044143677 23565572.998977661 0 0 0 0 -1433405.5843893252 -709209.12516257353 0 -709209.12516257353 1121668.6821379066 0 0 0 0 181535444.59189224 -256837541.69102478 0 -256837541.69102478 177229704.63287354 0 0 0 0 115352772.49833679 -248742372.39585876 0 -248742372.39585876 298997832.84567261 0 0 0 0 114880201.7300415 -155999212.84783936 0 -155999212.84783936 260962651.94342041 0 0 0 0 -15788416.989681244 -19621630.7397995 0 -19621630.7397995 104348991.13861084 0 0 0 0 105779346.55781174 -126585136.85792542 0 -126585136.85792542 100967041.74108887 0 0 0 0 45204230.933135986 -127117037.43844604 0 -127117037.43844604 123450618.5194397 0 0 0 0 159944972.78527069 -248449343.5925293 0 -248449343.5925293 199640403.6517334 0 0 0 0 -9052846.1143907271 -9084036.4551161453 0 -9084036.4551161453 -2177484.4577923529 0 0 0 0 97451116.796913147 -108875237.39283752 0 -108875237.39283752 -83276035.291091919 0 0 0 0 -9486326.4703083038 -2181124.7388687134 0 -2181124.7388687134 -4055483.0177764893 0 0 0 0 -61555458.431476593 -5586285.1673126221 0 -5586285.1673126221 31144197.383026123 0 0 0 0 -22544537.175299168 -30669314.557510376 0 -30669314.557510376 73455044.091156006 0 0 0 0 -4374007.2901443839 -16812780.293135643 0 -16812780.293135643 51749881.559783936 0 0 0 0 -31954388.071293116 -44593827.674987793 0 -44593827.674987793 38993661.925262451 0 0 0 0 -13498013.343817234 -34121011.044387817 0 -34121011.044387817 26091880.7578125 0 0 0 0 -8580727.4372034073 -33931374.215240479 0 -33931374.215240479 77361945.854888916 0 0 0 0 -17677705.884214878 -23254867.979156494 0 -23254867.979156494 45534856.270706177 0 0 0 0 -8406563.7026166916 -33824088.189407349 0 -33824088.189407349 56857888.61907959 0 0 0 0 -8079428.2784795761 -19730606.856155396 0 -19730606.856155396 60344410.131290436 0 0 0 0 -8807767.2378220558 -20378023.167800903 0 -20378023.167800903 72343359.6222229 0 0 0 0 -471454.25810994301 -8614105.9558142722 0 -8614105.9558142722 -1325499.6829116754 0 0 0 0 17646220.328895569 -29496735.606048584 0 -29496735.606048584 -27315104.378135681 0 0 0 0 -6268192.8204612732 -144709638.06112671 0 -144709638.06112671 -100758985.65939331 0 0 0 0 -38579404.437084198 -136298842.43360901 0 -136298842.43360901 -68905771.93850708 0 0 0 0 -33865092.179929256 -220586608.35926437 0 -220586608.35926437 14290805.601776123 0 0 0 0 -303160.66158895008 -3692604.5519071296 0 -3692604.5519071296 -102441.81781353243 0 0 0 0 -5162450.7978782654 -70460419.035964966 0 -70460419.035964966 199971064.81454468 0 0 0 0 -28478632.022609711 -160753945.2004776 0 -160753945.2004776 392012502.87771606 0 0 0 0 -85385120.453798294 -261329315.61915588 0 -261329315.61915588 90673446.73550415 0 0 0 0 23459988.900548458 -265821055.13895607 0 -265821055.13895607 24726104.856964111 0 0 0 0 14769847.978033781 -161905338.77729988 0 -161905338.77729988 150781517.2180481 0 0 0 0 -88543121.82384491 -440836100.49905396 0 -440836100.49905396 -61752745.861450195 0 0 0 0 -126947051.31446457 -404434793.95343018 0 -404434793.95343018 -87913084.60736084 0 0 0 0 -184315497.26912308 -528536961.81991577 0 -528536961.81991577 -120375722.1624527 0 0 0 0 -270738193.54317844 -496819258.59944993 0 -496819258.59944993 -130010536.79576111 0 0 0 0 -310465177.3693428 -410600685.98826599 0 -410600685.98826599 32193196.434803009 0 0 0 0 -126773953.66152573 -134004125.4798851 0 -134004125.4798851 85278505.915634155 0 0 0 0 1210504560.6667404 -313200397.97203064 0 -313200397.97203064 -655759479.67922974 0 0 0 0 762925.45878352225 -7964791.7776757516 0 -7964791.7776757516 -12451595.32607621 0 0 0 0 132388230.9249717 -281241898.19623971 0 -281241898.19623971 178106514.57369995 0 0 0 0 134223237.58951569 -182591966.49445343 0 -182591966.49445343 3199767.0916671753 0 0 0 0 159231961.41760254 -145063340.06484985 0 -145063340.06484985 78892139.317245483 0 0 0 0 176476489.90133667 -127895045.8490448 0 -127895045.8490448 91694436.901321411 0 0 0 0 180605287.45785713 -140881186.39116669 0 -140881186.39116669 71536475.936126709 0 0 0 0 181295543.77858734 -143343249.98876953 0 -143343249.98876953 69780180.552352905 0 0 0 0 159597829.97149658 -165042474.60420227 0 -165042474.60420227 117461701.69812012 0 0 0 0 133006121.14944458 -197118921.60609436 0 -197118921.60609436 26082549.117294312 0 0 0 0 166790487.99279785 -133674056.51867676 0 -133674056.51867676 42246329.51385498 0 0 0 0 191510129.68107605 -241038951.83482361 0 -241038951.83482361 182790857.66223907 0 0 0 0 216210914.18234873 -121937785.01148224 0 -121937785.01148224 141227966.67114258 0 0 0 0 146733119.90565586 -187865987.30400467 0 -187865987.30400467 134599889.78796387 0 0 0 0 141228911.25991821 -189959888.29837036 0 -189959888.29837036 261540409.58985901 0 0 0 0 182475424.96226501 -183567826.45222473 0 -183567826.45222473 130345396.81814575 0 0 0 0 189511351.74930573 -160290222.93746948 0 -160290222.93746948 45554543.129440308 0 0 0 0 143211795.5745163 -207230592.48800659 0 -207230592.48800659 135529859.48577881 0 0 0 0 233063988.52362061 -156951103.57418442 0 -156951103.57418442 -54824021.007247925 0 0 0 0 -3470273.4682819545 -6108178.2476336323 0 -6108178.2476336323 -6801161.0854784995 0 0 0 0 101141095.14466953 -5092479.3541536331 0 -5092479.3541536331 -74045461.305450439 0 0 0 0 177796415.61004639 -149622431.6177063 0 -149622431.6177063 60590082.340950012 0 0 0 0 120594886.49994087 -140208110.15818214 0 -140208110.15818214 72402738.246673584 0 0 0 0 -839855428.68920326 1266269741.4608164 0 1266269741.4608164 274634689.24658203 0 0 0 0 51606527.800239563 163441393.25694275 0 163441393.25694275 -814502219.77106762 0 0 0 0 -809853.21621682122 -1863140.6193596125 0 -1863140.6193596125 -2500804.608622998 0 0 0 0 -9959149.3481445312 33091771.708999634 0 33091771.708999634 -163303522.44219208 0 0 0 0 -660572995.59902191 -3713266.7198638916 0 -3713266.7198638916 1257910396.9862213 0 0 0 0 -611287379.47760773 148030643.55722046 0 148030643.55722046 260203816.43238831 0 0 0 0 -489335.27718722913 -2248594.9070478864 0 -2248594.9070478864 -3509526.0837496519 0 0 0 0 125347253.87085724 84724768.570381165 0 84724768.570381165 -273166.77803039551 0 0 0 0 -208289101.82678223 -43583883.558486938 0 -43583883.558486938 113588635.71614838 0 0 0 0 -210506040.86048126 261784462.89095306 0 261784462.89095306 170126296.90077209 0 0 0 0 -5765880.652923584 372244705.59474945 0 372244705.59474945 129750767.42456818 0 0 0 0 10235727.974901199 182047072.70748281 0 182047072.70748281 -2193385781.2109985 0 0 0 0 584555832.70561218 49092410.581977844 0 49092410.581977844 -740899899.98330688 0 0 0 0 -392614.67472913722 -2951965.974646559 0 -2951965.974646559 -4061817.4527186304 0 0 0 0 -1626605374.1652756 -3358968773.2430725 0 -3358968773.2430725 699591005.9855957 0 0 0 0 -3206790.1153215766 -9282912.422164876 0 -9282912.422164876 -11342106.942863636 0 0 0 0 181640295.88941956 -140217369.58854675 0 -140217369.58854675 62333202.966247559 0 0 0 0 -444169801.4317627 1591113442.2834625 0 1591113442.2834625 139948157.97853851 0 0 0 0 -1262224501.5836945 -1342405274.2398071 0 -1342405274.2398071 -1311708153.5502472 0 0 0 0 -41881.659363113344 -1086500.8240399491 0 -1086500.8240399491 -8725065.849704504 0 0 0 0 -2216408333.6794052 -748803362.27447891 0 -748803362.27447891 -247586072.05923462 0 0 0 0 1678527241.5593185 1149931015.1793976 0 1149931015.1793976 -1852836645.8964081 0 0 0 0 -601429637.30650711 1080623949.6256256 0 1080623949.6256256 -770419472.81378174 0 0 0 0 768914786.30222321 225929519.56739807 0 225929519.56739807 -248205847.20588684 0 0 0 0 -1041125491.8957434 -948897209.3211689 0 -948897209.3211689 -291054877.57717896 0 0 0 0 -1178108432.6871185 -149988815.76208496 0 -149988815.76208496 71058047.553649902 0 0 0 0 -385351645.07202148 -53064174.395874023 0 -53064174.395874023 -47937907.566207886 0 0 0 0 -195217205.740448 -127262923.92655945 0 -127262923.92655945 -249308083.18598938 0 0 0 0 762535736.93450356 -6782451.2059555054 0 -6782451.2059555054 -550201920.65917969 0 0 0 0 -1153376.5022292603 -6745123.7551702764 0 -6745123.7551702764 -23401264.8238599 0 0 0 0 -229477898.95666122 -68894732.430030823 0 -68894732.430030823 -53693148.251922607 0 0 0 0 -201939483.3162384 10338840.587356567 0 10338840.587356567 -81765571.674682617 0 0 0 0 3013589.2873492017 262835.46394785494 0 262835.46394785494 -4008144.0003824234 0 0 0 0 594607475.01291656 -210050549.78620911 0 -210050549.78620911 271652192.07971191 0 0 0 0 -429328418.8580246 -382513078.48478699 0 -382513078.48478699 49088096.619949341 0 0 0 0 -563961451.80010986 -835038588.74847412 0 -835038588.74847412 -232331734.52024078 0 0 0 0 -444412153.37110138 -711308417.97244263 0 -711308417.97244263 -840369423.78540039 0 0 0 0 85180107.745018005 -584949506.08305359 0 -584949506.08305359 -1281959404.6242981 0 0 0 0 -386414412.65304565 -398835574.84397888 0 -398835574.84397888 -594226639.07246399 0 0 0 0 -591598979.05633545 -763507748.70259094 0 -763507748.70259094 -271473613.74075317 0 0 0 0 -205474.77589221764 -1748553.5508029889 0 -1748553.5508029889 -2006218.9603527188 0 0 0 0 -783801970.99961853 -1117934791.0773621 0 -1117934791.0773621 -596368795.85903931 0 0 0 0 1023835663.1025972 -833193120.35122871 0 -833193120.35122871 -1203284186.4745178 0 0 0 0 948894927.96834946 -1087830292.3027344 0 -1087830292.3027344 -1375336892.7272339 0 0 0 0 -72876892.170783997 188888608.53302002 0 188888608.53302002 51589656.544921875 0 0 0 0 447162443.87919617 -837707188.79847717 0 -837707188.79847717 590004219.44994354 0 0 0 0 21033862.29659605 -78314811.168540955 0 -78314811.168540955 -342253029.00744629 0 0 0 0 -215182121.07917786 -272763194.74224854 0 -272763194.74224854 -200194725.08487701 0 0 0 0 962026098.15167236 -479612302.93958282 0 -479612302.93958282 199110811.77518082 0 0 0 0 45960595.37902832 -45645739.845245361 0 -45645739.845245361 -3125766.9349060059 0 0 0 0 417804327.67240906 -326087443.81071472 0 -326087443.81071472 76704561.605209351 0 0 0 0 -163995415.43078613 -222860747.793396 0 -222860747.793396 346353902.33334351 0 0 0 0 -119566275.58342361 -209619708.22718048 0 -209619708.22718048 397205223.22683716 0 0 0 0 -17056878.514373779 14433619.527153015 0 14433619.527153015 155015694.19807434 0 0 0 0 -2816488.4691985827 -3491640.3392167445 0 -3491640.3392167445 5356917.6741205603 0 0 0 0 1271585132.0030899 -922215179.2368927 0 -922215179.2368927 147738014.28848267 0 0 0 0 -4322011.3659172058 -16252103.464260101 0 -16252103.464260101 28531216.361206055 0 0 0 0 -7218546.1900392137 -10929206.599344678 0 -10929206.599344678 -3096857.3221628666 0 0 0 0 -195947935.48414612 137723434.42640686 0 137723434.42640686 -49102746.672531128 0 0 0 0 -49282302.182189941 26457260.566894531 0 26457260.566894531 -89415040.823547363 0 0 0 0 -102889327.46242523 -89819272.676990509 0 -89819272.676990509 -95234488.972045898 0 0 0 0 167720470.28057861 -52209650.209335327 0 -52209650.209335327 -166575203.98265076 0 0 0 0 -201264879.65001857 -112568199.90606523 0 -112568199.90606523 -91482297.826690674 0 0 0 0 -394744577.5241394 148319056.53195 0 148319056.53195 101551268.6946106 0 0 0 0 -1871299.5521792322 -1738909.2471177224 0 -1738909.2471177224 1545317.9527203888 0 0 0 0 6212045.7479248047 147585158.63877106 0 147585158.63877106 -117974459.38037109 0 0 0 0 233405638.81591797 -183877546.34118652 0 -183877546.34118652 -174633153.38490295 0 0 0 0 119567017.77375793 249236876.54427338 0 249236876.54427338 -133725848.09008789 0 0 0 0 -16382505.342071533 11007770.907531738 0 11007770.907531738 8306573.8061828613 0 0 0 0 -24507443.355548859 -103362513.91131496 0 -103362513.91131496 -54633396.036071777 0 0 0 0 673936887.28173828 -893696211.05152893 0 -893696211.05152893 217286926.90625 0 0 0 0 -4522364.6362668164 -15223523.797603719 0 -15223523.797603719 -25689695.928634301 0 0 0 0 828203800.1609354 -437915201.0991478 0 -437915201.0991478 -65601581.448608398 0 0 0 0 188850938.97238159 -410504255.44024658 0 -410504255.44024658 87631087.660614014 0 0 0 0 -129622154.90238953 -308707640.48709106 0 -308707640.48709106 764854553.54458618 0 0 0 0 -824902645.59954834 -366190942.36769104 0 -366190942.36769104 177139585.2887001 0 0 0 0 -70863536.861141205 -485236209.57899475 0 -485236209.57899475 155390477.58908081 0 0 0 0 222557880.04527855 -605631716.37252045 0 -605631716.37252045 -798120208.38235474 0 0 0 0 47681923.297027588 -463780986.81951904 0 -463780986.81951904 358780569.54653168 0 0 0 0 -17798738.324533395 -26589058.004628118 0 -26589058.004628118 -23802582.285516664 0 0 0 0 6391779.1341171265 -887456883.55895996 0 -887456883.55895996 752221955.60682774 0 0 0 0 -420709879.3617363 -264066120.9263916 0 -264066120.9263916 372553065.15405273 0 0 0 0 -427098460.34160614 -325851042.51776123 0 -325851042.51776123 332564882.70205688 0 0 0 0 -660593158.0174408 -337298518.79568481 0 -337298518.79568481 470326920.14268494 0 0 0 0 -217188283.22486877 -574702900.74267578 0 -574702900.74267578 392476066.54953766 0 0 0 0 -659802698.08101273 35473044.308532715 0 35473044.308532715 578801153.74632263 0 0 0 0 -795722560.89979553 370588610.78311157 0 370588610.78311157 15010107.533843994 0 0 0 0 -305500537.24856949 -257029988.42211914 0 -257029988.42211914 366096494.55691528 0 0 0 0 -674626536.49343109 -143164535.74465942 0 -143164535.74465942 337529855.73184204 0 0 0 0 -292969848.77933151 132955011.05821609 0 132955011.05821609 287295354.36920166 0 0 0 0 -307629651.28323936 -9794001.0992889404 0 -9794001.0992889404 143627508.56573486 0 0 0 0 -312155255.37074566 53126706.874824524 0 53126706.874824524 -46434084.660980225 0 0 0 0 -796626754.86094284 295620391.1109314 0 295620391.1109314 -167043666.71195984 0 0 0 0 -493799046.03654861 -204560035.2247467 0 -204560035.2247467 -410995550.97381592 0 0 0 0 -488073320.55849457 -215447099.65124512 0 -215447099.65124512 121426359.56210327 0 0 0 0 -898261912.44764709 -262726963.12521362 0 -262726963.12521362 118462059.69550514 0 0 0 0 -1873836187.4258461 -482563849.24859619 0 -482563849.24859619 -418093612.3039856 0 0 0 0 -426963901.66364288 269664904.98153687 0 269664904.98153687 -1374457614.4984436 0 0 0 0 -194726291.63460445 -110898672.25384903 0 -110898672.25384903 -854145352.50045776 0 0 0 0 -465769456.00882149 -966242980.44269562 0 -966242980.44269562 -818140902.04217529 0 0 0 0 -699618673.94982719 -324596171.53296661 0 -324596171.53296661 323309548.85182953 0 0 0 0 -51961715.247051239 918128893.69587708 0 918128893.69587708 -2230552857.068222 0 0 0 0 2067910.8706955891 -3057051.5332321823 0 -3057051.5332321823 -6254757.1559902579 0 0 0 0 117193966.8005228 172120443.78594398 0 172120443.78594398 -797303358.99172974 0 0 0 0 768205679.57257843 257461423.44728088 0 257461423.44728088 -1163756051.9309082 0 0 0 0 361202523.13376617 -410949295.6628418 0 -410949295.6628418 -710891076.69537354 0 0 0 0 649393129.17447662 -323239928.48809814 0 -323239928.48809814 -717430480.55993652 0 0 0 0 76766670.099588394 -11290525.819656372 0 -11290525.819656372 -774397595.02627563 0 0 0 0 -90190233.504104614 -762109199.53547668 0 -762109199.53547668 -2172611294.5526648 0 0 0 0 94046941.411781311 28405258.879837036 0 28405258.879837036 -179683594.42480087 0 0 0 0 20314607.201805115 -89446893.324211121 0 -89446893.324211121 48926858.042053223 0 0 0 0 -45361839.522021294 206080984.1596756 0 206080984.1596756 144639443.42453003 0 0 0 0 67740146.903781891 -48849943.999885559 0 -48849943.999885559 59962973.619338989 0 0 0 0 534187.19712983444 2094446.1177781075 0 2094446.1177781075 -476389.99897285551 0 0 0 0 26024328.469932556 -44848248.074432373 0 -44848248.074432373 93186693.922561646 0 0 0 0 28113444.707912445 -71005826.33915329 0 -71005826.33915329 105084793.7532196 0 0 0 0 -21046236.044441223 84093060.99887085 0 84093060.99887085 -80628224.306610107 0 0 0 0 99632635.39887619 -34865150.550758362 0 -34865150.550758362 -121548726.81965637 0 0 0 0 10015456.752020724 -3025255.4742705151 0 -3025255.4742705151 -8103937.4457066879 0 0 0 0 -4948589.8657795563 -18431731.143340759 0 -18431731.143340759 -14960823.845357537 0 0 0 0 139300200.19934845 16793839.728996277 0 16793839.728996277 -118330476.0175705 0 0 0 0 -30465788.229160309 -2830239.8850355148 0 -2830239.8850355148 -37544292.267028809 0 0 0 0 30678211.412021637 -129339081.29117584 0 -129339081.29117584 67699914.440933228 0 0 0 0 -73462432.189923286 136919106.27416229 0 136919106.27416229 -237128290.19058228 0 0 0 0 -6691118.4655182026 -13210866.514735468 0 -13210866.514735468 -11861389.419414237 0 0 0 0 84918255.4146595 -17551338.172843933 0 -17551338.172843933 -247257994.13946533 0 0 0 0 15413461.969619751 12645233.823051453 0 12645233.823051453 -254985726.18656921 0 0 0 0 203524117.25632477 -147977729.30121613 0 -147977729.30121613 -169364194.88305664 0 0 0 0 70062849.160974503 -45629477.825387955 0 -45629477.825387955 -247334790.32366943 0 0 0 0 264612895.61838913 -160379317.99521255 0 -160379317.99521255 -253346973.47970581 0 0 0 0 300748324.33258057 -165817241.48060608 0 -165817241.48060608 -313682268.46607971 0 0 0 0 161570529.97574615 -19772884.480308533 0 -19772884.480308533 -392992419.83021545 0 0 0 0 -136880021.39242363 392068113.49557304 0 392068113.49557304 -552859633.53274536 0 0 0 0 272008308.81241608 95376662.696846008 0 95376662.696846008 -502716680.00584412 0 0 0 0 -6450313.206916187 -9127144.7389255036 0 -9127144.7389255036 -8368430.1048790962 0 0 0 0 389364574.14677429 -94913300.100326538 0 -94913300.100326538 46994254.292711258 0 0 0 0 333090873.02940559 62013857.381914139 0 62013857.381914139 -314647159.32817078 0 0 0 0 321650418.05638123 -515466619.95088959 0 -515466619.95088959 85518248.707210541 0 0 0 0 279543535.05410004 -324459656.62791443 0 -324459656.62791443 -345513938.71902466 0 0 0 0 -648342530.51062012 -801700493.02507019 0 -801700493.02507019 -581358347.04963684 0 0 0 0 -686372624.4050808 -1074103058.1899538 0 -1074103058.1899538 -303754339.83187866 0 0 0 0 1769957371.4098206 1084727827.9979858 0 1084727827.9979858 -332697848.10647583 0 0 0 0 1055502276.6962433 -2295916425.5190735 0 -2295916425.5190735 -3364197060.5789032 0 0 0 0 640429951.19805145 -13523287.086532593 0 -13523287.086532593 -1177404723.866127 0 0 0 0 650322827.05669403 422574744.10780334 0 422574744.10780334 38336060.511322021 0 0 0 0 -165633653.51947021 -174647444.41464233 0 -174647444.41464233 -30463431.73815918 0 0 0 0 -8954780.9243847653 -11343079.319932869 0 -11343079.319932869 -5060734.5776359737 0 0 0 0 -2759577157.5588684 -708815200.68625641 0 -708815200.68625641 318077400.72779846 0 0 0 0 -1308923904.8720093 521172130.76832581 0 521172130.76832581 -4097509.417842865 0 0 0 0 -4210163649.9504471 -2353639280.2327881 0 -2353639280.2327881 -648139887.05583191 0 0 0 0 -3142604.2428233176 -322005.83242043853 0 -322005.83242043853 -137493.18595879897 0 0 0 0 84296976.508834839 -62948904.4793396 0 -62948904.4793396 -1052509523.1077576 0 0 0 0 -5504131186.6066895 -1759874870.1213989 0 -1759874870.1213989 -1558840725.6693726 0 0 0 0 -4085192360.6411591 568528054.64039612 0 568528054.64039612 37564223.230270386 0 0 0 0 -4445640.7888479754 -3767812.2799420264 0 -3767812.2799420264 -1086830.2957621738 0 0 0 0 223126641.46307373 -2024092823.6484985 0 -2024092823.6484985 -1673104357.2172394 0 0 0 0 -39199681.612922668 -126796131.96022034 0 -126796131.96022034 308742147.69976807 0 0 0 0 -2019318153.2420349 -786458696.53676605 0 -786458696.53676605 -129220645.31283569 0 0 0 0 -261196571.84814453 -269468867.31608582 0 -269468867.31608582 -38694780.281116486 0 0 0 0 -956487378.62845612 105653301.21028137 0 105653301.21028137 213459521.19721985 0 0 0 0 -874220872.09000015 173007185.52301025 0 173007185.52301025 42203551.781387329 0 0 0 0 -312814368.57605743 -2595138.972869873 0 -2595138.972869873 224833236.15048218 0 0 0 0 -271218179.76049042 -11473005.757102966 0 -11473005.757102966 187719563.83679199 0 0 0 0 -375876925.21929169 -34773329.581314087 0 -34773329.581314087 227547693.54092407 0 0 0 0 -35104954.661334991 -46361790.531967163 0 -46361790.531967163 132674091.43878174 0 0 0 0 -296303991.32439423 -235241231.85020447 0 -235241231.85020447 407936148.41517639 0 0 0 0 180537070.23373413 478038294.94302368 0 478038294.94302368 471475880.09506226 0 0 0 0 -4442267.9317338541 980374.53404845297 0 980374.53404845297 514361.03560757637 0 0 0 0 62834701.151046753 -167653491.57511902 0 -167653491.57511902 193240372.9395752 0 0 0 0 -162524432.04605103 242626587.44496155 0 242626587.44496155 1039484.1160964966 0 0 0 0 219340531.11235046 -72472809.942337036 0 -72472809.942337036 -8468337.9460449219 0 0 0 0 -256723583.99007416 28429587.305892944 0 28429587.305892944 137566606.29559326 0 0 0 0 84592941.23526001 36350447.784881592 0 36350447.784881592 -9311537.3999023438 0 0 0 0 -817919.58849033341 225109.67107767612 0 225109.67107767612 710229.40173522383 0 0 0 0 -31458524.140686035 -70609406.347595215 0 -70609406.347595215 175883510.394104 0 0 0 0 6677287.4975471497 -72527430.59690094 0 -72527430.59690094 -40507478.215789795 0 0 0 0 -1445116.7775622047 315516.46136753634 0 315516.46136753634 1190431.0315744132 0 0 0 0 -200541151.37481308 -57710014.826885223 0 -57710014.826885223 124702882.35726929 0 0 0 0 -146367821.04736328 29604903.414070129 0 29604903.414070129 133620722.94062042 0 0 0 0 -74746725.213844299 -88334016.455604553 0 -88334016.455604553 -183911428.14682007 0 0 0 0 -75031514.193571091 -58506526.214595795 0 -58506526.214595795 -18254072.052078247 0 0 0 0 69844183.716631889 -277464219.60594368 0 -277464219.60594368 142981385.52731323 0 0 0 0 -309986855.7502594 -56659237.692123413 0 -56659237.692123413 226680322.80667114 0 0 0 0 -296140592.83605957 -35100770.393386841 0 -35100770.393386841 176238029.15557098 0 0 0 0 -257135718.40727234 -174869073.98793793 0 -174869073.98793793 13504477.647758484 0 0 0 0 -268417827.52550507 -148179572.03409576 0 -148179572.03409576 192921083.14945221 0 0 0 0 -127813270.49823761 -95505980.82113266 0 -95505980.82113266 15302164.70010376 0 0 0 0 -397324816.51877308 -252998426.36277199 0 -252998426.36277199 -265498871.86929321 0 0 0 0 -439449919.04200745 -197288596.14112854 0 -197288596.14112854 -17006494.531478882 0 0 0 0 -66080029.774658203 -128245574.31006622 0 -128245574.31006622 -488159224.73864746 0 0 0 0 -213020345.46408844 -281775439.47082901 0 -281775439.47082901 -620797649.54649353 0 0 0 0 713644.98688419908 -61286.080737054348 0 -61286.080737054348 -47728.988486004993 0 0 0 0 -530915087.69340515 -122420333.8196106 0 -122420333.8196106 1105270088.8685398 0 0 0 0 -975478093.60139275 -679020870.35002518 0 -679020870.35002518 452128328.06472778 0 0 0 0 -674959395.42503357 502765009.39408875 0 502765009.39408875 447432464.72305298 0 0 0 0 -584357649.13070679 -5074801.4654541016 0 -5074801.4654541016 -502787826.48721313 0 0 0 0 -27520008.37134552 -5432248.0230712891 0 -5432248.0230712891 -162199579.58496094 0 0 0 0 54619345.435241699 -15898960.665725708 0 -15898960.665725708 -168771882.8801384 0 0 0 0 -57543031.214073181 -63112879.74067688 0 -63112879.74067688 -169097398.57597351 0 0 0 0 2835143.0924461707 -728080.19418290257 0 -728080.19418290257 -508469.19813896157 0 0 0 0 6745346.3757896423 -20249924.906997681 0 -20249924.906997681 -320352276.81245422 0 0 0 0 -43354977.810302734 -18361610.389282227 0 -18361610.389282227 901996213.93972015 0 0 0 0 -64294793.89642334 -91804158.099609375 0 -91804158.099609375 875834587.58602905 0 0 0 0 5801886.7363318726 -1647536.8754629344 0 -1647536.8754629344 -1691300.3384741284 0 0 0 0 53212381.504692078 -16557582.558517456 0 -16557582.558517456 -241055227.18530655 0 0 0 0 961888.37941741943 -4638294.0674781799 0 -4638294.0674781799 -146893783.47195435 0 0 0 0 66884041.791038513 -8632600.4405822754 0 -8632600.4405822754 -146968910.54629087 0 0 0 0 3921708.4838371277 -22816383.475074768 0 -22816383.475074768 -27765180.09362793 0 0 0 0 61191732.909049988 -123282182.67481995 0 -123282182.67481995 -495501.87633132935 0 0 0 0 -1366806.7642390728 250361.71881760657 0 250361.71881760657 1073177.7731962055 0 0 0 0 38090906.331414223 -43828984.381121635 0 -43828984.381121635 55868262.753540039 0 0 0 0 47810411.703262329 -54474023.52407074 0 -54474023.52407074 59323986.65864563 0 0 0 0 -16511225.777858734 -65702423.728141785 0 -65702423.728141785 138112093.87304688 0 0 0 0 23394310.946060181 -29376686.395111084 0 -29376686.395111084 59790729.702731013 0 0 0 0 8167001.982673645 -46515812.644676208 0 -46515812.644676208 58595689.777084351 0 0 0 0 8493979.5841274261 -48259834.689632416 0 -48259834.689632416 60238997.067245483 0 0 0 0 22188991.38539505 -32559191.096244812 0 -32559191.096244812 63508808.665908813 0 0 0 0 37047139.188072205 -49162761.146702766 0 -49162761.146702766 52361009.376464844 0 0 0 0 -9123578.5803833008 -51027355.710876465 0 -51027355.710876465 73760272.734344482 0 0 0 0 -686481.30621695518 137230.55935894325 0 137230.55935894325 543142.02153939009 0 0 0 0 -18043449.059898376 -94473814.402313232 0 -94473814.402313232 9868168.4817199707 0 0 0 0 31792296.437496185 -69860565.867340088 0 -69860565.867340088 -90473915.355529785 0 0 0 0 8832302.236415863 -21447745.357421875 0 -21447745.357421875 -74224783.079956055 0 0 0 0 -27617434.608837128 -52210568.898368835 0 -52210568.898368835 -87458429.511688232 0 0 0 0 -10575509.917182922 -66956961.426483154 0 -66956961.426483154 -138869325.8707428 0 0 0 0 57306239.927703857 -67248534.58940506 0 -67248534.58940506 -151323701.30734253 0 0 0 0 17380971.716367722 -43158912.946460724 0 -43158912.946460724 -120836287.57800293 0 0 0 0 -367039661.328125 -262447499.37145996 0 -262447499.37145996 81518311.221282959 0 0 0 0 9729555.4175846577 -3511627.0762828812 0 -3511627.0762828812 -4376765.5861805836 0 0 0 0 3905502.0421600342 -32881120.161956787 0 -32881120.161956787 -128378973.94151306 0 0 0 0 16925638.682699203 -854712.39642333984 0 -854712.39642333984 -56651967.872344971 0 0 0 0 20039943.710784912 -11413668.735229492 0 -11413668.735229492 -101636173.3493576 0 0 0 0 84623611.692668915 -37966900.362243652 0 -37966900.362243652 -49418421.781951904 0 0 0 0 466686930.72150421 -477442160.86286926 0 -477442160.86286926 180143112.26089478 0 0 0 0 3508467.5396861956 -1186695.5840009917 0 -1186695.5840009917 -2941861.4182921797 0 0 0 0 40957404.936279297 -12982157.222839355 0 -12982157.222839355 -62108526.077072144 0 0 0 0 20941950.75201416 8330232.5629119873 0 8330232.5629119873 -52389666.302947998 0 0 0 0 187628192.47022057 -426918307.00621414 0 -426918307.00621414 161700077.61212158 0 0 0 0 187563589.20463181 -425261627.21847534 0 -425261627.21847534 208679797.19827271 0 0 0 0 414035963.68719482 -260566727.40644836 0 -260566727.40644836 287021602.62732697 0 0 0 0 -8075359.7740268707 128672524.63545609 0 128672524.63545609 47237852.051971436 0 0 0 0 14776979.306490183 -486131425.56770277 0 -486131425.56770277 306795978.31573486 0 0 0 0 1361000.7250957973 -322855.50847225636 0 -322855.50847225636 -1279549.8730728328 0 0 0 0 17988703.380508423 -359051960.61238098 0 -359051960.61238098 304893462.50780487 0 0 0 0 263917139.6962738 -420243788.00003052 0 -420243788.00003052 -63322228.165435791 0 0 0 0 378762389.29792786 -100064395.45379639 0 -100064395.45379639 417718772.01586914 0 0 0 0 124700859.71059418 -296402202.25814056 0 -296402202.25814056 403326379.17807007 0 0 0 0 45302923.497695923 -369329251.06945801 0 -369329251.06945801 343620697.73600006 0 0 0 0 88995992.335968018 -431676276.84890747 0 -431676276.84890747 310103714.06567383 0 0 0 0 -173572919.50202942 -257163334.14370728 0 -257163334.14370728 726616000.31030273 0 0 0 0 -301014863.7809906 -256125016.5154953 0 -256125016.5154953 526805077.52490234 0 0 0 0 -136609362.55045319 -443328509.71813202 0 -443328509.71813202 347429439.09088135 0 0 0 0 -111186835.33933258 -425482449.10733795 0 -425482449.10733795 213176638.51013184 0 0 0 0 -80296315.472381592 -386711776.96820068 0 -386711776.96820068 399539891.15450668 0 0 0 0 84404484.193946838 -395376885.06703186 0 -395376885.06703186 243078057.64187622 0 0 0 0 73825825.272247314 -420679421.45632935 0 -420679421.45632935 318004413.80149841 0 0 0 0 11353967.008644104 -467993772.45924377 0 -467993772.45924377 174039114.33135986 0 0 0 0 102776731.40886688 -470125266.09438324 0 -470125266.09438324 53593769.780090332 0 0 0 0 -10806661.781326294 -374159134.81715393 0 -374159134.81715393 175102871.56732655 0 0 0 0 130277179.66821289 -330114195.86468506 0 -330114195.86468506 34489010.784454346 0 0 0 0 -284424255.54219055 -469163063.34844971 0 -469163063.34844971 -20156395.673034668 0 0 0 0 -89636731.814460754 -496757716.03019714 0 -496757716.03019714 -15201242.395446777 0 0 0 0 -195462305.01280212 -326975236.70979309 0 -326975236.70979309 203824286.11967087 0 0 0 0 -196342551.00094604 -393528590.60824585 0 -393528590.60824585 32736184.526161194 0 0 0 0 -203868590.15631104 -326668083.57780457 0 -326668083.57780457 -145881990.96762085 0 0 0 0 -510739584.93380737 -394118884.0174408 0 -394118884.0174408 -43455179.259277344 0 0 0 0 -381629961.89668274 -310321502.02781677 0 -310321502.02781677 -13888224.277954102 0 0 0 0 -261073463.39083862 -355528438.01886749 0 -355528438.01886749 -143396567.40345764 0 0 0 0 -317457615.1607666 -408507837.06903076 0 -408507837.06903076 -172156053.29577637 0 0 0 0 -581030299.84474182 -198050826.84405518 0 -198050826.84405518 -111887977.22303391 0 0 0 0 -181450355.0283432 -250302601.12783813 0 -250302601.12783813 -63719725.429649353 0 0 0 0 16478941.483413696 -370679660.72955322 0 -370679660.72955322 36281138.953521729 0 0 0 0 162724024.65415955 -421709331.4331665 0 -421709331.4331665 -56142744.896362305 0 0 0 0 16442858.210365295 -389247989.72567749 0 -389247989.72567749 -131914335.34329224 0 0 0 0 159057085.57754517 -296284070.71237183 0 -296284070.71237183 -59701306.235741138 0 0 0 0 275906381.40518188 -371622751.7228241 0 -371622751.7228241 -54842998.712249756 0 0 0 0 477107521.62554932 -333500001.52726746 0 -333500001.52726746 -72120912.379501343 0 0 0 0 278250663.23083496 -352664037.2940979 0 -352664037.2940979 59732463.654144287 0 0 0 0 398518002.24661255 -282558607.17428589 0 -282558607.17428589 -31644205.455131531 0 0 0 0 547784328.65193176 -245188422.95426941 0 -245188422.95426941 -68790777.999206543 0 0 0 0 499784204.03688049 -275874531.10630798 0 -275874531.10630798 30042193.811279297 0 0 0 0 508993320.92900085 -262683533.44528198 0 -262683533.44528198 39452369.927986145 0 0 0 0 400856976.022995 -344098120.78729248 0 -344098120.78729248 245318610.01034546 0 0 0 0 179775015.21913147 -374253186.97929382 0 -374253186.97929382 227338085.22112274 0 0 0 0 179748165.56211853 -373075228.16104126 0 -373075228.16104126 175724027.90096283 0 0 0 0 403060514.16009521 -349760480.19806099 0 -349760480.19806099 38688855.328094482 0 0 0 0 -1283304682.0373993 18197263.293029785 0 18197263.293029785 881910200.94248199 0 0 0 0 -283477875.10993958 722052837.89099884 0 722052837.89099884 -406473975.89782715 0 0 0 0 -841451382.90767288 -766763643.32678986 0 -766763643.32678986 -644188200.31130981 0 0 0 0 -430836315.6695137 -269532646.55770493 0 -269532646.55770493 -2463834981.6037598 0 0 0 0 -1298597184.8770447 -256682026.72116089 0 -256682026.72116089 653496593.46850586 0 0 0 0 -276108.80135945929 -597229.2300504297 0 -597229.2300504297 -1539000.1737546176 0 0 0 0 -336722569.86551666 7284830.0043487549 0 7284830.0043487549 534336202.87130737 0 0 0 0 163905537.89794922 74979141.44367981 0 74979141.44367981 500862602.20111084 0 0 0 0 -241068286.99076843 -153004060.97899246 0 -153004060.97899246 375101240.27780151 0 0 0 0 96437103.042434692 222960388.78279114 0 222960388.78279114 587139544.24008942 0 0 0 0 -244352820.23025894 480372097.76708221 0 480372097.76708221 473145155.17221069 0 0 0 0 100551890.25787354 300351655.66407776 0 300351655.66407776 -1141983.4326934814 0 0 0 0 560486471.82050323 578472676.34024048 0 578472676.34024048 424478831.9916687 0 0 0 0 -940934.54697834561 43704.478497132659 0 43704.478497132659 674250.72577120364 0 0 0 0 96606205.736303329 231574618.25241089 0 231574618.25241089 764226674.0892334 0 0 0 0 -671659431.00015259 -320450947.81912231 0 -320450947.81912231 249091716.82104492 0 0 0 0 248771299.97767448 -82414006.027103424 0 -82414006.027103424 516484817.86398315 0 0 0 0 252083811.21584702 -15291215.251327515 0 -15291215.251327515 773233807.70715332 0 0 0 0 -94867180.806289673 107064282.94277954 0 107064282.94277954 769122195.9263916 0 0 0 0 -401185098.72160339 -330685920.99464417 0 -330685920.99464417 588549491.14454651 0 0 0 0 37640227.06036377 -72005273.384109497 0 -72005273.384109497 729176467.21060181 0 0 0 0 -675024712.94429016 -159382931.57192993 0 -159382931.57192993 669578848.09540558 0 0 0 0 -310200329.60366821 -385920290.45329285 0 -385920290.45329285 190894161.85229492 0 0 0 0 -521319043.54888916 -227473061.29400635 0 -227473061.29400635 194779670.91931963 0 0 0 0 -586672169.36419678 -323116116.96481705 0 -323116116.96481705 57346520.647125244 0 0 0 0 -812930860.6427536 85218764.287185669 0 85218764.287185669 78368528.065429688 0 0 0 0 -1388129221.9602509 370994277.25665665 0 370994277.25665665 -29327091.360107422 0 0 0 0 -1137821255.76091 -472722683.07145691 0 -472722683.07145691 -88025878.435546875 0 0 0 0 -906534822.59860992 -265208596.75669861 0 -265208596.75669861 54796021.02633667 0 0 0 0 -516294251.43603516 -268110023.15187073 0 -268110023.15187073 -337263917.2515564 0 0 0 0 -1256452209.5948906 -150955725.97945404 0 -150955725.97945404 -4394076.1044921875 0 0 0 0 -789414513.09318542 -212348099.53297424 0 -212348099.53297424 -87317126.641571045 0 0 0 0 -580465385.99534607 -179665279.76359558 0 -179665279.76359558 -344735247.73690796 0 0 0 0 -791608461.59935474 -173808131.44923019 0 -173808131.44923019 -688832409.71337891 0 0 0 0 -994737754.22086716 -422551461.62365723 0 -422551461.62365723 -180045579.54057312 0 0 0 0 38602838.051486969 -23469017.468215942 0 -23469017.468215942 -88933.681045532227 0 0 0 0 -1854513.3688448174 332688.49332782254 0 332688.49332782254 -2664789.2129483074 0 0 0 0 -70985.354363277555 -934205.97860580683 0 -934205.97860580683 -483646.58899514377 0 0 0 0 45510092.004042625 136767472.05689383 0 136767472.05689383 351734430.8664856 0 0 0 0 -762771383.70011902 76029310.776290894 0 76029310.776290894 22300612.852142334 0 0 0 0 -2894545.1354923132 -574691.23300180212 0 -574691.23300180212 1492520.6159080416 0 0 0 0 -7105310.2809645683 -6386907.6749261767 0 -6386907.6749261767 -2277729.7798081934 0 0 0 0 110821654.85960388 272183427.35012054 0 272183427.35012054 228338352.58357239 0 0 0 0 25219908.670681 -45567331.016639709 0 -45567331.016639709 -4631690.5032958984 0 0 0 0 29595865.214111328 -35019208.004974365 0 -35019208.004974365 19597848.881851196 0 0 0 0 16933916.872817993 -37009317.683944702 0 -37009317.683944702 15168007.070205688 0 0 0 0 -4500387.091632843 -64187918.277351379 0 -64187918.277351379 -8349041.7598571777 0 0 0 0 -23110664.864998579 -96475908.29577589 0 -96475908.29577589 89596759.14251709 0 0 0 0 -556641211.14919281 -59497573.915550232 0 -59497573.915550232 1443084537.3863068 0 0 0 0 -8949462.2968374193 -8088197.2302824035 0 -8088197.2302824035 -2504069.6462674513 0 0 0 0 1508817.7435302734 -2757381.2924499512 0 -2757381.2924499512 10405622.169883728 0 0 0 0 19254290.029632568 -4603356.7391357422 0 -4603356.7391357422 -9174111.5016784668 0 0 0 0 17063875.407054901 -9564087.6483383179 0 -9564087.6483383179 15904287.62197876 0 0 0 0 -5181686.5306167603 9222931.8740844727 0 9222931.8740844727 -3431825.6514282227 0 0 0 0 13350904.796852112 7320776.0907440186 0 7320776.0907440186 -31918294.307128906 0 0 0 0 15419807.026092052 -19354731.383648694 0 -19354731.383648694 -33973003.74810791 0 0 0 0 33072782.317184448 -25373526.746826172 0 -25373526.746826172 -63879654.83241272 0 0 0 0 33573110.187444687 -30538603.303312302 0 -30538603.303312302 -12289917.228607178 0 0 0 0 41257221.721139908 -24306105.260681152 0 -24306105.260681152 -5597597.7276000977 0 0 0 0 53238152.671707392 -8771868.6300108433 0 -8771868.6300108433 -2266093.308807373 0 0 0 0 44997681.3201828 -27869683.335144043 0 -27869683.335144043 -15934792.453979492 0 0 0 0 52823108.758987427 -24528364.326385498 0 -24528364.326385498 -22931514.376419067 0 0 0 0 113240644.39603043 -24099529.260940552 0 -24099529.260940552 -10531951.950683594 0 0 0 0 -1482656096.4252777 -360191357.88446808 0 -360191357.88446808 56117778.1534729 0 0 0 0 -1910996.6781453053 1752899.2516241893 0 1752899.2516241893 -909849.80137968063 0 0 0 0 -1070921365.5743942 -253692136.93751526 0 -253692136.93751526 -1101678.0095825195 0 0 0 0 -757003961.90892029 -277288218.80793762 0 -277288218.80793762 -47394072.534683228 0 0 0 0 -1159217695.9806519 -149590752.28488922 0 -149590752.28488922 34810782.344543457 0 0 0 0 -1109649902.3802061 -172076257.03497982 0 -172076257.03497982 -137027294.25878906 0 0 0 0 -1093657073.0864897 -352139124.88188791 0 -352139124.88188791 72984232.502456665 0 0 0 0 -1252149773.8751488 -462886253.12809753 0 -462886253.12809753 -196366.81156921387 0 0 0 0 251350099.76190662 -239742074.96309662 0 -239742074.96309662 -1281880.2345581055 0 0 0 0 -1978950592.2237053 -214300983.34333038 0 -214300983.34333038 159244283.0020752 0 0 0 0 -2059158.1851289112 2718991.1147978827 0 2718991.1147978827 133962.70606487989 0 0 0 0 31234495.992614746 -29077864.316184998 0 -29077864.316184998 34851256.848754883 0 0 0 0 13032175.414970398 1542345.1379928589 0 1542345.1379928589 10981459.614040375 0 0 0 0 4089756.9896917157 874846.59718605503 0 874846.59718605503 -4263610.6240228713 0 0 0 0 22511150.952377319 -17906879.705070496 0 -17906879.705070496 -23079.934352529832 0 0 0 0 85671080.483259201 18006888.032527924 0 18006888.032527924 1701020.5375823975 0 0 0 0 -3710762.5104560852 17065837.474327087 0 17065837.474327087 14693066.284622192 0 0 0 0 3406365.0579235498 545304.60534520447 0 545304.60534520447 -4039061.1227543652 0 0 0 0 12460959.353927612 183244.48634338379 0 183244.48634338379 10928489.631361008 0 0 0 0 -43762422.261271954 -11729357.680516243 0 -11729357.680516243 13413373.29385376 0 0 0 0 140691904.54356766 -16208685.232322693 0 -16208685.232322693 -50482778.524093628 0 0 0 0 217578109.35137939 -417284196.64143372 0 -417284196.64143372 -122029679.94464111 0 0 0 0 586758502.45511627 -240479378.1111908 0 -240479378.1111908 -139633387.38152409 0 0 0 0 902595899.64958572 -297348830.91349792 0 -297348830.91349792 -128408496.58325195 0 0 0 0 537664231.62044525 -189735188.13774109 0 -189735188.13774109 -11724014.399291992 0 0 0 0 672118888.68138504 -186260202.63293839 0 -186260202.63293839 -48941939.277008057 0 0 0 0 587474926.52924728 -335156492.41350555 0 -335156492.41350555 -107353073.53387451 0 0 0 0 512500746.00165939 -331443585.53943443 0 -331443585.53943443 -173858588.81546021 0 0 0 0 175302158.14465332 -320818584.90170288 0 -320818584.90170288 -48446236.88621521 0 0 0 0 330756816.16828156 -396250105.03216553 0 -396250105.03216553 -116250663.82342529 0 0 0 0 -54822389.26751709 -277635572.02693176 0 -277635572.02693176 -55915075.345199585 0 0 0 0 13013297.152648926 -434541886.22878265 0 -434541886.22878265 -101943593.6418457 0 0 0 0 174580091.71702957 -333324245.81991386 0 -333324245.81991386 -169919691.89349365 0 0 0 0 -723480118.02662659 -212782332.60844421 0 -212782332.60844421 -26657317.623153687 0 0 0 0 -559684748.0913887 -401066404.63000488 0 -401066404.63000488 -123087901.56544495 0 0 0 0 -137583788.55696106 -411419453.42638397 0 -411419453.42638397 -108084532.28111267 0 0 0 0 -483342725.60402679 -247106907.11367035 0 -247106907.11367035 30678739.990264893 0 0 0 0 20909114.469108582 -546189180.50529861 0 -546189180.50529861 -61493300.956481934 0 0 0 0 -678402234.40962982 -128719883.80470276 0 -128719883.80470276 -100268004.39650726 0 0 0 0 -419813849.91713142 -519698116.27974319 0 -519698116.27974319 -65754.230758666992 0 0 0 0 340355787.72375488 -154901901.93049622 0 -154901901.93049622 -30265141.87487793 0 0 0 0 566861562.48925781 -537508385.12944984 0 -537508385.12944984 509537.08242797852 0 0 0 0 586665055.73673058 -261860012.27480125 0 -261860012.27480125 16486386.270904541 0 0 0 0 1882567381.5308228 -19565746.28502655 0 -19565746.28502655 -122481324.58750916 0 0 0 0 -208247076.02842712 -57297862.312690735 0 -57297862.312690735 -33185.990203857422 0 0 0 0 -97848467.094573975 -119799379.62368774 0 -119799379.62368774 -10897677.825134277 0 0 0 0 -1104184.0864654034 2450362.517815873 0 2450362.517815873 2018203.8477577716 0 0 0 0 -300895217.62963867 -115608212.79940796 0 -115608212.79940796 38203441.682678223 0 0 0 0 -175345240.54595947 -84780324.560821533 0 -84780324.560821533 -39508894.777679443 0 0 0 0 -173575364.55563736 -47353540.057534218 0 -47353540.057534218 21684753.040649414 0 0 0 0 -28643692.01902771 -17709484.032440186 0 -17709484.032440186 14680120.707778931 0 0 0 0 -233890001.54244995 -112691490.09738159 0 -112691490.09738159 30123715.401733398 0 0 0 0 -197778440.40670776 -89737571.108032227 0 -89737571.108032227 5776191.6547546387 0 0 0 0 -189362668.65309143 -128834071.82522583 0 -128834071.82522583 38278658.51008606 0 0 0 0 -221420876.18649673 -58245516.688911438 0 -58245516.688911438 114749268.70108032 0 0 0 0 -313292.05083834846 1483592.5788997822 0 1483592.5788997822 235319.8735486865 0 0 0 0 -77379023.89125061 34738972.819690704 0 34738972.819690704 -54365290.950195312 0 0 0 0 -336562935.15235901 -90060822.077102661 0 -90060822.077102661 58228871.102996826 0 0 0 0 -300393649.34521484 -56297610.884857178 0 -56297610.884857178 33784032.991394043 0 0 0 0 -211761182.34382629 -68663946.34085083 0 -68663946.34085083 -11409537.969024658 0 0 0 0 -45360877.249977112 -75925718.884651184 0 -75925718.884651184 -72965191.283035278 0 0 0 0 1196763351.6246376 48183150.380981445 0 48183150.380981445 -87258431.191009521 0 0 0 0 -1503935.6083566733 971040.67168779671 0 971040.67168779671 3548600.1703836173 0 0 0 0 -211135.8647641819 1490883.6471612528 0 1490883.6471612528 83843.47128790617 0 0 0 0 -35574401.252342224 -25248439.429473877 0 -25248439.429473877 29661423.319244385 0 0 0 0 -284201572.24408722 -142860571.27000427 0 -142860571.27000427 61969683.336578369 0 0 0 0 -230018224.71691895 -182369796.44532013 0 -182369796.44532013 -31630926.423080444 0 0 0 0 -110221767.46355438 -154956343.06285858 0 -154956343.06285858 -125520959.23745728 0 0 0 0 923211.84462032095 -1062228.908304045 0 -1062228.908304045 -297919.31233538687 0 0 0 0 -259537170.01387024 7760552.7945098877 0 7760552.7945098877 8828905.4072875977 0 0 0 0 571223.94485473633 123600.80024719238 0 123600.80024719238 -44724368.224365234 0 0 0 0 -260272.32911311928 -1061950.1185667403 0 -1061950.1185667403 450253.0378998667 0 0 0 0 628039695.24383545 -147840519.6864624 0 -147840519.6864624 -67029051.315610886 0 0 0 0 612973425.76163673 -133217370.59644699 0 -133217370.59644699 -12867030.454101562 0 0 0 0 -2078993.38382129 168246.23410367221 0 168246.23410367221 3963016.6509931535 0 0 0 0 64809395.02394104 -16848620.591217041 0 -16848620.591217041 -46666373.28968811 0 0 0 0 94327904.129684448 -97086528.091552734 0 -97086528.091552734 -100077583.02719116 0 0 0 0 -257619919.14538574 -127462056.4486084 0 -127462056.4486084 -19355979.774993896 0 0 0 0 -87514016.887298584 -201599294.51913452 0 -201599294.51913452 -130763426.30465698 0 0 0 0 -226048269.9680481 12798153.37348938 0 12798153.37348938 200966373.46511841 0 0 0 0 229541423.04908752 -101027564.97131348 0 -101027564.97131348 -210370140.2816925 0 0 0 0 -682715.12672693282 -1751873.5377570987 0 -1751873.5377570987 897254.11474744976 0 0 0 0 139672780.14487648 121878867.65515137 0 121878867.65515137 60961584.242904663 0 0 0 0 86862851.846164703 -116453894.60155487 0 -116453894.60155487 64468655.610336304 0 0 0 0 250036586.78195953 42246234.024211884 0 42246234.024211884 -13905831.676544189 0 0 0 0 -23705640.542098999 -37439156.608062744 0 -37439156.608062744 -31972223.382148743 0 0 0 0 34984184.120147705 -42559372.447280884 0 -42559372.447280884 -33161423.639282227 0 0 0 0 -61430222.498443604 -79772085.325241089 0 -79772085.325241089 92260.17282774036 0 0 0 0 118927339.06273651 -108004280.49636078 0 -108004280.49636078 -368243.06872558594 0 0 0 0 123632236.50016022 -124216728.61575317 0 -124216728.61575317 -69958067.950134277 0 0 0 0 -3148514.0848051682 -3325674.3532112241 0 -3325674.3532112241 3076378.8962199837 0 0 0 0 69460579.253204346 -57484374.333343506 0 -57484374.333343506 -149403649.71411133 0 0 0 0 -8189758.4777526855 -7290794.3351593018 0 -7290794.3351593018 9240.4154588333968 0 0 0 0 -13547106.567718506 -2409674.3000183105 0 -2409674.3000183105 -99266737.586730957 0 0 0 0 34153082.886932373 -27604865.898651123 0 -27604865.898651123 -86607583.364532471 0 0 0 0 -28379572.484352112 -7350339.7932281494 0 -7350339.7932281494 -56497519.361846924 0 0 0 0 35359334.785766602 -44352965.564453125 0 -44352965.564453125 -43640056.05695343 0 0 0 0 26683424.741149902 -27341898.31124115 0 -27341898.31124115 -56199112.027824402 0 0 0 0 -107986703.74710464 -96395979.815093994 0 -96395979.815093994 -119617126.09225464 0 0 0 0 -35074665.668777466 -41923344.598155975 0 -41923344.598155975 -38885768.606185913 0 0 0 0 -49857891.162981033 -83819973.014026642 0 -83819973.014026642 -121005691.78721619 0 0 0 0 -78676729.283874512 -36604531.950515747 0 -36604531.950515747 -119903.9875793457 0 0 0 0 -2827504.3682441711 -3092882.8856325299 0 -3092882.8856325299 2841459.231093511 0 0 0 0 4971538.4289588928 -44520247.222394943 0 -44520247.222394943 -114823069.3818512 0 0 0 0 -10877254.929443359 -12841207.098526001 0 -12841207.098526001 -66388173.059906006 0 0 0 0 -1516282.1155654937 -1647037.0152474046 0 -1647037.0152474046 1510882.8593031615 0 0 0 0 -38057067.068984985 -92891483.349182129 0 -92891483.349182129 -63659074.632476807 0 0 0 0 -194884676.94927979 -277011823.1681366 0 -277011823.1681366 -182782287.21401978 0 0 0 0 -21585369.736358643 -69359691.704605103 0 -69359691.704605103 -139654463.50468445 0 0 0 0 -324085.23300170898 -29955752.373703003 0 -29955752.373703003 -329906.58401489258 0 0 0 0 12693078.127370834 49834692.636260033 0 49834692.636260033 -58212436.515594482 0 0 0 0 -882443.1720123291 -34574268.872177124 0 -34574268.872177124 -50802606.422340393 0 0 0 0 4831354.0017547607 -10547591.899475098 0 -10547591.899475098 -4728715.5071792603 0 0 0 0 -897023.06060872972 -5924999.3965157941 0 -5924999.3965157941 888013.17164565623 0 0 0 0 -15653351.78131485 7550369.3844680786 0 7550369.3844680786 4382425.8817901611 0 0 0 0 75844365.316268921 -44597973.009941101 0 -44597973.009941101 -7107136.6505737305 0 0 0 0 -285623038.82138062 48466835.457717896 0 48466835.457717896 82960058.008972168 0 0 0 0 -1934558.7187667638 -1327216.2279637828 0 -1327216.2279637828 552795.38467415422 0 0 0 0 -438639008.65582275 -156784583.73876953 0 -156784583.73876953 1374272.830871582 0 0 0 0 742273.97171391547 -2346508.3175252657 0 -2346508.3175252657 -3617395.9961541295 0 0 0 0 -5215136.7670593262 639663.64807128906 0 639663.64807128906 2587407.5782165527 0 0 0 0 -934295.35784381628 -3948589.7296208739 0 -3948589.7296208739 1350344.5841672346 0 0 0 0 18075379.618942261 -35966014.365867615 0 -35966014.365867615 -39308064.240562439 0 0 0 0 5529410.5191040039 -11070556.598419189 0 -11070556.598419189 -5099622.6465454102 0 0 0 0 13650849.589935303 -642580.81010437012 0 -642580.81010437012 -9964569.0958251953 0 0 0 0 36439881.841644287 18723176.028656006 0 18723176.028656006 2640788.2104187012 0 0 0 0 52940271.622192383 5076497.4804077148 0 5076497.4804077148 -27036875.321380615 0 0 0 0 34400663.082946777 -16772998.61000061 0 -16772998.61000061 -35185319.430984497 0 0 0 0 52357962.907958984 -686727.2000579834 0 -686727.2000579834 -58454486.888366699 0 0 0 0 46919452.077941895 -27416862.434844971 0 -27416862.434844971 -45028241.890533447 0 0 0 0 26512137.905548096 -37790314.670944214 0 -37790314.670944214 -20873014.53314209 0 0 0 0 19283854.494842529 -50716433.785385132 0 -50716433.785385132 -43652889.430969238 0 0 0 0 25779275.641525269 -33245014.685913086 0 -33245014.685913086 -10412617.747711182 0 0 0 0 37612201.710235596 -9052794.9966812134 0 -9052794.9966812134 -17372124.907989502 0 0 0 0 17575501.151947021 -21525795.010887146 0 -21525795.010887146 1085952.5577087402 0 0 0 0 4260633.1323699951 -11544993.833328247 0 -11544993.833328247 -5273861.0350646973 0 0 0 0 19917934.224533081 -23368836.313156128 0 -23368836.313156128 -25450393.139266968 0 0 0 0 131351431.4385376 -117534778.86300659 0 -117534778.86300659 -39087113.02722168 0 0 0 0 9485275.3312430382 -30828765.470034599 0 -30828765.470034599 -3586577.8084106445 0 0 0 0 -10949228.11766842 -9348572.3228917532 0 -9348572.3228917532 -1122001.1348054558 0 0 0 0 8386211.4874420166 -47538647.429908752 0 -47538647.429908752 24880711.600097656 0 0 0 0 -858580.34494189173 -1223295.0658992454 0 -1223295.0658992454 -425536.91617093235 0 0 0 0 48874796.92980957 -57887613.866333008 0 -57887613.866333008 -1931482.7538146973 0 0 0 0 20585953.957763672 -36801729.656341553 0 -36801729.656341553 -286856.56921386719 0 0 0 0 5539786.9584350586 -45661994.435424805 0 -45661994.435424805 16016091.163574219 0 0 0 0 5121444.8379821777 -45870899.018295288 0 -45870899.018295288 -691599.11029052734 0 0 0 0 6579871.5455856323 -47794756.823478699 0 -47794756.823478699 -2487678.7965087891 0 0 0 0 12756127.152359009 -47813389.490478516 0 -47813389.490478516 -15761981.56842041 0 0 0 0 22227193.491485596 -37935272.389801025 0 -37935272.389801025 -13688053.098205566 0 0 0 0 -32389480.416931152 31119433.727416992 0 31119433.727416992 88390649.0859375 0 0 0 0 187557186.88464355 -5279947.9282150269 0 -5279947.9282150269 6291459.7325439453 0 0 0 0 84168050.979293823 100156047.00563049 0 100156047.00563049 120656197.76925659 0 0 0 0 -6071781.4476862624 -5890695.2302861772 0 -5890695.2302861772 -2737519.0749364644 0 0 0 0 4487055.820098877 -10730725.630783081 0 -10730725.630783081 -4807374.5337219238 0 0 0 0 -54206041.383077621 -51419795.72678566 0 -51419795.72678566 140449703.43759155 0 0 0 0 -261787495.86729431 -91629461.546096802 0 -91629461.546096802 132962392.63939285 0 0 0 0 119838818.47790718 -188569170.50764465 0 -188569170.50764465 -289101775.07928467 0 0 0 0 146877544.43545532 92694159.31477356 0 92694159.31477356 -282782868.82937765 0 0 0 0 -187048835.46055603 90460461.197402954 0 90460461.197402954 137466441.08715439 0 0 0 0 14299114.087081909 53896458.105796814 0 53896458.105796814 -275296153.2668457 0 0 0 0 -306805.09093873948 -624101.2418664135 0 -624101.2418664135 -454345.27661290765 0 0 0 0 -33472180.063049316 -2399923.928527832 0 -2399923.928527832 29645520.868667603 0 0 0 0 -28090943.440948486 -209730677.49636841 0 -209730677.49636841 -144679157.1847229 0 0 0 0 -46203712.355779648 -91653600.798551559 0 -91653600.798551559 205164828.7074585 0 0 0 0 -748600.51882211864 2074056.4023581147 0 2074056.4023581147 2087307.5091171153 0 0 0 0 -8900588.5074920654 -10342456.578674316 0 -10342456.578674316 18223329.086074829 0 0 0 0 -16074525.737677813 -12508420.959358569 0 -12508420.959358569 2896348.8884647042 0 0 0 0 -6945184.8794972748 -11273195.636478201 0 -11273195.636478201 -5118660.5212233067 0 0 0 0 -303422571.54449463 166782354.07535934 0 166782354.07535934 277703022.11080933 0 0 0 0 -42039833.598068237 -77062516.160667419 0 -77062516.160667419 125432836.20063972 0 0 0 0 -21231861.698405653 -13771922.863872573 0 -13771922.863872573 5699630.8966952488 0 0 0 0 -66730206.648696899 -56819095.744407654 0 -56819095.744407654 269938749.25971222 0 0 0 0 -24894796.839645386 -66712918.774147034 0 -66712918.774147034 113184838.07597351 0 0 0 0 14117867.088256836 -49010044.919158936 0 -49010044.919158936 -805487.19129180908 0 0 0 0 -5390496.8269309998 -12249329.830322266 0 -12249329.830322266 15034859.458435059 0 0 0 0 -8679787.2748636603 -15562325.154634926 0 -15562325.154634926 -5730390.1324440688 0 0 0 0 -1294094.0701904297 -49534551.962799072 0 -49534551.962799072 2138377.9345397949 0 0 0 0 -3652619.0808258057 -55075156.03817749 0 -55075156.03817749 6073072.3103637695 0 0 0 0 -2122935.4165802002 -13339968.25163269 0 -13339968.25163269 2293609.045501709 0 0 0 0 -4862416.6763457507 -12407806.517542072 0 -12407806.517542072 -4526032.1435201913 0 0 0 0 132670688.90429688 128308648.05813599 0 128308648.05813599 101823896.33882904 0 0 0 0 -4074160.6846008301 -69594237.879314423 0 -69594237.879314423 46574234.634384155 0 0 0 0 -3806716.7972869873 -73201227.51158905 0 -73201227.51158905 28558678.242139816 0 0 0 0 -12787992.85280171 -21861135.83766523 0 -21861135.83766523 -8283491.275506489 0 0 0 0 16065397.730987549 -23790478.498825073 0 -23790478.498825073 9494538.9868087769 0 0 0 0 -3050818.5612250343 -22516320.181886207 0 -22516320.181886207 -12662370.183098989 0 0 0 0 -13801936.164941907 -20978140.297218449 0 -20978140.297218449 -4765840.6487910077 0 0 0 0 -15302302.606063843 -45153204.584823608 0 -45153204.584823608 16107144.098052979 0 0 0 0 -19621426.221328735 -50127916.277130127 0 -50127916.277130127 9580218.2925415039 0 0 0 0 -658928.84761428833 -44575681.476695061 0 -44575681.476695061 10716785.461547852 0 0 0 0 -3964695.698425293 -51546778.983337402 0 -51546778.983337402 3496474.5252685547 0 0 0 0 -40828425.696533203 -25066920.157241821 0 -25066920.157241821 20368779.565963745 0 0 0 0 -26286140.079566956 -54634630.444206238 0 -54634630.444206238 8181338.7650756836 0 0 0 0 -4286591.304261148 -18100934.986399099 0 -18100934.986399099 -6325390.2163108066 0 0 0 0 -16662579.238079071 -23391805.216900826 0 -23391805.216900826 20480722.234283447 0 0 0 0 -16272144.431762695 -20280479.628112793 0 -20280479.628112793 -9327537.3374328613 0 0 0 0 9454730.0846328735 -13204536.648590088 0 -13204536.648590088 -4528956.313293457 0 0 0 0 4666264.9070281982 -21237879.817253113 0 -21237879.817253113 -14896266.789428711 0 0 0 0 13744802.48059082 485235.2890625 0 485235.2890625 -18128967.746551514 0 0 0 0 -5703550.3276977539 -14329373.868225098 0 -14329373.868225098 -6751396.9513778687 0 0 0 0 -13700186.121032715 -10000414.986724854 0 -10000414.986724854 1497745.3887252808 0 0 0 0 -3329354.5868377686 -24164904.253112793 0 -24164904.253112793 -16744168.326904297 0 0 0 0 -6533065.5384854451 -7603025.1735458672 0 -7603025.1735458672 -7931217.7503367513 0 0 0 0 203385.79755321145 -1422645.6767861843 0 -1422645.6767861843 -571400.10263076052 0 0 0 0 -14421541.413067656 -17005977.790724814 0 -17005977.790724814 -7171775.9100593328 0 0 0 0 -14862512.447509766 -23177634.331588745 0 -23177634.331588745 -26800130.777587891 0 0 0 0 3857176.8707800433 -20966115.167999163 0 -20966115.167999163 -20455711.205764219 0 0 0 0 -24524214.718139648 -9245691.0486450195 0 -9245691.0486450195 -25776449.965255737 0 0 0 0 -14001296.543884277 -28004062.793701172 0 -28004062.793701172 -30485936.488220215 0 0 0 0 -9558770.3336472511 -19940526.763629597 0 -19940526.763629597 5323031.0003441684 0 0 0 0 131530.20005266368 -317695.05556070805 0 -317695.05556070805 -638650.22593891621 0 0 0 0 -3883727.8646240234 -22266929.711425781 0 -22266929.711425781 -19694962.911804199 0 0 0 0 10785142.95715332 -38742796.775390625 0 -38742796.775390625 -496743.61106109619 0 0 0 0 15604837.975679874 -12245448.324886389 0 -12245448.324886389 -10811883.030644318 0 0 0 0 34578469.532333374 -49761520.08114624 0 -49761520.08114624 -10843535.197052002 0 0 0 0 -661180.43188476562 -35188111.698120117 0 -35188111.698120117 -8584840.8151855469 0 0 0 0 -13035558.909790039 -892575.39727783203 0 -892575.39727783203 -29592354.156005859 0 0 0 0 5621034.3094482422 -39413901.154998779 0 -39413901.154998779 -11860310.080200195 0 0 0 0 -9418741.001159668 -29478062.168273926 0 -29478062.168273926 -14517870.414245605 0 0 0 0 1096595.2444458008 -27349946.205810547 0 -27349946.205810547 -17850982.719726562 0 0 0 0 3991604.3046264648 -29893686.389892578 0 -29893686.389892578 -16035042.291351318 0 0 0 0 6549304.8449554443 -26595019.875274658 0 -26595019.875274658 -20912594.968017578 0 0 0 0 14898199.868438721 -32597520.258544922 0 -32597520.258544922 -23170762.358276367 0 0 0 0 13990392.934135437 -33954655.554931641 0 -33954655.554931641 -22914088.968322754 0 0 0 0 2178969.3572692871 -16014058.054351807 0 -16014058.054351807 -14783539.284667969 0 0 0 0 1250854.1688054064 678764.68164964393 0 678764.68164964393 99981.660622015595 0 0 0 0 42344995.242142677 -34361510.918499947 0 -34361510.918499947 -33547114.493530273 0 0 0 0 21190896.054199219 -21266567.755218506 0 -21266567.755218506 -41505454.261554718 0 0 0 0 18950860.721763611 -25031440.429534912 0 -25031440.429534912 -24112395.652587891 0 0 0 0 4310317.9796142578 -24483682.064025879 0 -24483682.064025879 -22255299.295013428 0 0 0 0 3759168.434173584 -13929590.692871094 0 -13929590.692871094 -31538431.138366699 0 0 0 0 12758223.174766541 -18043986.102104187 0 -18043986.102104187 -31615434.131286621 0 0 0 0 12406991.169158936 -13030342.758239746 0 -13030342.758239746 -22108257.796127319 0 0 0 0 15598972.945831299 -11872456.7762146 0 -11872456.7762146 -21884880.737548828 0 0 0 0 22673097.570861816 -13045283.277770996 0 -13045283.277770996 -40342211.117851257 0 0 0 0 23954667.525024414 -4407622.5966835022 0 -4407622.5966835022 -22553011.288818359 0 0 0 0 -49066286.609119415 -8117577.7675056458 0 -8117577.7675056458 8959863.0661010742 0 0 0 0 -50247591.460388184 -22291479.006973267 0 -22291479.006973267 -8643620.2410888672 0 0 0 0 53741259.12878418 10280082.804672241 0 10280082.804672241 -15303710.886730194 0 0 0 0 -4708641.1605250966 -8273215.1419541016 0 -8273215.1419541016 8557677.4475196302 0 0 0 0 -4852967.331009198 -6505641.6800754815 0 -6505641.6800754815 -3167262.8841078132 0 0 0 0 -24261799.417701721 -27486222.571235657 0 -27486222.571235657 19529618.668136597 0 0 0 0 -3253471.6772155762 -23288821.257659912 0 -23288821.257659912 -12565015.410827637 0 0 0 0 -2739032.5607910156 -16251080.340316772 0 -16251080.340316772 -3784752.4760742188 0 0 0 0 -35351608.572067261 -12901845.687896729 0 -12901845.687896729 -5351740.3745727539 0 0 0 0 -6334518.8010061681 -877608.40680618584 0 -877608.40680618584 5912191.8268126845 0 0 0 0 -77680844.689964294 -31512157.692047119 0 -31512157.692047119 20220790.698303223 0 0 0 0 -33039729.336120605 1208824.1681137085 0 1208824.1681137085 963273.83973693848 0 0 0 0 16801630.816833496 -13184746.059570312 0 -13184746.059570312 7572798.6381225586 0 0 0 0 6106984.386098519 -2229776.2827742174 0 -2229776.2827742174 -4008733.6213938892 0 0 0 0 12794507.419418335 -9123917.6538848877 0 -9123917.6538848877 1321862.1558227539 0 0 0 0 17959931.482955933 -16328005.466400146 0 -16328005.466400146 2627647.7483978271 0 0 0 0 4797467.5581054688 -8768886.8273010254 0 -8768886.8273010254 -750583.69598388672 0 0 0 0 16437423.765136719 -16788312.7940979 0 -16788312.7940979 4815841.9703369141 0 0 0 0 28789788.483703613 -643813.4453125 0 -643813.4453125 -320241.73776245117 0 0 0 0 -1181766.9513643682 -6396827.9809716083 0 -6396827.9809716083 943870.17871312797 0 0 0 0 -764953.70238262415 169366.04148826748 0 169366.04148826748 188477.2530913949 0 0 0 0 505857641.98484135 -242335745.54452324 0 -242335745.54452324 52110304.395324707 0 0 0 0 -1513829.6457672119 790257.92359161377 0 790257.92359161377 510056.34008789062 0 0 0 0 -35240907.909362793 -5373712.4894256592 0 -5373712.4894256592 -123954.7275390625 0 0 0 0 5317258.7126310766 -5405917.675540505 0 -5405917.675540505 1788093.4813241661 0 0 0 0 579599352.82957458 -173101409.44032288 0 -173101409.44032288 69604317.394710541 0 0 0 0 -112290900.65684509 21497167.685012817 0 21497167.685012817 5052339.4817199707 0 0 0 0 -140416861.38660812 -67470460.849212646 0 -67470460.849212646 9972363.4446716309 0 0 0 0 -59301508.272888184 -93449554.00100708 0 -93449554.00100708 -15642753.512901306 0 0 0 0 -59327901.801399559 -99586104.062010914 0 -99586104.062010914 -38025225.493682861 0 0 0 0 8571699.5724334717 -52147580.579589844 0 -52147580.579589844 -17166080.408966064 0 0 0 0 -1004184.8912811279 -73936098.308288574 0 -73936098.308288574 -26779128.842971802 0 0 0 0 1946969.5641784668 -54502017.819976807 0 -54502017.819976807 -17843052.035476685 0 0 0 0 -20315672.169195175 -56321051.92625618 0 -56321051.92625618 2173010.6674194336 0 0 0 0 -19803525.970144272 -53125247.711990356 0 -53125247.711990356 5161277.9034423828 0 0 0 0 -48346056.206573486 -44849685.581298828 0 -44849685.581298828 15520976.782791138 0 0 0 0 -58745300.895507812 -65475751.275756836 0 -65475751.275756836 1542990.6940307617 0 0 0 0 -825632814.99556732 -3606167314.3908577 0 -3606167314.3908577 -791108349.99742889 0 0 0 0 -3960531.8402963146 -2158622260.1549382 0 -2158622260.1549382 -2016509898.0021515 0 0 0 0 -1562022839.7202148 -2009799759.1892452 0 -2009799759.1892452 -1228493863.8164062 0 0 0 0 1023345.9765453339 -3075214.085314244 0 -3075214.085314244 -1141040.6006949544 0 0 0 0 -2932337427.3095016 -4113618290.8840904 0 -4113618290.8840904 846678.544090271 0 0 0 0 -3864232157.5350647 -3406040589.4191284 0 -3406040589.4191284 765560698.99013901 0 0 0 0 -6620585573.0968628 -2693735799.3660431 0 -2693735799.3660431 604101557.29229736 0 0 0 0 -6593169.4038981795 -4108905.4797850884 0 -4108905.4797850884 -1449455.3421791047 0 0 0 0 -7777531852.02911 1129456413.9245453 0 1129456413.9245453 190230658.68202209 0 0 0 0 -3185997197.4578838 680688783.00516033 0 680688783.00516033 148402569.77966309 0 0 0 0 -1893011004.9717369 -781391979.14428329 0 -781391979.14428329 684489334.84295654 0 0 0 0 701036.44511899352 -1578838.4053921327 0 -1578838.4053921327 -426049.22590119392 0 0 0 0 -1796746077.4481506 -2110254760.7751617 0 -2110254760.7751617 1549156401.9115753 0 0 0 0 -1524635363.374939 -771734419.14479065 0 -771734419.14479065 -851014561.77577209 0 0 0 0 -2348641406.3743591 -2666423032.8104706 0 -2666423032.8104706 -1475505310.310257 0 0 0 0 -1229108074.8190002 -853669422.14282227 0 -853669422.14282227 186695986.68677902 0 0 0 0 -456723447.67878723 431616990.74443817 0 431616990.74443817 310016801.8768692 0 0 0 0 -153154367.7596817 -108953103.80631256 0 -108953103.80631256 381075760.81460571 0 0 0 0 -6244011.1773180068 -17252904.730230208 0 -17252904.730230208 -18429899.831987113 0 0 0 0 335086801.28481293 -585141314.66782761 0 -585141314.66782761 -154804087.48924255 0 0 0 0 152831075.22673035 -111571990.35346222 0 -111571990.35346222 -111174157.09133911 0 0 0 0 -150435152.93437958 71451276.473381042 0 71451276.473381042 105767621.01846313 0 0 0 0 -1615773204.1070709 -443842743.79972839 0 -443842743.79972839 896844425.14192963 0 0 0 0 -1659501434.7136841 -146832366.94677734 0 -146832366.94677734 380238179.2187016 0 0 0 0 -9019923.1924799234 -11374673.937640866 0 -11374673.937640866 -9405280.6371536255 0 0 0 0 81308524.852912903 -60123821.302661896 0 -60123821.302661896 36465.759826660156 0 0 0 0 -57736802.983390808 -67020061.054218292 0 -67020061.054218292 -29387.773452758789 0 0 0 0 23769469.915405273 3458052.0246887207 0 3458052.0246887207 13502317.41607666 0 0 0 0 -44365119.091033936 -60069284.536598206 0 -60069284.536598206 55346759.528289795 0 0 0 0 -43066384.943087578 -45312115.272862911 0 -45312115.272862911 -11664714.279571533 0 0 0 0 -111712057.99685669 -83788705.145721436 0 -83788705.145721436 334440805.61549377 0 0 0 0 584571918.65135956 214358580.40691662 0 214358580.40691662 -108703652.6121521 0 0 0 0 -166052447.09091187 -27783185.246604919 0 -27783185.246604919 43013888.852424622 0 0 0 0 -1875983.6226775264 3129986.1480482146 0 3129986.1480482146 347591.09925355017 0 0 0 0 112823218.27694702 -39154866.482147217 0 -39154866.482147217 338296.88584967214 0 0 0 0 -165688954.63288879 6344680.5186157227 0 6344680.5186157227 76952952.807952881 0 0 0 0 -503698701.87017822 -177475171.96096802 0 -177475171.96096802 162862096.18544006 0 0 0 0 -119518578.7795105 -99090825.131835938 0 -99090825.131835938 26109661.178543091 0 0 0 0 106514542.44628906 348816346.01550293 0 348816346.01550293 115184530.41491699 0 0 0 0 -104825968.27766418 29013589.354743958 0 29013589.354743958 -442263612.73138428 0 0 0 0 -1138565803.5584106 667183423.8760376 0 667183423.8760376 -827813622.42144775 0 0 0 0 -211707967.63476562 -478393964.32287598 0 -478393964.32287598 -521305330.6789093 0 0 0 0 8790983.5163459778 6226305.5325536728 0 6226305.5325536728 -337343159.2802124 0 0 0 0 573649.02369513363 -692892.37221904285 0 -692892.37221904285 -1574305.2731487453 0 0 0 0 -73234645.04864502 -40915006.47467041 0 -40915006.47467041 998102.59895515442 0 0 0 0 -599289160.97892761 330744076.06047058 0 330744076.06047058 -24002686.34072876 0 0 0 0 -248124852.94281006 -620785481.97769165 0 -620785481.97769165 -363654436.72143555 0 0 0 0 -44895773.989700317 -38199282.378471375 0 -38199282.378471375 -23465399.494567871 0 0 0 0 -2603859.0251635178 867618.40647628158 0 867618.40647628158 1120401.5155070573 0 0 0 0 766173573.01078796 -178688053.18201447 0 -178688053.18201447 -577688471.92356873 0 0 0 0 -736968.40631977469 -338092.38429557532 0 -338092.38429557532 1053705.5118393302 0 0 0 0 74834072.338920593 63416218.865005493 0 63416218.865005493 117428392.14263916 0 0 0 0 4311429.558303833 -64199729.187164307 0 -64199729.187164307 37140871.251358032 0 0 0 0 -9217098.6964475885 -7878508.9258793816 0 -7878508.9258793816 4732719.9118094444 0 0 0 0 15261998.712249756 -469268.39488983154 0 -469268.39488983154 -531619.06196594238 0 0 0 0 1873573.4723695964 -2403167.2755488716 0 -2403167.2755488716 -3377792.2418451756 0 0 0 0 266015234.95695496 188077479.66428947 0 188077479.66428947 -18945644.739013672 0 0 0 0 205754487.53431702 -404419233.15789795 0 -404419233.15789795 301983874.2929306 0 0 0 0 -169408873.24475098 414349060.17362976 0 414349060.17362976 499834259.27575684 0 0 0 0 21343184.07093811 -29575971.712371826 0 -29575971.712371826 -25082695.991943359 0 0 0 0 3372540.9316711426 7395987.2129058838 0 7395987.2129058838 -44176696.615325928 0 0 0 0 -466595771.28686523 -575977964.55996704 0 -575977964.55996704 242300498.98754883 0 0 0 0 -150135.37199766934 -1781039.2640370466 0 -1781039.2640370466 -1707251.9643315673 0 0 0 0 3164546.0145312548 -5660527.64387393 0 -5660527.64387393 2654339.4713745117 0 0 0 0 4681210.4134741873 1181939.5606902726 0 1181939.5606902726 -4083295.243789658 0 0 0 0 -3171549.5364037994 -16618540.700105287 0 -16618540.700105287 -20936666.574043781 0 0 0 0 35906671.346152306 13318012.688364029 0 13318012.688364029 -55447878.260345459 0 0 0 0 22957456.107818604 -19952232.087554932 0 -19952232.087554932 -56091264.948406219 0 0 0 0 16904018.916279316 -4837719.7332816124 0 -4837719.7332816124 -79998183.552886963 0 0 0 0 -40043726.307569504 -119844769.84706879 0 -119844769.84706879 3249763.5087890625 0 0 0 0 7392747.7337036133 -40523484.800613403 0 -40523484.800613403 -22396167.603622437 0 0 0 0 8020893.9203796387 -42621626.040939331 0 -42621626.040939331 -107154061.9319458 0 0 0 0 -16702842.62878418 -20601368.87701416 0 -20601368.87701416 49060646.739723206 0 0 0 0 -15701533.152276993 -22527073.613393784 0 -22527073.613393784 -5101634.6303253174 0 0 0 0 -20448215.662975192 -9020443.4083609208 0 -9020443.4083609208 7901955.6055033728 0 0 0 0 -74670057.823883057 -95072626.398147583 0 -95072626.398147583 748511259.59479523 0 0 0 0 -929474.63805729151 -2285384.7077855915 0 -2285384.7077855915 -323463.81170005724 0 0 0 0 214973741.25328064 -822266097.11175537 0 -822266097.11175537 2507453896.2363281 0 0 0 0 -843850.48655283265 -1832951.7958840951 0 -1832951.7958840951 -84969.229312419891 0 0 0 0 10512649.181732178 -32317165.998687744 0 -32317165.998687744 -15617699.502006531 0 0 0 0 3170580.5006526974 -12021850.68540857 0 -12021850.68540857 -24739890.636331722 0 0 0 0 533769353.55352783 104924572.26876068 0 104924572.26876068 -7448136.2355041504 0 0 0 0 1020518391.6653185 -205365105.70730066 0 -205365105.70730066 -18960763.245422363 0 0 0 0 208520756.18301392 -318829669.48524475 0 -318829669.48524475 365449025.67028809 0 0 0 0 231070707.21148682 -145353706.62677002 0 -145353706.62677002 1170126582.6281433 0 0 0 0 2068884187.0218506 -155239701.45361328 0 -155239701.45361328 -237540926.52716064 0 0 0 0 -252865656.47280884 63275217.483428955 0 63275217.483428955 277181858.20401382 0 0 0 0 -43111735.02620697 -484821616.87992096 0 -484821616.87992096 138070416.67893982 0 0 0 0 -65894300.212585449 -201776368.10215759 0 -201776368.10215759 -511019674.45135498 0 0 0 0 835624614.99617863 -83872228.19670248 0 -83872228.19670248 -350613665.88877869 0 0 0 0 -61129357.806427002 -339727520.23896027 0 -339727520.23896027 28837132.847387314 0 0 0 0 -351935260.46116638 -166828245.73129272 0 -166828245.73129272 254069292.98348236 0 0 0 0 678501.72388252616 65388.546542823315 0 65388.546542823315 -1280745.1903671771 0 0 0 0 -578408711.71718025 -1089907640.8306284 0 -1089907640.8306284 -727868230.2494812 0 0 0 0 -998335645.719944 -1224397458.7161407 0 -1224397458.7161407 -461729633.1683197 0 0 0 0 -1342964144.0144806 -601014691.48863983 0 -601014691.48863983 -186070713.83930588 0 0 0 0 404827.94849261642 -370924.7942097038 0 -370924.7942097038 -1326278.2827103287 0 0 0 0 -566222270.74191284 -718939727.76655579 0 -718939727.76655579 -547438271.47557068 0 0 0 0 -667077926.53155518 -463914496.59820938 0 -463914496.59820938 -84699278.412887573 0 0 0 0 -302377667.23571777 -189790598.90628052 0 -189790598.90628052 -147823795.72030258 0 0 0 0 -516504477.44445038 -378743536.99082947 0 -378743536.99082947 -51938209.873641968 0 0 0 0 -308908379.59686279 -118077399.27352905 0 -118077399.27352905 -218103288.49009705 0 0 0 0 -400249056.05932617 -123036674.29947662 0 -123036674.29947662 -52013589.237101808 0 0 0 0 -341733845.53694153 -256496489.95529938 0 -256496489.95529938 -578314667.41020203 0 0 0 0 -446600536.77931213 -321686026.14022064 0 -321686026.14022064 -279135002.85373688 0 0 0 0 276617.77436996996 -344988.47695069015 0 -344988.47695069015 -703836.00765644759 0 0 0 0 -456492726.42001343 -343524732.90402603 0 -343524732.90402603 -219983867.58685303 0 0 0 0 -227974155.9004364 -444260715.52828979 0 -444260715.52828979 -269422327.34815788 0 0 0 0 12741994.85987854 -664949948.41412354 0 -664949948.41412354 -2834969761.7703934 0 0 0 0 75596.39269414467 -1442406303.6492066 0 -1442406303.6492066 -1010740614.2542572 0 0 0 0 -2193017.8742675781 -1444598560.9729156 0 -1444598560.9729156 -1011689707.4809341 0 0 0 0 -1260653069.0264587 -820214534.50172424 0 -820214534.50172424 -110231872.723423 0 0 0 0 -946511904.01463318 -2128725989.5099564 0 -2128725989.5099564 -682636821.40332794 0 0 0 0 -1255379035.5385113 -1048748526.9286633 0 -1048748526.9286633 -675685568.5627594 0 0 0 0 -1823184684.8139648 -1522183727.8801479 0 -1522183727.8801479 -764906212.80162048 0 0 0 0 170749.26702666283 -2410429.6765878499 0 -2410429.6765878499 -2586928.753648743 0 0 0 0 5824640.7179870605 -36708076.659854889 0 -36708076.659854889 177461524.01346588 0 0 0 0 24064204.093078613 -68667184.379367828 0 -68667184.379367828 141046420.62889862 0 0 0 0 -18622.150207519531 -86470343.484256744 0 -86470343.484256744 239106189.09147644 0 0 0 0 44232.094617983981 -80755976.757184014 0 -80755976.757184014 290362938.75363922 0 0 0 0 -3150482.7864508182 1016486.1005663481 0 1016486.1005663481 103967.07299319655 0 0 0 0 10554656.357955933 -60889501.276176453 0 -60889501.276176453 259780684.22923279 0 0 0 0 10017851.409242213 -113527969.16796213 0 -113527969.16796213 347990157.53994751 0 0 0 0 -5977229.1123668998 -1016462.2570888959 0 -1016462.2570888959 -678885.18514959142 0 0 0 0 -280665014.97413635 218450388.61688232 0 218450388.61688232 -878107666.39348984 0 0 0 0 -297233652.46418381 161325109.97122765 0 161325109.97122765 -103277599.55523682 0 0 0 0 27690722.108953953 -148720899.05920637 0 -148720899.05920637 490524937.7225647 0 0 0 0 24442646.90196228 -65282953.109893799 0 -65282953.109893799 271734400.62882996 0 0 0 0 -1803039.1757507324 -40060376.689727783 0 -40060376.689727783 276355937.82119942 0 0 0 0 75741210.243667603 -50282273.661197662 0 -50282273.661197662 161060455.9394455 0 0 0 0 15904714.038146973 -28306604.758529663 0 -28306604.758529663 157716688.14713287 0 0 0 0 26785188.613937378 4486069.9428062439 0 4486069.9428062439 167428628.02365589 0 0 0 0 -126637627.25662231 -44380779.95589447 0 -44380779.95589447 926519486.73196411 0 0 0 0 -11486987.332321972 -7002356.2446866166 0 -7002356.2446866166 -3478775.18407337 0 0 0 0 21179887.95690918 24411215.541759491 0 24411215.541759491 354373311.7011261 0 0 0 0 101264837.00627136 -17901182.00667572 0 -17901182.00667572 163472393.85535526 0 0 0 0 -111365961.5358429 613128112.24207306 0 613128112.24207306 -802001782.50051117 0 0 0 0 -8486303.0936762393 -3502220.9775195252 0 -3502220.9775195252 -1817454.8212436736 0 0 0 0 548748237.87185669 411093233.0010376 0 411093233.0010376 -77673922.294662476 0 0 0 0 259594196.83557129 413923725.54345703 0 413923725.54345703 636085711.13988495 0 0 0 0 1444178089.8362541 380290763.72874641 0 380290763.72874641 526331620.27749634 0 0 0 0 1677999531.1324463 -1317534699.5372009 0 -1317534699.5372009 2054528914.4912872 0 0 0 0 866383517.28210449 -581024288.14711761 0 -581024288.14711761 428240451.71203613 0 0 0 0 649831927.79789734 -114416576.1167984 0 -114416576.1167984 -843738841.55775452 0 0 0 0 -355409746.78470612 252705009.96097374 0 252705009.96097374 -66183783.50982666 0 0 0 0 118666937.2829895 516664495.5177536 0 516664495.5177536 -1154883359.6414528 0 0 0 0 -111340509.79150391 -72331191.045303345 0 -72331191.045303345 -327219001.35331535 0 0 0 0 260518290.78154755 -284103669.608181 0 -284103669.608181 -283176086.20120239 0 0 0 0 928889138.68566895 -522368407.63793945 0 -522368407.63793945 220742724.1192627 0 0 0 0 64646714.879119873 20111829.760482788 0 20111829.760482788 -78219007.544876099 0 0 0 0 873535641.90142822 -239599558.59333801 0 -239599558.59333801 258618401.86175537 0 0 0 0 -322249032.20008469 197193756.2387867 0 197193756.2387867 1826529890.2677917 0 0 0 0 863835916.51525879 -228969302.22625732 0 -228969302.22625732 639884705.57739258 0 0 0 0 -1996814.348236084 13271754.564495087 0 13271754.564495087 314141040.38987732 0 0 0 0 9478575.3809585571 -367547563.92034912 0 -367547563.92034912 339342393.06781006 0 0 0 0 106686679.81725311 -268988223.02995682 0 -268988223.02995682 -370637962.22285461 0 0 0 0 -27187661.945281982 -111570035.51589966 0 -111570035.51589966 -145254749.28619385 0 0 0 0 -15011326.557446644 -11188136.391836789 0 -11188136.391836789 -5151878.7487355247 0 0 0 0 7944014.048034668 96312762.735961914 0 96312762.735961914 -624209522.93255615 0 0 0 0 -87487371.57850647 269475603.01041031 0 269475603.01041031 10606873.314567566 0 0 0 0 -556781160.57360458 -482617280.06610775 0 -482617280.06610775 1062992589.3809509 0 0 0 0 421565202.29470825 -299820725.2551651 0 -299820725.2551651 -627073462.28092957 0 0 0 0 -62994791.648590088 423886783.74231339 0 423886783.74231339 -619288894.90589905 0 0 0 0 165417489.1645813 -7467257.98695755 0 -7467257.98695755 -496242384.69052124 0 0 0 0 -247422778.98361206 -411629586.93184471 0 -411629586.93184471 -311266055.03310394 0 0 0 0 -253850752.8762207 -287042447.08233166 0 -287042447.08233166 -110260202.7901001 0 0 0 0 -163325925.1628418 -5485650.9378509521 0 -5485650.9378509521 29771254.184829712 0 0 0 0 -590840869.50483704 -92399110.299808502 0 -92399110.299808502 19784384.090919495 0 0 0 0 -1594585.0951676369 -2766614.5956284925 0 -2766614.5956284925 1466337.3451592922 0 0 0 0 -54122488.029716492 -21110820.011838913 0 -21110820.011838913 -13687064.409835815 0 0 0 0 -130772535.11376953 -18860901.753601074 0 -18860901.753601074 9771083.2481994629 0 0 0 0 -63565842.132751465 -26984627.167388916 0 -26984627.167388916 57407.946815490723 0 0 0 0 -93371299.933563232 -23727334.189094543 0 -23727334.189094543 15602946.728820801 0 0 0 0 -46517409.022521973 -32480229.260551453 0 -32480229.260551453 3626226.8565216064 0 0 0 0 -44262726.705432892 -116766203.85699463 0 -116766203.85699463 -46127757.13722229 0 0 0 0 -65152713.122131348 -36572840.455986023 0 -36572840.455986023 -2342234.196144104 0 0 0 0 -52577392.004119873 -44486885.913192749 0 -44486885.913192749 2507744.5631942749 0 0 0 0 -84245774.815856934 -61798537.370839119 0 -61798537.370839119 -6355270.465057373 0 0 0 0 -118894619.77205658 -164038199.5714426 0 -164038199.5714426 -49493555.409835815 0 0 0 0 -143086466.19403076 -64610090.03994751 0 -64610090.03994751 10293576.23009491 0 0 0 0 -303422870.49026489 -78170603.069374084 0 -78170603.069374084 39445105.462432861 0 0 0 0 -128321842.7200613 -66661889.35049057 0 -66661889.35049057 4039188.5024719238 0 0 0 0 -56994423.711975098 -175469646.88387299 0 -175469646.88387299 -49044249.201980591 0 0 0 0 -9587852.4446258545 -174386324.95667648 0 -174386324.95667648 -83181890.621490479 0 0 0 0 -57096763.822814941 -198440761.03379059 0 -198440761.03379059 -91582035.287307739 0 0 0 0 -41339669.064575195 -128035488.38179779 0 -128035488.38179779 -35357455.038948059 0 0 0 0 34040193.668212891 -93287190.27180481 0 -93287190.27180481 -39282556.098526001 0 0 0 0 6632564.7825927734 -135219561.48484039 0 -135219561.48484039 -86822802.886773109 0 0 0 0 5024631.7974243164 -162531428.45718384 0 -162531428.45718384 -83847438.84789753 0 0 0 0 -799073.42121124268 -149823897.61483574 0 -149823897.61483574 -110591866.51002502 0 0 0 0 32172782.601547241 -129156955.85752106 0 -129156955.85752106 -77662405.831886292 0 0 0 0 51215296.338378906 -129596003.26305389 0 -129596003.26305389 -83402101.962182999 0 0 0 0 -2292481.7948913574 -237200248.88702393 0 -237200248.88702393 -201952690.09342194 0 0 0 0 61182005.2134552 -165316818.84700775 0 -165316818.84700775 -169165634.21885681 0 0 0 0 108354482.5443573 -17403761.126689911 0 -17403761.126689911 -42352381.502166748 0 0 0 0 36476483.661819458 -86030448.38054657 0 -86030448.38054657 28204303.355194092 0 0 0 0 76401502.471969604 -63121123.197135925 0 -63121123.197135925 -36538134.281158447 0 0 0 0 41505883.62701416 -152796529.69067383 0 -152796529.69067383 -112701853.1721344 0 0 0 0 12156885.028259277 -113725177.42877579 0 -113725177.42877579 -49692888.049518585 0 0 0 0 1055931.3457336426 -150735082.59499741 0 -150735082.59499741 -113368943.18032074 0 0 0 0 -12158314.372680664 -98529672.738945007 0 -98529672.738945007 -123290041.50924683 0 0 0 0 17850659.406143188 -131417886.11799622 0 -131417886.11799622 -99600924.069564819 0 0 0 0 12670803.420129776 -64501251.877308369 0 -64501251.877308369 -75278431.394424438 0 0 0 0 -3126714.0139312744 -101131653.03652954 0 -101131653.03652954 -131761795.67169189 0 0 0 0 -50523307.066772461 -79342935.138175964 0 -79342935.138175964 -141189674.41940689 0 0 0 0 -32591.96484375 -84849188.615085602 0 -84849188.615085602 -151440743.83988953 0 0 0 0 -21136746.833850861 -60216915.595427513 0 -60216915.595427513 -80118362.83518219 0 0 0 0 55213.205764770508 -97710667.622360229 0 -97710667.622360229 -65415242.936517715 0 0 0 0 -25199097.006027222 -81544783.271697998 0 -81544783.271697998 9057145.7542724609 0 0 0 0 41845913.551254272 -47652443.462669373 0 -47652443.462669373 19410661.727127075 0 0 0 0 17762566.975658417 -32172358.3945961 0 -32172358.3945961 109680552.76100159 0 0 0 0 -24476.256731265341 -90089527.170038745 0 -90089527.170038745 111638159.4307251 0 0 0 0 -56061605.470275879 -64289953.93497467 0 -64289953.93497467 -72843467.504633188 0 0 0 0 -54407957.171974182 -108170452.12894821 0 -108170452.12894821 -112257838.8170166 0 0 0 0 1080997.6630549729 -20358740.321608432 0 -20358740.321608432 -11786518.714321032 0 0 0 0 5093034.344840318 -6549681.0693669021 0 -6549681.0693669021 -4153710.3513404466 0 0 0 0 -86471704.955078125 -133556470.00127411 0 -133556470.00127411 -58305814.305023193 0 0 0 0 -197434027.64471436 -6551480.1925506592 0 -6551480.1925506592 15290411.221588135 0 0 0 0 33406960.091957092 -38679800.752157211 0 -38679800.752157211 -24251529.847808838 0 0 0 0 -65694844.949035645 -123708063.96577454 0 -123708063.96577454 -110870575.7044754 0 0 0 0 -211329558.76757812 -88531001.110778809 0 -88531001.110778809 -73544683.292901993 0 0 0 0 -134223179.29962158 -110836339.75048828 0 -110836339.75048828 37536331.082626343 0 0 0 0 -145713652.59544182 -72906395.194801331 0 -72906395.194801331 159583686.57302856 0 0 0 0 -76312525.242118835 -29800808.201730251 0 -29800808.201730251 78145839.22177124 0 0 0 0 -197669515.82564378 -123123493.74663018 0 -123123493.74663018 35189271.969970703 0 0 0 0 -90155992.636505127 -120089638.31689453 0 -120089638.31689453 8236692.6568603516 0 0 0 0 -123935509.90930176 -103632952.90381622 0 -103632952.90381622 23108129.5990448 0 0 0 0 32290281.887786865 -39726097.593475342 0 -39726097.593475342 -13876796.022949219 0 0 0 0 -43053153.674163818 -40436942.99118042 0 -40436942.99118042 1943210.8848571777 0 0 0 0 -10304118.660102755 -29177418.668655731 0 -29177418.668655731 4040578.2938266844 0 0 0 0 22728502.423777185 -18219979.298829444 0 -18219979.298829444 -18151053.023820691 0 0 0 0 32100808.485336304 -43609209.344402313 0 -43609209.344402313 -27408862.767028809 0 0 0 0 38511481.618774414 -51917292.113388062 0 -51917292.113388062 -20012336.797348022 0 0 0 0 31925157.702072144 -35059986.751060486 0 -35059986.751060486 -57734810.600646973 0 0 0 0 16693256.883034661 -15903125.199025892 0 -15903125.199025892 -20561637.49250548 0 0 0 0 56790248.681854248 -23235629.222076416 0 -23235629.222076416 -106819491.03044128 0 0 0 0 30433226.986358643 -34262200.096878052 0 -34262200.096878052 -5288620.7604141235 0 0 0 0 -1751808.9224567935 -16085084.244586773 0 -16085084.244586773 -7014542.819100529 0 0 0 0 27973480.53237915 -54429909.93019104 0 -54429909.93019104 7295165.0619316101 0 0 0 0 21360359.757870674 -79855240.8353405 0 -79855240.8353405 10563479.605865479 0 0 0 0 18800639.480316162 -7240599.0295562744 0 -7240599.0295562744 -12259920.517654419 0 0 0 0 7176225.2571989559 -20332803.12027273 0 -20332803.12027273 -20056238.775928676 0 0 0 0 18669098.684799194 -27104911.182106018 0 -27104911.182106018 -2610329.6100387573 0 0 0 0 44688874.056298256 -60305610.996427536 0 -60305610.996427536 -22429042.750427246 0 0 0 0 24884942.739242554 -37479390.945800781 0 -37479390.945800781 -21132306.989471436 0 0 0 0 2955893.435690172 -17999554.911390532 0 -17999554.911390532 -15344214.422724083 0 0 0 0 47662356.241210938 -51785187.809398651 0 -51785187.809398651 -43372677.92276001 0 0 0 0 38479455.729431152 -30805715.507522583 0 -30805715.507522583 -44108366.613687038 0 0 0 0 28296340.611297607 -13752308.599700928 0 -13752308.599700928 -44494308.653591156 0 0 0 0 40285572.685630798 -27977166.814453125 0 -27977166.814453125 -82541185.406478882 0 0 0 0 40065203.563686132 -31992619.507243633 0 -31992619.507243633 -48192281.638763428 0 0 0 0 38857157.213058472 -14340820.857269287 0 -14340820.857269287 -51997616.604858398 0 0 0 0 4034200.7758178711 -4700670.1910400391 0 -4700670.1910400391 -2796920.7009277344 0 0 0 0 -24084503.244934082 -13085164.440765381 0 -13085164.440765381 -5261179.256652832 0 0 0 0 -19814263.619232699 -13555930.081178948 0 -13555930.081178948 -9225598.0078927279 0 0 0 0 39030996.627174377 -33264848.660705566 0 -33264848.660705566 -33376738.388214111 0 0 0 0 38008783.878814697 -14849331.206665039 0 -14849331.206665039 -32680292.95413208 0 0 0 0 -4697091.0872357376 -8122128.7041307539 0 -8122128.7041307539 -4855324.6367142946 0 0 0 0 -10384588.329467773 -13677595.1612854 0 -13677595.1612854 -6304956.7008056641 0 0 0 0 3227245.3718010634 -19304841.270883217 0 -19304841.270883217 -15493863.590397015 0 0 0 0 -8212472.916615095 -9822699.2187156528 0 -9822699.2187156528 -1335895.7936906964 0 0 0 0 -22399161.138519287 -14063194.776153564 0 -14063194.776153564 549705.78015136719 0 0 0 0 -4204354.473815918 -20198610.082771301 0 -20198610.082771301 -21518353.693173885 0 0 0 0 -13426132.29208374 -19603570.413024902 0 -19603570.413024902 3464466.8638305664 0 0 0 0 -12988802.559844971 -30915267.172637939 0 -30915267.172637939 -3727404.9441223145 0 0 0 0 -4344214.904510498 -20943533.416351318 0 -20943533.416351318 7404470.1440124512 0 0 0 0 2753298.7228870392 -31399118.455724239 0 -31399118.455724239 4466750.3280334473 0 0 0 0 -2685040.0964928493 -20612284.154500104 0 -20612284.154500104 -14916100.048699535 0 0 0 0 3516259.1808166504 -12912298.80279541 0 -12912298.80279541 -1945444.3221740723 0 0 0 0 -16476028.014850229 -18433714.392295532 0 -18433714.392295532 -6783181.5839212984 0 0 0 0 -8133225.9452760331 -8265005.2643249631 0 -8265005.2643249631 -4462634.9701263905 0 0 0 0 -5836837.5306456201 -4668529.5318733975 0 -4668529.5318733975 -2447156.9368266314 0 0 0 0 -136557230.5512085 -40162777.994781494 0 -40162777.994781494 7424339.1076660156 0 0 0 0 4071524.0385437012 -4786841.3348693848 0 -4786841.3348693848 -3529089.5307617188 0 0 0 0 -15637698.190552831 -10969345.523541607 0 -10969345.523541607 -489411.70792600513 0 0 0 0 97970.139053344727 -5037403.6791534424 0 -5037403.6791534424 -4176728.5682373047 0 0 0 0 -67277222.177642822 -33259737.042648315 0 -33259737.042648315 -29171139.613647461 0 0 0 0 8729382.164001137 -22242276.667818263 0 -22242276.667818263 -13922175.070115164 0 0 0 0 16297847.380289093 -20729578.583992124 0 -20729578.583992124 -20077131.989126414 0 0 0 0 48674854.331726074 -47414200.002876282 0 -47414200.002876282 -26818491.458084106 0 0 0 0 28846510.614685059 -33954778.666641235 0 -33954778.666641235 -20960283.184524536 0 0 0 0 31833384.163085938 -33247340.896484375 0 -33247340.896484375 -22432448.631439209 0 0 0 0 27178108.150089264 -39782729.453414917 0 -39782729.453414917 -23484570.843063354 0 0 0 0 -466466.60549926758 -42619948.760864258 0 -42619948.760864258 -15081529.153442383 0 0 0 0 15512819.786476135 -50106170.605743408 0 -50106170.605743408 -11575403.064941406 0 0 0 0 4760315.2570457458 -65584208.156961441 0 -65584208.156961441 5432073.6184387207 0 0 0 0 31523859.242980957 -86101354.715942383 0 -86101354.715942383 -16005852.427841187 0 0 0 0 25760139.881011963 -106552444.67263794 0 -106552444.67263794 -34503587.401046753 0 0 0 0 -8759118.5751647949 -120719291.94259644 0 -120719291.94259644 26714718.687133789 0 0 0 0 21296737.387771606 -151941273.43557358 0 -151941273.43557358 -94962493.039154053 0 0 0 0 53875049.739501953 -106401107.17941284 0 -106401107.17941284 -34570210.565360069 0 0 0 0 49693296.739883423 -96099222.400108337 0 -96099222.400108337 -59736050.97795105 0 0 0 0 57409329.213645935 -81305563.482746124 0 -81305563.482746124 -36789701.494689941 0 0 0 0 -66826222.416534424 -131144968.16853333 0 -131144968.16853333 140631017.70334625 0 0 0 0 -14436642.260993958 -137234456.77928162 0 -137234456.77928162 -18183972.60546875 0 0 0 0 -19822957.530319214 -135118978.56541443 0 -135118978.56541443 -17855711.733857155 0 0 0 0 12653872.622817993 -122818836.94064331 0 -122818836.94064331 -196334631.63600922 0 0 0 0 -29947700.413619995 -214368037.22077942 0 -214368037.22077942 -7687977.3967895508 0 0 0 0 -9479521.1633758545 -74563531.912574768 0 -74563531.912574768 -165207949.46575546 0 0 0 0 -98100759.878295898 -577822974.25505066 0 -577822974.25505066 1164016456.1979675 0 0 0 0 -17163023.924785778 -15160447.963131882 0 -15160447.963131882 -6345962.0968031771 0 0 0 0 -39085668.398159027 26489105.547388077 0 26489105.547388077 -276075567.64723206 0 0 0 0 422721422.7433998 -648845975.04658413 0 -648845975.04658413 134812153.84996033 0 0 0 0 155806117.50411987 -71941833.918632507 0 -71941833.918632507 -83415630.238952637 0 0 0 0 83758086.906524658 -3073003.670249939 0 -3073003.670249939 -1073761.9234466553 0 0 0 0 56043796.866333008 -84047155.585281372 0 -84047155.585281372 -113833399.97971725 0 0 0 0 65314325.704559326 -110959210.28540039 0 -110959210.28540039 -77001652.699279785 0 0 0 0 109846020.18736267 -157531380.59761047 0 -157531380.59761047 -138890573.38525391 0 0 0 0 -100380464.50312042 -94827093.858064651 0 -94827093.858064651 -52876008.341400146 0 0 0 0 279636145.99389648 -58788861.231361389 0 -58788861.231361389 -139990896.36902618 0 0 0 0 -4948500.7784557492 -2910445.2840525433 0 -2910445.2840525433 868841.71751828492 0 0 0 0 -266244377.3371582 -206819657.48226929 0 -206819657.48226929 229631547.51651001 0 0 0 0 263591011.13357544 86422663.277801514 0 86422663.277801514 -45067309.299461365 0 0 0 0 -299928574.40034485 -407923905.47480011 0 -407923905.47480011 138779526.88879395 0 0 0 0 -128299507.73458862 -325504498.79083252 0 -325504498.79083252 -120071695.19326782 0 0 0 0 191219725.54229736 -665517693.64764404 0 -665517693.64764404 -8034269.0283126831 0 0 0 0 59587392.60259819 342407704.08219314 0 342407704.08219314 -176219805.09810638 0 0 0 0 250439856.01434326 391903105.93334961 0 391903105.93334961 -31033713.376712799 0 0 0 0 1681645.5917774588 -4858412.9831251949 0 -4858412.9831251949 -2025516.8352229297 0 0 0 0 -16369642.19113481 -19566463.217918821 0 -19566463.217918821 -7043510.4876064323 0 0 0 0 20890628.178741455 -249302072.93518066 0 -249302072.93518066 262489296.56474686 0 0 0 0 148628271.71484375 -439441185.99876404 0 -439441185.99876404 -66268023.963371277 0 0 0 0 131401983.60058594 -85459365.675003052 0 -85459365.675003052 41300682.909553528 0 0 0 0 134980340.56845093 -90365078.183082581 0 -90365078.183082581 -109134774.25286865 0 0 0 0 98178416.035339355 -54724316.886245728 0 -54724316.886245728 15297333.100418091 0 0 0 0 111074743.67059326 -88102713.593238831 0 -88102713.593238831 32644558.167976379 0 0 0 0 16228645.545013428 -38416067.781845093 0 -38416067.781845093 30215026.314407349 0 0 0 0 27277280.986541748 5018597.4114837646 0 5018597.4114837646 61589243.412200928 0 0 0 0 52344461.987548828 -57077819.754592896 0 -57077819.754592896 113598367.51184082 0 0 0 0 31440135.973754883 -17499802.623260498 0 -17499802.623260498 128579414.07014465 0 0 0 0 50465893.352905273 -44386283.829376221 0 -44386283.829376221 30509803.625198364 0 0 0 0 260969417.61938477 81565850.774291992 0 81565850.774291992 -273682031.25756836 0 0 0 0 134102498.44171143 22183455.974029541 0 22183455.974029541 -301460770.23815918 0 0 0 0 175939515.17059326 -260254982.35552216 0 -260254982.35552216 -229977757.89962769 0 0 0 0 192325460.8626709 -277937189.07695007 0 -277937189.07695007 -560414933.13554382 0 0 0 0 375207393.95117188 -134093462.36764526 0 -134093462.36764526 -373883903.5090065 0 0 0 0 75422740.707519531 -163465880.63415527 0 -163465880.63415527 -368301697.65704155 0 0 0 0 118985053.41741943 249796618.48300171 0 249796618.48300171 271830794.92198944 0 0 0 0 104081691.56933594 -32120526.710144043 0 -32120526.710144043 -366919819.18367004 0 0 0 0 127618292.47210693 -662564576.57867432 0 -662564576.57867432 -758930796.82147217 0 0 0 0 -155348120.24325562 -371300270.54904175 0 -371300270.54904175 -401432834.82351685 0 0 0 0 165233027.72023773 -35228021.501932144 0 -35228021.501932144 -28056849.558929443 0 0 0 0 130571378.04788208 -41525838.82434082 0 -41525838.82434082 -13141444.551887512 0 0 0 0 2451460.9181384146 -2512253.5749552995 0 -2512253.5749552995 -5042409.0352739915 0 0 0 0 -165867959.28451538 -98904001.746711731 0 -98904001.746711731 -300771013.7906189 0 0 0 0 -1367336.6164467931 -892526.83505029976 0 -892526.83505029976 2086548.6508786529 0 0 0 0 132450448.19796753 23212348.275657654 0 23212348.275657654 -285977183.69262695 0 0 0 0 3210311.7613220215 -24381907.597999573 0 -24381907.597999573 -203348612.08258343 0 0 0 0 24071804.500068665 -91631043.553348541 0 -91631043.553348541 -325539027.4147644 0 0 0 0 137383159.03594208 12135642.489374161 0 12135642.489374161 -287124992.14456177 0 0 0 0 159289271.09002686 -101722305.16285706 0 -101722305.16285706 -391170804.89855957 0 0 0 0 10132552.69720459 -202549057.75489807 0 -202549057.75489807 -396039921.72046089 0 0 0 0 76725821.557861328 -9116983.9761199951 0 -9116983.9761199951 -201578733.46578789 0 0 0 0 -5436465.2495043278 -9136950.1316569075 0 -9136950.1316569075 6318358.4241334721 0 0 0 0 -48923818.733345032 -42260023.440203667 0 -42260023.440203667 9351836.4810028076 0 0 0 0 -6275574.2524108887 -10912279.037822723 0 -10912279.037822723 15299705.49987793 0 0 0 0 -65676071.851545334 -12336873.665956497 0 -12336873.665956497 27622574.658050537 0 0 0 0 1369182.9657249078 -16819726.787728414 0 -16819726.787728414 6659492.2357994542 0 0 0 0 598162.55103936791 -15292681.5170427 0 -15292681.5170427 -15184144.996768035 0 0 0 0 12787437.413848877 -44122780.494157791 0 -44122780.494157791 28061545.217025757 0 0 0 0 78333151.561004639 -28344789.973236084 0 -28344789.973236084 -10614438.338904381 0 0 0 0 -10657403.446800917 -8679784.3564080112 0 -8679784.3564080112 14618391.800405446 0 0 0 0 -69295982.437927246 -29087051.809516907 0 -29087051.809516907 56567022.32611084 0 0 0 0 -7727897.8602600098 -1466303.3665790558 0 -1466303.3665790558 21134865.326068878 0 0 0 0 -32902463.457702637 3447352.8290710449 0 3447352.8290710449 9885416.4394454956 0 0 0 0 -5766050.7002620697 18259302.499743938 0 18259302.499743938 -169488077.97140503 0 0 0 0 6366609.5579887033 -13162065.161975726 0 -13162065.161975726 12100294.562292241 0 0 0 0 71464241.258636475 -54218953.341058731 0 -54218953.341058731 5136345.7562561035 0 0 0 0 67203116.824577332 -67874290.873348236 0 -67874290.873348236 -10291499.551803589 0 0 0 0 94135094.408874512 -57131686.842365265 0 -57131686.842365265 -17025675.827987671 0 0 0 0 3664208.7410912663 -22344847.105819065 0 -22344847.105819065 -25212706.376710787 0 0 0 0 92306267.849914551 -82287812.101028442 0 -82287812.101028442 -4299223.4801006317 0 0 0 0 107786887.6995697 -131940924.83855343 0 -131940924.83855343 31127744.735822678 0 0 0 0 72078237.245788574 -33935737.691474915 0 -33935737.691474915 -8023711.3365478516 0 0 0 0 10891722.206337757 -35804614.630746976 0 -35804614.630746976 -12477818.151893243 0 0 0 0 -45389187.588752747 -99875688.720153809 0 -99875688.720153809 -27444748.232879639 0 0 0 0 23163284.344436646 -69145241.879940033 0 -69145241.879940033 -8358747.7065925598 0 0 0 0 -15057771.376850128 -84777096.589366913 0 -84777096.589366913 -43067076.346099854 0 0 0 0 19701481.085594177 -120868584.51955795 0 -120868584.51955795 -39462304.349395752 0 0 0 0 36348769.00544548 -56564261.328742981 0 -56564261.328742981 -33784329.245285034 0 0 0 0 49640208.973747253 -46951113.388031006 0 -46951113.388031006 -52039830.107749939 0 0 0 0 26489854.361236572 -86902182.641532898 0 -86902182.641532898 -84708544.122161865 0 0 0 0 21655665.102722168 -30113999.076194763 0 -30113999.076194763 -17763479.262756348 0 0 0 0 -51011608.162399292 -58165139.615039825 0 -58165139.615039825 13793471.298995972 0 0 0 0 12869632.497673359 -32946956.124002334 0 -32946956.124002334 -12566115.015052527 0 0 0 0 8994858.437384069 -25485052.36238246 0 -25485052.36238246 -10683574.992407758 0 0 0 0 2305256.4881134033 -61882563.005550385 0 -61882563.005550385 -8616733.7392501831 0 0 0 0 20783883.622695923 -23975557.327640533 0 -23975557.327640533 -17880658.382125854 0 0 0 0 55520883.893066406 -15220770.136901855 0 -15220770.136901855 -16165130.109100342 0 0 0 0 49024040.066059113 -37857734.356069565 0 -37857734.356069565 -21826065.344512939 0 0 0 0 60736045.92118454 -57518242.082687378 0 -57518242.082687378 -89287334.909698486 0 0 0 0 -10311115.374631189 -28028452.188369185 0 -28028452.188369185 -9391053.14728342 0 0 0 0 -11355661.596832275 -49882822.194076538 0 -49882822.194076538 -5019576.9545669556 0 0 0 0 14046729.935058594 -23111024.656738281 0 -23111024.656738281 -7572737.5966339111 0 0 0 0 41166451.653368868 -16537708.478386421 0 -16537708.478386421 -13495987.94483191 0 0 0 0 -6336275.2652096264 -32052152.106596723 0 -32052152.106596723 -12537149.941868611 0 0 0 0 -14131741.496759407 -31776710.915744986 0 -31776710.915744986 5837739.306600973 0 0 0 0 -17242844.953216553 -56014554.141052246 0 -56014554.141052246 6377975.7419586182 0 0 0 0 13436548.670608521 -29743783.319702148 0 -29743783.319702148 -46759666.032989502 0 0 0 0 11155451.512737274 -45348046.185073853 0 -45348046.185073853 -6724584.467956543 0 0 0 0 -12020192.223419189 -110599970.14138794 0 -110599970.14138794 -209358367.07354736 0 0 0 0 157049901.19591141 -353007114.16034365 0 -353007114.16034365 -86476420.016525269 0 0 0 0 -9139499.2808041424 -30365215.023338228 0 -30365215.023338228 -10090678.280141167 0 0 0 0 -92617076.467132568 -133222584.46496582 0 -133222584.46496582 -3121652.2875671387 0 0 0 0 59478770.978012085 -33687730.176223755 0 -33687730.176223755 -57868363.968482971 0 0 0 0 30271336.471534729 -53123352.522327423 0 -53123352.522327423 -67953748.232055664 0 0 0 0 84819651.46428299 -88871789.738685608 0 -88871789.738685608 -33960784.283050537 0 0 0 0 19942737.408424377 -62845937.136989594 0 -62845937.136989594 -15512624.074584961 0 0 0 0 -11212761.677359581 -63672261.565282702 0 -63672261.565282702 25163989.457977295 0 0 0 0 21908797.251419067 -71777180.024932861 0 -71777180.024932861 -8743292.131072998 0 0 0 0 29163406.023773193 -90408975.890655518 0 -90408975.890655518 31071819.124053955 0 0 0 0 16473503.954849243 -62138946.805023193 0 -62138946.805023193 28084047.520595551 0 0 0 0 11351206.66755861 -24962275.889967073 0 -24962275.889967073 -8974353.609372979 0 0 0 0 13919899.746780396 -75518163.477630615 0 -75518163.477630615 23317663.17276001 0 0 0 0 4042947.6583965793 -8764606.6368757039 0 -8764606.6368757039 -3076453.3130873032 0 0 0 0 44785216.178527832 -153793761.19811249 0 -153793761.19811249 178709951.76980591 0 0 0 0 168431901.87892914 -141796253.40534973 0 -141796253.40534973 -9719604.8083343506 0 0 0 0 136323094.69613647 -14435051.030632019 0 -14435051.030632019 -196392194.29553986 0 0 0 0 224563071.41216278 -90384865.291969299 0 -90384865.291969299 -185783890.86801147 0 0 0 0 141002578.98869324 -108646164.64315796 0 -108646164.64315796 -180401200.99143982 0 0 0 0 53177698.913345337 -104434118.11010742 0 -104434118.11010742 -76543285.079498291 0 0 0 0 41704653.500411987 -45356897.224067688 0 -45356897.224067688 -114768750.78738403 0 0 0 0 41364048.526313782 -60323690.262733459 0 -60323690.262733459 -64758874.728393555 0 0 0 0 103547006.95181274 -86404601.876495361 0 -86404601.876495361 -123242146.57549667 0 0 0 0 19045527.873123169 -131156942.53495026 0 -131156942.53495026 -82965454.321147919 0 0 0 0 93338022.284339905 -188078270.84806061 0 -188078270.84806061 -57838181.843475342 0 0 0 0 175560301.14613724 -205027250.94060516 0 -205027250.94060516 -179011702.59222412 0 0 0 0 136094841.33230591 -162301342.77252197 0 -162301342.77252197 -156712817.15589905 0 0 0 0 178031400.54335022 -270384318.69341278 0 -270384318.69341278 -152632611.00300217 0 0 0 0 75280141.608282089 -221661120.26047134 0 -221661120.26047134 103371368.84127808 0 0 0 0 73330732.594161987 -197499239.00392151 0 -197499239.00392151 -121539014.0970459 0 0 0 0 -36756253.333389282 -204693243.17693329 0 -204693243.17693329 -58265138.87154007 0 0 0 0 -21154533.656352997 -144793156.3128376 0 -144793156.3128376 17177001.138153076 0 0 0 0 -117842370.6505661 -97211030.825653076 0 -97211030.825653076 173248698.14950562 0 0 0 0 -95500018.171131134 -137135238.12480736 0 -137135238.12480736 74144723.64465332 0 0 0 0 75559399.804382324 -97901707.625610352 0 -97901707.625610352 54214766.564937592 0 0 0 0 1945038.5227813721 -182251093.20413208 0 -182251093.20413208 82378621.335525513 0 0 0 0 46689101.848419189 -7478384.1865997314 0 -7478384.1865997314 205360501.57239532 0 0 0 0 -36167187.755249023 71260451.676513672 0 71260451.676513672 -508104143.41964722 0 0 0 0 -3180818.9931524396 -3568065.1746201962 0 -3568065.1746201962 -3645161.4510369431 0 0 0 0 -126654774.89870453 -73062979.64818573 0 -73062979.64818573 360979020.9655304 0 0 0 0 40671236.199676514 -78735551.584472656 0 -78735551.584472656 -765827802.51873779 0 0 0 0 697163398.11779785 -600664845.43865967 0 -600664845.43865967 -902402642.45057678 0 0 0 0 -170187561.39605713 19339835.115852356 0 19339835.115852356 -188503549.27734375 0 0 0 0 -17112825.112409525 -29458841.659993123 0 -29458841.659993123 3747772.1237688065 0 0 0 0 -9589174.3382037356 -10757527.450766452 0 -10757527.450766452 -12244335.202084234 0 0 0 0 -20501265.287948608 -75701463.419418335 0 -75701463.419418335 -278947714.42736816 0 0 0 0 -45083798.120391846 -130466598.3235321 0 -130466598.3235321 -226799270.71759033 0 0 0 0 -73829720.361717224 -150785745.52644348 0 -150785745.52644348 -144285110.58680725 0 0 0 0 -16619693.83156202 -36825853.754581809 0 -36825853.754581809 3637931.2680600807 0 0 0 0 -18893409.543624878 -27385463.792751312 0 -27385463.792751312 26302535.617958069 0 0 0 0 -54888038.865707397 -60599897.392547607 0 -60599897.392547607 -108800260.38425827 0 0 0 0 -2241029.0127410889 -47794589.957439423 0 -47794589.957439423 -4791396.3393478394 0 0 0 0 -16840575.836746216 -31570032.037288666 0 -31570032.037288666 19120166.208053589 0 0 0 0 -16514247.67061615 -33927541.873920441 0 -33927541.873920441 9101652.2066345215 0 0 0 0 -14857237.252685547 -41679392.915130615 0 -41679392.915130615 19001771.824462891 0 0 0 0 39039401.051574707 -49685791.489982605 0 -49685791.489982605 -15087569.66506958 0 0 0 0 22292595.871765137 -31683097.419353485 0 -31683097.419353485 -11734378.49180603 0 0 0 0 36085701.444458008 -52652195.111907959 0 -52652195.111907959 -11444120.790817261 0 0 0 0 36190683.683166504 -50263185.171470165 0 -50263185.171470165 -18143447.397979736 0 0 0 0 20663075.630199432 -73299918.141310692 0 -73299918.141310692 17564317.65827179 0 0 0 0 33618997.169181824 -44130103.927473068 0 -44130103.927473068 -8526277.8354492188 0 0 0 0 50307500.037414551 -66451449.655246735 0 -66451449.655246735 18797763.77583313 0 0 0 0 49231927.714477539 -43141698.950164795 0 -43141698.950164795 -14846089.19078064 0 0 0 0 45819744.608886719 -43466206.78213501 0 -43466206.78213501 14654310.982803345 0 0 0 0 65479019.487548828 -34735939.346885681 0 -34735939.346885681 -10831794.442352295 0 0 0 0 -5732715.0812940523 -37793644.347626746 0 -37793644.347626746 -31799084.398341216 0 0 0 0 31594691.604858398 -17182290.501207352 0 -17182290.501207352 -28016161.710220337 0 0 0 0 41765870.413719177 -21769003.781137466 0 -21769003.781137466 -40143804.052246094 0 0 0 0 50512710.153564453 -47773886.382705688 0 -47773886.382705688 -61538289.140625 0 0 0 0 -12831336.749092188 -6107599.3585222159 0 -6107599.3585222159 16249328.678822428 0 0 0 0 -2471876.7705383301 -99633153.985808849 0 -99633153.985808849 -258484792.09002686 0 0 0 0 111874458.26702881 -27946148.913146973 0 -27946148.913146973 112134703.4588623 0 0 0 0 -31247339.782853797 -35980648.806242824 0 -35980648.806242824 -2607480.1611639969 0 0 0 0 -1832575.4911499023 -81116471.834335327 0 -81116471.834335327 -207764129.10644531 0 0 0 0 -119129777.32293701 -213585999.65687561 0 -213585999.65687561 -177110558.0413208 0 0 0 0 -36991576.410636902 -160785218.09570885 0 -160785218.09570885 -268152637.46508789 0 0 0 0 -32099894.87322998 -127925212.13598633 0 -127925212.13598633 -148924139.85714722 0 0 0 0 -28088014.048187256 -240114371.95788574 0 -240114371.95788574 -150270631.24688721 0 0 0 0 -189294813.06958008 -98931536.378448486 0 -98931536.378448486 137347588.55563354 0 0 0 0 51598816.34161377 42143489.89175415 0 42143489.89175415 -27532152.335784912 0 0 0 0 -61409788.475082397 1377112.9173431396 0 1377112.9173431396 -28929426.232711792 0 0 0 0 105779932.41152954 12389597.671234131 0 12389597.671234131 -72087284.527770996 0 0 0 0 -35700821.002502441 -33497585.483154297 0 -33497585.483154297 -145732623.39691925 0 0 0 0 -83423661.027435303 -144210161.68992615 0 -144210161.68992615 -78373110.094085693 0 0 0 0 -65146706.315856934 -136650589.14452362 0 -136650589.14452362 -150074152.35784912 0 0 0 0 13258919.716705322 -21128238.792312622 0 -21128238.792312622 -67394137.984008789 0 0 0 0 -14896317.818761609 -28337565.670364626 0 -28337565.670364626 -26489196.388833236 0 0 0 0 64413733.496185303 -24265566.192276001 0 -24265566.192276001 -72217099.527709961 0 0 0 0 104704521.4354279 -24353308.295323133 0 -24353308.295323133 -81057687.617553711 0 0 0 0 9614267.2976472974 -26873077.107911203 0 -26873077.107911203 -33193973.116255261 0 0 0 0 28677016.650695801 -52610231.384572983 0 -52610231.384572983 -10753807.650283813 0 0 0 0 39906400.146789551 -54915650.879776001 0 -54915650.879776001 -14921625.450630188 0 0 0 0 46847689.007354736 -24699589.943161011 0 -24699589.943161011 6440823.0449829102 0 0 0 0 20319378.038349509 -40002461.973253116 0 -40002461.973253116 -51456491.487775691 0 0 0 0 23211960.824707031 -20244004.18939209 0 -20244004.18939209 -11600008.906963348 0 0 0 0 10529069.101764422 -48569906.197201848 0 -48569906.197201848 -16974964.648534015 0 0 0 0 6922204.073348999 -81564370.975067139 0 -81564370.975067139 -140569777.72489929 0 0 0 0 -23436068.574483708 -27544111.009446856 0 -27544111.009446856 -10945491.594960898 0 0 0 0 -101354448.01238251 -76831769.088035583 0 -76831769.088035583 -42237122.46131897 0 0 0 0 -9545725.936108008 -16357083.223484136 0 -16357083.223484136 -7966051.7798175514 0 0 0 0 14657666.390407875 -38655779.306689329 0 -38655779.306689329 -33306013.867217965 0 0 0 0 -5808398.8718722984 -7215240.015109323 0 -7215240.015109323 -4493969.3454052545 0 0 0 0 72452770.93006897 20184632.702842712 0 20184632.702842712 -128257959.604599 0 0 0 0 -43424277.955060959 -290980171.19561768 0 -290980171.19561768 -251978735.28689575 0 0 0 0 -113331357.73957825 -132894878.03147888 0 -132894878.03147888 -22088182.736245155 0 0 0 0 -62990215.234039307 -88030399.461929321 0 -88030399.461929321 60605784.813247681 0 0 0 0 -25307381.67881012 -100468016.26198101 0 -100468016.26198101 -32408499.908294678 0 0 0 0 -81548703.008003235 -51669438.425998688 0 -51669438.425998688 -10271451.568527222 0 0 0 0 -29703156.815658569 -114466197.7869873 0 -114466197.7869873 -35290199.031288147 0 0 0 0 87395090.600128174 -70114234.254289627 0 -70114234.254289627 4889728.9167022705 0 0 0 0 -4287001.8259987682 -2909136.3633377329 0 -2909136.3633377329 5287066.9293628559 0 0 0 0 -338034687.06375122 -51794050.500782013 0 -51794050.500782013 200004159.18058968 0 0 0 0 333906251.65725708 -64078342.96269989 0 -64078342.96269989 -451592185.55661011 0 0 0 0 -209290214.47796631 -207436689.41399384 0 -207436689.41399384 -137148028.90000153 0 0 0 0 -217016609.80334473 -213723337.13240051 0 -213723337.13240051 -110707963.58005524 0 0 0 0 -226660803.42352295 -203620159.26340866 0 -203620159.26340866 -106073423.10259342 0 0 0 0 199072947.8059082 -93198068.154998779 0 -93198068.154998779 -124244644.26874924 0 0 0 0 -239814482.39911842 -12044707.585956216 0 -12044707.585956216 -121154278.42864227 0 0 0 0 305902314.39193726 -193561341.0242939 0 -193561341.0242939 -132606716.47824097 0 0 0 0 26471631.31647335 -28688247.918494303 0 -28688247.918494303 -46002990.885692813 0 0 0 0 199561911.50158691 45029886.659328461 0 45029886.659328461 22851952.329216003 0 0 0 0 92834587.865600586 12080908.438049316 0 12080908.438049316 36630047.161506653 0 0 0 0 21980676.193041146 -28260858.356853381 0 -28260858.356853381 -42707364.099033743 0 0 0 0 -89999173.075561523 213852287.68771553 0 213852287.68771553 -29760466.174686432 0 0 0 0 -103925950.4876709 97582497.647708893 0 97582497.647708893 208995287.43150711 0 0 0 0 -17082555.804016113 -41247001.752891541 0 -41247001.752891541 -121561616.603302 0 0 0 0 -118495991.40100098 36444964.716724396 0 36444964.716724396 -44846667.641120911 0 0 0 0 -43333861.026947021 69891210.712501526 0 69891210.712501526 -33565812.233934402 0 0 0 0 -135597128.25701904 -134981100.44516754 0 -134981100.44516754 -175452135.50431061 0 0 0 0 -255581152.13446045 -148331472.5858078 0 -148331472.5858078 -116834742.8839426 0 0 0 0 -138299005.17523193 -151183642.74991417 0 -151183642.74991417 -118251572.38462067 0 0 0 0 -119192463.94769287 -225451677.41224289 0 -225451677.41224289 -98238389.358444214 0 0 0 0 -117565565.27017212 -93774282.705816269 0 -93774282.705816269 -33272419.200813293 0 0 0 0 -170607298.69802856 -143083530.19197464 0 -143083530.19197464 -58912917.034763336 0 0 0 0 -70006649.585861206 -9657545.9657459259 0 -9657545.9657459259 -3448536.9359588623 0 0 0 0 -141693576.23461914 -109847999.84640121 0 -109847999.84640121 133651405.73922729 0 0 0 0 -3509415.2576293945 -220145858.67258453 0 -220145858.67258453 201260.01299476624 0 0 0 0 -14892948.236543655 -99506326.305112481 0 -99506326.305112481 22719208.216918945 0 0 0 0 -115782500.84640503 -70700076.066074133 0 -70700076.066074133 350324180.65161133 0 0 0 0 -113820185.81060791 -44136453.175960541 0 -44136453.175960541 80247865.555938721 0 0 0 0 -19416775.428863525 -188824337.77513313 0 -188824337.77513313 -294832863.86183548 0 0 0 0 -63143901.512573242 -141824990.07493591 0 -141824990.07493591 -88821056.171058655 0 0 0 0 -86582025.957885742 -253482413.86144352 0 -253482413.86144352 -249332746.26581955 0 0 0 0 -145879018.28839111 -233775690.72349167 0 -233775690.72349167 -98085501.376636028 0 0 0 0 9490803.7193394154 -12789867.495340168 0 -12789867.495340168 -15989274.790303232 0 0 0 0 -153402835.64884186 -220943710.41879845 0 -220943710.41879845 -213997765.29154396 0 0 0 0 -156766078.85546875 -206317882.79767513 0 -206317882.79767513 -272774314.42550564 0 0 0 0 -136088225.74475098 -187278637.78932381 0 -187278637.78932381 -136310016.70750046 0 0 0 0 -253265887.73529053 -240738615.41285515 0 -240738615.41285515 -217909544.81965637 0 0 0 0 -134507743.18790436 -196923899.91843843 0 -196923899.91843843 -280435103.83494568 0 0 0 0 30360276.575897217 -134226183.5684458 0 -134226183.5684458 71705949.718476593 0 0 0 0 -39876754.790740967 -99731087.231157064 0 -99731087.231157064 303575279.76803589 0 0 0 0 -49990173.913299561 -23818198.174865007 0 -23818198.174865007 116117229.06371355 0 0 0 0 -246143805.15026855 -329276925.35157824 0 -329276925.35157824 -263262685.32010174 0 0 0 0 -60942410.651237488 37128764.588682711 0 37128764.588682711 448537597.45050597 0 0 0 0 7948622.3867837489 -5558099.8149289116 0 -5558099.8149289116 -9132662.1344183609 0 0 0 0 -82119118.836914062 -358773699.22430587 0 -358773699.22430587 -587697484.59234667 0 0 0 0 20157167.588057905 -22020698.824414857 0 -22020698.824414857 -48164542.637629628 0 0 0 0 -7001806.6374816895 -34427673.01128006 0 -34427673.01128006 -17247826.360019684 0 0 0 0 120628513.33972168 -29585507.916942596 0 -29585507.916942596 -103476807.29091752 0 0 0 0 -11442394.754969403 -37247500.859269269 0 -37247500.859269269 -11558802.270295627 0 0 0 0 -6573875.1598510742 -31633469.911701202 0 -31633469.911701202 -33180159.679868221 0 0 0 0 -7311674.5828606635 -36531103.766387209 0 -36531103.766387209 -23152013.187782042 0 0 0 0 -10008634.156677246 -28721203.612049103 0 -28721203.612049103 -15470761.411865234 0 0 0 0 1256288.5891828984 -13108836.253937157 0 -13108836.253937157 -6228110.1327626258 0 0 0 0 -58215634.453735352 15394692.039281845 0 15394692.039281845 -65211639.478281498 0 0 0 0 7041249.4164123535 -125971551.03777695 0 -125971551.03777695 -304319887.64222908 0 0 0 0 7324481.1271602362 -513282.0959444195 0 -513282.0959444195 -6729047.8914342392 0 0 0 0 12429522.535812378 -142969173.27419448 0 -142969173.27419448 145355028.42799234 0 0 0 0 -2213602.2565150559 -27587200.081239495 0 -27587200.081239495 -13631852.027788656 0 0 0 0 28413855.218846321 -8593036.5487983525 0 -8593036.5487983525 13422669.721024036 0 0 0 0 -135636.44931030273 -29208195.399616241 0 -29208195.399616241 -15336929.858066559 0 0 0 0 -16939638.574382603 -35760961.776327305 0 -35760961.776327305 -5616028.6194048077 0 0 0 0 -16311756.283874512 -51219373.345005035 0 -51219373.345005035 8421781.2573318481 0 0 0 0 451592811.6055603 -405144994.91986609 0 -405144994.91986609 220306612.84961987 0 0 0 0 -67985106.373535156 -2606082.3465199471 0 -2606082.3465199471 719153751.94890976 0 0 0 0 -2436152.8607587703 -10460617.293119028 0 -10460617.293119028 -3061839.751065067 0 0 0 0 317889861.43676758 -210734591.09464264 0 -210734591.09464264 -70900.830516934395 0 0 0 0 121974715.91607666 -519247964.70491505 0 -519247964.70491505 694348172.86689854 0 0 0 0 -111278946.71157837 -180182752.84218168 0 -180182752.84218168 312265886.52642334 0 0 0 0 -73433946.916656494 -280569010.76009595 0 -280569010.76009595 469523732.99965096 0 0 0 0 -230365569.94308853 -151462467.66392505 0 -151462467.66392505 562836461.005476 0 0 0 0 -170403727.37768555 48262229.366697311 0 48262229.366697311 965001433.4394455 0 0 0 0 441802753.07484436 -594869409.13318276 0 -594869409.13318276 537951663.24025536 0 0 0 0 -36774248.168304443 -416367852.0640974 0 -416367852.0640974 1027641853.1513753 0 0 0 0 -108688227.45850372 -97791905.222194433 0 -97791905.222194433 413248649.03057289 0 0 0 0 -16048396.504135132 -53015282.634109855 0 -53015282.634109855 424188627.84851098 0 0 0 0 67045706.980743408 79103625.824134111 0 79103625.824134111 447939930.65196323 0 0 0 0 -116288693.62698364 -117027793.27772927 0 -117027793.27772927 508881412.30819893 0 0 0 0 -214286663.42111206 -55051871.794911385 0 -55051871.794911385 549792851.19227123 0 0 0 0 -303152321.63204956 88447795.443818092 0 88447795.443818092 399463095.14584255 0 0 0 0 -178858666.59191895 21471076.816250443 0 21471076.816250443 392549282.71808243 0 0 0 0 -88587839.203033447 -13548309.692735672 0 -13548309.692735672 323393162.49160194 0 0 0 0 -83405869.291595459 60996164.070844561 0 60996164.070844561 185970551.88925934 0 0 0 0 -22663211.45803833 115027158.69103146 0 115027158.69103146 -28252177.40408802 0 0 0 0 -189656406.51913452 146558476.45517492 0 146558476.45517492 202902639.73127604 0 0 0 0 -16825799.246871948 99622856.616238832 0 99622856.616238832 10207328.372003555 0 0 0 0 -41707684.025644302 140128140.26672679 0 140128140.26672679 40679756.696428299 0 0 0 0 -41434885.458058357 147642188.47265601 0 147642188.47265601 -12047962.963661194 0 0 0 0 -298933906.81668091 259156489.76279879 0 259156489.76279879 79274614.222488403 0 0 0 0 -181145880.85644531 75302978.905798912 0 75302978.905798912 321248625.9038496 0 0 0 0 68496.096069335938 52682327.479019165 0 52682327.479019165 -131256088.73964405 0 0 0 0 -358488054.99417114 252040594.69188356 0 252040594.69188356 79110811.554738998 0 0 0 0 -31020729.716644287 210516373.15284157 0 210516373.15284157 -259797388.50994396 0 0 0 0 -117899583.42919922 290798028.27391434 0 290798028.27391434 -552085252.8893137 0 0 0 0 14146767.755813599 108606842.00499916 0 108606842.00499916 -29863243.312124252 0 0 0 0 -3158336.3118896484 89696548.069164276 0 89696548.069164276 -48354492.280380249 0 0 0 0 -49255304.963684082 -351569946.18834686 0 -351569946.18834686 440018670.57436848 0 0 0 0 -116368940.44223022 -344017388.77393532 0 -344017388.77393532 234574774.90133667 0 0 0 0 -342012246.60903931 -471332410.09352016 0 -471332410.09352016 395692176.60258293 0 0 0 0 -608522145.12213135 60470130.446360588 0 60470130.446360588 535042184.02956557 0 0 0 0 -62773051.020080566 -168196813.81737757 0 -168196813.81737757 159965532.45741463 0 0 0 0 -626408259.35919189 41531804.8904562 0 41531804.8904562 111318212.5026145 0 0 0 0 -907616603.59124184 -322227356.42220634 0 -322227356.42220634 -291285732.93480682 0 0 0 0 -784805850.58728027 606621434.3468256 0 606621434.3468256 -215747454.43720627 0 0 0 0 -1345038552.2830811 600032100.09929752 0 600032100.09929752 -541293998.47287798 0 0 0 0 -483279993.51234055 -509257524.79038787 0 -509257524.79038787 165914770.84318161 0 0 0 0 -682957830.81515503 -62975131.661689758 0 -62975131.661689758 44659945.471910477 0 0 0 0 -180506859.36636353 -245557660.55967331 0 -245557660.55967331 -223112556.87171173 0 0 0 0 38435426.850280762 -261362472.18658543 0 -261362472.18658543 52355526.717525482 0 0 0 0 55608522.071380615 -470197735.79213905 0 -470197735.79213905 508067002.73061371 0 0 0 0 -209145223.92552948 -422174007.13413715 0 -422174007.13413715 307632920.63463211 0 0 0 0 118562752.88394165 -530679745.28668976 0 -530679745.28668976 159041966.70984936 0 0 0 0 -157299516.8033638 -520605529.11128223 0 -520605529.11128223 392888212.80364037 0 0 0 0 270782568.19580078 -653542798.94104242 0 -653542798.94104242 313731810.36792374 0 0 0 0 114641921.25662231 -492757191.37583065 0 -492757191.37583065 463131442.15865898 0 0 0 0 72260671.335006714 -609364724.01452351 0 -609364724.01452351 489650084.87859249 0 0 0 0 78809466.060516357 -641902457.0373354 0 -641902457.0373354 357070259.96718383 0 0 0 0 362905747.931427 -498492005.19020271 0 -498492005.19020271 493113714.1973176 0 0 0 0 773521879.56674194 -511085000.63203526 0 -511085000.63203526 324088223.39517879 0 0 0 0 314201799.08908081 -639005420.09346628 0 -639005420.09346628 401751144.31981277 0 0 0 0 372410259.16760254 -414274190.36891079 0 -414274190.36891079 302050284.49918652 0 0 0 0 619653975.8215332 -732622970.55339098 0 -732622970.55339098 552734429.05075645 0 0 0 0 868512149.76978302 -705245149.7123692 0 -705245149.7123692 356100237.76792145 0 0 0 0 -200258105.24154663 -55852989.436019897 0 -55852989.436019897 166842984.66883087 0 0 0 0 780561825.28598022 -501787996.14805984 0 -501787996.14805984 523844824.28901386 0 0 0 0 186722307.67430115 -150978054.41243124 0 -150978054.41243124 -44196589.499341011 0 0 0 0 116854785.8493042 355613895.01270008 0 355613895.01270008 -40829315.183252811 0 0 0 0 -9887111.7736549079 -8544079.4883595146 0 -8544079.4883595146 -4150039.1936461255 0 0 0 0 17384731.019134521 2649477.3898296356 0 2649477.3898296356 -290011321.68998814 0 0 0 0 -36203487.15447998 84701236.828282595 0 84701236.828282595 325767306.51712418 0 0 0 0 -23959138.698030502 -24790653.979412019 0 -24790653.979412019 -14057654.78725818 0 0 0 0 137633924.65911865 -324714289.34071541 0 -324714289.34071541 174776570.29375458 0 0 0 0 -43434082.004776001 -11247603.010166168 0 -11247603.010166168 8858208.3197631836 0 0 0 0 -128263473.9460144 -284575430.31204224 0 -284575430.31204224 342193798.51272076 0 0 0 0 -54214552.165374756 -223635481.49699116 0 -223635481.49699116 194385629.40328789 0 0 0 0 -168002125.34541321 44699940.661151886 0 44699940.661151886 102068165.77373695 0 0 0 0 171422301.10736084 -52808968.602024078 0 -52808968.602024078 96871011.975914955 0 0 0 0 -11860962.5328179 -3134607.8140826225 0 -3134607.8140826225 13315519.95295753 0 0 0 0 -17802915.14730531 -15229925.209740415 0 -15229925.209740415 -6059257.0793482009 0 0 0 0 -9531750.5183258057 -99923113.085216522 0 -99923113.085216522 122161573.95484161 0 0 0 0 -99063615.71295166 -47363506.522100449 0 -47363506.522100449 158400140.06549072 0 0 0 0 288302636.40390015 138697605.14097595 0 138697605.14097595 188423830.27939224 0 0 0 0 363470875.38659668 15090316.240596771 0 15090316.240596771 46359722.713665009 0 0 0 0 -369483916.83496094 72176844.941123962 0 72176844.941123962 432425965.75191498 0 0 0 0 -212577370.43985748 -336259650.27430868 0 -336259650.27430868 -53254535.02796936 0 0 0 0 15522622.951721191 -218432933.52196503 0 -218432933.52196503 -160132615.75839615 0 0 0 0 -23704880.544189453 -20473657.867248535 0 -20473657.867248535 -211255.73930358887 0 0 0 0 -19787522.345825195 -33297716.463119507 0 -33297716.463119507 11346816.148109436 0 0 0 0 -36312122.443389893 -21207212.946861267 0 -21207212.946861267 19244180.313674927 0 0 0 0 -19062435.582824707 -42078733.004875183 0 -42078733.004875183 26974303.912657738 0 0 0 0 -30220147.544281006 -33181175.314266205 0 -33181175.314266205 27861995.694442749 0 0 0 0 -25179220.546539307 -34465008.60572052 0 -34465008.60572052 18911725.032902002 0 0 0 0 -27186794.162834167 -30505662.133993149 0 -30505662.133993149 20752943.514785767 0 0 0 0 -21097152.628356934 -34016556.383964539 0 -34016556.383964539 21077615.465468407 0 0 0 0 -23762821.220106602 -34868561.197962761 0 -34868561.197962761 21572054.678268433 0 0 0 0 -23918666.123078346 -37893050.294077635 0 -37893050.294077635 23421801.942153931 0 0 0 0 -21361390.202301025 -31575936.505554199 0 -31575936.505554199 24590938.039680481 0 0 0 0 -26427509.186827689 -21999161.618053682 0 -21999161.618053682 5034368.8910078853 0 0 0 0 -19778710.50894165 -33658037.683860779 0 -33658037.683860779 20987624.002059937 0 0 0 0 44405409.104919434 -123808252.34327316 0 -123808252.34327316 -63459944.262939453 0 0 0 0 -146576684.75567627 -259243194.12195587 0 -259243194.12195587 -39403278.230270386 0 0 0 0 -16705192.73010093 -4982378.6414438002 0 -4982378.6414438002 15734228.063401148 0 0 0 0 22428024.878723145 -193542465.55493927 0 -193542465.55493927 -149104446.98836136 0 0 0 0 76919151.530410767 -51011229.979865074 0 -51011229.979865074 76861169.884986877 0 0 0 0 82253248.223083496 -32382222.076797485 0 -32382222.076797485 71018129.519866943 0 0 0 0 36721100.354034424 23608697.795763016 0 23608697.795763016 295280367.0355835 0 0 0 0 33419004.217895508 -145741346.74290848 0 -145741346.74290848 -81006622.576072693 0 0 0 0 72458669.835144043 -123998050.53212738 0 -123998050.53212738 -52167359.619689941 0 0 0 0 25672016.129150391 -144164980.58551788 0 -144164980.58551788 -56752739.67401886 0 0 0 0 50814787.702056885 -146183101.35752487 0 -146183101.35752487 -92580607.728302002 0 0 0 0 59696017.456939697 -122784434.65856934 0 -122784434.65856934 -62683601.82359314 0 0 0 0 42923724.873474121 -145874302.8890686 0 -145874302.8890686 -74785030.747756958 0 0 0 0 71197733.174348831 -93113504.337625265 0 -93113504.337625265 186685.91952514648 0 0 0 0 -50234759.719848633 -245453669.32621765 0 -245453669.32621765 -52112640.934818268 0 0 0 0 55980231.281982422 -82863637.507583618 0 -82863637.507583618 -60456795.744257927 0 0 0 0 -167456544.91766357 34504393.166061401 0 34504393.166061401 499845841.93008423 0 0 0 0 -257716274.07727051 -83640996.200634003 0 -83640996.200634003 510307035.90112305 0 0 0 0 -404665918.6385498 -316400647.28736115 0 -316400647.28736115 373158285.73387146 0 0 0 0 -1460915.428358227 -2846958.4276586622 0 -2846958.4276586622 -3052214.8409852404 0 0 0 0 -78196942.343139648 -129535960.70901489 0 -129535960.70901489 120835887.86579514 0 0 0 0 -7169545.9156494141 -158567585.03825378 0 -158567585.03825378 113097137.1305542 0 0 0 0 78213919.751220703 -62587668.119709015 0 -62587668.119709015 10584696.404748917 0 0 0 0 61492786.624206543 -101841737.08641815 0 -101841737.08641815 -2039636.2025470734 0 0 0 0 53492596.568145752 -36961053.590179443 0 -36961053.590179443 37818280.599868774 0 0 0 0 -25813415.435798645 31211716.695156813 0 31211716.695156813 493304773.24886513 0 0 0 0 29689079.964447021 -75129361.834949493 0 -75129361.834949493 182656064.61386108 0 0 0 0 -26440925.553420261 -26549939.599387757 0 -26549939.599387757 -3358390.382189177 0 0 0 0 256037286.89837646 115803722.59535217 0 115803722.59535217 -352293771.45562744 0 0 0 0 121375405.88049316 143317912.36530304 0 143317912.36530304 150397841.22667217 0 0 0 0 41284050.802001953 -65919312.954212189 0 -65919312.954212189 14373529.911823273 0 0 0 0 94220046.597351074 -68414377.968029022 0 -68414377.968029022 -135296966.61655045 0 0 0 0 119594293.50570679 -190396123.3378067 0 -190396123.3378067 -312231475.95225477 0 0 0 0 -18914972.583892822 -379357640.66875744 0 -379357640.66875744 392618256.77081895 0 0 0 0 240630475.51402283 -554202818.28218389 0 -554202818.28218389 505609867.93526268 0 0 0 0 -200525745.13752747 -23538853.556827545 0 -23538853.556827545 75154884.433792114 0 0 0 0 -21076015.326213807 -18643881.114788495 0 -18643881.114788495 -1875406.8926762398 0 0 0 0 231965446.52478027 -600434558.43316031 0 -600434558.43316031 465023341.81839252 0 0 0 0 -12253264.410691343 -5633263.1944566071 0 -5633263.1944566071 6989828.9574914947 0 0 0 0 -16939128.178070068 -150357609.6461792 0 -150357609.6461792 -35251042.790313721 0 0 0 0 -841323.64819335938 -197595333.89609909 0 -197595333.89609909 -127199693.12070084 0 0 0 0 -73324.752029418945 -40267387.777929306 0 -40267387.777929306 15576154.433525085 0 0 0 0 -16092066.839124441 -35022842.78514953 0 -35022842.78514953 24462570.410583496 0 0 0 0 -17798674.118652344 -52079591.108772278 0 -52079591.108772278 72914791.645942688 0 0 0 0 -16140947.415161133 -40960100.625106812 0 -40960100.625106812 51546055.210250854 0 0 0 0 -6267310.4283447266 -110609208.77825928 0 -110609208.77825928 104263707.21351624 0 0 0 0 -14503777.635089874 -76305941.05361104 0 -76305941.05361104 45303179.751022339 0 0 0 0 -6178258.8193664551 -108293433.56015396 0 -108293433.56015396 -66744651.316390991 0 0 0 0 26580.980773925781 -72991470.250556946 0 -72991470.250556946 -187855183.69789124 0 0 0 0 -49630032.738967896 -52365729.448543549 0 -52365729.448543549 -113888521.99279785 0 0 0 0 -21321363.865142822 -60876671.756011009 0 -60876671.756011009 -175248071.37294006 0 0 0 0 -11646077.980880737 -88244253.758156776 0 -88244253.758156776 -227510742.44271851 0 0 0 0 -7038679.3404769897 -130501419.58475304 0 -130501419.58475304 -424036786.51938629 0 0 0 0 -203151083.21432495 -27877306.587631226 0 -27877306.587631226 208297762.69076538 0 0 0 0 -81779041.415557861 -131808532.50933838 0 -131808532.50933838 -201842317.06271744 0 0 0 0 370199.74685196579 1851939.5273556113 0 1851939.5273556113 -240007.75512803905 0 0 0 0 127060407.17092896 -1417733.5147399902 0 -1417733.5147399902 14696872.452980042 0 0 0 0 -16876161.647964478 -109789751.64577103 0 -109789751.64577103 -217828609.72943115 0 0 0 0 -40539315.320877075 -68307940.546092987 0 -68307940.546092987 -194283983.52415466 0 0 0 0 -28287351.631980896 -125747535.07235909 0 -125747535.07235909 -158319393.2787323 0 0 0 0 -33810434.701293945 -48878469.420753479 0 -48878469.420753479 -233015622.74308777 0 0 0 0 -27484951.425170898 -55774079.324398041 0 -55774079.324398041 -131496814.75369263 0 0 0 0 -3660881.8033447266 -115784925.68139648 0 -115784925.68139648 -152148667.62976074 0 0 0 0 641555.08902949095 3178077.53865261 0 3178077.53865261 -38054.064969500527 0 0 0 0 7676321.3576660156 2691749.099029541 0 2691749.099029541 38069001.030273438 0 0 0 0 -25571198.548126221 2627824.6651229858 0 2627824.6651229858 62296648.896865845 0 0 0 0 -6432147.4781646729 -90940768.596998215 0 -90940768.596998215 -243818083.06506348 0 0 0 0 -5102015.410118103 -31109925.778481483 0 -31109925.778481483 13582266.551376343 0 0 0 0 -1818908.0017485619 634448.21637679078 0 634448.21637679078 3402452.600469023 0 0 0 0 13474897.932739258 28473428.150093079 0 28473428.150093079 12395918.034645081 0 0 0 0 -12798479.626371384 -58506422.140684128 0 -58506422.140684128 80901249.610466003 0 0 0 0 6796662.9504394531 -33647442.945266724 0 -33647442.945266724 79390332.480926514 0 0 0 0 25789057.737640381 -35920417.851718903 0 -35920417.851718903 36344089.046081543 0 0 0 0 25584522.908432007 -35153599.107851028 0 -35153599.107851028 47148355.656082153 0 0 0 0 15743073.208984375 -24360927.004379272 0 -24360927.004379272 65395670.855285645 0 0 0 0 7799582.7250366211 -9329200.4670639038 0 -9329200.4670639038 -10524218.501693726 0 0 0 0 -3144121.7032346129 -179691.55522894673 0 -179691.55522894673 9249367.42525509 0 0 0 0 29038879.451019287 -31127738.845603943 0 -31127738.845603943 43318412.523445129 0 0 0 0 1242853.9491043091 -11232857.40290451 0 -11232857.40290451 -1165155.0710754395 0 0 0 0 5287769.1477532163 -13049491.976410709 0 -13049491.976410709 21098476.448860507 0 0 0 0 3450921.8942153268 -10835618.824220881 0 -10835618.824220881 -3291736.848038666 0 0 0 0 8941298.4189758301 -10380068.090221405 0 -10380068.090221405 -10716296.894138336 0 0 0 0 3206253.4423713684 -41204082.876296997 0 -41204082.876296997 -30914031.07094574 0 0 0 0 -3097366.2570606768 -9883404.9985281043 0 -9883404.9985281043 26855140.398003008 0 0 0 0 16101040.095733643 15731704.242805481 0 15731704.242805481 -16284151.115753174 0 0 0 0 4622270.2167358398 -17644915.59021759 0 -17644915.59021759 4501687.3837203979 0 0 0 0 2060417.2725830078 -9029219.9762496948 0 -9029219.9762496948 6261247.5276298523 0 0 0 0 10133676.587158203 -15324134.673309326 0 -15324134.673309326 -10306699.308986187 0 0 0 0 115220.82843017578 -12917240.865890503 0 -12917240.865890503 15277611.65309906 0 0 0 0 -1854876.442565918 -66794879.327674866 0 -66794879.327674866 -96002963.668647766 0 0 0 0 536822.36724178493 2635683.4018963948 0 2635683.4018963948 992485.77368169371 0 0 0 0 -3323177.5412597656 -9001252.887840271 0 -9001252.887840271 22130443.720275879 0 0 0 0 -21230675.600395203 -75705342.366350174 0 -75705342.366350174 -75389600.3387146 0 0 0 0 -12265873.889282227 -89114972.965400696 0 -89114972.965400696 -96520025.072341919 0 0 0 0 -2777867.0069856644 -130959524.59014225 0 -130959524.59014225 -71847534.599533081 0 0 0 0 -6238171.8274536133 -140842265.8364563 0 -140842265.8364563 -43751751.352218628 0 0 0 0 60871129.955505371 -110434746.79019165 0 -110434746.79019165 -48885209.118570328 0 0 0 0 -36281857.61340332 739262.03555297852 0 739262.03555297852 -23424211.027537346 0 0 0 0 -2290385.1778335571 -118560130.20534897 0 -118560130.20534897 -14628242.836700439 0 0 0 0 45680019.698570251 -71000262.659633636 0 -71000262.659633636 -2477075.1642150879 0 0 0 0 1320644.3022301123 -5644893.7812328562 0 -5644893.7812328562 -2328826.8722073212 0 0 0 0 64742023.117965698 -95463326.080921173 0 -95463326.080921173 141631519.18681335 0 0 0 0 60135544.115753174 37390714.898445129 0 37390714.898445129 22039070.073059082 0 0 0 0 313020.2259631753 690164.21579055116 0 690164.21579055116 -527977.50184901897 0 0 0 0 40037007.680610657 6812473.8967628479 0 6812473.8967628479 -22340297.456283569 0 0 0 0 -747774.43078613281 -6545982.5015525818 0 -6545982.5015525818 14843976.321426392 0 0 0 0 316442.62699469924 -690227.47615101933 0 -690227.47615101933 -197669.48270431906 0 0 0 0 -77066671.813140869 -126000432.71950531 0 -126000432.71950531 7984443.1147918701 0 0 0 0 112197523.127491 -150877841.49549484 0 -150877841.49549484 -10949687.11428833 0 0 0 0 7710997.3443896845 -13811750.186862156 0 -13811750.186862156 18099894.571352866 0 0 0 0 100297433.47393799 -20443871.622161865 0 -20443871.622161865 -4001534.8477172852 0 0 0 0 126400744.67391968 -143542314.64909363 0 -143542314.64909363 56295571.059379578 0 0 0 0 -64861954.257843018 39969113.729244232 0 39969113.729244232 46374604.717056274 0 0 0 0 51559636.13861084 -100589803.70013428 0 -100589803.70013428 -36288047.618286133 0 0 0 0 -9167910.7521057129 -7422932.7280654907 0 -7422932.7280654907 -5419787.0526733398 0 0 0 0 7646988.7720464319 -13566214.9091442 0 -13566214.9091442 15628380.242640309 0 0 0 0 -121660598.79882812 -58534392.777282715 0 -58534392.777282715 35162036.840103149 0 0 0 0 346032228.69824219 -609168897.41740227 0 -609168897.41740227 749655067.69398499 0 0 0 0 -66611604.017326355 -35050115.384098053 0 -35050115.384098053 6755492.4775390625 0 0 0 0 -162983688.07925415 189902893.06073189 0 189902893.06073189 383279752.82359314 0 0 0 0 333128329.35620117 -301773354.91453171 0 -301773354.91453171 182474582.33892441 0 0 0 0 379944197.19763565 53890348.01832056 0 53890348.01832056 -52626854.332290649 0 0 0 0 -152455928.52880859 390241593.59769249 0 390241593.59769249 -438445028.51361656 0 0 0 0 13275512.214904785 -232177257.63208008 0 -232177257.63208008 548913684.70309639 0 0 0 0 2469362.5379157364 -1877339.6514225751 0 -1877339.6514225751 -563751.65248342417 0 0 0 0 259803005.55584717 -198272374.98160934 0 -198272374.98160934 49650513.594993591 0 0 0 0 154993866.01824951 -155919813.52302933 0 -155919813.52302933 -100515657.86985016 0 0 0 0 -114204932.47772217 -120292452.76700783 0 -120292452.76700783 -60202438.61873436 0 0 0 0 33937359.887969971 -154596990.65955639 0 -154596990.65955639 -264847360.68220139 0 0 0 0 -149390803.27545166 -68125677.161352158 0 -68125677.161352158 88195604.149403572 0 0 0 0 96074683.758087158 143830589.01606941 0 143830589.01606941 28494583.87940979 0 0 0 0 157627865.0211792 -299786003.53461456 0 -299786003.53461456 97440541.121612549 0 0 0 0 -2221805.3450465351 1786117.6512158364 0 1786117.6512158364 9000710.9732424095 0 0 0 0 109439649.76527405 -90466041.783121586 0 -90466041.783121586 -204727846.29452324 0 0 0 0 27122908.82623291 43784738.848576546 0 43784738.848576546 16142671.030492783 0 0 0 0 -91325041.982666016 -30462460.070556641 0 -30462460.070556641 -189766637.88681185 0 0 0 0 19640751.72088623 -19998000.507143617 0 -19998000.507143617 70563575.517814279 0 0 0 0 -153345608.23907471 133445930.37342453 0 133445930.37342453 25752717.553146362 0 0 0 0 -262418308.14624023 -581680286.05490494 0 -581680286.05490494 -140654929.27128601 0 0 0 0 -359150007.60797119 -414590985.0448575 0 -414590985.0448575 39987107.969368219 0 0 0 0 -413432407.48059082 -593330660.97668099 0 -593330660.97668099 -74609900.162825108 0 0 0 0 -78063666.433990479 -626334515.62030673 0 -626334515.62030673 -855608452.72293448 0 0 0 0 -231761122.8426857 -108145354.13475144 0 -108145354.13475144 -265816406.32470322 0 0 0 0 -22039866.614990234 -209167302.53312111 0 -209167302.53312111 -710876908.20401096 0 0 0 0 -1731585.1329345703 171566685.81723785 0 171566685.81723785 736596645.5645647 0 0 0 0 3471599.3643283099 -1150612.0140714161 0 -1150612.0140714161 -3410305.0732889762 0 0 0 0 -244252848.59417725 -71298735.114228249 0 -71298735.114228249 1599603765.387126 0 0 0 0 -96012745.370483398 304761408.07614994 0 304761408.07614994 -41577005.524437666 0 0 0 0 28203244.024230957 -96015351.955196381 0 -96015351.955196381 363125195.68984413 0 0 0 0 668464414.93395996 -1439510932.8194551 0 -1439510932.8194551 -410708476.04740334 0 0 0 0 -271006948.20359802 -132205669.38909388 0 -132205669.38909388 -10452426.996944666 0 0 0 0 -407854552.67953873 -657159096.26118898 0 -657159096.26118898 548811371.83445644 0 0 0 0 -1441143335.1164551 1745984993.8065815 0 1745984993.8065815 250478565.36801851 0 0 0 0 -1723478.4068461955 -388889.98109281436 0 -388889.98109281436 3186057.6016877415 0 0 0 0 -2058250.8172293399 5759895.2675315663 0 5759895.2675315663 1789429.5153736575 0 0 0 0 10317414.15625 24732579.336364031 0 24732579.336364031 -33998931.117878914 0 0 0 0 -2599498.6807367802 -316301.63651575334 0 -316301.63651575334 30993410.601890955 0 0 0 0 -408801919.80783081 -20705782.706693411 0 -20705782.706693411 167719430.31082439 0 0 0 0 -820445.81799265556 -10358996.791756779 0 -10358996.791756779 30647139.204461016 0 0 0 0 -106592090.36184692 68873157.316184044 0 68873157.316184044 39661444.27436018 0 0 0 0 60146762.088043213 25430520.687265873 0 25430520.687265873 86580249.983444214 0 0 0 0 -6258317.1993408203 -76204717.797350883 0 -76204717.797350883 362024244.79383755 0 0 0 0 -20726799.550567627 47485167.229588032 0 47485167.229588032 139620402.56135464 0 0 0 0 -59931342.155761719 124737808.82278156 0 124737808.82278156 115081648.1692977 0 0 0 0 -106460811.81468201 66024716.637944221 0 66024716.637944221 56322811.910106659 0 0 0 0 -35699271.554878235 101368043.35725904 0 101368043.35725904 39780565.324642181 0 0 0 0 -22844007.744659424 89344979.845637798 0 89344979.845637798 -7232492.7878875732 0 0 0 0 -12979821.517944336 73294016.82007885 0 73294016.82007885 -13934933.363232136 0 0 0 0 -15745028.278194427 57028661.425267935 0 57028661.425267935 15969736.309780121 0 0 0 0 -47662896.171855927 -5125189.7284135818 0 -5125189.7284135818 63174694.75551033 0 0 0 0 17383004.655548096 1536026.5138816833 0 1536026.5138816833 41909286.448320389 0 0 0 0 -61424235.710571289 45340092.456080437 0 45340092.456080437 26923888.668362021 0 0 0 0 -95667613.368835449 60482361.926086426 0 60482361.926086426 17143768.084043264 0 0 0 0 -92386345.454082489 46125292.497357607 0 46125292.497357607 8237544.3028030396 0 0 0 0 -744194.44205115736 -2062695.2886551702 0 -2062695.2886551702 5108814.954344715 0 0 0 0 -149545159.90364075 51382815.240115166 0 51382815.240115166 52475009.12749958 0 0 0 0 -1064540.7418030836 -6697748.7068195492 0 -6697748.7068195492 32006699.389658902 0 0 0 0 -181047177.55181885 -64692613.540969849 0 -64692613.540969849 52715024.415737152 0 0 0 0 -220637230.74108887 -89021806.39666748 0 -89021806.39666748 197486080.53839111 0 0 0 0 -170170490.40185547 86957363.304618835 0 86957363.304618835 243626845.56550598 0 0 0 0 184992839.12408447 -153939456.30879211 0 -153939456.30879211 -283501447.50018311 0 0 0 0 122780871.45837402 182302869.69637299 0 182302869.69637299 50551534.411117554 0 0 0 0 30904297.937194824 252266951.43766403 0 252266951.43766403 374443706.108078 0 0 0 0 -167870532.42759705 -169308698.68772125 0 -169308698.68772125 -282266314.02668762 0 0 0 0 -351269200.77667236 -157195264.44771004 0 -157195264.44771004 474998627.76193237 0 0 0 0 2722338.9824859947 -2805257.1317441519 0 -2805257.1317441519 13815411.35635086 0 0 0 0 -9078868.7409362793 43419993.721977234 0 43419993.721977234 -74623716.435497284 0 0 0 0 -843618.612449646 2336692.2845098637 0 2336692.2845098637 13351413.666857056 0 0 0 0 -3078453.5768432617 1226062.8343544006 0 1226062.8343544006 6685338.6434793472 0 0 0 0 -3371614.3369087558 -4832138.3561325893 0 -4832138.3561325893 21482752.515233006 0 0 0 0 406491507.65270996 415458906.38656235 0 415458906.38656235 101923861.19177246 0 0 0 0 6454891.8592629433 1180118.476505544 0 1180118.476505544 7250725.8314745761 0 0 0 0 107458702.5632019 -77119681.581069946 0 -77119681.581069946 115132587.73306561 0 0 0 0 -1763327.1080760062 -1026926.379638955 0 -1026926.379638955 5424569.8105492424 0 0 0 0 24583794.674850464 -9725985.0311393738 0 -9725985.0311393738 23018802.392925262 0 0 0 0 449172769.22775269 198624749.81671143 0 198624749.81671143 -29846314.997848511 0 0 0 0 114375.70474812016 -466105.15792334825 0 -466105.15792334825 768755.42533009872 0 0 0 0 246433789.97529602 -247841070.27586365 0 -247841070.27586365 -115630108.50616455 0 0 0 0 496230671.21746826 -57116247.935733795 0 -57116247.935733795 -97810957.248710632 0 0 0 0 65002745.781486511 -58317677.82208252 0 -58317677.82208252 52033834.104507446 0 0 0 0 157370072.84358978 -6975830.6095404625 0 -6975830.6095404625 15214780.48260498 0 0 0 0 73732128.04876709 -74417729.297233582 0 -74417729.297233582 57862096.237289429 0 0 0 0 -294397.07537185773 159217.20703493059 0 159217.20703493059 3194466.3561283909 0 0 0 0 57916571.30406189 -75816984.861915588 0 -75816984.861915588 45311985.661499023 0 0 0 0 80587584.419044495 -63297395.980524063 0 -63297395.980524063 43655132.886978149 0 0 0 0 82566080.151611328 -36601069.117454529 0 -36601069.117454529 26617480.401985168 0 0 0 0 154565485.81130981 -65471277.690746307 0 -65471277.690746307 26766482.909057617 0 0 0 0 88558513.893295288 -82566671.502662659 0 -82566671.502662659 55306438.390136719 0 0 0 0 57686803.224243164 136396638.53559875 0 136396638.53559875 -41405516.685668945 0 0 0 0 -92491234.454902649 19003027.757567406 0 19003027.757567406 62426155.767425537 0 0 0 0 -209903576.51647949 22029045.569011688 0 22029045.569011688 219714304.81272507 0 0 0 0 -1353469.2128543258 1467447.7254719138 0 1467447.7254719138 1401974.1584256515 0 0 0 0 62871537.876220703 23122814.327838898 0 23122814.327838898 -23066448.072769165 0 0 0 0 -14954353.852416992 123420674.09667206 0 123420674.09667206 25525094.238349915 0 0 0 0 17052169.512634277 57126171.766204834 0 57126171.766204834 -84663978.302337646 0 0 0 0 58488373.656616211 97298044.525650024 0 97298044.525650024 -56537676.474884033 0 0 0 0 -33106764.364440918 32857657.045318604 0 32857657.045318604 28740884.086235046 0 0 0 0 -6053986.4314370155 6023322.614815861 0 6023322.614815861 6273826.4970298856 0 0 0 0 -9205548.2284851074 11185438.612979889 0 11185438.612979889 -10783503.103931427 0 0 0 0 -37826609.132598877 2924190.9475517273 0 2924190.9475517273 27227391.060638428 0 0 0 0 -3065925.8592005074 -2901646.3554946035 0 -2901646.3554946035 36047313.0252674 0 0 0 0 -476174.68139648438 1026593.1322021484 0 1026593.1322021484 15710597.633644104 0 0 0 0 -1086540.1346982643 5602867.813604176 0 5602867.813604176 3650572.529388234 0 0 0 0 -4043113.3000353426 -2358058.9438191652 0 -2358058.9438191652 8388047.369512029 0 0 0 0 2135634.3668212891 33906388.558525085 0 33906388.558525085 19661904.572509766 0 0 0 0 -8094028.1821594238 8281.702335357666 0 8281.702335357666 5517037.3004493713 0 0 0 0 16042555.510269165 -17884369.825360298 0 -17884369.825360298 32520315.793380737 0 0 0 0 47758764.32484436 -40292024.223766327 0 -40292024.223766327 35279148.105941772 0 0 0 0 44842203.156616211 -32524690.107143402 0 -32524690.107143402 15484120.687530518 0 0 0 0 67899487.486694336 -46513602.865753174 0 -46513602.865753174 20951825.87097168 0 0 0 0 59642451.131774902 -13897697.228897095 0 -13897697.228897095 -2841297.2352294922 0 0 0 0 100225034.18215942 -28414266.45275116 0 -28414266.45275116 -5530174.7069091797 0 0 0 0 -670297.59625535458 484092.28205688298 0 484092.28205688298 847933.14380263537 0 0 0 0 19365324.750213623 -47889735.770397186 0 -47889735.770397186 38105362.552062988 0 0 0 0 29305890.891479492 -51966776.005867004 0 -51966776.005867004 38373783.366073608 0 0 0 0 17648540.398864746 -50416300.253356934 0 -50416300.253356934 39715598.301448822 0 0 0 0 18341455.731903076 -43095796.826229095 0 -43095796.826229095 42471531.048995972 0 0 0 0 11531683.295585632 -51062579.341529846 0 -51062579.341529846 40416959.043327332 0 0 0 0 -11626558.204483032 -39121832.613628387 0 -39121832.613628387 58254403.374580383 0 0 0 0 -11081461.402744293 -40306462.085337639 0 -40306462.085337639 5620087.2322235107 0 0 0 0 -21084575.768249512 1603154.801700592 0 1603154.801700592 33424096.908500671 0 0 0 0 -63832668.985290527 -32482237.82522583 0 -32482237.82522583 66734143.469779968 0 0 0 0 21555092.039596558 -81090801.97603035 0 -81090801.97603035 76860146.487968445 0 0 0 0 -279282700.00909424 -63214083.511505127 0 -63214083.511505127 80971532.839159012 0 0 0 0 -31758458.607269287 22920136.89981842 0 22920136.89981842 21769094.188632965 0 0 0 0 10427103.654876709 14434191.866491318 0 14434191.866491318 23039999.941268921 0 0 0 0 4837169.8170738965 2089487.2502202727 0 2089487.2502202727 3715145.8935710816 0 0 0 0 -8591288.1446838379 654007.69729328156 0 654007.69729328156 20982496.897163391 0 0 0 0 -11776064.125915527 -379312.15912628174 0 -379312.15912628174 26401681.257614136 0 0 0 0 -17080990.017486572 171587.76732635498 0 171587.76732635498 33663585.077324867 0 0 0 0 -8343015.5786590576 -10747773.70832634 0 -10747773.70832634 35514987.011779785 0 0 0 0 -3922570.5145874023 -10251785.059680939 0 -10251785.059680939 14639255.088270187 0 0 0 0 5836.7533417425539 -22909909.057264686 0 -22909909.057264686 -2176095.8769226074 0 0 0 0 6822.1826934814453 -25315902.391300201 0 -25315902.391300201 32839720.698509216 0 0 0 0 4023927.8327757716 356912.52756775916 0 356912.52756775916 -3989820.8028177768 0 0 0 0 -18937377.097320557 -4012289.3786640167 0 -4012289.3786640167 69287098.604152679 0 0 0 0 -18002210.492774963 89642.24783039093 0 89642.24783039093 19018494.130371094 0 0 0 0 -19815816.973831177 1963083.0544700623 0 1963083.0544700623 30797979.761541367 0 0 0 0 2218883.8765606731 186667.74813383818 0 186667.74813383818 -2181723.2676421404 0 0 0 0 -17122189.368682861 -5936654.7834396362 0 -5936654.7834396362 61512319.633010864 0 0 0 0 -3103.8606109619141 -27010199.073062897 0 -27010199.073062897 -17636780.49464798 0 0 0 0 -14917548.609359741 -6292401.304017067 0 -6292401.304017067 10203952.32119751 0 0 0 0 14251895.233093262 -76082109.260746002 0 -76082109.260746002 43665948.55867672 0 0 0 0 5582853.185546875 -95720305.50551796 0 -95720305.50551796 16617690.903385162 0 0 0 0 -9877400.5619812012 -70187697.290208817 0 -70187697.290208817 56265179.793830872 0 0 0 0 -14345349.383117676 -60546872.495958328 0 -60546872.495958328 38404503.710289955 0 0 0 0 33883826.641967773 -215946306.89665413 0 -215946306.89665413 -52480274.837409973 0 0 0 0 36795314.653808594 102133847.75792694 0 102133847.75792694 339901652.59422302 0 0 0 0 -27501620.892456055 -73864896.216180801 0 -73864896.216180801 85453997.270011902 0 0 0 0 28892722.121643066 -31101777.305980682 0 -31101777.305980682 87849701.527481079 0 0 0 0 -20968078.49597168 -91754271.857772827 0 -91754271.857772827 127695511.51820374 0 0 0 0 38400079.835205078 -1708295.3318595886 0 -1708295.3318595886 159212052.17419052 0 0 0 0 -7526365.2405395508 -59622643.117607117 0 -59622643.117607117 197351969.8544693 0 0 0 0 -44686529.60093689 -155232385.54682636 0 -155232385.54682636 121191028.50482178 0 0 0 0 2327519.2495727539 -122451841.35991669 0 -122451841.35991669 97861890.84472084 0 0 0 0 2510465.6356811523 -120918633.22838211 0 -120918633.22838211 68956429.012480736 0 0 0 0 -5622152.7759877294 -665117.28600123525 0 -665117.28600123525 5585178.8972623125 0 0 0 0 316990922.19107056 -648138353.0241127 0 -648138353.0241127 931288715.61388016 0 0 0 0 49094955.317443848 -63230060.333969116 0 -63230060.333969116 32135277.25859642 0 0 0 0 49941466.915390015 -67362055.014014244 0 -67362055.014014244 -84614649.857414246 0 0 0 0 18854696.762313843 -49035354.122766495 0 -49035354.122766495 69976108.427165985 0 0 0 0 5401.1441869874789 -69575213.254815355 0 -69575213.254815355 49867630.796363831 0 0 0 0 444304300.37362671 -833327209.47272682 0 -833327209.47272682 1683838945.2719154 0 0 0 0 83068.3936915175 -59562903.205781989 0 -59562903.205781989 78605638.144824982 0 0 0 0 -4350568.8588897437 -219235.05017064884 0 -219235.05017064884 5572427.201700991 0 0 0 0 5209088.1635977002 -1301496948.8951094 0 -1301496948.8951094 1690606832.408493 0 0 0 0 70593032.509674072 -571351035.15192986 0 -571351035.15192986 2403158850.9856625 0 0 0 0 2291082.9092926979 2666800.8586428985 0 2666800.8586428985 2633062.1451049419 0 0 0 0 -71950218.602096558 -54414171.465249062 0 -54414171.465249062 1429222848.1251526 0 0 0 0 206295922.88284302 -504710840.41893005 0 -504710840.41893005 958339367.36991119 0 0 0 0 509708736.76748657 -735221708.63021946 0 -735221708.63021946 1129237985.9648018 0 0 0 0 184673774.19367409 -347538696.37921333 0 -347538696.37921333 768600891.79694366 0 0 0 0 122554297.49261475 -166281488.57116318 0 -166281488.57116318 604264838.15393877 0 0 0 0 -5035587.5877838135 -24879562.995650768 0 -24879562.995650768 335805420.27164459 0 0 0 0 -57014840.716339111 -128658775.63558197 0 -128658775.63558197 782655353.89795303 0 0 0 0 111672165.03103638 -396292583.52791405 0 -396292583.52791405 747766570.03159857 0 0 0 0 26331361.143768311 -280573886.6746788 0 -280573886.6746788 686502362.154953 0 0 0 0 -3353423.339630127 -317884718.5561409 0 -317884718.5561409 785448670.22779846 0 0 0 0 134740521.80429077 -391729697.23272324 0 -391729697.23272324 738319995.43205452 0 0 0 0 178304132.78933716 -357249443.43440819 0 -357249443.43440819 658074255.80184174 0 0 0 0 60677023.777236938 -312860198.49495697 0 -312860198.49495697 662271200.45819092 0 0 0 0 368898486.24200439 -514978302.05912971 0 -514978302.05912971 757215548.34549868 0 0 0 0 417986999.9269104 -229118798.96902847 0 -229118798.96902847 -44817785.581128597 0 0 0 0 2490908.5050067157 908505.60388766974 0 908505.60388766974 -1795475.7584020887 0 0 0 0 -94843596.432067871 8205805.6013031006 0 8205805.6013031006 409500878.13413072 0 0 0 0 311076819.72395325 402032907.37853432 0 402032907.37853432 87474744.365486145 0 0 0 0 -138640911.71731567 -278631258.78873062 0 -278631258.78873062 253101337.61769295 0 0 0 0 -115090108.6931076 -108787463.4961772 0 -108787463.4961772 403695672.65307617 0 0 0 0 -7002487.3819751441 -1399054.1508018225 0 -1399054.1508018225 5605209.5447507743 0 0 0 0 163217446.3086853 -380809495.08697701 0 -380809495.08697701 661154249.91448641 0 0 0 0 170234473.89585876 -365968069.39712286 0 -365968069.39712286 609238264.9778862 0 0 0 0 69402734.40322876 -281496127.76598263 0 -281496127.76598263 642296168.05951309 0 0 0 0 146640503.92919922 -269993047.44522476 0 -269993047.44522476 388530984.09229296 0 0 0 0 27382085.208129883 -284390728.28958321 0 -284390728.28958321 721117658.91195869 0 0 0 0 75794530.898925781 -211362065.62642097 0 -211362065.62642097 479721655.3907814 0 0 0 0 193793124.52227783 -383317594.21916103 0 -383317594.21916103 656571272.69240189 0 0 0 0 95038556.854293823 -310633728.80541325 0 -310633728.80541325 647833664.14001846 0 0 0 0 304461368.7845459 -192955034.83455276 0 -192955034.83455276 681678972.78470612 0 0 0 0 243452099.52087402 -233076127.77159882 0 -233076127.77159882 668715653.15543938 0 0 0 0 34197740.077041626 -271456258.17706203 0 -271456258.17706203 816350789.09835052 0 0 0 0 109187742.46456909 -294062187.62762737 0 -294062187.62762737 630771723.49766922 0 0 0 0 59417952.505310059 -301632005.45197678 0 -301632005.45197678 732035177.43025398 0 0 0 0 7332541.9938964844 -295177205.63467407 0 -295177205.63467407 737940686.13530159 0 0 0 0 6751134.7255859375 -294244590.78450012 0 -294244590.78450012 714073975.46235657 0 0 0 0 37740288.877716064 -281818829.66031647 0 -281818829.66031647 716181581.76143646 0 0 0 0 67863967.34262085 -286170552.93348885 0 -286170552.93348885 581364255.21907043 0 0 0 0 76701743.309417725 -285974745.97034645 0 -285974745.97034645 581176850.17552185 0 0 0 0 24558523.080200195 -313073274.77997208 0 -313073274.77997208 635650426.35800934 0 0 0 0 70224059.071380615 -168194866.72606659 0 -168194866.72606659 307935044.37989807 0 0 0 0 13255984.575958252 -68826497.119373322 0 -68826497.119373322 213215460.93962097 0 0 0 0 -7975409.357635498 -167430105.27315521 0 -167430105.27315521 652481204.25871181 0 0 0 0 128335711.72058105 -200777051.23589706 0 -200777051.23589706 263483078.20849609 0 0 0 0 70411908.53338623 -115882530.60260582 0 -115882530.60260582 220366357.22009277 0 0 0 0 -113231700.66720581 -1743516.4872016907 0 -1743516.4872016907 152909044.69908905 0 0 0 0 -568792.39099954255 826785.78196904063 0 826785.78196904063 6692659.8523038831 0 0 0 0 -26227116.872550964 46346821.730769157 0 46346821.730769157 123201326.11238098 0 0 0 0 -36338389.030273438 50906658.208330154 0 50906658.208330154 73276536.537765503 0 0 0 0 132554941.69885254 -106123798.24797058 0 -106123798.24797058 93414200.470327377 0 0 0 0 183103224.96057129 -313650738.30736923 0 -313650738.30736923 269099410.3634367 0 0 0 0 378980270.58599854 -138707834.04025269 0 -138707834.04025269 -124693270.11857986 0 0 0 0 525857110.6060791 -436410109.4185791 0 -436410109.4185791 206148899.89821625 0 0 0 0 394117.20314702205 1053248.3784509003 0 1053248.3784509003 825383.65158878453 0 0 0 0 -128305845.26413727 229774108.0958066 0 229774108.0958066 443635887.68034363 0 0 0 0 159971112.39654541 -262896600.29123306 0 -262896600.29123306 316932596.24295044 0 0 0 0 321255346.86883545 -569885853.46846008 0 -569885853.46846008 560132496.74562073 0 0 0 0 124001651.12322998 -241096374.6795435 0 -241096374.6795435 1062315331.9753876 0 0 0 0 95810460.8203125 -340488583.62734032 0 -340488583.62734032 715792956.68577576 0 0 0 0 258069605.83666229 -378350759.78948212 0 -378350759.78948212 620494933.72567749 0 0 0 0 61369316.441131592 -147699489.49928856 0 -147699489.49928856 217714763.81279373 0 0 0 0 -68589756.27557373 -154333308.53087616 0 -154333308.53087616 778090161.3469429 0 0 0 0 170317944.44540405 6114465.8847045898 0 6114465.8847045898 29195172.780174255 0 0 0 0 -4168637.230495885 6514351.7859806828 0 6514351.7859806828 13380111.633783195 0 0 0 0 1764021.0989242792 2715921.1959045809 0 2715921.1959045809 2952309.9517127397 0 0 0 0 -497667.81383895874 76900.720253109932 0 76900.720253109932 2350809.536403656 0 0 0 0 -28382246.884796143 -2095456.9419584274 0 -2095456.9419584274 43402072.563606739 0 0 0 0 -11162924.933158875 32650176.571750402 0 32650176.571750402 20269377.869054794 0 0 0 0 -3683252.3447974324 13309722.426898872 0 13309722.426898872 7350600.0084551685 0 0 0 0 -1246734.3316345215 16497142.134782791 0 16497142.134782791 25305370.59270519 0 0 0 0 -21812.009128004313 622307.84012395516 0 622307.84012395516 -1907231.0382768586 0 0 0 0 46096670.826843262 -12758207.082055092 0 -12758207.082055092 189655202.47794342 0 0 0 0 -27236429.751312256 -151995732.61340046 0 -151995732.61340046 438921489.84318542 0 0 0 0 162987971.00296021 -345918754.86585045 0 -345918754.86585045 511544042.26816559 0 0 0 0 107293089.77122498 -191099782.5718863 0 -191099782.5718863 371596863.25648117 0 0 0 0 121599545.14385986 -205471653.85022354 0 -205471653.85022354 375531243.71785736 0 0 0 0 206775361.50363159 -386028463.69683266 0 -386028463.69683266 568641524.64326191 0 0 0 0 84792348.125244141 -308713160.39889526 0 -308713160.39889526 615045986.84423447 0 0 0 0 324321549.62792969 -631204076.52938366 0 -631204076.52938366 713035272.45150089 0 0 0 0 124660955.74133301 -319721470.92527866 0 -319721470.92527866 603896986.617939 0 0 0 0 234000800.36999512 -365232965.38205242 0 -365232965.38205242 409649502.101017 0 0 0 0 138924872.91737366 -408576657.53784275 0 -408576657.53784275 455514415.91307068 0 0 0 0 231514476.12460327 -575212172.20466638 0 -575212172.20466638 -36073317.597948074 0 0 0 0 133794673.37533569 -627079327.1832819 0 -627079327.1832819 450272230.0189985 0 0 0 0 165965243.38594055 -442384057.36562681 0 -442384057.36562681 -1135845283.5980701 0 0 0 0 -12875240.732574463 -285550992.75901222 0 -285550992.75901222 1491205527.3297272 0 0 0 0 769032.77480381727 373457.23150826432 0 373457.23150826432 -111902.16950604459 0 0 0 0 -136860460.82626343 -156799421.52169514 0 -156799421.52169514 -482908469.57187557 0 0 0 0 187141589.5632019 -662477823.01230097 0 -662477823.01230097 -461529155.37490654 0 0 0 0 -113843130.15505075 -177233304.7268602 0 -177233304.7268602 -141806287.78838348 0 0 0 0 -112398200.90260601 -239863207.62263137 0 -239863207.62263137 -411080277.47149277 0 0 0 0 45143686.020980835 -262334716.90615582 0 -262334716.90615582 -121609497.27494144 0 0 0 0 25399392.72530365 -338577504.73594975 0 -338577504.73594975 111720500.51956367 0 0 0 0 -17471609.479354858 -378187419.31818175 0 -378187419.31818175 -125921419.93602419 0 0 0 0 45687314.078811646 -40912260.004851699 0 -40912260.004851699 -316002057.46209216 0 0 0 0 -210250237.51580429 -210576416.76769382 0 -210576416.76769382 16842697.744553566 0 0 0 0 -217994322.32809448 -234659026.60850656 0 -234659026.60850656 -17902130.982487679 0 0 0 0 -199629832.95735168 37706051.027255535 0 37706051.027255535 454828218.00259888 0 0 0 0 -31803947.832748413 -394838586.06607741 0 -394838586.06607741 -766779008.68109047 0 0 0 0 -949079.46100760996 1090538.8054668764 0 1090538.8054668764 186706.30992490414 0 0 0 0 -1731092.5250518769 1617545.0500151189 0 1617545.0500151189 318126.31349322939 0 0 0 0 84322233.905197144 -258091618.23947203 0 -258091618.23947203 -172958557.28952026 0 0 0 0 -120216741.03172302 -225041040.91421664 0 -225041040.91421664 122506273.71816325 0 0 0 0 -111078775.6206665 -179206153.0065918 0 -179206153.0065918 -183076519.22536385 0 0 0 0 31425718.549606323 -176427999.00971317 0 -176427999.00971317 -433685107.63277912 0 0 0 0 207551.75 -27344984.563495636 0 -27344984.563495636 -875594306.76974106 0 0 0 0 -230459951.90707397 -95394203.749855995 0 -95394203.749855995 -15116895.879930258 0 0 0 0 -191088288.53985596 -352925823.34345245 0 -352925823.34345245 -396027062.07400703 0 0 0 0 -83664843.726913452 -35163068.026073933 0 -35163068.026073933 -463347429.41794205 0 0 0 0 1318764.455337733 2423.5451018866152 0 2423.5451018866152 291869.18681597803 0 0 0 0 -249246619.31311035 -379228015.79169846 0 -379228015.79169846 -559555806.78264809 0 0 0 0 69905121.638580322 -200934672.71465874 0 -200934672.71465874 461639134.46966743 0 0 0 0 -120970.15502898395 -224419.49948346987 0 -224419.49948346987 304211.96590194851 0 0 0 0 -129568934.07315063 -328607115.62930393 0 -328607115.62930393 -681680502.49703026 0 0 0 0 -32046063.114891052 -151801074.32811689 0 -151801074.32811689 562448819.24234772 0 0 0 0 7694165.7027884722 -217668.78757317737 0 -217668.78757317737 -2716940.4470787952 0 0 0 0 -7094362.8026784509 -3302242.3652184308 0 -3302242.3652184308 4040060.0215745643 0 0 0 0 74897593.126251221 -108196462.20927429 0 -108196462.20927429 388369005.73573655 0 0 0 0 25562240.202423096 -182374333.3100872 0 -182374333.3100872 520477862.35070896 0 0 0 0 -84074592.048812866 -58803396.814520359 0 -58803396.814520359 -24395427.515702248 0 0 0 0 -44450702.092956543 -110017814.16169071 0 -110017814.16169071 -48700384.823860168 0 0 0 0 236368263.24874878 40348181.781380653 0 40348181.781380653 -138560614.18356133 0 0 0 0 190086954.67555237 169946805.39008713 0 169946805.39008713 -67973335.888832092 0 0 0 0 130322161.75027466 92665725.637054443 0 92665725.637054443 -83677936.638435364 0 0 0 0 3260507.5861704648 1124236.6346184406 0 1124236.6346184406 -1395706.8942712131 0 0 0 0 146031193.11740112 7599781.5957217216 0 7599781.5957217216 -149163897.28101087 0 0 0 0 -88132802.993438721 -213605891.24436235 0 -213605891.24436235 119141180.52617264 0 0 0 0 58820034.756118774 -198323152.42435741 0 -198323152.42435741 -443131319.51945591 0 0 0 0 -46942332.227630615 -161183226.77710724 0 -161183226.77710724 -201424595.13732433 0 0 0 0 932070.26878356934 -131529850.14833426 0 -131529850.14833426 -196507025.32367373 0 0 0 0 -22173170.145904541 -304596409.78299558 0 -304596409.78299558 -21062090.285271108 0 0 0 0 -365437395.28302002 -223188859.43853024 0 -223188859.43853024 568126363.57987928 0 0 0 0 -248764140.66271973 -54263856.329068884 0 -54263856.329068884 455859693.39940757 0 0 0 0 73437135.384399414 -34863162.687175125 0 -34863162.687175125 -2940155.8732647598 0 0 0 0 -888269.26468449831 1123236.6894363421 0 1123236.6894363421 210949.28742051078 0 0 0 0 74696490.93182373 -109000386.56745148 0 -109000386.56745148 -452397052.34710121 0 0 0 0 93059572.416656494 -370265036.51682687 0 -370265036.51682687 -733890736.90543509 0 0 0 0 -367126306.80166626 133632784.61373615 0 133632784.61373615 -396082000.33727455 0 0 0 0 1632712.8353683501 -5015325.0528428108 0 -5015325.0528428108 703996.34347971017 0 0 0 0 -398610960.29171753 -114489059.87920189 0 -114489059.87920189 -308784471.82778835 0 0 0 0 -238615667.94396973 -292059857.31627262 0 -292059857.31627262 232077309.43900681 0 0 0 0 -355611029.33634949 -188729012.9423573 0 -188729012.9423573 312950289.08582747 0 0 0 0 -248057786.16183472 -168701646.88525382 0 -168701646.88525382 66225095.553851642 0 0 0 0 -333559094.69548035 -217774661.65995872 0 -217774661.65995872 92011105.671692014 0 0 0 0 1383038.996656321 -4235046.968281664 0 -4235046.968281664 12982.566245279275 0 0 0 0 15984.8828125 -8099268.9945063591 0 -8099268.9945063591 -198417.04866695404 0 0 0 0 2310.8392028808594 -9436266.9826745987 0 -9436266.9826745987 53732.907601356506 0 0 0 0 -3798614.8189468384 -9609602.6792802811 0 -9609602.6792802811 1279385.3292217255 0 0 0 0 -2912467.371673584 -8395832.0195178986 0 -8395832.0195178986 -40699.344663619995 0 0 0 0 -1722113.7397537231 -10886073.550989151 0 -10886073.550989151 1239031.4290218353 0 0 0 0 128246333.15643311 -635196530.55301666 0 -635196530.55301666 -224032595.88199639 0 0 0 0 966163317.33389282 485994228.34894753 0 485994228.34894753 -867738034.27596664 0 0 0 0 66946172.745666504 1764774.1486949921 0 1764774.1486949921 -58432948.5963974 0 0 0 0 -38846132.674987793 -270023369.03428268 0 -270023369.03428268 219528859.52339172 0 0 0 0 586550599.72491455 -1017757962.7906971 0 -1017757962.7906971 924512361.08322144 0 0 0 0 47708728.764526367 103792017.52315903 0 103792017.52315903 -78478155.463768005 0 0 0 0 -107089548.6003418 -164270816.71236992 0 -164270816.71236992 154035047.78273773 0 0 0 0 1653576.7759035267 -4996907.9217069671 0 -4996907.9217069671 400701.09648049064 0 0 0 0 56581708.913574219 51506188.354537964 0 51506188.354537964 -79998320.371063232 0 0 0 0 -64658732.842376709 64156107.556615829 0 64156107.556615829 -41236260.153266907 0 0 0 0 123121678.89289856 -27435226.103452682 0 -27435226.103452682 1117654.6544723511 0 0 0 0 155775.10860709101 -272601.0909434855 0 -272601.0909434855 -105781.76106804609 0 0 0 0 -16745103.824584961 -900063.85103225708 0 -900063.85103225708 17871606.302293777 0 0 0 0 -130121040.62988281 -18735128.79649353 0 -18735128.79649353 147814335.35620117 0 0 0 0 -75690.623107910156 -71053275.45046711 0 -71053275.45046711 20158876.270184517 0 0 0 0 2575501.5344273895 2691534.7313986346 0 2691534.7313986346 -590157.59652188048 0 0 0 0 -6857564.9749641418 -878920.87012588978 0 -878920.87012588978 15604192.085842133 0 0 0 0 8325006.8291625977 -61765328.200754166 0 -61765328.200754166 -23745975.316840172 0 0 0 0 -380852150.61730957 230719846.67508841 0 230719846.67508841 238431839.71905041 0 0 0 0 71556813.977355957 -957070.60327720642 0 -957070.60327720642 353562947.52928448 0 0 0 0 -494457114.82487488 173967080.7597177 0 173967080.7597177 378051510.01578045 0 0 0 0 -557674811.24383545 438075543.78084135 0 438075543.78084135 230444992.51820004 0 0 0 0 -537241775.60473633 245982037.47397852 0 245982037.47397852 316644545.42670465 0 0 0 0 -708034721.3241272 418271491.87865543 0 418271491.87865543 150550311.43987745 0 0 0 0 -629128342.97366333 -30554713.72614029 0 -30554713.72614029 142990230.03350222 0 0 0 0 -546215293.23734283 -189976637.43491495 0 -189976637.43491495 395764989.76608562 0 0 0 0 -382946314.32403564 104099650.33155346 0 104099650.33155346 212435333.14162397 0 0 0 0 -256517492.58013916 -445673256.02723598 0 -445673256.02723598 230095611.93033266 0 0 0 0 -326941855.19122314 -494435789.80610704 0 -494435789.80610704 278008596.81848621 0 0 0 0 -508226644.71447754 -269512116.01769066 0 -269512116.01769066 129757714.75873649 0 0 0 0 -290122659.11077881 -540495445.59869289 0 -540495445.59869289 18859099.978608131 0 0 0 0 -360314241.70172119 -470729141.90825367 0 -470729141.90825367 525449519.06960773 0 0 0 0 -105859304.03848267 -551926938.54371715 0 -551926938.54371715 278691212.9529686 0 0 0 0 -81207723.628112793 -595523519.54829597 0 -595523519.54829597 512169107.3412478 0 0 0 0 102866716.58398438 -776822830.67153835 0 -776822830.67153835 686638330.80077553 0 0 0 0 -96543051.785491943 -2474871.0046014786 0 -2474871.0046014786 237637560.31076026 0 0 0 0 -201486190.32669067 -335265920.92559814 0 -335265920.92559814 452246694.26543617 0 0 0 0 -26863928.560638428 -291894467.88984728 0 -291894467.88984728 440271351.13600636 0 0 0 0 -45664140.085952759 -16799206.296736956 0 -16799206.296736956 675610114.18961143 0 0 0 0 337566266.22148132 -523212942.27201629 0 -523212942.27201629 573891393.95244789 0 0 0 0 322636001.59991455 -545029362.26847172 0 -545029362.26847172 1474501328.7266331 0 0 0 0 554276321.33010864 -381445015.90333652 0 -381445015.90333652 664260903.10203362 0 0 0 0 -19222389.996901512 -855262097.84619451 0 -855262097.84619451 641383404.37276459 0 0 0 0 626713528.36425781 -246151169.20863438 0 -246151169.20863438 814916466.36689186 0 0 0 0 733234096.85656738 -918124989.70598602 0 -918124989.70598602 540674537.25993729 0 0 0 0 249637065.27862549 -1169529882.7382517 0 -1169529882.7382517 683990879.7658577 0 0 0 0 -203046246.7644043 131970995.81293154 0 131970995.81293154 316233928.52031326 0 0 0 0 109746904.93218994 -370984133.78162861 0 -370984133.78162861 1018345539.0395184 0 0 0 0 -1795084.9142151549 222672.39072223753 0 222672.39072223753 2651037.4386714939 0 0 0 0 1633896648.8734436 -1322444888.7165041 0 -1322444888.7165041 768261870.18017578 0 0 0 0 1102525183.1640015 -1208338381.3962917 0 -1208338381.3962917 1277685451.4537058 0 0 0 0 536351186.78775024 -597381639.02761173 0 -597381639.02761173 878727905.7857399 0 0 0 0 1539208727.1098595 -788348692.2965225 0 -788348692.2965225 484589274.56998825 0 0 0 0 231157035.43447876 -330203879.66985607 0 -330203879.66985607 628775919.68860459 0 0 0 0 265814940.13269043 -300758557.96387148 0 -300758557.96387148 309834624.99449158 0 0 0 0 -146294903.27548218 -126917993.52068901 0 -126917993.52068901 567330694.9213295 0 0 0 0 599678317.81607056 -566805848.81981373 0 -566805848.81981373 676393109.51406097 0 0 0 0 120013539.21728516 -148920197.40853977 0 -148920197.40853977 790117085.43199921 0 0 0 0 -311595446.17526245 97360922.740822315 0 97360922.740822315 554884309.51113892 0 0 0 0 181890136.99014282 -129339979.96977425 0 -129339979.96977425 372623102.0543499 0 0 0 0 -253382230.1590271 261821677.31777382 0 261821677.31777382 180938233.3704071 0 0 0 0 -465552937.69241333 109526517.81909847 0 109526517.81909847 377265426.50615406 0 0 0 0 -103314488.39407349 -8653980.4621534348 0 -8653980.4621534348 101194483.91215801 0 0 0 0 -352997062.65504074 -118696086.37548709 0 -118696086.37548709 346818481.57907867 0 0 0 0 -320586895.40525436 -16138503.292261839 0 -16138503.292261839 -204156954.32251167 0 0 0 0 -767283184.9699707 222140994.32899666 0 222140994.32899666 144398343.35552979 0 0 0 0 -827328909.01303101 95593724.078120708 0 95593724.078120708 -126185.10958862305 0 0 0 0 -1155981636.0582886 388570141.91547394 0 388570141.91547394 -192578111.49545002 0 0 0 0 -1435822691.2792358 243422090.7852211 0 243422090.7852211 -58493875.318462372 0 0 0 0 -652069876.63845825 -20117973.713907242 0 -20117973.713907242 -404258730.5617981 0 0 0 0 -2231046616.4784851 268440715.92575169 0 268440715.92575169 43817530.670633316 0 0 0 0 -2145809648.402832 286361116.90628815 0 286361116.90628815 -67183109.428482056 0 0 0 0 -1539078195.2936096 -60037441.948931217 0 -60037441.948931217 -272583448.94136429 0 0 0 0 143229.47752706427 4400084.2927557603 0 4400084.2927557603 -681960.24548058771 0 0 0 0 69055489.324436188 -101972202.27327579 0 -101972202.27327579 -232415556.89976883 0 0 0 0 -57483.978838309646 240242.79200507421 0 240242.79200507421 365358.21877804038 0 0 0 0 -1135434285.0289917 130097727.79081345 0 130097727.79081345 -327252650.21362257 0 0 0 0 -2040203415.4871216 -273980077.75857544 0 -273980077.75857544 67313420.924244642 0 0 0 0 -5640232.4861003533 -188730.94919706136 0 -188730.94919706136 20564522.948554233 0 0 0 0 -1260888156.9029846 93861349.634874344 0 93861349.634874344 134664094.29395199 0 0 0 0 -1179556184.3886566 17867201.387535095 0 17867201.387535095 133227414.3455267 0 0 0 0 -64094180.538574219 19111864.317869186 0 19111864.317869186 58055555.140937805 0 0 0 0 -553519473.00500679 359943391.2189846 0 359943391.2189846 85007873.853443146 0 0 0 0 -464758327.50633073 231866200.55575973 0 231866200.55575973 22094970.161851883 0 0 0 0 -780212776.54562378 194580938.63268185 0 194580938.63268185 207133158.67723942 0 0 0 0 -882217872.27735901 349087644.53416014 0 349087644.53416014 55929537.631687164 0 0 0 0 35967288.148254395 1121770.3455314636 0 1121770.3455314636 -33839352.996942759 0 0 0 0 -106493330.46594238 42663573.675670624 0 42663573.675670624 2257544.9259517193 0 0 0 0 -5028815.3891523778 12481665.476422168 0 12481665.476422168 5254364.5393236363 0 0 0 0 -5044720.6513061523 19527260.385976791 0 19527260.385976791 -6945781.8943219185 0 0 0 0 34676951.870475769 59717906.537714511 0 59717906.537714511 -130358148.60162735 0 0 0 0 11258609.884307861 1450618.1245727539 0 1450618.1245727539 -19836001.360567331 0 0 0 0 -789123.31317138672 45697774.448345184 0 45697774.448345184 38985514.773147583 0 0 0 0 103568220.19467163 -212925826.00473118 0 -212925826.00473118 323434290.55196285 0 0 0 0 32772526.808670044 -76222074.858587265 0 -76222074.858587265 122917026.11822701 0 0 0 0 41029558.467559814 -70111666.645910263 0 -70111666.645910263 124608584.13811302 0 0 0 0 -11704786.655593872 -97088726.035449028 0 -97088726.035449028 146541692.87576294 0 0 0 0 15591471.743965149 11584131.566514015 0 11584131.566514015 -7462048.8136138916 0 0 0 0 138863929.61390686 -99064608.660176754 0 -99064608.660176754 11946128.200678825 0 0 0 0 212819405.53681946 -310112573.88419819 0 -310112573.88419819 265050563.985641 0 0 0 0 132207921.79893494 -370348159.9930737 0 -370348159.9930737 257747870.19227982 0 0 0 0 -691496088.80575562 373047931.83618569 0 373047931.83618569 197386803.38192272 0 0 0 0 -641729191.65316582 245268265.72350627 0 245268265.72350627 105974230.18532848 0 0 0 0 -2661643.4049844556 -1675819.8941679746 0 -1675819.8941679746 14518514.141003914 0 0 0 0 -692794381.0032959 172199053.17429256 0 172199053.17429256 12123354.706391096 0 0 0 0 -459302885.34306335 207684691.93427905 0 207684691.93427905 88120024.678681612 0 0 0 0 -440989761.30552673 415300417.87421203 0 415300417.87421203 74589497.603741229 0 0 0 0 -556004365.28503418 409858722.41270328 0 409858722.41270328 89954172.813275337 0 0 0 0 -931969.89730812516 -1595086.669483766 0 -1595086.669483766 8225836.8844528468 0 0 0 0 75460474.545654297 320984913.36947423 0 320984913.36947423 -121494750.87232268 0 0 0 0 27224509.750732422 60709568.205801606 0 60709568.205801606 136413036.13262463 0 0 0 0 680939903.78659058 115492754.91909242 0 115492754.91909242 -309547657.01306224 0 0 0 0 -70945.279246369377 -819366.7965535447 0 -819366.7965535447 2526540.7135357494 0 0 0 0 -213775025.83004761 468930853.676121 0 468930853.676121 -309643565.67822647 0 0 0 0 -394949875.48480225 246533789.77232349 0 246533789.77232349 -197801108.28515339 0 0 0 0 256614838.66748047 -494042709.19223213 0 -494042709.19223213 226110203.78988707 0 0 0 0 383636185.54174232 -256037729.21075433 0 -256037729.21075433 112098807.00905609 0 0 0 0 1477268789.1943054 -434173676.65642309 0 -434173676.65642309 -114937203.97336197 0 0 0 0 642691305.212677 -201098926.12890244 0 -201098926.12890244 68593701.443257809 0 0 0 0 457171792.24919891 -615190337.0214982 0 -615190337.0214982 81377612.086873055 0 0 0 0 211269394.26535034 -318200203.87272203 0 -318200203.87272203 -125858743.70078349 0 0 0 0 200057236.00502014 -322546488.94198871 0 -322546488.94198871 267670083.15289605 0 0 0 0 679203856.559021 -680487903.82512629 0 -680487903.82512629 326759647.89476299 0 0 0 0 327849315.39943695 -28870012.751612484 0 -28870012.751612484 82926238.045994759 0 0 0 0 1003613072.9803925 -439273946.58324695 0 -439273946.58324695 -821225740.78398097 0 0 0 0 341529959.34187317 -200551278.88094664 0 -200551278.88094664 -647525233.48596776 0 0 0 0 -174807304.23583984 106626521.88780403 0 106626521.88780403 -910689240.48459673 0 0 0 0 -75628700.225585938 -171178261.27644467 0 -171178261.27644467 -180793173.65816295 0 0 0 0 -327166585.87664795 -429180976.51788402 0 -429180976.51788402 -414280041.11650896 0 0 0 0 137794887.81284332 167897700.88354826 0 167897700.88354826 182883567.20607424 0 0 0 0 305375924.10263062 -1122266952.890132 0 -1122266952.890132 -30485699.788394928 0 0 0 0 248808722.57245636 -817781921.02973855 0 -817781921.02973855 -1343270747.2596018 0 0 0 0 87836520.47539711 -887272377.00711691 0 -887272377.00711691 -1844646998.7732949 0 0 0 0 -589624094.64344788 -699415464.86550665 0 -699415464.86550665 -1233571639.5401888 0 0 0 0 -821415172.28927612 -120801149.80917358 0 -120801149.80917358 -2676625094.8492236 0 0 0 0 -1072372718.7521362 -1398560586.0134037 0 -1398560586.0134037 -1725093145.0190749 0 0 0 0 -1511694322.9356689 -435635646.47662544 0 -435635646.47662544 -2036667987.86479 0 0 0 0 -1183335680.8395386 -312168.28904247284 0 -312168.28904247284 -892418447.95301199 0 0 0 0 -1406243549.7455902 583109786.84944415 0 583109786.84944415 -2304214987.2402525 0 0 0 0 -433938395.57415771 -14586996.538725138 0 -14586996.538725138 -1898796237.3873253 0 0 0 0 -757166538.44644165 495946902.29326737 0 495946902.29326737 -329252940.45541346 0 0 0 0 -785175922.06092834 198535419.64170182 0 198535419.64170182 -480849149.07845104 0 0 0 0 -1192645032.8373413 616715586.21616364 0 616715586.21616364 -909842086.27487934 0 0 0 0 -1480373680.5498276 -47582147.374058366 0 -47582147.374058366 -490180049.19825745 0 0 0 0 -1305720075.2806091 228844988.29520321 0 228844988.29520321 -270202054.1541419 0 0 0 0 -993102958.54252362 1016845.9555140231 0 1016845.9555140231 -104744670.67583632 0 0 0 0 -1002065113.6520507 541146340.6170584 0 541146340.6170584 -180928545.79686499 0 0 0 0 -650134031.12652588 307873098.36280715 0 307873098.36280715 -27402069.288424253 0 0 0 0 -637955334.15873718 552593079.47807372 0 552593079.47807372 -14596235.09334743 0 0 0 0 -550793349.19793701 -654886579.75326562 0 -654886579.75326562 -462320110.87632179 0 0 0 0 -819703581.58532715 -414744594.89703655 0 -414744594.89703655 -193982369.78140861 0 0 0 0 -537319515.14471436 -585756879.43701887 0 -585756879.43701887 -262286879.70091772 0 0 0 0 -269902829.74685669 -599471118.80763626 0 -599471118.80763626 -265628308.75282741 0 0 0 0 -513009425.08529663 -454093004.8404516 0 -454093004.8404516 -192239995.20786238 0 0 0 0 -552711050.99536133 -442726855.61928391 0 -442726855.61928391 1605659.2242410183 0 0 0 0 -778004468.15924072 -372344378.28282714 0 -372344378.28282714 90864408.195445716 0 0 0 0 -994121532.42486572 132791036.02565897 0 132791036.02565897 77547445.474258423 0 0 0 0 -622278101.33247375 -211178088.436795 0 -211178088.436795 -116622918.32512987 0 0 0 0 -788567673.47949219 -463619138.97435451 0 -463619138.97435451 -463870837.19227695 0 0 0 0 -1174051829.3798218 -157852689.45720196 0 -157852689.45720196 -121066485.99947882 0 0 0 0 -1215200457.3026733 -402644704.62568235 0 -402644704.62568235 -464520467.49402809 0 0 0 0 -1204520893.9369507 -261326560.43319583 0 -261326560.43319583 -326698887.01283264 0 0 0 0 -1672836194.8858948 -7674299.9061813354 0 -7674299.9061813354 -440023615.37147617 0 0 0 0 -1413319132.303833 84743934.306748867 0 84743934.306748867 -929137606.70849705 0 0 0 0 -1409708162.0322266 -680684928.6458807 0 -680684928.6458807 -852524133.31905556 0 0 0 0 -1046791302.2641602 -906498036.08550811 0 -906498036.08550811 -860951371.53630733 0 0 0 0 -590569722.58102417 -898332116.87375069 0 -898332116.87375069 -1224248101.8065243 0 0 0 0 -777302689.08016968 -569695755.5157845 0 -569695755.5157845 -480185363.38990593 0 0 0 0 -405478737.2459259 -683061471.99030387 0 -683061471.99030387 -686001861.42514229 0 0 0 0 -412963593.93881226 -737917806.45805693 0 -737917806.45805693 -1080501130.5014858 0 0 0 0 -1202983300.3731842 -1403398932.463182 0 -1403398932.463182 -2140218701.4582787 0 0 0 0 -890074408.98303223 -777112215.08768654 0 -777112215.08768654 -1199409559.3515131 0 0 0 0 -170234243.39956665 -688062493.69480228 0 -688062493.69480228 -2117069417.5661697 0 0 0 0 -2543249390.6904602 49958880.188101768 0 49958880.188101768 -926730459.46331143 0 0 0 0 -2340456931.4132996 -559978480.59045982 0 -559978480.59045982 -861375329.79678917 0 0 0 0 -4395872782.8741455 208195813.65428162 0 208195813.65428162 -1460520135.1906297 0 0 0 0 -2012368517.7112885 -301869589.43662167 0 -301869589.43662167 -1393248333.7800579 0 0 0 0 80850329.100891113 141111673.22927666 0 141111673.22927666 -2361367759.800499 0 0 0 0 -1795114472.3190002 517826459.82858086 0 517826459.82858086 -4929870110.8893681 0 0 0 0 -1757938697.9229279 -1995465368.6198802 0 -1995465368.6198802 -4024046066.9910145 0 0 0 0 -3540455264.9218445 -1969349905.7783046 0 -1969349905.7783046 -2634284229.877285 0 0 0 0 -55465382.334564209 -437765069.28143311 0 -437765069.28143311 -2286745034.9233627 0 0 0 0 -604094952.73666382 -450114545.72859955 0 -450114545.72859955 -2411953910.9080448 0 0 0 0 -610733845.99688721 -475559207.34580135 0 -475559207.34580135 -1741489538.3057718 0 0 0 0 66222282.131317139 429656618.90880585 0 429656618.90880585 -2254090088.4446068 0 0 0 0 5341679.9857788086 180770999.07336617 0 180770999.07336617 -1376324569.7762184 0 0 0 0 245028556.89321899 -85820587.52715683 0 -85820587.52715683 -1653681430.4081345 0 0 0 0 67537925.493988037 310936133.07491493 0 310936133.07491493 -1329635431.1954956 0 0 0 0 20444580.888019562 -108357132.83465791 0 -108357132.83465791 -1528621583.5358543 0 0 0 0 336740772.71878052 -354165278.44691658 0 -354165278.44691658 -1296511815.3402181 0 0 0 0 223670793.01086426 -81619409.593220234 0 -81619409.593220234 -1157122762.4106789 0 0 0 0 350103089.95504761 -178491923.37440872 0 -178491923.37440872 -961208939.24012566 0 0 0 0 355039739.12539673 -164814685.16357422 0 -164814685.16357422 -930484829.96897984 0 0 0 0 462102327.87665558 -377513268.45407534 0 -377513268.45407534 -972408650.32924271 0 0 0 0 344686600.51203918 -39417198.184740067 0 -39417198.184740067 -1255089419.5119171 0 0 0 0 406157525.50953674 -267519222.47561121 0 -267519222.47561121 -1188374557.2800255 0 0 0 0 473385389.21481323 -492296856.19514322 0 -492296856.19514322 -1139449902.9677944 0 0 0 0 391344806.31991577 -530408059.04406738 0 -530408059.04406738 -1144729997.5159092 0 0 0 0 249289314.98532104 -454165693.42378569 0 -454165693.42378569 -1063089790.3132591 0 0 0 0 170638553.36026001 -621295348.96894836 0 -621295348.96894836 -1418232890.7149358 0 0 0 0 36101731.580932617 -473318222.34305239 0 -473318222.34305239 -1300803394.4701118 0 0 0 0 -173636928.31513691 -625292683.04883111 0 -625292683.04883111 -1371252772.7418137 0 0 0 0 181984824.56378174 -459848641.48866081 0 -459848641.48866081 -1852967213.1733627 0 0 0 0 239441375.45011902 -281282134.1445365 0 -281282134.1445365 -1301807853.2581749 0 0 0 0 35176429.227323532 -480499820.362248 0 -480499820.362248 -680109832.01933861 0 0 0 0 298473787.55511475 -573483469.41821861 0 -573483469.41821861 -676334386.97205436 0 0 0 0 530035874.11488342 -375117314.24637318 0 -375117314.24637318 -1028786983.4159231 0 0 0 0 558171018.37605286 -558901162.44844532 0 -558901162.44844532 -944618998.91202927 0 0 0 0 463650032.86102295 -516718660.09066248 0 -516718660.09066248 -875799110.66782904 0 0 0 0 446863101.33015442 -682444797.01323223 0 -682444797.01323223 -1076818556.0869694 0 0 0 0 150623180.1550293 -717112047.79173279 0 -717112047.79173279 -815492687.67477798 0 0 0 0 152624329.00689888 -771062431.36137676 0 -771062431.36137676 -507170039.05469513 0 0 0 0 604482185.08303833 -1015823046.0698147 0 -1015823046.0698147 -1321136152.7696304 0 0 0 0 865390009.45004272 -424498661.48045588 0 -424498661.48045588 -995173827.41122746 0 0 0 0 542365855.86346436 -648118127.31032872 0 -648118127.31032872 -507368090.12869191 0 0 0 0 511897046.14237976 -454348383.83868122 0 -454348383.83868122 -488556617.79897213 0 0 0 0 565765040.45329285 -476333605.76920581 0 -476333605.76920581 -861569736.44351578 0 0 0 0 443816571.85359192 -574224625.39356077 0 -574224625.39356077 -288875944.42893982 0 0 0 0 441447325.7706604 -777898886.60248876 0 -777898886.60248876 -196473583.20170307 0 0 0 0 406548467.34939575 -666042197.78666139 0 -666042197.78666139 -13309633.442078114 0 0 0 0 453759293.21826172 -731889706.69822049 0 -731889706.69822049 -122341525.96855053 0 0 0 0 581182833.70907807 -497175173.83540094 0 -497175173.83540094 21405668.864717245 0 0 0 0 580132723.71774292 -469397059.68412441 0 -469397059.68412441 -153893457.0543263 0 0 0 0 121073213.57531738 -706391307.25308239 0 -706391307.25308239 -773242921.23355269 0 0 0 0 99173185.557037354 -711417864.62067544 0 -711417864.62067544 -521345886.28270435 0 0 0 0 -70920903.047393799 -819609723.97836256 0 -819609723.97836256 -1214137831.1027393 0 0 0 0 22946634.768493652 -604371032.49798393 0 -604371032.49798393 -722236413.64405632 0 0 0 0 265062864.38528442 -669610911.7758832 0 -669610911.7758832 -1198724811.139925 0 0 0 0 299309409.55140686 -531945483.91466379 0 -531945483.91466379 -788233308.08394051 0 0 0 0 329719075.80053711 -606240781.01531267 0 -606240781.01531267 -595307424.01391172 0 0 0 0 403767874.20495605 -629363107.46340322 0 -629363107.46340322 -864325838.08242321 0 0 0 0 282996930.87702465 -602587323.89117229 0 -602587323.89117229 -457751427.53501511 0 0 0 0 273714778.58584595 -748654324.5329752 0 -748654324.5329752 -304890537.82417285 0 0 0 0 481890894.23034668 -627052764.06648207 0 -627052764.06648207 -613701150.40207851 0 0 0 0 433353763.83508301 -794127705.90932035 0 -794127705.90932035 -105032430.09123588 0 0 0 0 381575867.16486359 -630255872.41759837 0 -630255872.41759837 -201437907.71109146 0 0 0 0 107849435.69787598 -740062512.28586435 0 -740062512.28586435 -184918262.74166334 0 0 0 0 35203553.741744995 -566107535.14718914 0 -566107535.14718914 -98375250.285266399 0 0 0 0 -163700148.1204834 -698091652.31402934 0 -698091652.31402934 -717254450.56561542 0 0 0 0 -149777433.63912964 -611477868.00710654 0 -611477868.00710654 -377121358.00804663 0 0 0 0 -281494449.02053833 -544846057.34423685 0 -544846057.34423685 -27026492.646133661 0 0 0 0 -20291537.557312012 -700764889.36538351 0 -700764889.36538351 -383977965.63586199 0 0 0 0 -66596704.909057617 -593890803.87296486 0 -593890803.87296486 -29952744.194613606 0 0 0 0 -91944059.920516968 -569299580.22957492 0 -569299580.22957492 232547848.70048141 0 0 0 0 139849445.42803955 -657095403.16690826 0 -657095403.16690826 -77837122.992063999 0 0 0 0 116552122.15492249 -666083570.11723876 0 -666083570.11723876 132128269.12133408 0 0 0 0 79628300.258712769 -582118590.08718872 0 -582118590.08718872 496231864.82120037 0 0 0 0 -148287033.53489685 -567237866.39490771 0 -567237866.39490771 593466351.09300041 0 0 0 0 113712364.01812744 -581277832.80612087 0 -581277832.80612087 231875631.96867725 0 0 0 0 -119413030.02128601 -780512458.32834518 0 -780512458.32834518 912346411.89801216 0 0 0 0 -43885913.89666748 -590460974.97508717 0 -590460974.97508717 576262168.79717302 0 0 0 0 -47782944.236846924 -559486649.52673268 0 -559486649.52673268 914334921.88446045 0 0 0 0 372429202.59481812 -539352398.6726532 0 -539352398.6726532 501887774.68342876 0 0 0 0 -260901289.40759277 -693965605.93026543 0 -693965605.93026543 1278727207.8168011 0 0 0 0 87698704.143859863 -498616446.91381264 0 -498616446.91381264 940207915.28063393 0 0 0 0 159776627.3744278 -261921985.81567335 0 -261921985.81567335 1323976265.6953888 0 0 0 0 -149043601.78491211 -457034913.72921944 0 -457034913.72921944 1330284372.0600543 0 0 0 0 -142966275.38305664 -527120017.37885666 0 -527120017.37885666 1443434623.1553688 0 0 0 0 -269804874.62225342 -828347712.53643227 0 -828347712.53643227 905782452.2833252 0 0 0 0 731471207.86750031 -590265484.83665919 0 -590265484.83665919 1094459102.3048058 0 0 0 0 833192406.08392334 -879684878.16854978 0 -879684878.16854978 896395485.42547226 0 0 0 0 380875441.05627441 -799163076.72383118 0 -799163076.72383118 1426957804.9929657 0 0 0 0 477791666.44628906 -804766344.27676773 0 -804766344.27676773 1424560136.7410774 0 0 0 0 1726256582.7125244 -1118838238.3584785 0 -1118838238.3584785 1273425862.9760699 0 0 0 0 607528851.40075684 -771840582.09539223 0 -771840582.09539223 941010752.35399055 0 0 0 0 337453892.43035889 -492795110.67361641 0 -492795110.67361641 722311999.60172749 0 0 0 0 906436457.81509399 -451458460.43027782 0 -451458460.43027782 724211354.56389046 0 0 0 0 684857150.0196228 -669209791.35738707 0 -669209791.35738707 412055389.04293823 0 0 0 0 484723276.17486572 -799989742.1894474 0 -799989742.1894474 623281223.92913151 0 0 0 0 765066246.39581299 -691334772.61750412 0 -691334772.61750412 658594179.76104927 0 0 0 0 490551903.4296875 -797862265.99238205 0 -797862265.99238205 886374639.15437317 0 0 0 0 528837996.9289856 -674055595.01583481 0 -674055595.01583481 422295107.02587605 0 0 0 0 408067059.82817841 -761040482.39156818 0 -761040482.39156818 247303531.60011292 0 0 0 0 509951200.09641647 -815059649.35267186 0 -815059649.35267186 264093889.81409073 0 0 0 0 365068646.51449585 -552321703.7244153 0 -552321703.7244153 181340283.20602608 0 0 0 0 347622569.16955566 -725512713.39812088 0 -725512713.39812088 262375888.84285975 0 0 0 0 466141815.54931641 -593788793.91619706 0 -593788793.91619706 392412679.60853767 0 0 0 0 313404703.97613525 -618410927.17085123 0 -618410927.17085123 -116572421.07328081 0 0 0 0 265760009.51707458 -707354602.82157123 0 -707354602.82157123 17789782.711753845 0 0 0 0 442204705.94116211 -643342322.44634557 0 -643342322.44634557 37367461.579173088 0 0 0 0 434151935.67156982 -673647238.1809454 0 -673647238.1809454 11513030.778855324 0 0 0 0 433033080.05554199 -831266911.02588177 0 -831266911.02588177 123447514.35385084 0 0 0 0 335869598.64273071 -686184922.62139511 0 -686184922.62139511 274428821.72822571 0 0 0 0 302251636.89616394 -703580967.49246216 0 -703580967.49246216 431199742.94813919 0 0 0 0 522985166.26269531 -580010314.03886437 0 -580010314.03886437 149746180.67233467 0 0 0 0 272791069.41357422 -583431997.06021595 0 -583431997.06021595 152448545.41867769 0 0 0 0 48622636.649105072 -113625894.00850928 0 -113625894.00850928 93749503.210105896 0 0 0 0 77858548.6612854 -388067892.59624863 0 -388067892.59624863 665175433.67442226 0 0 0 0 104048801.62601471 -349455029.69895124 0 -349455029.69895124 625198997.00344658 0 0 0 0 408947508.67295837 -823931833.90100193 0 -823931833.90100193 616397036.04062653 0 0 0 0 221089216.95428467 -673810693.15479279 0 -673810693.15479279 713908549.39920998 0 0 0 0 434561649.16189575 -829271581.15777588 0 -829271581.15777588 412325059.86857224 0 0 0 0 531044886.69781494 -807105027.83668709 0 -807105027.83668709 595454435.67708683 0 0 0 0 237275372.72686768 -633366717.21315384 0 -633366717.21315384 408884060.81305838 0 0 0 0 287384298.19970703 -793916296.53144646 0 -793916296.53144646 905269541.67639542 0 0 0 0 381120389.66333008 -778830715.64501572 0 -778830715.64501572 896748021.46452332 0 0 0 0 53819352.810791016 -387388120.58408356 0 -387388120.58408356 1158133870.6317787 0 0 0 0 -115484169.68939209 -293203947.83736038 0 -293203947.83736038 1410707295.2067909 0 0 0 0 234244205.91479492 -818206527.27985001 0 -818206527.27985001 2036736790.8166122 0 0 0 0 79472965.239257812 -460549754.47896957 0 -460549754.47896957 1217410166.5451279 0 0 0 0 -139256035.61419678 -369059766.98932457 0 -369059766.98932457 2043212552.3356857 0 0 0 0 -137803272.609375 -366083380.20254135 0 -366083380.20254135 2011334101.8284454 0 0 0 0 -40790488.347878367 -28968576.292146042 0 -28968576.292146042 -6724074.8827984184 0 0 0 0 -70825764.068588257 -113134464.79494476 0 -113134464.79494476 -182729014.39326477 0 0 0 0 -126101130.09191132 -105229423.53495598 0 -105229423.53495598 -132617832.20736694 0 0 0 0 -114900601.10017395 -127080788.42272949 0 -127080788.42272949 -137591117.54446411 0 0 0 0 -115774146.89250946 -50220390.194116592 0 -50220390.194116592 102844391.84916687 0 0 0 0 -98579891.251045227 -98678146.208377838 0 -98678146.208377838 -119519547.90744019 0 0 0 0 -27042938.793361664 -263808649.39097214 0 -263808649.39097214 -124576683.47544861 0 0 0 0 -91554947.746932983 -159339863.49882889 0 -159339863.49882889 -53561366.957115173 0 0 0 0 -84593852.618740082 -375563543.52539444 0 -375563543.52539444 -297393259.89953613 0 0 0 0 -91399984.142959595 -103743095.68397522 0 -103743095.68397522 -154184535.95979309 0 0 0 0 -62535616.199157715 -133376147.47299194 0 -133376147.47299194 -147912572.27820969 0 0 0 0 -53124671.789886475 -120845034.57210922 0 -120845034.57210922 -147572584.60644913 0 0 0 0 -40267682.178695679 -72400255.946266174 0 -72400255.946266174 -176683836.12241364 0 0 0 0 -105101859.50769806 -62284605.88813591 0 -62284605.88813591 -156741029.15690613 0 0 0 0 -309240176.98718262 963159333.10557175 0 963159333.10557175 422784648.24870479 0 0 0 0 -534336859.07566833 -510382837.70907748 0 -510382837.70907748 253183680.96348095 0 0 0 0 96979113.840515137 -504190686.30869102 0 -504190686.30869102 -67842661.721071243 0 0 0 0 -3161419.5779683888 -2676290.6241194978 0 -2676290.6241194978 -1345528.202403591 0 0 0 0 139677632.33956909 -1032117934.5544615 0 -1032117934.5544615 562069112.2146759 0 0 0 0 -130736735.95367432 -1571597366.4421234 0 -1571597366.4421234 -373194693.89971972 0 0 0 0 -451701176.70147705 -1437656095.5128899 0 -1437656095.5128899 701015507.88665771 0 0 0 0 -26595256.474979401 -1041743076.3893715 0 -1041743076.3893715 1036781002.5007401 0 0 0 0 -1248152130.9862671 -2055645991.1821032 0 -2055645991.1821032 690579142.52950859 0 0 0 0 -586872945.94889832 -1112820256.5021248 0 -1112820256.5021248 1809220076.4080429 0 0 0 0 -1815317594.2153473 -646114436.59333992 0 -646114436.59333992 2962721228.3033104 0 0 0 0 1369488512.5727234 487971482.64968777 0 487971482.64968777 1718470060.3471222 0 0 0 0 -26610218.115428656 -34216583.642242774 0 -34216583.642242774 -32073120.814762525 0 0 0 0 409058392.13977051 -1229421258.9666271 0 -1229421258.9666271 -1028317910.974802 0 0 0 0 1523453629.4890137 496862025.57144165 0 496862025.57144165 272172402.12409019 0 0 0 0 743913231.37493896 -1286392431.2061977 0 -1286392431.2061977 2220508714.0934143 0 0 0 0 197567219.53735352 -977305309.3598175 0 -977305309.3598175 2629752479.4801979 0 0 0 0 4926137.2920738161 -11556432.024263013 0 -11556432.024263013 -7276585.5991691388 0 0 0 0 -879076642.28811646 283585675.11699677 0 283585675.11699677 -841994608.90625763 0 0 0 0 -250173021.1355896 -503844300.70620728 0 -503844300.70620728 -274717030.22865295 0 0 0 0 -209799262.46749878 2394534894.0282364 0 2394534894.0282364 658193923.9084301 0 0 0 0 -2750260144.477356 325489593.25161362 0 325489593.25161362 1630151714.5101204 0 0 0 0 -3064106238.6598511 -382863608.55049896 0 -382863608.55049896 1398476362.7031507 0 0 0 0 -1731162074.3003693 -44052862.739303589 0 -44052862.739303589 705029678.32867432 0 0 0 0 -1944747710.7893066 91281652.234786987 0 91281652.234786987 1380438168.4547584 0 0 0 0 -1772729419.6583862 753843253.58048248 0 753843253.58048248 1551714725.2849703 0 0 0 0 -1014404662.0219116 450056487.15859222 0 450056487.15859222 311709522.82650757 0 0 0 0 -1729631992.8274994 -88032745.309310913 0 -88032745.309310913 385025307.52570343 0 0 0 0 -1613365275.6410065 292354979.91376114 0 292354979.91376114 436785508.73321533 0 0 0 0 -1145447098.5651093 -166958615.77249908 0 -166958615.77249908 730727037.11172485 0 0 0 0 -2041354004.1074295 195366574.70589066 0 195366574.70589066 152843657.36917114 0 0 0 0 -3668919260.8511047 -1122287992.7871017 0 -1122287992.7871017 736888339.46438599 0 0 0 0 -1700213768.8891783 -687788354.74794376 0 -687788354.74794376 593947051.48077393 0 0 0 0 -1697584955.6965027 61243173.99143219 0 61243173.99143219 539208231.91135025 0 0 0 0 580875202.60263824 -1809942355.8673172 0 -1809942355.8673172 -159243813.5788269 0 0 0 0 -1310391867.0178528 -836810871.99629211 0 -836810871.99629211 629678316.90863037 0 0 0 0 -1852744283.8394775 -2350238380.8583527 0 -2350238380.8583527 607386262.19232178 0 0 0 0 -2287483015.4388123 -2100059482.017868 0 -2100059482.017868 520850952.61754608 0 0 0 0 -2151295591.0032043 -1975623998.5810852 0 -1975623998.5810852 566784527.10968018 0 0 0 0 -4921188226.6560974 -2495151312.5088806 0 -2495151312.5088806 477235118.01078033 0 0 0 0 -6346875.1363068074 -4339809.5906608971 0 -4339809.5906608971 975944.93720031902 0 0 0 0 -468649726.84255981 -1347750959.0240021 0 -1347750959.0240021 2331394.3307952881 0 0 0 0 -871280146.33917236 1606295738.0547485 0 1606295738.0547485 2916785385.8422241 0 0 0 0 -368098388.58070374 -3206771735.6841965 0 -3206771735.6841965 1477046669.2658691 0 0 0 0 -73022136.865531921 -3232124681.3019485 0 -3232124681.3019485 241220549.79147339 0 0 0 0 -1498832306.4565735 -2641864266.7819443 0 -2641864266.7819443 1733027145.1897583 0 0 0 0 -1724592179.2978821 -3285278453.8738441 0 -3285278453.8738441 7869651.3046875 0 0 0 0 -274229467.60235596 -251523329.52186584 0 -251523329.52186584 3736441950.405777 0 0 0 0 -406267606.07398987 -529156677.92881012 0 -529156677.92881012 344212880.32551575 0 0 0 0 -369462825.58291626 -348733655.61463928 0 -348733655.61463928 1225784474.2986488 0 0 0 0 -214514302.14141369 -4587549839.3943329 0 -4587549839.3943329 -646814025.09507751 0 0 0 0 -135671022.96240234 16172235.366760254 0 16172235.366760254 743145790.88343811 0 0 0 0 -143589320.67141724 -60125228.439849854 0 -60125228.439849854 99391338.39957428 0 0 0 0 -4107727.5352706909 10692986.280677795 0 10692986.280677795 -74349907.576927185 0 0 0 0 -10001879.779766073 -11698820.389167629 0 -11698820.389167629 6496085.3513838872 0 0 0 0 -38382249.467460409 -25714940.987512585 0 -25714940.987512585 -6057497.9499092475 0 0 0 0 -8982170.5765914917 79311627.2085495 0 79311627.2085495 249056651.2771759 0 0 0 0 -1241819443.5218506 -2617794782.0645866 0 -2617794782.0645866 2013326435.8992882 0 0 0 0 1390387970.7188492 338644067.21471977 0 338644067.21471977 -1594942737.4884605 0 0 0 0 -456469616.82022095 -280541459.59381008 0 -280541459.59381008 -243935473.23623466 0 0 0 0 -176358357.46578979 -262936690.78424454 0 -262936690.78424454 -468526268.51968384 0 0 0 0 -27657473.617563583 -6510802.1456437353 0 -6510802.1456437353 -1078909.4904296356 0 0 0 0 119161991.43429565 -215451814.26214528 0 -215451814.26214528 183578500.47246528 0 0 0 0 -9941106.9365516715 -12235617.452622011 0 -12235617.452622011 -18088416.255842164 0 0 0 0 987465195.03060913 -398503734.42888665 0 -398503734.42888665 -51270360.588813901 0 0 0 0 466091577.25462341 -347318078.25430286 0 -347318078.25430286 1668951.8687224388 0 0 0 0 -1158095187.0549011 -660970002.28566742 0 -660970002.28566742 -110137943.14552498 0 0 0 0 -1536380884.335022 -847994377.36013985 0 -847994377.36013985 -166737897.19776917 0 0 0 0 -837186354.47702026 -952998306.57386875 0 -952998306.57386875 -286639607.6157074 0 0 0 0 -1321451272.1766357 -1148602505.1746407 0 -1148602505.1746407 65216566.033189774 0 0 0 0 -977833571.74914551 -901373691.03004646 0 -901373691.03004646 -161675974.22168732 0 0 0 0 -1257882415.1653595 -1274999051.719058 0 -1274999051.719058 -407417044.88645554 0 0 0 0 -960806630.04515839 -1192688251.9238958 0 -1192688251.9238958 -574725254.20521164 0 0 0 0 -2287795308.0736847 1247462405.2004509 0 1247462405.2004509 2939341458.1391621 0 0 0 0 -33054903.521362305 -467535980.62439346 0 -467535980.62439346 -2030985620.7710819 0 0 0 0 -11605238.392479785 398495.74791905051 0 398495.74791905051 57881.134460837347 0 0 0 0 -1251254818.4667053 -1633897893.6843033 0 -1633897893.6843033 -784062892.20231438 0 0 0 0 -227621986.05453491 -2005163241.0334988 0 -2005163241.0334988 -5149874928.6754322 0 0 0 0 -1395289981.5642395 -1292814459.4197893 0 -1292814459.4197893 -347854113.59797668 0 0 0 0 405985742.33403015 -2098571062.1665573 0 -2098571062.1665573 -7884050722.0863037 0 0 0 0 -2398851326.1687012 -3958887598.9855003 0 -3958887598.9855003 -3072192067.4899635 0 0 0 0 -6086197102.9164276 -3866232805.0291233 0 -3866232805.0291233 3447560157.9923019 0 0 0 0 608707871.59443855 578500204.7646904 0 578500204.7646904 296165344.85043335 0 0 0 0 37238935.688148826 -26610030.886812884 0 -26610030.886812884 -18488867.776174217 0 0 0 0 -559488670.59088135 326023591.09072113 0 326023591.09072113 405178300.48040009 0 0 0 0 733995004.88471508 382072816.04639411 0 382072816.04639411 193566865.98861694 0 0 0 0 -2747735581.6371536 239626326.9376936 0 239626326.9376936 1890087198.7288666 0 0 0 0 197546493.87852097 336886606.90927124 0 336886606.90927124 386869307.41378021 0 0 0 0 1495278748.9837399 724680149.30612373 0 724680149.30612373 437272793.65418434 0 0 0 0 -74231937.116291046 -245752620.13537979 0 -245752620.13537979 681397065.2230072 0 0 0 0 147710190.60789776 598367102.12996864 0 598367102.12996864 608909322.32272339 0 0 0 0 -1034269177.5584259 -876210825.48932362 0 -876210825.48932362 -81396391.978328705 0 0 0 0 -1125637746.3567047 -1046672605.2138233 0 -1046672605.2138233 -216613565.60955048 0 0 0 0 -919509787.5713501 -898585556.19171524 0 -898585556.19171524 -509131647.05520821 0 0 0 0 -713911432.48443604 -859545395.17162895 0 -859545395.17162895 -538124262.046875 0 0 0 0 -790498031.68630981 -604165068.88954353 0 -604165068.88954353 -101394864.29507565 0 0 0 0 -364067037.0015564 -616526252.86054611 0 -616526252.86054611 -540590780.55965042 0 0 0 0 920761957.39087677 1347130789.4160461 0 1347130789.4160461 388148285.0177002 0 0 0 0 678460153.91460037 1071824404.9469986 0 1071824404.9469986 -140510376.29302979 0 0 0 0 -1447182.2006471651 653780.20831891522 0 653780.20831891522 1247648.426597368 0 0 0 0 38511204.1958768 -22340120.666393399 0 -22340120.666393399 -21067650.860209141 0 0 0 0 -184051442.01281738 -986228597.8726902 0 -986228597.8726902 -642554493.5642395 0 0 0 0 -311045486.22674561 -866780045.83677483 0 -866780045.83677483 -721096825.8969574 0 0 0 0 -357215800.38980103 -1303548958.6595879 0 -1303548958.6595879 -218296136.45249939 0 0 0 0 757274358.26435852 168368253.6295166 0 168368253.6295166 26007480.608474731 0 0 0 0 746788407.26799011 -125453791.47236633 0 -125453791.47236633 1375182352.0060349 0 0 0 0 610255235.88253021 389303464.57797241 0 389303464.57797241 360305065.0689621 0 0 0 0 570334881.69005585 592975975.66034698 0 592975975.66034698 -107692075.8598938 0 0 0 0 726981159.68818665 1158945239.8366318 0 1158945239.8366318 -641168756.04934692 0 0 0 0 551007237.52190399 529981231.64766693 0 529981231.64766693 -199972563.77074432 0 0 0 0 512566408.83372879 856933976.49757385 0 856933976.49757385 -1399527498.6980438 0 0 0 0 -385036247.12309694 1196898143.0967979 0 1196898143.0967979 -561637037.48336792 0 0 0 0 941660326.40497971 430349107.27022552 0 430349107.27022552 -138067020.29658508 0 0 0 0 -5351455.2271654783 -3641662.3747373149 0 -3641662.3747373149 -10646845.547906358 0 0 0 0 610214276.55815887 -593869762.77414525 0 -593869762.77414525 -28070086.899156332 0 0 0 0 -1247307191.3353729 -888037551.06315994 0 -888037551.06315994 -382245255.97338486 0 0 0 0 -2131620719.1712341 -659885697.69563103 0 -659885697.69563103 -398290171.67259729 0 0 0 0 -1256565059.0932312 -880021033.70926476 0 -880021033.70926476 -298230385.03619719 0 0 0 0 -764898207.80461121 -1020943659.8564453 0 -1020943659.8564453 -903550676.53709412 0 0 0 0 -1088545853.0161438 -1368692736.2824495 0 -1368692736.2824495 -688737347.83914948 0 0 0 0 -787379080.25134277 -1003430305.7262516 0 -1003430305.7262516 -414006149.1781311 0 0 0 0 -996532184.93914795 -28312454.06375885 0 -28312454.06375885 430694271.41449833 0 0 0 0 -1424632167.0681458 -653599073.25717735 0 -653599073.25717735 -485203135.05595016 0 0 0 0 -872884292.12280273 -860414365.43226242 0 -860414365.43226242 554256210.68824005 0 0 0 0 -858910209.38819885 -843997274.95266867 0 -843997274.95266867 -509438096.6056366 0 0 0 0 -910694688.6194458 132360069.11788368 0 132360069.11788368 -210799668.09413052 0 0 0 0 -1427677582.0881042 -2059219311.9994979 0 -2059219311.9994979 -2024579186.551384 0 0 0 0 -2088752942.9934082 -1229221744.0292416 0 -1229221744.0292416 -617919047.89839363 0 0 0 0 -4412145853.1686707 -1809704234.4459157 0 -1809704234.4459157 -158372870.47432899 0 0 0 0 1938071642.6114349 -111720810.40651131 0 -111720810.40651131 -715454951.18580341 0 0 0 0 -1834308.5250044353 -510812.66441801935 0 -510812.66441801935 -3512904.1308497973 0 0 0 0 -678246548.32980347 -1370473355.8822536 0 -1370473355.8822536 -920247309.95741081 0 0 0 0 -615675624.15463257 -457625029.52448273 0 -457625029.52448273 -2469907037.6821146 0 0 0 0 -696611528.32687378 -954317539.7487278 0 -954317539.7487278 -34268461.041259766 0 0 0 0 -1115784274.8715515 -482940014.87103367 0 -482940014.87103367 -504747414.58177185 0 0 0 0 1270041376.9340706 49884293.190231323 0 49884293.190231323 -151265495.16412354 0 0 0 0 -163332454.17332458 393717091.49669075 0 393717091.49669075 -501003175.03095055 0 0 0 0 111100272.50369263 -204492525.82671928 0 -204492525.82671928 -562592784.79095459 0 0 0 0 46187221.599571019 -21184844.83722413 0 -21184844.83722413 -22259464.431321222 0 0 0 0 96020677.273742676 -307831926.07484818 0 -307831926.07484818 -811886149.03098869 0 0 0 0 -191727735.41137695 -573576004.97842789 0 -573576004.97842789 -955068585.46178627 0 0 0 0 -944006704.70962524 -442801458.07277489 0 -442801458.07277489 -774161244.32255554 0 0 0 0 -115199356.36061859 109713004.65535998 0 109713004.65535998 -973673765.18701172 0 0 0 0 -826184488.76531982 -376138849.50247955 0 -376138849.50247955 -1410195929.3648338 0 0 0 0 -696558635.76208496 83754466.536411285 0 83754466.536411285 -863641539.14050293 0 0 0 0 1128667612.9837494 72774614.034301758 0 72774614.034301758 -47115454.00819397 0 0 0 0 1005006263.591732 -92066477.013175964 0 -92066477.013175964 153867426.42164612 0 0 0 0 64223088.076164246 -526947845.61157131 0 -526947845.61157131 1336338554.6080017 0 0 0 0 -210702813.53942871 -130865962.33711624 0 -130865962.33711624 -57193682.078975677 0 0 0 0 7332739.2370614856 -70288.284110408276 0 -70288.284110408276 -5133987.9203452878 0 0 0 0 28456948.967626147 -34883735.320968129 0 -34883735.320968129 -16207432.637577223 0 0 0 0 -133347160.82720947 -153836717.35486221 0 -153836717.35486221 -59291832.43384552 0 0 0 0 -249027261.23638916 -256547065.64372826 0 -256547065.64372826 294732338.23459053 0 0 0 0 52396893.467859268 -329047674.28189969 0 -329047674.28189969 -192680964.59893036 0 0 0 0 -475189524.73538208 -709500133.50272179 0 -709500133.50272179 -429251773.06266212 0 0 0 0 701138400.13598251 -60754208.857048035 0 -60754208.857048035 -462720948.61601257 0 0 0 0 43410186.571568489 -241474155.56115341 0 -241474155.56115341 -668396166.76594543 0 0 0 0 459329159.69698715 146133459.00798798 0 146133459.00798798 -351938941.1866188 0 0 0 0 856253972.09184647 -34071273.407432556 0 -34071273.407432556 -324965752.08535385 0 0 0 0 503181276.54280138 -34343316.674144745 0 -34343316.674144745 -130578789.96008301 0 0 0 0 866911998.87185669 -119907836.41812515 0 -119907836.41812515 201624651.47875977 0 0 0 0 1327115586.1138649 -243993558.60356903 0 -243993558.60356903 31923155.603683472 0 0 0 0 1152070394.3932095 -1149069.6688461304 0 -1149069.6688461304 -278887116.11898804 0 0 0 0 905003942.91001701 -48605979.006759644 0 -48605979.006759644 -145894723.55839539 0 0 0 0 1113853827.6575356 -129581615.59010315 0 -129581615.59010315 -228007697.62731934 0 0 0 0 832314964.93330574 -229505791.87139893 0 -229505791.87139893 -319434090.48634338 0 0 0 0 871122037.50954103 -374013110.76781082 0 -374013110.76781082 -32147265.408355713 0 0 0 0 896938626.49336052 -316160125.07039642 0 -316160125.07039642 56624692.460861206 0 0 0 0 826281918.35604739 -213156714.80705738 0 -213156714.80705738 -248998344.60774231 0 0 0 0 991251493.23358727 -203163897.48764801 0 -203163897.48764801 -291443577.45256042 0 0 0 0 410521454.11379814 -315025272.64684677 0 -315025272.64684677 -160982313.26312256 0 0 0 0 292517050.44480228 201837004.96613026 0 201837004.96613026 -634958503.46456909 0 0 0 0 83428018.813650131 188420511.71356964 0 188420511.71356964 -463250526.04873657 0 0 0 0 -443881119.75956774 555860714.01766777 0 555860714.01766777 -606291392.07749939 0 0 0 0 -471784627.23773193 119743920.91622543 0 119743920.91622543 -939088094.35207748 0 0 0 0 -816489405.28447533 -393774587.36266708 0 -393774587.36266708 -656093949.55832672 0 0 0 0 208255207.44884396 122938320.48158073 0 122938320.48158073 -1263165853.3703918 0 0 0 0 -2189982129.6852512 -2020520719.3335228 0 -2020520719.3335228 -2026103095.8263397 0 0 0 0 -534251020.04069424 -627251914.68496323 0 -627251914.68496323 -871602802.28818512 0 0 0 0 -4264279652.5737801 -816631829.20541382 0 -816631829.20541382 35495008.41541481 0 0 0 0 -1100269593.7268505 -205909436.49730682 0 -205909436.49730682 -49297397.277854919 0 0 0 0 -440741.67935772706 -2413701.8426115485 0 -2413701.8426115485 -5322076.6752767712 0 0 0 0 25802421.188627481 722995513.71422958 0 722995513.71422958 -2954160970.6012726 0 0 0 0 -65166273.544266701 -1788308288.6629181 0 -1788308288.6629181 -3756381231.8764381 0 0 0 0 -4132472436.8282442 -383747102.72666168 0 -383747102.72666168 -586544030.4736557 0 0 0 0 351947859.53767967 -76320879.987823486 0 -76320879.987823486 -3321770814.7717285 0 0 0 0 -1566757715.1818924 886569647.41549683 0 886569647.41549683 1576962166.7659988 0 0 0 0 -9252585.3152510654 -1336023.2840556502 0 -1336023.2840556502 2279477.399378635 0 0 0 0 437991281.25965834 -361747893.82408333 0 -361747893.82408333 -699165001.41664886 0 0 0 0 -36950590.312750816 35106675.486312866 0 35106675.486312866 276669286.11428261 0 0 0 0 -36997214.216170698 -24924816.003423691 0 -24924816.003423691 152920604.41122246 0 0 0 0 -40654325.87896204 146071694.75426102 0 146071694.75426102 313011986.31707764 0 0 0 0 -107408755.80350101 31785982.14070797 0 31785982.14070797 325883050.09004974 0 0 0 0 17494500.425897598 507654793.45428085 0 507654793.45428085 865312507.42595625 0 0 0 0 161118255.27220631 136558088.4513588 0 136558088.4513588 250810430.63175964 0 0 0 0 -765992848.40458798 149312043.17065811 0 149312043.17065811 464090609.45030212 0 0 0 0 -170933082.31142306 -325980477.31928825 0 -325980477.31928825 -189940310.8403244 0 0 0 0 99773164.18406868 881618956.7718544 0 881618956.7718544 -413622640.93153381 0 0 0 0 -3818155.9450167515 -281573.46658046916 0 -281573.46658046916 737460.54670125246 0 0 0 0 970337266.78857994 156798245.45663452 0 156798245.45663452 -1092179642.3662643 0 0 0 0 70129321.750055313 -63514847.170988083 0 -63514847.170988083 -546580726.08068848 0 0 0 0 355265910.86328506 -124065309.55138397 0 -124065309.55138397 -142353876.85861206 0 0 0 0 -62531585.914788246 -208898453.3350296 0 -208898453.3350296 -167620117.76185608 0 0 0 0 -2422869.0860369131 -3981425.5819285735 0 -3981425.5819285735 523466.82543182001 0 0 0 0 192976038.47404146 210609189.39913082 0 210609189.39913082 86653359.449440002 0 0 0 0 17389898.66119957 -573206253.81732559 0 -573206253.81732559 -698309402.24227142 0 0 0 0 -363133497.52412987 -829683930.03951263 0 -829683930.03951263 -776658175.7118578 0 0 0 0 78207325.633548737 -348082265.30006027 0 -348082265.30006027 -911505364.94252872 0 0 0 0 14747975.402168393 -290969688.66150284 0 -290969688.66150284 -482737637.25738525 0 0 0 0 85722159.65745914 -225411596.62505341 0 -225411596.62505341 -194562071.34797668 0 0 0 0 -140786622.50596142 305414317.34437561 0 305414317.34437561 -360254130.40391541 0 0 0 0 29817357.810668468 -1224657854.0955467 0 -1224657854.0955467 -1455842553.9132423 0 0 0 0 167989226.95284295 -44977399.892242432 0 -44977399.892242432 -2114995641.5026093 0 0 0 0 -340240850.7472291 -1122111239.0577755 0 -1122111239.0577755 -1005838465.210083 0 0 0 0 -9572611.5129383225 -2938667.5427968428 0 -2938667.5427968428 3082056.8560802452 0 0 0 0 -1225805078.4222457 -564313209.71774101 0 -564313209.71774101 802194153.87082291 0 0 0 0 -4403184.5809646677 -2264196.0752524585 0 -2264196.0752524585 1801652.695707757 0 0 0 0 -495446486.12365246 -1321110872.2120686 0 -1321110872.2120686 -1258431089.7002602 0 0 0 0 -107196775.65084648 -1045796784.1702309 0 -1045796784.1702309 -1064084207.1963348 0 0 0 0 -81589109.943383217 -509996851.28037262 0 -509996851.28037262 -706611171.01528931 0 0 0 0 -1065905689.9734383 -787934195.15452385 0 -787934195.15452385 -690508763.25004339 0 0 0 0 -82701739.65385437 -464640267.718853 0 -464640267.718853 -733104556.04555893 0 0 0 0 -292321979.47547245 -146725580.11330223 0 -146725580.11330223 -981059230.34417725 0 0 0 0 -799641602.17946434 -448170614.05211258 0 -448170614.05211258 -971116.27746200562 0 0 0 0 -30562244.130802155 -463021484.70851135 0 -463021484.70851135 -413457118.62005806 0 0 0 0 460763451.72454739 -260866648.87711525 0 -260866648.87711525 -352343008.77571106 0 0 0 0 -68094653.207601547 -613426996.86980343 0 -613426996.86980343 -937748447.08571243 0 0 0 0 -642045478.3014164 232301831.99723816 0 232301831.99723816 336892449.18481636 0 0 0 0 -287393589.38388872 26800212.196046829 0 26800212.196046829 317686903.50826263 0 0 0 0 -175390025.85974121 287302339.00450897 0 287302339.00450897 137607115.14380455 0 0 0 0 -8327829.5002410412 8042959.0755910873 0 8042959.0755910873 214529327.62799072 0 0 0 0 -69787837.005844116 89502815.008930206 0 89502815.008930206 164671567.7894249 0 0 0 0 -268490070.97328186 95894170.759506226 0 95894170.759506226 263374855.18612671 0 0 0 0 -124132836.26680565 40740272.603599548 0 40740272.603599548 282607223.3033371 0 0 0 0 -159554947.92938614 -14591006.478992462 0 -14591006.478992462 296395181.91227722 0 0 0 0 -157579789.42716408 -30144889.339401245 0 -30144889.339401245 368604338.09041023 0 0 0 0 -294427279.1573863 -147491456.13407803 0 -147491456.13407803 274611589.73841476 0 0 0 0 -269675080.54218292 -87951886.648832321 0 -87951886.648832321 361816446.14609528 0 0 0 0 -263129144.99062729 18050525.24559021 0 18050525.24559021 348358924.95342064 0 0 0 0 -283286537.29344845 47703698.752231598 0 47703698.752231598 320371873.08805084 0 0 0 0 -403916367.29850197 38120977.6460495 0 38120977.6460495 667095255.85837555 0 0 0 0 -87005634.105773926 83459292.253795624 0 83459292.253795624 377752509.23931694 0 0 0 0 -159629873.90440369 -249312867.39697266 0 -249312867.39697266 566222555.89386463 0 0 0 0 497970294.20946407 -707975228.45281267 0 -707975228.45281267 1185934033.0568352 0 0 0 0 -159167628.03527641 -262705992.02988243 0 -262705992.02988243 165175217.99444962 0 0 0 0 558333100.34259605 338914375.94466639 0 338914375.94466639 669624067.81506348 0 0 0 0 131077902.76418591 203770895.49278641 0 203770895.49278641 133177425.17636681 0 0 0 0 17724851.455417693 102467032.45453835 0 102467032.45453835 281657382.46063232 0 0 0 0 -2218513.5278481701 371739.00598784164 0 371739.00598784164 2216948.6099513061 0 0 0 0 112178742.80635452 256174296.46389771 0 256174296.46389771 204999557.23351288 0 0 0 0 582173342.9021225 109300015.52921295 0 109300015.52921295 210094992.79964447 0 0 0 0 272134081.94987869 164445586.67140961 0 164445586.67140961 256286997.52120972 0 0 0 0 117470480.40411568 253552430.15790558 0 253552430.15790558 304003729.34237671 0 0 0 0 364051524.80590916 175635156.19058037 0 175635156.19058037 252402689.45866394 0 0 0 0 -3337596.5686552366 957869.06227652915 0 957869.06227652915 3033333.9412217401 0 0 0 0 584161955.12542343 266881404.34797668 0 266881404.34797668 129278660.44142151 0 0 0 0 312331350.47114754 321751903.32505035 0 321751903.32505035 156200081.82653809 0 0 0 0 727514085.52713943 170371014.39201546 0 170371014.39201546 81813594.917327881 0 0 0 0 39424794.560951918 35589081.871551514 0 35589081.871551514 258190089.99843597 0 0 0 0 -20542734.421278477 19845468.795963287 0 19845468.795963287 241768299.67242813 0 0 0 0 8756365.1380295753 44022316.564308167 0 44022316.564308167 236052448.03595066 0 0 0 0 -20826392.993903995 13168777.578543663 0 13168777.578543663 210299097.62995148 0 0 0 0 5495879.0498118401 62914399.145510674 0 62914399.145510674 178683143.99983215 0 0 0 0 125075049.58564925 -11785233.382354736 0 -11785233.382354736 140983519.17479324 0 0 0 0 11308407.931547165 -24497691.602497101 0 -24497691.602497101 310062061.28298569 0 0 0 0 31853576.978916168 61582245.27248764 0 61582245.27248764 301591874.01071644 0 0 0 0 -14788344.255454063 31138151.966598511 0 31138151.966598511 205837190.00570583 0 0 0 0 -118170297.94955909 19968229.191300392 0 19968229.191300392 295139511.24336243 0 0 0 0 -27604023.459744453 -21614672.803874969 0 -21614672.803874969 243859719.12153244 0 0 0 0 -48207766.759622574 18906883.889232635 0 18906883.889232635 291793030.03893852 0 0 0 0 -36713790.697237968 4478662.4518108368 0 4478662.4518108368 265610868.13027954 0 0 0 0 72377832.591215134 37848103.071239471 0 37848103.071239471 252843456.60839748 0 0 0 0 60935266.938097954 60063841.967592239 0 60063841.967592239 262708585.93587494 0 0 0 0 19304568.178280976 5046552.4231437091 0 5046552.4231437091 -16529676.458777299 0 0 0 0 63189517.166743279 70497550.737285614 0 70497550.737285614 268710755.16596031 0 0 0 0 238565391.66791153 -130518917.65934372 0 -130518917.65934372 13779853.703353882 0 0 0 0 44737044.863450758 -54208612.340916343 0 -54208612.340916343 8590212.5449877158 0 0 0 0 69323251.357928276 123276176.39771748 0 123276176.39771748 685027200.17933655 0 0 0 0 324212242.18259907 -488160111.08119583 0 -488160111.08119583 528947672.75646973 0 0 0 0 -28633590.810399055 72879794.296787262 0 72879794.296787262 63085339.070354462 0 0 0 0 4389942.3578026202 915929.5780555848 0 915929.5780555848 -3443323.9220182598 0 0 0 0 393823049.86176682 185075725.81140137 0 185075725.81140137 125738051.51130676 0 0 0 0 562644087.21123505 -290288301.46151352 0 -290288301.46151352 385725131.00915146 0 0 0 0 882182002.82911301 288272491.85198212 0 288272491.85198212 -694344511.84490967 0 0 0 0 192456607.11418533 339158050.27848053 0 339158050.27848053 70225363.524536133 0 0 0 0 34679631.251073837 93191787.675626755 0 93191787.675626755 161709588.25923157 0 0 0 0 42126481.301438987 -38134583.905513346 0 -38134583.905513346 -10306468.951336805 0 0 0 0 490057171.18131495 751092823.4821701 0 751092823.4821701 -1146100240.2390671 0 0 0 0 97676764.094015121 292638813.75365448 0 292638813.75365448 148493673.57505798 0 0 0 0 74391199.539926529 431992522.31982803 0 431992522.31982803 4311063.2350311279 0 0 0 0 -1196874482.0608826 -789613992.60916138 0 -789613992.60916138 610653732.96002197 0 0 0 0 312300981.40338135 -596311314.76713562 0 -596311314.76713562 204959919.91784668 0 0 0 0 -482866818.23880005 -237999514.24832153 0 -237999514.24832153 135110108.49457169 0 0 0 0 -563609909.95639038 -331194709.7895813 0 -331194709.7895813 219237915.88017273 0 0 0 0 -685340333.59213257 -107831088.47090149 0 -107831088.47090149 95488852.90447998 0 0 0 0 -678628495.20626831 -240870929.96767426 0 -240870929.96767426 234435059.07615662 0 0 0 0 -72306358.632919312 -138447587.97328949 0 -138447587.97328949 210322415.48072815 0 0 0 0 -35256911.753704451 -21373074.093778998 0 -21373074.093778998 13130725.129960399 0 0 0 0 633609560.1885643 -322085291.06824112 0 -322085291.06824112 -1660583446.2780304 0 0 0 0 -23383694.874923706 -55533419.22769165 0 -55533419.22769165 -1451393453.659729 0 0 0 0 297430693.48162842 -88705061.635162354 0 -88705061.635162354 -826370239.06442261 0 0 0 0 -398200299.44003296 -467048243.75835419 0 -467048243.75835419 -711501504.68460083 0 0 0 0 34927382.639251709 -580742241.71887207 0 -580742241.71887207 -1309757253.7556381 0 0 0 0 1567606334.0269928 -162432819.50561523 0 -162432819.50561523 -1471029447.7933846 0 0 0 0 -1176211.0785774365 -1537889.3389654271 0 -1537889.3389654271 -360348.2066167891 0 0 0 0 -337856477.50282288 -1123421006.5184021 0 -1123421006.5184021 -1904563342.3676147 0 0 0 0 -337028873.40559769 -625952312.19172668 0 -625952312.19172668 -1308302169.1883545 0 0 0 0 -1086796715.6360321 -1467598701.4950752 0 -1467598701.4950752 -1593980770.9358063 0 0 0 0 62172103.838150024 -216056040.77574158 0 -216056040.77574158 76456146.735525131 0 0 0 0 62219248.407137871 85281604.198877335 0 85281604.198877335 -177636435.82726669 0 0 0 0 55232763.992404431 -50739574.100690439 0 -50739574.100690439 13109234.813266853 0 0 0 0 2201793.0040415558 -14033759.992471948 0 -14033759.992471948 4986705.8473874405 0 0 0 0 -141230978.86050797 -127367166.15645981 0 -127367166.15645981 49035703.727469683 0 0 0 0 -41822958.410999298 133348406.90925121 0 133348406.90925121 -94464309.48890686 0 0 0 0 47529409.461515203 -37954927.830118366 0 -37954927.830118366 21011689.120164443 0 0 0 0 -537796743.12236023 -561981972.62903595 0 -561981972.62903595 25705806.082229614 0 0 0 0 296696884.47315979 -468097990.61080933 0 -468097990.61080933 -1747120130.0406647 0 0 0 0 13171987.915944315 -7840143.5644610897 0 -7840143.5644610897 -16893908.189944901 0 0 0 0 -882499465.07620239 -1573989944.4268494 0 -1573989944.4268494 -2236775961.5102539 0 0 0 0 -1290403800.0452957 -1539559662.8723946 0 -1539559662.8723946 -1607547730.0042267 0 0 0 0 426372541.03056335 76591811.497947693 0 76591811.497947693 -401242909.21256256 0 0 0 0 -569781977.53617859 221740296.60686111 0 221740296.60686111 221579484.19570923 0 0 0 0 -1219713571.8827362 -854281487.64336777 0 -854281487.64336777 -414629927.99154663 0 0 0 0 95511169.919525146 -83821602.679702759 0 -83821602.679702759 -81046766.752593994 0 0 0 0 -60550613.982818604 -1030454325.7839966 0 -1030454325.7839966 -1598962955.9316177 0 0 0 0 -447615511.71290588 -546446684.85139465 0 -546446684.85139465 -195919479.64520264 0 0 0 0 310196655.05075073 -418929714.7804184 0 -418929714.7804184 -924328842.22953796 0 0 0 0 284226414.09198952 -769028846.1944313 0 -769028846.1944313 -3126545549.717865 0 0 0 0 -1896312.0729925185 -4650067.5409018174 0 -4650067.5409018174 -3237413.2895375267 0 0 0 0 -27136843.880348206 -312803999.65981197 0 -312803999.65981197 231251902.72550964 0 0 0 0 37693513.445205688 -264212228.47219849 0 -264212228.47219849 220726523.15494347 0 0 0 0 -8365727.8200862706 -872923.61216337234 0 -872923.61216337234 4036108.3176904619 0 0 0 0 -122342076.82895279 -59696007.758102417 0 -59696007.758102417 446871563.69335938 0 0 0 0 -409072.56428527832 -10530065.233766556 0 -10530065.233766556 11268993.728622437 0 0 0 0 -3014938.791396223 -3615950.5617945082 0 -3615950.5617945082 -1540125.3445816934 0 0 0 0 -178668423.25312805 89609850.594043732 0 89609850.594043732 273032132.19760132 0 0 0 0 460280.54763793945 -7341746.562713623 0 -7341746.562713623 22680635.439575195 0 0 0 0 -9804068.514706634 -7171364.9453948885 0 -7171364.9453948885 -355882.72642786056 0 0 0 0 681075.12684631348 -8850167.4144287109 0 -8850167.4144287109 11091222.272493362 0 0 0 0 462069203.73556519 -365194029.95840454 0 -365194029.95840454 632024910.25782013 0 0 0 0 -9984074.9481755458 -9638522.6393079814 0 -9638522.6393079814 2444374.9175034761 0 0 0 0 -64764322.484771729 -662057768.98464966 0 -662057768.98464966 927750321.70586395 0 0 0 0 15458603.21786499 -1584535.0027160645 0 -1584535.0027160645 -17601416.170715332 0 0 0 0 -355868.2929969728 -1338359.6581454016 0 -1338359.6581454016 -1067408.7285822071 0 0 0 0 284385438.38232422 -542644083.38186646 0 -542644083.38186646 456108059.25515747 0 0 0 0 15342591.836250305 -767834230.6450386 0 -767834230.6450386 285589834.82797241 0 0 0 0 249791490.89080811 -352834295.13021851 0 -352834295.13021851 -14165279.976715088 0 0 0 0 -421442078.75444031 -221334024.35838699 0 -221334024.35838699 393540234.10401917 0 0 0 0 -260768700.31967163 -540023575.51576042 0 -540023575.51576042 -721907245.10873413 0 0 0 0 -283116403.61909294 -595398504.29673004 0 -595398504.29673004 -124316869.02377319 0 0 0 0 -4022396.503405001 -4581784.6287974492 0 -4581784.6287974492 1565654.2823499963 0 0 0 0 287145321.42210388 165440957.8286438 0 165440957.8286438 -62878833.282806396 0 0 0 0 299202813.4271341 -273260833.62979984 0 -273260833.62979984 70884707.518783569 0 0 0 0 417819691.88973999 -838500429.93737793 0 -838500429.93737793 250514861.81665039 0 0 0 0 991111143.33966064 -717777172.0201683 0 -717777172.0201683 175892076.75875854 0 0 0 0 438953743.52369523 -404957285.18484235 0 -404957285.18484235 -104115119.71473312 0 0 0 0 -111087653.10978699 -249423940.71810532 0 -249423940.71810532 447277021.50109434 0 0 0 0 79938860.024370193 -107360113.55613422 0 -107360113.55613422 376329465.79878616 0 0 0 0 -70404831.775950909 -274544747.16375208 0 -274544747.16375208 45761399.805488586 0 0 0 0 -331892083.04998398 -256767020.78676224 0 -256767020.78676224 63435672.37046814 0 0 0 0 -210941042.39191437 -448514212.6338625 0 -448514212.6338625 -169742466.90948749 0 0 0 0 -57315278.337524414 278489437.30848312 0 278489437.30848312 -282270209.55815125 0 0 0 0 46237044.160421103 -41620848.170102082 0 -41620848.170102082 28432717.045518659 0 0 0 0 -185677692.09025574 -198951674.95824718 0 -198951674.95824718 -118213179.49847031 0 0 0 0 -254467714.99397659 -207084235.48841667 0 -207084235.48841667 360408669.0101738 0 0 0 0 -144980854.56924629 -25952693.929491043 0 -25952693.929491043 217351099.35154247 0 0 0 0 419889449.99162292 -305113265.33080292 0 -305113265.33080292 -562270237.565979 0 0 0 0 -2840938865.0314026 -1360331687.5357361 0 -1360331687.5357361 -707928221.60918045 0 0 0 0 -1458605472.4053421 878994491.59743118 0 878994491.59743118 701310243.34750366 0 0 0 0 -2133728078.4287338 -3133510984.5470467 0 -3133510984.5470467 -1686055815.032959 0 0 0 0 -3176267.4253561646 -1507939.1827634871 0 -1507939.1827634871 126194.67176102847 0 0 0 0 -189406611.91952515 172978806.68780518 0 172978806.68780518 310127441.03727722 0 0 0 0 807278825.38199615 -1241124677.1117783 0 -1241124677.1117783 -652591911.25037384 0 0 0 0 -1089821866.3974915 -641637558.59996033 0 -641637558.59996033 437111021.56776428 0 0 0 0 -287903112.72198486 -616223275.34347534 0 -616223275.34347534 437783763.5904274 0 0 0 0 -2061096.3025071714 -5941868.2750335261 0 -5941868.2750335261 963682.46626941115 0 0 0 0 1532230626.7144928 -119094063.31095886 0 -119094063.31095886 -308886155.85079956 0 0 0 0 2659602408.2210083 -83150275.139770508 0 -83150275.139770508 -284974198.12721252 0 0 0 0 -880294866.56700134 -716382344.77711105 0 -716382344.77711105 -361986253.96933174 0 0 0 0 49017877.424950786 -44997597.9293494 0 -44997597.9293494 29105924.024193235 0 0 0 0 -17525182.461244583 -466123575.89683342 0 -466123575.89683342 -550717528.4669466 0 0 0 0 -827802917.71775055 -363316917.54280853 0 -363316917.54280853 -155822924.95211792 0 0 0 0 74728347.527009964 20373700.196125984 0 20373700.196125984 -273864209.11731339 0 0 0 0 -166917987.19746399 -343075918.17316151 0 -343075918.17316151 -74127416.090321064 0 0 0 0 -668017196.56341553 -295615274.54536438 0 -295615274.54536438 -84629671.25907135 0 0 0 0 -518394544.79571533 -524141666.73800659 0 -524141666.73800659 -277401527.69616699 0 0 0 0 -413160002.88786316 -216110100.6219101 0 -216110100.6219101 -136564615.60631943 0 0 0 0 -371872864.19142151 -277267041.98909378 0 -277267041.98909378 -52514475.696960449 0 0 0 0 -185915935.72141266 -93791251.516426086 0 -93791251.516426086 -93733546.113510132 0 0 0 0 -238252603.70883465 -350795181.46942616 0 -350795181.46942616 -260017798.87332153 0 0 0 0 -508423218.67211342 -455517482.5583868 0 -455517482.5583868 -125385633.34177399 0 0 0 0 -9217125.3135729991 -19493802.916488327 0 -19493802.916488327 2085128.9874108583 0 0 0 0 -687691093.2359314 -377656551.71325302 0 -377656551.71325302 -87092133.535369873 0 0 0 0 47954470.828720093 -42053743.027420044 0 -42053743.027420044 -103901644.90921021 0 0 0 0 -422263895.48968506 -363060333.82012939 0 -363060333.82012939 -112601610.681427 0 0 0 0 -149767649.50537109 -67049618.110229492 0 -67049618.110229492 27216302.133239746 0 0 0 0 -161453934.69329834 -117490853.61541748 0 -117490853.61541748 10446614.556869507 0 0 0 0 -195879352.36132812 -163651723.72644043 0 -163651723.72644043 -35420198.832336426 0 0 0 0 -94498757.779663086 -83540088.773071289 0 -83540088.773071289 -73466244.818054199 0 0 0 0 -98770298.429138184 -33337213.832519531 0 -33337213.832519531 -6166283.7914733887 0 0 0 0 -64599269.572357178 -49453853.492645264 0 -49453853.492645264 -43019324.10546875 0 0 0 0 -131713189.94272661 -204289160.75025916 0 -204289160.75025916 -235674328.48638916 0 0 0 0 -45250030.703826904 -145767677.65563965 0 -145767677.65563965 -134723276.57196045 0 0 0 0 -130417924.67175293 -160519927.47625732 0 -160519927.47625732 -95005359.746032715 0 0 0 0 -141611471.26843262 -223973098.23400879 0 -223973098.23400879 -178211866.16378784 0 0 0 0 -232412742.26264954 -172246267.32777405 0 -172246267.32777405 -137609619.68130493 0 0 0 0 -186318524.51977539 -119542381.87771606 0 -119542381.87771606 -150473129.01675415 0 0 0 0 -148271591.43972397 -134338625.27189636 0 -134338625.27189636 -136996746.35275269 0 0 0 0 -135921692.30233765 -177135298.14758301 0 -177135298.14758301 -94707057.644500732 0 0 0 0 -166810471.76210022 -102229979.40583801 0 -102229979.40583801 -94053903.732565045 0 0 0 0 -165095250.99107361 -376924805.71946716 0 -376924805.71946716 68879222.835113525 0 0 0 0 101241933.35510635 -297219100.68366432 0 -297219100.68366432 27307110.921722412 0 0 0 0 -418144324.99655151 -280770216.80770874 0 -280770216.80770874 342214503.5561676 0 0 0 0 -347733875.86433411 -420702757.22143555 0 -420702757.22143555 217417795.75813293 0 0 0 0 -68730039.38004303 -521940050.56011963 0 -521940050.56011963 254151933.10754395 0 0 0 0 -291408696.81239128 -708077745.08331299 0 -708077745.08331299 231322339.51559448 0 0 0 0 -2632126.6232084781 -2506618.8076172713 0 -2506618.8076172713 2148148.5723017454 0 0 0 0 -662347280.52254391 -401778274.7865591 0 -401778274.7865591 -704031205.5848999 0 0 0 0 -612275793.89779663 2661895.1210784912 0 2661895.1210784912 -68830861.727996826 0 0 0 0 -283352116.22622681 -15283939.992965698 0 -15283939.992965698 -453925622.86547852 0 0 0 0 -752376737.77958298 347260590.37775803 0 347260590.37775803 969712912.24816895 0 0 0 0 -571251616.6339798 -268001538.17662048 0 -268001538.17662048 -98859384.729934692 0 0 0 0 -1933429.3344423063 -3222187.9247296341 0 -3222187.9247296341 396028.18074443936 0 0 0 0 -300031354.03158569 -361117336.74183655 0 -361117336.74183655 -403325527.79090118 0 0 0 0 -364270958.76867676 -125913429.57342529 0 -125913429.57342529 -7998678.4160461426 0 0 0 0 -25848889.60162735 -31437448.335292816 0 -31437448.335292816 -47242379.849365234 0 0 0 0 -64937199.410980225 -17484591.15549469 0 -17484591.15549469 -11208636.644348145 0 0 0 0 -232626287.89470673 -178562818.73054504 0 -178562818.73054504 -65566389.795532227 0 0 0 0 -157411531.60882568 -188395174.83883667 0 -188395174.83883667 -119617085.30805969 0 0 0 0 -168789962.48558044 -266627605.32146454 0 -266627605.32146454 -219445744.56994629 0 0 0 0 -238497367.39582062 -311840976.45530319 0 -311840976.45530319 -226327004.60586548 0 0 0 0 -201764271.3666687 -261814217.91828918 0 -261814217.91828918 -158383018.57807922 0 0 0 0 -183982329.87979126 -273349895.61132812 0 -273349895.61132812 -213763853.65505981 0 0 0 0 -223350595.22196198 -240281733.28469849 0 -240281733.28469849 -217888580.83694458 0 0 0 0 -154442303.05487061 -228401838.44264984 0 -228401838.44264984 -173890299.28845215 0 0 0 0 -167518129.15127563 -267588535.52972412 0 -267588535.52972412 -219507779.02328491 0 0 0 0 -13037163.806343079 -15815506.757904053 0 -15815506.757904053 -7580279.6546630859 0 0 0 0 -2050923.9296446182 -27026174.225222569 0 -27026174.225222569 -17759086.98309356 0 0 0 0 -274893911.07566071 -285406398.09563065 0 -285406398.09563065 -159170509.30929565 0 0 0 0 -227017563.75637817 -199264106.62902832 0 -199264106.62902832 -84248681.442504883 0 0 0 0 -14429687.015225634 -11053071.173845872 0 -11053071.173845872 10710468.529227301 0 0 0 0 -180257834.74867249 -202246985.20028687 0 -202246985.20028687 -305255863.40870667 0 0 0 0 -25991179.83479514 -39292721.632627808 0 -39292721.632627808 8247702.2066963613 0 0 0 0 -186527811.25616455 -275203867.34957123 0 -275203867.34957123 -209661731.07327271 0 0 0 0 -493960933.21825409 -336489921.26663971 0 -336489921.26663971 367820377.94677734 0 0 0 0 -477674859.45744705 -292508422.95684814 0 -292508422.95684814 376698144.61251831 0 0 0 0 -173691750.22199631 -238655125.35209846 0 -238655125.35209846 -199569752.32522583 0 0 0 0 -27849645.171961449 -38246983.441133432 0 -38246983.441133432 -21383998.84874022 0 0 0 0 111634587.26662445 -84065992.131271362 0 -84065992.131271362 -169848529.63677979 0 0 0 0 -1386541.5899709486 -17299092.049781151 0 -17299092.049781151 -10887935.894767225 0 0 0 0 -39291827.233698733 -16354686.073155254 0 -16354686.073155254 50065289.044453502 0 0 0 0 -303471772.78119278 -326354647.41052246 0 -326354647.41052246 82972094.879945755 0 0 0 0 -47685635.185211509 -11691599.211501718 0 -11691599.211501718 52620274.371335149 0 0 0 0 -402437583.78396606 -345393376.11634827 0 -345393376.11634827 -47708908.387939453 0 0 0 0 -601300221.72717285 -414153707.82780457 0 -414153707.82780457 -66381478.63539505 0 0 0 0 -316146129.58946991 -186838033.97281647 0 -186838033.97281647 -401997020.73657227 0 0 0 0 -808837285.27398682 -101002715.9221344 0 -101002715.9221344 70088269.960800171 0 0 0 0 -113233262.20787811 -98823450.114807129 0 -98823450.114807129 2512148.518371582 0 0 0 0 -415963067.9291687 -110761133.01661634 0 -110761133.01661634 12288545.020996094 0 0 0 0 -162723273.58223343 -375118884.82853794 0 -375118884.82853794 -568162855.39129639 0 0 0 0 -8856313.2568985522 -131961.57663211599 0 -131961.57663211599 9990003.8544963449 0 0 0 0 430419.27742004395 -19840425.061607361 0 -19840425.061607361 65322425.418731689 0 0 0 0 -12976425.934215885 -18117582.63830803 0 -18117582.63830803 -4876331.8727277666 0 0 0 0 25842450.79032135 61119528.490013123 0 61119528.490013123 -110971972.67037201 0 0 0 0 131945558.33013153 -64851246.54510498 0 -64851246.54510498 -67641136.519859314 0 0 0 0 10874790.339981079 78301919.974533081 0 78301919.974533081 6247996.4799346924 0 0 0 0 -122837984.31417847 62523969.73638916 0 62523969.73638916 29612131.973022461 0 0 0 0 101872042.11169815 -31770692.859341621 0 -31770692.859341621 -8077447.5704040527 0 0 0 0 96920514.547698975 18645803.575222015 0 18645803.575222015 -6718284.7613677979 0 0 0 0 4211583.7900367379 -934930.44639851153 0 -934930.44639851153 -1791939.2991394959 0 0 0 0 88705735.594810486 -14001178.046611786 0 -14001178.046611786 -6058221.7045593262 0 0 0 0 85126040.112014771 -206235771.98657227 0 -206235771.98657227 129505661.27630615 0 0 0 0 -63131266.080757141 165678022.42658997 0 165678022.42658997 -180249262.9864769 0 0 0 0 176156070.47458839 -59658448.743406296 0 -59658448.743406296 -202919012.39074707 0 0 0 0 747896621.2095108 -573405480.19608307 0 -573405480.19608307 -141041763.41149902 0 0 0 0 -168312718.5504303 -600481136.64492798 0 -600481136.64492798 282409131.30175781 0 0 0 0 -1873183.0437475964 -188471.88322589546 0 -188471.88322589546 2877595.4613546729 0 0 0 0 265187910.31163788 -311556493.884552 0 -311556493.884552 419471331.41125488 0 0 0 0 623202381.6013546 -916191145.7273922 0 -916191145.7273922 693520582.51516724 0 0 0 0 60286947.05519104 -53944108.590942383 0 -53944108.590942383 -62192099.661651611 0 0 0 0 401465450.86479187 -360166205.30088806 0 -360166205.30088806 686154995.3117156 0 0 0 0 -1184888.0137205571 -266810.05239893869 0 -266810.05239893869 4561766.9844332337 0 0 0 0 251772095.48075485 -472951802.44092178 0 -472951802.44092178 578077047.08416748 0 0 0 0 818307263.09465027 -731335667.76021576 0 -731335667.76021576 433681907.83442688 0 0 0 0 607015011.46138 -144538919.3949585 0 -144538919.3949585 -70827078.502906799 0 0 0 0 393784831.3395462 -535949537.89801788 0 -535949537.89801788 210711999.41567993 0 0 0 0 -404132412.1111145 -22518316.498062134 0 -22518316.498062134 264669238.04384613 0 0 0 0 -3728538.1498150155 -3574118.915089203 0 -3574118.915089203 2936853.6153262705 0 0 0 0 -70792828.949279785 14495498.889503479 0 14495498.889503479 229092081.03082275 0 0 0 0 299505508.73129272 -178115542.03713989 0 -178115542.03713989 -564386264.40339661 0 0 0 0 -4319606.207113307 -6809153.1964782402 0 -6809153.1964782402 -895080.66429167986 0 0 0 0 154410596.56305695 -342032835.25533295 0 -342032835.25533295 78457658.69921875 0 0 0 0 464538131.02763367 -254895884.54317474 0 -254895884.54317474 364564777.87545776 0 0 0 0 113437571.46170044 -378764800.62212372 0 -378764800.62212372 352184334.06948853 0 0 0 0 168317208.02173615 -138775706.7492981 0 -138775706.7492981 181260894.54711914 0 0 0 0 5495391.3841959909 -29943.113902449608 0 -29943.113902449608 1391840.1433217227 0 0 0 0 684747768.8993206 -683136339.74770737 0 -683136339.74770737 400885774.95747375 0 0 0 0 381019104.1305809 -378530230.85849953 0 -378530230.85849953 426625308.73335266 0 0 0 0 80023043.790447235 -7790704.1622924805 0 -7790704.1622924805 -46487968.781066895 0 0 0 0 183148767.56057358 -116791470.51912308 0 -116791470.51912308 -148755090.35427856 0 0 0 0 -12687387.904778898 -18899571.45865133 0 -18899571.45865133 -5110600.0067290664 0 0 0 0 -774274469.06794739 8849524.6589202881 0 8849524.6589202881 74994766.275123596 0 0 0 0 -1054785368.27491 -465283861.13286972 0 -465283861.13286972 37145091.958251953 0 0 0 0 -1290511764.8978653 -513180828.20861053 0 -513180828.20861053 322518452.45356369 0 0 0 0 -785412859.93704224 -356403349.81920624 0 -356403349.81920624 50111939.800323486 0 0 0 0 -54112668.70111084 71972262.611618042 0 71972262.611618042 -75997660.239974976 0 0 0 0 -768393951.53403473 -305675771.269104 0 -305675771.269104 -152882440.4460907 0 0 0 0 -22632.488081365824 599900.55116860196 0 599900.55116860196 735030.28495561704 0 0 0 0 -290572220.78773499 77805391.133346558 0 77805391.133346558 -232900197.0565033 0 0 0 0 -59126869.260551453 -63876213.85285759 0 -63876213.85285759 15667391.268859863 0 0 0 0 -200177624.93036652 -85878787.96295929 0 -85878787.96295929 32461417.851898193 0 0 0 0 -765826645.45061493 -139559859.40536499 0 -139559859.40536499 206439303.22906494 0 0 0 0 -1113373092.833313 465857249.24214172 0 465857249.24214172 2777655.3857307434 0 0 0 0 -1326791862.1318626 328888714.83410645 0 328888714.83410645 298650138.17263794 0 0 0 0 -200782905.51980591 -123987176.36268616 0 -123987176.36268616 -218374320.27404022 0 0 0 0 -389391770.21609497 -121505279.65872192 0 -121505279.65872192 85560768.070800781 0 0 0 0 -537882137.79384613 -295648182.65148544 0 -295648182.65148544 -23594907.63092041 0 0 0 0 -1214911.9955331534 722746.95629903674 0 722746.95629903674 402718.73241213709 0 0 0 0 65609054.750547409 96128628.36807251 0 96128628.36807251 -64866855.452148438 0 0 0 0 -597078438.41112518 7345359.7711486816 0 7345359.7711486816 185001279.33116913 0 0 0 0 -1732359509.5312042 -120525521.71086884 0 -120525521.71086884 187410820.90637779 0 0 0 0 -1551516092.1854439 602687093.17362213 0 602687093.17362213 -27746361.417755127 0 0 0 0 -966856650.89727783 356368182.87784195 0 356368182.87784195 -1016541374.093689 0 0 0 0 -826518729.60185242 -675709161.61036301 0 -675709161.61036301 -610434138.44433594 0 0 0 0 -3182525.5538304187 -2114332.4966269676 0 -2114332.4966269676 -623692.74577773362 0 0 0 0 -629861768.76128769 692727393.913414 0 692727393.913414 -1689332441.4138031 0 0 0 0 -1430354062.9866905 -788137295.1584549 0 -788137295.1584549 370953401.29067993 0 0 0 0 -999567488.9203949 -817311250.17960358 0 -817311250.17960358 -803786215.80192757 0 0 0 0 -1215317422.5828285 -353621992.21863174 0 -353621992.21863174 470698167.4936676 0 0 0 0 -5771834.6092187688 -5727792.1458068229 0 -5727792.1458068229 -4271398.5207620189 0 0 0 0 -466318116.78584671 726699575.13665009 0 726699575.13665009 -599833928.40277863 0 0 0 0 437786869.23677826 515989039.97519302 0 515989039.97519302 15482470.469268799 0 0 0 0 -518692203.53766632 185260667.01121521 0 185260667.01121521 -150698253.27796936 0 0 0 0 167202818.73562622 111769213.20252228 0 111769213.20252228 -588370860.3483901 0 0 0 0 276107047.32842636 -428681032.58876801 0 -428681032.58876801 77240612.659225464 0 0 0 0 144118966.40850067 15997601.978775024 0 15997601.978775024 -349335841.62963867 0 0 0 0 546625314.68390656 -225871689.71063232 0 -225871689.71063232 -404825601.43730164 0 0 0 0 378992071.81455994 -51441211.791137695 0 -51441211.791137695 -433244353.94956207 0 0 0 0 1359862266.4088821 -452274137.00030518 0 -452274137.00030518 -277059998.59153366 0 0 0 0 334536886.61978912 -870497733.28681755 0 -870497733.28681755 500812370.59899902 0 0 0 0 27111828.535621643 -385197746.15117645 0 -385197746.15117645 88381362.992248535 0 0 0 0 -340788991.68263245 -563851791.46121216 0 -563851791.46121216 649429933.52166748 0 0 0 0 188962079.55018616 -533001014.61672592 0 -533001014.61672592 222185033.77813721 0 0 0 0 -345346883.82556152 -198565562.94007874 0 -198565562.94007874 307577613.51424026 0 0 0 0 43348362.892364502 -285363450.27792358 0 -285363450.27792358 325755114.64783859 0 0 0 0 -136899420.20913696 -480806426.6098938 0 -480806426.6098938 -218160257.83292961 0 0 0 0 -4468930.4358047135 -794216.73811737075 0 -794216.73811737075 5357519.3115672097 0 0 0 0 -243810908.73712158 -2647616442.5522461 0 -2647616442.5522461 335012504.69897461 0 0 0 0 30562569.590759277 456253275.59941101 0 456253275.59941101 -1305983848.7823486 0 0 0 0 1357172215.8805923 -404767751.23446083 0 -404767751.23446083 -102291961.33442688 0 0 0 0 -1209329.1357149035 -5714503.7332675159 0 -5714503.7332675159 -3438952.3923027292 0 0 0 0 -42578475.83366394 16049040.201885223 0 16049040.201885223 789723665.44398499 0 0 0 0 1140182826.9902344 63696370.379875183 0 63696370.379875183 -43461918.337387085 0 0 0 0 -8727129.3408395723 -26529985.0469203 0 -26529985.0469203 -24976786.453611538 0 0 0 0 742629138.88166809 40776180.885871887 0 40776180.885871887 -12328696.584701538 0 0 0 0 642743100.44360352 -483422649.14994812 0 -483422649.14994812 -79695285.093566895 0 0 0 0 910215.63115692139 -54568120.691926956 0 -54568120.691926956 9767976.1383361816 0 0 0 0 1016046.1755943298 -53536813.164837837 0 -53536813.164837837 19567158.075050354 0 0 0 0 -14643133.62115097 -46282097.139716506 0 -46282097.139716506 25236183.652511597 0 0 0 0 117152164.63503265 -633071435.92111206 0 -633071435.92111206 -272066913.02040482 0 0 0 0 194771546.83713531 98348777.698776245 0 98348777.698776245 -696223849.67430115 0 0 0 0 265371807.12408447 -319211021.40916443 0 -319211021.40916443 508030447.49749756 0 0 0 0 1040444755.0256042 -727767496.66201019 0 -727767496.66201019 -77120220.236053467 0 0 0 0 1032543065.1197433 -530525507.40402222 0 -530525507.40402222 -136777276.64450455 0 0 0 0 280220973.17787933 -396087838.82408905 0 -396087838.82408905 -22576920.195953369 0 0 0 0 773637972.59925842 -742338840.45466614 0 -742338840.45466614 316364899.22705078 0 0 0 0 -157147263.50285339 -445049115.6199646 0 -445049115.6199646 69725849.180362701 0 0 0 0 -487763298.921978 -135409817.29069519 0 -135409817.29069519 3965844.405090332 0 0 0 0 174340014.67889404 -166593677.56697845 0 -166593677.56697845 203499200.61697388 0 0 0 0 23861106.681747437 -409457449.61935425 0 -409457449.61935425 228303209.28345728 0 0 0 0 -1953467.3094924986 346045.01217500865 0 346045.01217500865 2691244.0973609611 0 0 0 0 1109381065.6024926 -830399937.95721149 0 -830399937.95721149 257774803.5625 0 0 0 0 -7835099.1432370432 -21016666.536485098 0 -21016666.536485098 -24715338.260540299 0 0 0 0 42847870.092147827 -116689941.39639282 0 -116689941.39639282 72396375.539352417 0 0 0 0 100873965.6159668 -62772926.732234955 0 -62772926.732234955 23336219.35799408 0 0 0 0 13843370.672164917 -63217201.50787735 0 -63217201.50787735 95456971.542678833 0 0 0 0 1133100745.730196 -402153297.56796908 0 -402153297.56796908 565419899.72677612 0 0 0 0 1151843175.942337 -1565816368.3221436 0 -1565816368.3221436 394115097.20887184 0 0 0 0 -18875488.042556763 -42736007.241071701 0 -42736007.241071701 23637144.095413208 0 0 0 0 -28086635.85144043 -41448299.945518494 0 -41448299.945518494 40333147.231639862 0 0 0 0 -4533671.0858230591 -58570155.794183731 0 -58570155.794183731 35525197.414962769 0 0 0 0 54255960.942817688 -80364514.283927917 0 -80364514.283927917 29300349.234382629 0 0 0 0 14781726.237136841 -46621554.294996262 0 -46621554.294996262 19118002.213569641 0 0 0 0 -29471317.084365845 -62505800.162498474 0 -62505800.162498474 54250060.604217529 0 0 0 0 19078892.180381775 -66598909.399110794 0 -66598909.399110794 37457677.591827393 0 0 0 0 -3896310.5073394775 -48852592.952375412 0 -48852592.952375412 31971278.961929321 0 0 0 0 -15734029.669769287 -60463286.137557983 0 -60463286.137557983 64038765.686462402 0 0 0 0 -42309185.52394104 -38657568.352535248 0 -38657568.352535248 41172923.964492798 0 0 0 0 -32370670.424041748 -20411511.004051208 0 -20411511.004051208 13691910.557674408 0 0 0 0 -21215600.239471436 -37248284.878314972 0 -37248284.878314972 23901417.48789978 0 0 0 0 -35453116.17449379 -32514668.292074919 0 -32514668.292074919 29687297.920166016 0 0 0 0 -46102930.588516235 -31905768.06888485 0 -31905768.06888485 5181749.7801132202 0 0 0 0 -35352570.936431885 -11545225.993968964 0 -11545225.993968964 -35979165.588096619 0 0 0 0 -64615634.820983887 -25739221.020202637 0 -25739221.020202637 15074668.106710434 0 0 0 0 -20121489.197677612 -33959720.166332245 0 -33959720.166332245 11078962.0807724 0 0 0 0 -10767510.278259277 -30762472.653083801 0 -30762472.653083801 9557993.1341094971 0 0 0 0 -28880502.696968079 -59029973.245119095 0 -59029973.245119095 -28347914.469680786 0 0 0 0 -90832155.813186646 -98356940.239505768 0 -98356940.239505768 -106975624.68647766 0 0 0 0 -42029314.411117554 -39556865.412097931 0 -39556865.412097931 -36610153.356544495 0 0 0 0 -26126192.339028046 -29786535.87284179 0 -29786535.87284179 -24722850.671854015 0 0 0 0 -104798405.76412964 -11307121.716384888 0 -11307121.716384888 -34027681.738052368 0 0 0 0 427638931.990448 -431731133.59866476 0 -431731133.59866476 43283511.48039341 0 0 0 0 -7774338.6120238304 -16802005.896793362 0 -16802005.896793362 -19773592.229719747 0 0 0 0 103341652.83216858 -181254486.10174942 0 -181254486.10174942 60025888.328765869 0 0 0 0 -12158891.385742188 -98291115.46673584 0 -98291115.46673584 99563181.874042511 0 0 0 0 1284885.6053466797 -95982859.024745941 0 -95982859.024745941 27057803.444664001 0 0 0 0 27518363.914260864 -27994863.60906601 0 -27994863.60906601 -52619407.4672966 0 0 0 0 -2404364.5222854614 -91350349.246887207 0 -91350349.246887207 -133766952.308815 0 0 0 0 -9838101.7144298553 -104264792.27379608 0 -104264792.27379608 -124908605.67679596 0 0 0 0 70526963.407180786 81624780.135257721 0 81624780.135257721 -205217307.19983673 0 0 0 0 51849016.844161987 -172540770.08447647 0 -172540770.08447647 -230414971.32287598 0 0 0 0 30401369.246200562 -223721159.51984024 0 -223721159.51984024 -333329727.07940674 0 0 0 0 123013511.88613892 -289405892.53064728 0 -289405892.53064728 -290809829.26551819 0 0 0 0 -8052230.5807248168 -11299671.203806294 0 -11299671.203806294 -9435979.4805879928 0 0 0 0 452373420.47207642 -536877386.30298615 0 -536877386.30298615 -1567933019.5635548 0 0 0 0 84449853.768218994 158399760.29743958 0 158399760.29743958 -944019190.09962463 0 0 0 0 3012595462.0822754 -1763048639.2200012 0 -1763048639.2200012 126563447.69560242 0 0 0 0 2366573.6469421387 -2043833799.0457382 0 -2043833799.0457382 589634288.97758579 0 0 0 0 -5346024.2991812304 480687.36498357542 0 480687.36498357542 5587621.7187642306 0 0 0 0 942003973.58858299 541137739.3775847 0 541137739.3775847 268673784.52850342 0 0 0 0 -4582205958.5731659 954967069.79067993 0 954967069.79067993 1447493852.575058 0 0 0 0 -1265070746.218689 2082122794.7376022 0 2082122794.7376022 857212668.17308044 0 0 0 0 -7088426065.3450317 -5234821845.9342651 0 -5234821845.9342651 -6734546926.7753906 0 0 0 0 -5260670.5970244706 287344.73390986398 0 287344.73390986398 4658197.8802160695 0 0 0 0 -162703819.15760136 1383864596.7743595 0 1383864596.7743595 875756018.90444946 0 0 0 0 156881729.55381775 1283952666.8763199 0 1283952666.8763199 -1451579225.864212 0 0 0 0 1565548372.3031769 1248539494.4553528 0 1248539494.4553528 -585316404.40002441 0 0 0 0 1635523565.2805328 1651048521.73946 0 1651048521.73946 1135441302.0852051 0 0 0 0 -526949655.85746765 -1122283196.227066 0 -1122283196.227066 1615256437.0052185 0 0 0 0 -496032384.91293335 -1470929761.0400543 0 -1470929761.0400543 -449765842.31394577 0 0 0 0 2737061948.0752716 6000321371.3766708 0 6000321371.3766708 2355647421.637085 0 0 0 0 -1572678848.2402954 -2780106044.6771317 0 -2780106044.6771317 -1916356473.4109192 0 0 0 0 -4000799846.6003113 520752142.79857826 0 520752142.79857826 140747303.22094727 0 0 0 0 -13050924.127815932 427082.39371265844 0 427082.39371265844 3963212.298354934 0 0 0 0 -784450847.48928833 -1674464752.114563 0 -1674464752.114563 -4684096804.2429924 0 0 0 0 -97762303.797973633 1442042556.1191711 0 1442042556.1191711 -1763133000.3211994 0 0 0 0 -620043506.57962799 157896732.74695587 0 157896732.74695587 -74325418.923477173 0 0 0 0 -2225088486.2145767 -867497310.24338531 0 -867497310.24338531 -233965787.18449402 0 0 0 0 -10913558.323426247 -128308197.60412169 0 -128308197.60412169 -2347861109.2429962 0 0 0 0 -840734424.96258545 -1196498853.986084 0 -1196498853.986084 -1905532584.3590469 0 0 0 0 -4852688538.4120331 -2535118763.6765823 0 -2535118763.6765823 -1131568828.3654785 0 0 0 0 -1962730418.8232422 -235261766.34786987 0 -235261766.34786987 97556742.077487946 0 0 0 0 -1771147817.2882614 138216204.2264328 0 138216204.2264328 860065849.99972534 0 0 0 0 -2942998511.8332367 1337335.2333755493 0 1337335.2333755493 789197814.68940735 0 0 0 0 -1456510114.0700035 460886616.24290085 0 460886616.24290085 777591491.1697998 0 0 0 0 -1247540482.2814941 -558586435.94915771 0 -558586435.94915771 226630502.33343506 0 0 0 0 -1145048053.5264587 -130109887.10699463 0 -130109887.10699463 250866277.00975037 0 0 0 0 -808844077.33345032 -92060616.152481079 0 -92060616.152481079 229293647.12498856 0 0 0 0 -864011356.84725952 -506470273.07089233 0 -506470273.07089233 216493126.79533768 0 0 0 0 -928855041.51286316 289847282.70523071 0 289847282.70523071 1060929248.4847679 0 0 0 0 -1162399629.6799469 37730838.76776123 0 37730838.76776123 798569485.6620636 0 0 0 0 -1209187611.8857269 229975174.92747498 0 229975174.92747498 295041598.71573973 0 0 0 0 -1127727922.6565914 196564599.80950642 0 196564599.80950642 366586422.60792542 0 0 0 0 -1094282858.7740784 432999650.50051117 0 432999650.50051117 585784253.35623169 0 0 0 0 -178296271.51216125 302948856.77738953 0 302948856.77738953 326362996.05570984 0 0 0 0 84632208.912227631 -148831830.88155365 0 -148831830.88155365 157376790.90809631 0 0 0 0 -686921708.90740204 -123419511.28694153 0 -123419511.28694153 243596031.764328 0 0 0 0 443854890.44262695 -94965014.494941711 0 -94965014.494941711 262013448.08216858 0 0 0 0 -336399785.16900635 91901107.155334473 0 91901107.155334473 236631686.24810791 0 0 0 0 668562868.90487671 928208491.30900574 0 928208491.30900574 125101410.52378845 0 0 0 0 -1047071160.5366211 840960454.14416885 0 840960454.14416885 266242282.75469971 0 0 0 0 -1379553744.7041779 464884227.55013275 0 464884227.55013275 582410918.68490982 0 0 0 0 
</DataArray>
<DataArray type="Float64" Name="cross_section_updated" format="ascii">
1 1 1 1 1 0.055740055453140924 1 1 1 1 1 1 1 0.052440938885150876 1 1 1 1 0.055910841344620564 1 1 0.043770516629960871 1 1 1 1 0.073890402380252407 1 1 1 1 0.065383755419706521 1 1 1 1 1 1 1 1 1 1 1 1 1 0.050521901315073954 1 1 0.049917807969911805 1 1 1 1 1 0.046935075669439635 1 1 1 1 1 1 1 0.076584104353889237 1 1 1 1 0.052565031246838173 1 1 1 1 1 1 1 1 1 0.052737777694259261 1 1 0.048736905778897291 1 1 0.037440607939766099 1 1 1 1 0.048384062624212125 1 1 1 1 1 1 1 0.051631184300810179 0.049996688748898177 0.05076285551123802 1 1 0.050533118097387114 1 1 1 1 1 0.050442131132010598 1 1 1 1 1 1 1 1 1 1 1 1 1 0.049583091001779808 1 1 1 0.050585062429935782 1 1 1 1 1 1 0.049961064210490777 1 1 1 1 1 1 1 1 1 1 1 1 1 1 1 1 1 1 1 1 1 1 1 1 1 0.050154679883788175 1 1 1 0.053031447453289901 1 1 0.050718365644537466 1 1 1 1 1 1 1 1 1 1 1 0.049785097833986228 1 1 1 1 1 1 1 1 0.048997395409366193 1 1 1 1 1 1 1 1 0.047058734394458651 1 1 1 1 1 1 1 1 1 0.051017135734911068 1 1 1 1 1 1 1 1 1 1 1 1 1 1 1 1 1 1 1 1 1 1 1 0.050007840748340485 1 1 1 0.078678664970670303 1 0.049770586650835821 1 0.0640521191787045 1 1 0.031744399459668643 1 1 1 0.043073436114986471 1 0.05782976368944371 1 0.049485859973494334 1 0.063308207226889818 0.059875607200076598 1 0.053719450284808908 1 1 0.055127763457828043 1 0.04437704244301921 1 1 1 0.053512233089167485 1 0.056186218404531557 0.050595822878436267 1 1 0.04645043977379832 1 1 1 0.053607370646668082 1 0.036617179477529196 0.040686378080592597 0.053197560593603387 1 0.049987309848215158 1 1 1 0.049919143463582893 1 0.042715617570356954 0.057483777497531252 0.050454360365248536 1 1 0.041551860854287186 0.041765847802324521 1 1 1 1 0.036472662279993691 1 0.050045670165992998 1 1 0.045258577682630322 1 1 1 0.053756736830155999 1 0.051292970107847023 0.055570870405579786 0.051404590709340531 1 1 1 0.048048654995639019 1 0.054594797634941392 0.039170516598271268 0.048969746301418163 0.042095589068711539 1 1 1 0.051581558617634735 0.050002687535787543 1 1 0.059566496567493216 0.043348480483877599 0.044455085752346968 1 0.047082799234726448 1 1 1 1 0.050015018033127738 1 1 1 1 1 1 1 0.046904669233191282 1 1 1 1 1 1 0.050858398278529768 0.050010396336494414 1 1 1 0.046258140776518956 1 1 1 0.050006471897592719 1 0.043195720950724319 1 0.062274726695586834 0.033807678769606921 1 1 1 1 0.049436510346335463 1 1 0.034051572318244461 1 1 1 1 0.050080892611143901 1 0.05002574387320978 1 1 1 1 1 0.060003051085279938 0.036974743895275809 1 1 1 1 1 1 1 1 0.050372702415921372 1 1 1 0.051112378294702304 1 1 0.052035040697477816 1 0.050002074665904034 1 1 1 1 1 1 1 1 1 1 1 0.033070705286809027 1 0.052210209852665224 1 0.037511981548531179 1 1 1 0.051885320182780643 1 0.049971439397915762 1 0.05561852246237349 1 1 1 1 1 1 0.043789935789119334 1 0.0557535455599249 1 1 1 0.045212350828275155 1 1 1 0.038497189004022589 1 0.055725867074481253 0.030025213656875164 1 1 1 1 0.051451192643092412 1 1 1 1 0.065028863396444522 0.031673568064573401 1 1 0.044189559780909646 1 0.046867673870882448 1 0.048536583321362819 0.045651700626856202 1 1 1 0.050021748993051555 1 1 1 1 0.062102829507199711 1 1 1 1 1 1 1 1 1 1 1 0.050023749778196305 1 1 1 1 0.040579209225145157 1 1 1 0.057877961792242028 1 0.046089769484140869 0.050453101914375686 0.050000678507185752 1 1 1 0.034230509204813339 0.061890327040256467 1 0.066968355732382967 1 1 0.052551391951320664 1 1 1 1 0.063047401482803189 1 1 1 1 1 1 1 1 1 1 1 0.066602685811873064 0.022906290067286984 1 1 0.060949255950307257 1 1 1 0.049968215961281981 1 1 1 1 1 1 0.035115002437218622 1 1 1 0.048685459429553275 1 1 1 0.051341351120136824 1 1 1 1 1 1 1 1 1 1 1 0.035894405701058528 1 1 1 0.03678097052731355 1 1 1 1 1 1 1 0.051441891713799592 1 1 1 1 1 0.054225443279597718 1 1 1 1 1 1 1 1 1 1 1 1 1 1 1 1 1 1 1 0.048864409734389089 1 1 1 1 0.048955261901654834 1 1 0.049510217606054382 1 1 1 1 1 1 1 0.049438808184638888 1 1 1 1 1 1 1 1 0.050027265901091633 1 0.048291710513767308 1 1 0.053609753419627454 1 1 1 0.051741402448118451 1 1 0.048828249417018493 1 1 1 0.055111930616748357 1 0.051438301256244108 1 1 0.049992079794219296 1 0.054831980826297214 1 1 1 1 1 1 1 1 1 1 1 1 1 1 1 1 1 1 1 1 1 1 0.05032356234879623 1 0.051493954569071979 1 0.050487220061892449 1 1 1 1 1 1 1 1 1 1 1 1 1 1 1 0.050181394053256813 1 1 1 1 1 1 1 1 1 0.050142168295539413 1 1 1 1 1 1 1 1 1 1 1 1 1 1 1 1 1 1 1 1 1 1 1 1 1 1 1 1 1 0.050113040715175784 1 1 0.049973709346048084 1 1 1 0.053227290092733165 0.041856560269990045 1 0.042652485379311156 1 1 1 1 1 0.052669790353626025 1 1 1 1 1 0.052061766378232219 1 1 1 1 1 1 1 1 1 1 1 1 1 1 1 1 1 1 1 1 1 1 1 1 1 1 1 1 1 1 1 1 1 1 1 1 1 1 1 1 1 1 1 1 1 1 1 1 1 0.048880364879989202 1 1 1 1 1 1 1 1 1 1 1 1 1 1 1 0.044100780616839905 1 1 1 1 0.047545044379518814 1 1 1 1 1 1 1 1 1 1 1 1 1 1 1 1 1 1 1 1 1 1 1 1 1 1 1 0.04529897154918474 1 1 0.052266955076168034 1 0.06181586307475638 0.047424537989414484 0.04722006124718791 0.028266654279049098 1 1 0.050082202668350603 1 1 1 1 1 1 1 1 1 1 1 1 1 1 1 1 1 0.064063590220938382 1 1 0.054658194469439383 1 0.043454792934530834 1 1 1 1 0.072265202814007709 1 0.049626056427518273 1 1 1 1 0.050197478543965918 1 1 1 0.048579228404467274 1 1 1 1 1 0.057429140534292905 1 0.047417251147595527 1 1 0.049052833040113063 0.043424831054327359 1 0.052144913595085343 1 1 1 1 1 1 1 1 1 1 1 0.069612584683927933 1 1 1 0.068150006049707584 1 1 1 0.043968947817469947 1 1 0.07195473089346012 0.050217589469269686 0.050095704779268335 1 1 1 1 1 1 1 1 1 1 1 0.050083333222739224 1 1 1 1 1 1 1 1 0.07104046712650372 0.085261149930566785 0.070109065787982608 1 1 1 1 1 1 1 1 0.079469430957353843 0.050181303318586681 1 1 1 0.04578178820270451 1 1 0.051795528051309117 1 1 1 1 1 1 1 1 1 1 1 0.050553330678892831 1 1 1 1 1 1 1 1 0.050732918209850861 1 1 1 1 1 1 1 1 1 1 0.049960042926290818 1 0.050542086485330179 0.057958419531005688 0.05530184200935568 1 1 1 1 1 1 1 0.073647265907956699 0.078729353519551515 1 0.045772738133069674 1 1 1 1 1 0.047737985196926451 1 0.050224932532597133 0.056411923843845815 1 1 1 0.056704295098811003 1 0.057346726495827297 1 1 1 1 0.050048424256701404 1 1 1 1 1 1 1 1 1 1 1 1 1 1 1 1 1 0.047734678524683077 1 1 1 0.050858362709169533 1 1 1 1 1 0.048927001343773674 1 1 1 1 1 1 0.050290905816526232 1 0.050062900129415819 1 1 1 1 1 1 1 1 0.052104235027584864 1 1 1 0.046422886042925958 1 1 1 1 1 1 1 1 1 1 1 1 1 1 1 1 1 1 1 1 1 1 1 1 1 0.053308615240628042 0.04736089208366482 0.025225189291489633 1 1 1 1 0.057216824891285788 1 1 1 1 0.061713736772076519 1 1 1 1 1 1 1 0.047657381507495031 1 1 1 1 1 1 1 1 0.046017943207469131 1 1 1 1 1 1 1 1 1 1 1 1 0.044014892228465816 1 1 1 1 1 1 0.049523858384622636 1 1 1 1 1 1 1 1 0.051371239988051973 1 1 1 0.033310720264873354 1 1 1 1 1 1 1 1 1 1 1 1 0.048360561699974089 1 1 1 1 1 1 1 1 1 1 1 1 1 1 1 1 1 1 1 1 1 1 1 1 1 1 1 1 1 1 1 1 1 1 1 1 1 1 1 1 1 1 1 1 1 1 1 0.05049305015105781 1 1 1 1 1 1 1 1 1 1 1 1 1 1 1 1 1 1 1 1 1 1 1 1 0.048402539027854297 1 1 1 1 1 1 1 1 1 1 0.050135176652636101 1 1 0.045542582769140139 1 1 1 1 1 1 1 1 1 0.050682370414562777 1 0.051458447159359016 1 1 1 1 0.043172273449935461 1 1 0.050842424494312283 1 0.053273996023548667 1 1 1 1 1 0.051676115639439912 1 1 1 1 1 1 1 1 0.047982312218262185 1 1 1 1 1 1 1 1 1 1 1 1 1 1 0.051609298355490205 1 0.047900497792349214 0.049890444815056514 1 1 1 1 1 0.049953512419204996 1 1 1 1 1 1 1 1 1 1 1 1 1 1 1 0.050064349450046938 1 1 1 1 1 1 1 1 1 1 1 1 1 1 1 1 0.050697947398428943 1 1 1 1 1 0.053801207591189254 0.050757542645417306 1 1 0.051417470590782742 1 1 1 1 1 1 1 1 1 1 0.0505275074418126 1 1 1 1 1 1 1 1 1 0.053501553960397907 1 0.0026123728101072538 1 1 1 1 1 0.051942415122446621 1 1 1 1 0.0047870813635979195 1 1 1 0.057175766478294338 1 1 1 0.014631458485637766 1 1 0.051463361431643866 1 1 1 1 1 1 1 1 1 1 1 1 1 1 1 1 0.052059933456699722 1 1 1 1 1 1 1 0.050481466481469436 1 1 1 1 1 1 1 1 1 1 1 1 1 1 1 1 1 1 1 1 1 1 1 1 1 1 1 0.014465302315862585 1 1 1 1 0.050491318978475926 1 1 1 0.088196393514344856 1 1 1 1 1 1 1 1 1 0.084885345602905241 1 0.049991786465627283 1 1 1 1 1 1 1 1 1 1 1 1 1 1 1 1 1 1 0.049961200332682504 0.025472030354372309 1 1 1 0.05332259381575985 1 1 0.036602623576099169 1 1 0.044799268347047581 1 1 1 0.050470370130699049 1 1 0.048127010893715669 1 1 1 1 1 1 1 1 1 1 1 1 1 1 1 1 1 1 1 1 0.051168317529127989 1 0.048321443508109595 1 1 1 1 1 1 1 1 1 1 1 0.047158886673232023 1 0.048902111566029798 1 1 1 0.075971655912392078 1 1 1 1 1 0.049912578298006591 1 1 1 1 1 1 0.066170562877387651 1 1 1 1 1 1 1 1 1 1 1 0.05986041155567888 1 1 1 1 1 1 1 1 0.082485095852347257 1 1 1 0.067239033616319915 1 1 0.0538436143482489 1 1 1 1 1 0.045195587428789694 1 1 1 1 1 1 1 1 1 0.049994317292704898 1 1 0.029493852306235847 1 0.038575763402160512 1 0.058969180263186156 0.042866902474655577 0.048228201540956778 1 0.050195166436521665 1 1 1 1 1 1 0.068529698046035994 1 1 1 1 1 1 0.049508974147023189 1 1 1 1 1 1 1 0.069669956667988295 1 1 1 1 0.070472006086550756 1 1 1 1 1 0.046542610216541686 1 0.050071902021137996 1 1 1 1 1 1 1 1 1 1 0.048737833809299642 1 1 1 1 1 1 1 0.055773989704943086 1 1 1 1 1 1 1 0.049986755186936807 1 0.048179100284273871 1 1 1 1 1 1 1 1 0.027891703608455189 1 1 1 0.024063013545492309 0.049890222652460244 1 1 1 1 1 0.030649663519611119 0.050019574889674318 1 0.033029988717630875 1 1 0.060221678409051523 1 1 0.057989199163245769 1 1 1 1 1 1 1 1 0.079676961083587738 1 1 1 1 1 -1.3877787807814457e-17 1 1 1 1 0.016457553448155346 1 1 0.01979164802627217 1 1 1 1 1 1 1 1 1 1 1 1 1 1 1 1 1 1 1 1 1 1 1 1 1 1 1 1 1 1 1 1 1 1 1 1 1 1 1 1 1 0.052241934246436507 1 1 0.049829253123511455 1 1 1 1 1 0.047000685428602862 1 1 1 1 0.052047069590882455 1 1 1 1 1 1 1 1 1 1 1 1 1 1 1 1 1 1 1 1 1 1 1 1 0.047337840345135079 1 1 1 0.04881717281523152 1 1 1 1 1 1 0.049725283224270743 1 1 1 1 1 1 1 1 1 1 1 0.037320754141427576 1 0.050990443536687441 0.045062869551330514 1 1 0.045369143758841345 1 1 1 1 1 1 1 1 1 1 1 0.032109826269094602 1 1 0.043851966378341253 1 1 1 1 1 1 1 1 1 1 1 1 1 1 1 0.037260208894609369 1 1 1 1 1 1 1 0.050135611589750023 1 0.047152570347938641 1 1 1 1 0.049314496909394698 1 0.051441620503698195 1 1 1 1 1 1 1 1 1 0.053968156556796716 1 1 1 1 1 1 1 1 1 1 1 1 1 1 1 1 1 0.050502020283029053 1 1 1 1 1 1 1 1 1 1 1 1 1 1 1 1 1 1 1 1 1 1 1 1 1 0.053068692412496121 0.050015758923018586 1 1 1 1 1 1 1 1 1 1 1 0.053866304004667728 1 1 1 1 0.060451642543575906 1 1 1 1 0.057804643491406252 1 1 1 1 1 1 1 1 0.044512661455057924 1 1 1 1 1 1 1 1 1 0.049003611190751743 1 1 1 1 1 1 1 1 1 1 1 1 1 1 1 1 1 1 1 1 0.10759917368929464 1 1 1 1 1 1 1 1 1 1 1 1 1 1 0.033050739131432791 1 0.04973257749919377 1 1 1 1 1 1 1 1 0.035205563648893934 1 1 0.049457860723464517 1 1 1 1 1 1 1 1 1 1 1 1 1 1 1 1 1 1 1 1 1 1 1 1 1 1 1 1 1 1 1 1 1 1 1 1 0.049710865114206956 1 1 0.049701876878190825 1 1 1 1 0.059069449349103298 1 0.044486023469480065 1 1 0.046380560704582338 1 0.046925415442847507 1 1 1 1 1 0.048667742202627991 1 1 1 1 1 1 1 1 1 1 1 1 0.068353791873737232 1 1 1 0.060994940510980936 1 1 1 1 1 1 1 1 1 0.041273654857837086 1 1 1 1 0.043183542072931215 0.056210753043114375 1 1 1 1 1 1 1 1 0.050102790218682171 1 1 1 1 1 0.019222124074317552 1 1 1 0.026479344465258913 1 1 1 0.10470311006203245 1 1 1 1 0.031381658848591655 1 1 1 1 1 1 1 1 1 1 1 1 1 1 0.069948241037520217 1 1 1 1 1 1 0.056796367791192459 1 0.070082181817018224 0.049997813272506908 1 0.056193970563749876 1 0.045267263463800875 1 1 1 1 0.050558772369409664 1 1 1 1 0.051526664022532441 1 1 1 1 1 1 1 1 1 0.048465076021869481 1 1 1 1 1 1 1 1 1 1 1 1 1 1 0.046722749262089018 1 1 1 0.049812528909814052 1 1 1 0.049536069229740277 1 0.049949277709678219 1 1 1 1 1 1 1 1 1 1 1 1 1 1 1 1 0.046984234859268198 1 1 1 1 1 1 0.040259053364397099 1 1 1 1 1 1 1 1 1 1 1 1 1 1 1 1 1 1 0.023057784249824714 1 1 1 1 1 1 1 1 1 1 1 1 1 1 1 1 1 1 1 1 1 1 1 1 1 1 1 1 1 1 1 1 1 1 0.053798120470067295 1 1 1 1 0.049615301012017207 1 1 1 1 1 1 1 0.029682059097620714 1 1 1 1 1 1 1 1 1 0.072837751717469146 1 1 0.015395460559724586 1 1 1 1 1 0.050048544602482384 1 1 1 0.055628155228339915 1 1 0.048778543393651563 1 1 1 1 1 1 1 1 1 1 1 1 1 1 1 1 1 1 1 1 0.074453908172151292 1 1 1 1 1 1 1 1 1 1 0.040791431321703611 0.075865480358113246 1 0.014245404561942301 1 1 1 1 1 0.011466128745907342 1 1 1 1 0.045633878723963212 1 1 1 1 1 0.050366353469676287 1 0.050365424442762721 1 1 0.056304155420859314 1 1 1 1 1 1 1 1 0.052108579724506096 1 1 1 1 1 1 0.049805129696714662 1 1 1 1 1 1 0.049315239169810295 1 1 1 1 0.047954168661014693 1 1 0.04997671803899667 1 0.046650320506898491 1 1 0.04997675475674393 1 1 1 1 1 1 0.048957159316452045 1 1 1 1 0.050023231241774935 1 1 1 1 1 1 1 1 0.048615104170872406 0.045178336599208446 1 1 1 1 1 1 1 1 0.050243289603517385 1 1 1 1 1 1 0.049984601543775625 1 1 1 1 1 1 1 0.047795812296660703 1 1 1 0.040777160744300781 1 1 1 1 1 1 1 1 1 1 1 1 0.059038197329635417 1 1 1 1 0.064517790636908989 1 1 0.043028214026279793 1 1 1 1 0.049017988772922225 1 1 1 0.049908031550021582 0.047239869883206817 1 1 1 0.050212061316789819 1 1 1 0.063369072161073597 1 1 1 1 1 1 1 1 1 0.046041482395947991 1 1 1 0.049961935964226066 1 1 1 1 1 1 1 1 1 1 1 1 0.051494133706018838 1 0.050076152152266094 1 1 0.07112336589311094 1 1 0.061248061405876734 1 1 1 1 1 1 1 0.049964788448461347 1 1 1 1 1 0.050063005833849206 1 0.073343878369404258 1 1 1 0.049015455875256735 0.048099335121083726 1 0.041073206407555185 0.058240939678303294 1 0.060232331958644934 1 1 1 1 1 1 0.049314216589108444 1 0.025133800220445632 1 1 1 1 1 1 1 1 1 1 1 1 1 0.050013286678148222 1 1 0.041370522267847661 1 0.047832382415575983 1 1 0.032486662029938204 1 1 1 0.047124805460795005 0.056020020038488001 1 1 0.028676219159816455 1 1 1 1 1 1 1 1 1 1 1 1 1 1 1 1 1 1 1 1 1 1 1 0.052010681623400945 0.050059732393473902 1 0.050360604540812981 1 0.049764658522323368 1 1 0.049998181428693875 0.049012156299016833 1 1 0.050003035216198456 1 1 0.048010722337834225 1 1 0.050922810703089558 1 0.049855278726796633 1 1 1 1 0.049954327138702501 1 1 1 1 0.050405233011520473 1 0.052592963547250259 0.047997201400379774 1 0.047270267275628462 1 1 0.050557365025031116 0.0526294758160782 1 1 1 0.048935626454222461 1 1 1 1 0.041768717399570582 0.051498223029962563 1 1 1 1 1 0.049718407577356509 1 1 1 1 1 1 1 1 1 1 1 0.041276296707297891 1 0.05641969596218134 1 0.065094912327492926 1 1 0.050001695837487925 1 0.064258859789417769 1 1 1 1 1 1 1 1 0.051570434594439343 1 1 0.047740031159893545 1 1 1 1 0.049998793532024938 1 1 1 1 1 1 1 1 1 1 1 1 0.05262139604527457 1 1 1 1 1 1 1 1 1 1 1 0.049780462630480055 1 1 1 1 1 1 0.049805548483097102 1 0.047138245489344477 1 1 0.049369820068390441 1 1 1 1 1 1 1 1 1 1 1 1 1 1 1 1 1 0.050950185496609263 0.053884308994489691 1 1 1 0.050221208982465945 1 1 0.055242714614992805 1 1 1 1 1 1 1 1 1 1 1 1 1 1 1 1 1 1 1 1 1 1 1 1 1 0.049990058207966551 0.067994867133929993 1 1 1 1 1 1 1 1 1 1 1 0.069654209770849365 1 1 1 1 1 1 1 1 1 1 1 1 1 1 1 1 1 1 1 1 1 1 1 1 1 1 1 1 1 1 1 1 1 0.050290102249794397 1 1 1 1 1 0.050188716880389748 1 1 0.048768225582480895 1 1 0.059231587622261744 0.019986338411372012 1 1 1 1 1 1 1 1 1 1 1 1 1 0.024007680647957455 1 1 0.049570728681068141 1 1 1 1 1 1 0.050010635658010484 1 1 0.028390532520127243 1 1 1 1 1 1 1 1 1 1 1 1 1 0.027364525124569793 1 1 1 1 1 1 1 0.050014630886633757 1 1 1 1 1 1 1 1 1 1 1 1 0.049695240844708007 1 1 0.0498896923616109 1 1 1 1 1 1 1 1 1 1 1 1 1 1 1 1 1 1 1 1 0.031961926678152015 1 1 0.0498536374845105 1 0.044944251714057123 1 1 1 0.050052557232074191 1 1 0.054580157582504632 1 0.036770901278710431 1 1 1 0.055651672564287588 1 1 1 1 0.050149236939429263 1 1 1 1 1 1 1 0.050392313785862286 1 1 1 0.052139255027101053 1 1 1 1 1 1 1 1 1 1 1 1 0.04827379059948049 1 1 1 1 1 1 1 1 0.048577059897022615 1 1 1 1 1 1 1 1 1 1 1 0.052208109800955804 1 1 1 1 1 1 1 1 1 1 1 1 1 1 1 1 1 1 1 0.045969258531025847 0.053155887948284519 1 1 1 0.051056443274717908 1 1 1 1 1 1 1 1 1 1 1 1 0.0497340167689755 1 1 1 1 1 1 1 1 1 0.049300470641081305 1 1 1 1 1 1 1 1 1 1 1 1 1 1 1 1 0.056442017363881943 1 0.051000671184348714 1 1 1 1 1 0.055002899795580262 1 1 1 1 0.049772082091205913 1 1 1 0.049962595932673458 1 1 1 0.052396059569612199 1 1 1 1 1 1 1 1 1 0.051251416755092524 1 1 1 0.05339185949535083 1 1 0.050411563686033459 1 1 1 1 1 1 0.050277391804335866 1 1 1 1 1 1 1 1 0.050382214849154151 1 1 1 0.050289611031031224 1 1 1 1 1 1 1 1 1 1 1 1 1 1 1 1 1 1 1 1 1 1 1 1 1 1 1 0.051406628511114008 1 1 1 1 1 1 1 0.050588742956827651 1 1 1 1 1 1 1 1 1 1 1 1 1 1 1 1 1 1 1 1 1 1 1 1 1 0.050171945303061335 1 0.050016483775468676 1 1 1 1 1 1 0.050819651568332395 1 1 1 0.049521949856473443 1 1 0.048697096649757951 1 1 1 1 1 1 1 1 1 1 1 1 0.11045021426667744 1 1 1 1 1 0.10996718903059244 1 1 1 1 1 1 1 1 1 1 1 1 1 0.050664190040739757 1 1 1 0.051499405518422886 1 1 1 1 1 1 1 1 1 1 1 1 0.054255318571533359 0.03191237997604654 1 1 1 1 0.032992791931144738 1 1 1 1 1 1 1 1 1 0.050144582965335062 0.056787237666811194 1 1 1 1 1 0.058997491749670505 1 1 1 1 1 0.05013645532341382 1 1 1 1 1 0.049942426899069421 1 0.067959846332853791 1 1 1 1 0.050794770544306242 1 0.053104642139442423 1 0.037409781177432266 0.049971226103409275 1 1 1 1 1 1 1 0.049829464077164376 0.05071302028758027 1 1 1 1 1 1 0.049991503346746173 0.040762612529100684 0.046891279806616254 1 0.054762966942433877 0.0541271769612654 1 1 1 0.046303242333997262 1 1 1 1 1 0.033516970387732492 0.050726841477543583 0.049999361070220773 1 0.041690809614233243 1 1 1 0.050075673914016461 1 0.047188701841879441 0.049498907526616044 1 1 1 1 1 1 1 0.051218283841348022 0.049230804648441588 1 1 0.047370316881862502 0.057313462694710209 0.04258717184084105 1 1 1 1 1 1 1 1 1 1 1 1 1 1 1 1 1 1 1 1 1 1 1 1 1 1 1 1 1 1 1 1 1 1 1 1 1 1 1 1 0.050076994222490762 1 1 1 1 1 1 1 1 1 1 0.051043885388928914 1 1 1 1 1 1 0.053278348119226715 1 1 0.056620381053452296 1 1 1 1 1 1 1 1 1 1 1 1 1 0.047467938157684089 1 0.042282294782828772 1 1 1 1 0.047461989461793558 1 1 1 0.034203220167717999 1 1 0.031818015777253392 1 1 1 0.050025973124656412 1 1 0.050109156783339617 1 1 1 1 1 0.050114614522951698 1 1 1 1 1 1 1 0.050050456325705456 1 1 1 1 1 1 1 0.030651979313818897 1 1 0.030019840045748834 1 1 1 1 0.051177379862491823 1 0.049428699067136497 1 1 1 1 1 0.053891903946145708 1 1 1 1 0.048175917843283331 1 1 1 1 1 1 0.044276948797610752 0.074393151341691666 1 1 1 1 1 0.029153399109322145 1 1 0.04788582420104838 1 1 1 1 1 1 1 1 1 1 0.047974615509872046 1 1 1 1 1 1 1 1 1 1 1 1 1 1 1 1 1 1 0.049344443505096799 1 1 1 1 1 1 0.050005142724042911 1 1 1 1 1 1 1 0.055445601153855328 0.049991798505913759 1 1 1 1 0.050042905947304914 1 1 1 1 1 1 1 0.050390124955886628 1 1 0.068007686271412654 1 0.047254023879755511 0.035479071096053319 0.065274367191846608 1 1 1 1 1 1 0.063850452570036451 1 1 1 1 1 0.049992984402375498 1 1 1 1 0.062691687048757827 1 1 1 0.042110479841858478 1 1 1 0.043257232499030948 1 1 1 1 1 1 1 1 1 1 1 1 1 1 1 1 1 1 1 1 1 1 1 1 1 0.045333430499862493 1 1 1 1 1 1 1 0.047826652262100644 1 0.043622185419633058 1 1 1 1 1 1 0.027726724553595608 1 1 0.047822509191772694 1 1 1 0.050083086330377606 1 1 0.05210807230866786 1 1 1 1 1 0.050221242664815507 1 1 1 0.050068003130812638 0.050500104449342928 1 1 1 1 1 1 1 1 1 1 1 1 0.048418502028491156 1 1 1 1 1 1 1 1 1 0.04520556898992649 1 1 1 1 1 0.049858824818803466 0.062485516836202321 1 1 1 1 1 1 1 1 1 0.051631430440191389 1 1 1 1 1 1 1 1 0.05769843103848879 1 1 1 1 1 1 1 1 1 1 1 1 1 1 1 1 1 1 0.051964739174386688 1 1 1 1 0.054103994201487766 1 0.052554730333688321 1 0.050501560950155427 1 1 1 1 1 1 1 1 1 1 1 1 1 1 1 1 1 0.049977236793309052 1 1 1 1 1 0.056291646647479404 1 1 1 0.046705368880264733 0.059769561835695026 1 1 1 1 1 0.055373131104821449 1 1 1 1 0.052052597155790081 1 1 1 1 1 1 1 1 0.057227624204724895 1 1 1 1 1 1 1 0.054570851120173416 1 1 1 1 1 1 1 1 1 0.049485389005958932 1 1 1 1 1 1 1 1 1 1 1 1 1 1 1 1 1 1 0.050335369387094972 1 1 1 1 1 1 1 1 1 1 1 1 1 0.049260997251257363 1 1 1 1 1 1 0.049987280145603274 1 1 0.050092603818122916 1 1 0.049945362624596659 1 1 1 1 1 1 1 1 1 1 1 1 1 1 1 1 1 1 1 1 1 1 1 1 1 1 0.049903545189149731 1 0.053446523757435346 1 0.049995308671141422 0.048281164294513595 1 1 1 0.04557813703109475 1 1 1 1 1 1 1 1 1 0.050934898216161956 0.047816790867807102 1 0.020880290444925807 1 1 1 1 1 1 1 1 1 1 1 1 1 1 0.050003318907016106 1 0.054204520819553598 0.056938862479061894 1 0.038452816476085297 1 1 1 1 1 1 1 1 1 0.054554999244412719 0.050714441382945591 1 1 1 1 1 1 1 1 1 1 1 1 1 1 1 1 1 1 1 1 1 1 0.047916027559691529 1 1 1 1 1 0.051070964717882472 1 1 1 1 1 0.053566186228483123 1 1 1 0.041762853051503727 1 1 1 1 1 1 1 1 1 0.046872041900442071 1 1 1 1 0.021371567834186637 1 1 1 1 1 1 0.052397884119099944 1 1 1 1 1 1 1 0.051609822824023224 1 1 1 1 0.054631734979758748 1 1 1 1 1 1 1 1 1 1 0.048897762917852583 1 1 1 1 0.051888960428782091 1 1 1 0.032410336970788489 1 1 1 1 1 0.068694508005602922 1 1 1 1 1 1 1 1 1 1 1 1 1 1 0.0561149053221058 0.020196216184733877 1 1 0.031759182596241234 1 1 1 1 1 1 1 0.052060905873754573 1 1 1 1 1 1 0.053770564787816985 1 1 1 1 1 1 1 1 1 1 1 1 1 1 1 1 1 1 1 1 1 1 1 0.059754981206557187 1 1 1 1 1 1 1 1 0.049786975332745162 1 1 1 1 0.048558173173163952 1 1 1 1 1 0.063591831770478946 1 0.049929446339764413 1 0.044131668337215116 1 1 1 1 1 1 1 0.049978912313640454 1 1 1 0.051841424734065403 1 1 1 1 1 0.044841053851130575 1 1 1 1 1 0.04995735248623643 1 0.050003418587602502 1 1 0.049546078811787783 1 0.044823974243685172 1 1 1 1 1 0.053832998128679269 1 1 1 0.061636379416993639 1 1 1 1 1 1 1 1 1 1 0.049409215425487693 1 1 1 1 1 1 1 1 1 1 1 1 1 1 1 1 1 1 1 1 1 1 0.055107069504356176 1 1 1 1 1 1 1 1 1 1 1 1 1 1 1 1 1 1 0.063769788667809232 1 1 1 0.070494896513519589 1 1 1 1 1 1 0.032904845697491053 1 1 1 0.044961189725096218 0.044396473714384176 1 0.061414520581759377 1 0.047449383043055744 0.039731699774844871 1 0.039553452802804132 1 1 0.050010692346548188 1 1 0.048172309491587642 0.049920092479237954 1 1 1 1 1 1 1 1 0.050022992129654553 1 0.050006423638062597 1 1 1 1 1 1 1 1 1 1 1 1 1 1 1 1 1 1 1 1 1 1 0.040061121769834833 1 1 1 1 1 1 1 1 0.036060365548597005 1 1 0.04977846107201539 1 1 0.032320408692549735 0.049728569073795831 1 1 0.049912692302233524 1 1 1 1 1 1 1 1 1 1 1 1 1 1 1 1 1 1 1 1 1 1 1 1 1 1 1 1 1 1 1 1 1 1 1 1 1 1 1 0.03353718390478392 1 0.033649385022593153 1 1 1 1 1 1 1 1 1 1 1 1 1 1 1 1 1 1 1 1 1 1 1 1 1 1 1 1 1 1 1 1 1 1 1 1 1 1 1 1 0.055571826096768445 1 1 0.05787299975941966 1 1 1 1 1 0.048913698954018328 1 0.049641383673837317 1 1 0.052863405593421217 1 1 1 1 1 1 0.053093254218966587 1 1 1 1 1 1 1 1 1 1 1 0.050283452326136346 1 1 0.017740713448847766 0.033721512562649762 1 0.030970515934686416 1 1 0.066214332166743037 1 1 1 1 0.032462774099157751 1 1 1 1 1 1 1 1 1 0.050034015975505955 1 0.022740625342303283 1 1 1 1 1 1 1 0.049976428091686384 1 0.056104931765126861 1 1 1 1 1 1 1 1 1 0.049417341218327332 1 0.054794300340092847 1 1 1 1 1 1 1 1 1 1 0.048097457740149702 1 1 1 0.024467493479393209 1 1 0.050006753542620824 1 1 0.045546641226988122 1 1 1 1 0.047424083440255629 1 1 1 0.04995808247899336 1 1 1 1 1 1 1 1 1 1 1 1 1 1 0.049165246114514137 1 1 1 1 1 1 0.049441562225081809 1 0.050069070605668911 1 0.021536234111408807 1 1 1 0.049804431325175189 1 1 1 1 1 1 1 1 0.017618645061878584 1 1 1 1 1 0.050014416016488657 1 1 0.015148427227547175 1 1 1 1 1 1 1 1 1 0.0382172446317601 1 1 1 0.045989486877158647 1 1 1 1 1 1 0.030732231583024121 1 1 1 1 1 1 1 1 1 1 1 1 1 1 1 1 1 1 1 1 1 1 1 1 1 1 1 1 1 1 1 0.055116389200605471 1 1 1 1 1 0.051425569062839918 1 1 0.050881329048779678 0.055176312951919632 1 1 1 1 0.060981079653070674 1 1 1 1 1 0.050215392981686036 1 1 1 1 1 1 1 1 1 1 1 1 1 1 1 1 0.052268725589205554 1 1 1 1 1 1 1 1 0.053885427127908843 0.057530451975965465 1 1 1 1 1 1 0.054211859049225382 1 1 1 1 0.048005820936210336 1 1 1 1 1 1 1 1 1 1 1 1 1 1 1 1 1 1 1 1 1 1 1 1 0.054217479245694873 1 1 0.051369815634294914 1 1 1 1 1 1 1 1 1 1 1 1 1 1 1 1 1 1 1 1 1 1 1 1 1 1 1 0.052083056181701837 1 0.054343705408214364 1 1 1 1 1 0.058611528343187676 1 1 1 1 1 1 1 1 1 1 1 1 1 1 1 1 1 1 1 1 0.043277588182200316 0.056382756369825253 1 0.046100620508002288 1 1 1 1 1 1 1 1 1 1 1 1 1 1 1 1 0.048085290911346515 1 1 1 0.049446333670709691 1 1 1 1 1 1 1 1 1 1 1 1 1 0.05426782293497328 1 1 1 1 1 1 1 1 1 1 1 1 1 1 1 1 1 1 1 1 1 1 0.0092890354969845674 1 1 1 1 1 1 1 1 1 1 1 1 1 0.015366597602589099 1 0.089045733524950099 1 1 0.041238966048658912 0.067451998254439191 1 1 1 1 1 1 1 1 1 1 1 1 1 1 1 1 1 1 1 1 0.049022853761368432 1 1 0.00081958910998765344 1 1 1 0.048793896588010394 1 1 1 1 1 1 1.3877787807814457e-17 1 1 1 0.048085230063129009 1 1 1 1 1 1 1 1 0.049940657672998955 1 1 0.062400861774267735 1 1 0.021911006224637451 1 0.026892302077746184 1 1 1 1 0.038473468751774445 0.019389026950766948 1 1 0.046409351205522267 0.02098934535225401 1 1 0.065978385394534739 1 1 1 1 0.049953984919771974 1 1 0.062448082217836577 0.071006632642274886 1 0.050031368725878413 1 1 1 1 1 1 1 1 1 1 1 1 1 1 1 1 1 1 1 1 0.062841834979724093 1 1 1 1 0.061662415434085849 1 1 1 1 0.050696726889306078 0.051133782290638356 1 1 1 1 1 1 1 1 1 1 1 1 0.050241805545176516 1 1 1 0.10792410472997535 1 1 1 1 1 1 1 0.10256108376610104 1 1 1 0.048258191109628118 1 1 0.049877308344010697 0.050264404705613497 1 1 1 0.094921001506728109 1 1 1 0.050087977229446176 1 1 1 1 1 1 1 1 1 1 1 1 1 1 1 1 1 1 0.050097967100540819 1 1 1 1 1 1 1 1 1 1 1 1 1 1 1 1 1 1 0.049818431174880537 0.050165880252475203 1 1 1 1 1 0.050046766841382623 0.049563253744556168 1 0.049791389998016439 1 1 1 1 1 1 1 1 1 0.025421821994157615 1 1 1 0.029362239286700648 1 1 1 1 1 1 1 1 1 1 1 1 1 1 0.023416759796067485 1 1 1 1 1 1 1 0.037289158686632344 1 1 0.033328430743869181 1 1 1 1 1 1 0.071806826473666596 1 1 1 1 0.069842503596961772 1 1 1 1 1 1 0.052521828940166403 1 1 1 1 1 1 1 1 0.049874619667466882 0.073533654389694197 1 1 1 0.049958999902348714 0.066332810171877324 1 1 1 1 1 0.049890926357502044 1 1 1 1 1 1 0.047714584558762652 1 1 1 1 0.050478069159059481 1 1 1 1 1 0.049234375804472 1 1 1 1 0.054098341449545423 1 1 1 1 1 1 1 1 1 1 1 1 1 1 1 1 1 1 1 1 1 1 1 1 1 0.049729951702248108 1 1 1 1 0.038858435597913216 1 0.036788316163024838 1 0.037073654255367385 1 1 0.032553200230409148 1 1 0.063901168246351822 1 1 0.052219532154815493 1 1 1 1 1 1 0.049681907499743001 1 1 0.048390381163220156 1 0.04739637823485264 0.064892922105547451 0.04630832668498959 1 1 0.07464611541508652 1 0.050137915899739802 0.066013274971599839 1 1 1 0.055873664013171544 1 0.049928553855006302 1 1 1 1 1 1 0.049673424867312965 1 1 1 0.050062068643062771 1 1 1 1 1 1 1 0.044715868961532304 1 1 1 0.047859683959800364 1 0.051330024880110493 0.050445878319323609 1 1 1 1 1 1 1 0.052482659329628464 1 1 1 1 1 1 1 1 0.050590127088921431 0.046281919367627163 1 1 1 1 0.045278340479939512 1 1 0.045515065253169042 1 1 1 0.050000584989941865 1 1 1 0.046303537230965017 0.049621606376396746 1 1 1 1 0.05012063651591929 1 1 1 1 1 0.049112967245058946 0.047278093034856007 1 1 1 1 1 1 1 1 1 1 1 1 1 1 1 1 1 1 1 1 1 1 1 1 1 1 1 1 1 1 1 0.051196410019607133 1 1 1 0.04987731414659375 1 1 1 1 1 1 1 1 1 1 1 1 1 1 1 0.048239261182920712 1 0.050008634068213903 0.054006530244532759 1 1 0.047082186285809631 1 1 1 1 1 1 1 1 1 1 1 1 1 1 1 1 1 1 1 1 1 1 1 0.0502106960205915 1 1 0.047513105018282271 0.05004126741729803 1 1 1 1 1 1 1 0.04797544369807355 1 1 1 0.051535191203020816 1 1 1 1 0.050138096908121994 0.050051052533113011 1 1 1 1 1 1 1 0.046797995014735083 1 1 1 1 0.047893093394649276 1 1 1 1 0.049415193764069006 1 1 1 1 1 1 1 1 1 1 1 1 1 1 1 1 1 1 1 0.050887902481988392 1 1 1 1 1 1 1 1 1 1 1 1 1 1 1 1 0.049564496549831243 1 1 1 0.049936511099686692 1 1 1 1 1 1 1 1 1 0.049213694407619024 1 1 1 1 1 1 1 1 1 1 1 1 1 1 1 1 1 1 1 1 1 0.050399214864809277 1 1 1 1 1 1 1 1 1 1 1 1 1 1 1 1 1 0.051434675314817976 1 1 1 1 1 0.050127928222471661 1 1 1 1 1 1 1 1 1 1 1 1 1 1 1 1 1 1 1 1 1 1 1 1 1 1 1 0.049872322034391986 1 1 0.077232564030473225 1 1 1 0.081175942700373954 1 1 1 1 1 1 1 1 1 1 1 1 1 1 1 0.069189790520533381 1 0.053132230735243022 1 1 1 1 1 1 1 1 1 0.065534421368288187 1 1 1 1 1 1 1 1 1 0.05315264842621957 0.05991818750396255 1 1 1 1 1 1 1 1 1 1 1 1 1 1 1 1 1 1 1 1 1 1 1 1 1 1 1 1 1 1 1 1 1 1 1 1 1 1 1 1 1 1 1 1 1 1 1 1 1 1 1 1 1 1 1 1 1 1 1 1 1 1 1 1 1 1 1 1 1 1 1 0.05300921616202859 1 1 1 1 1 1 0.058232306278986665 1 1 1 1 1 1 1 1 1 0.053246402194329009 1 0.058375738543177638 1 1 1 1 1 1 1 1 1 1 1 1 1 1 1 1 1 1 1 1 1 1 1 1 1 1 1 1 1 1 1 1 1 1 0.045807563720501661 1 1 1 0.051644549814773372 0.050822429471682702 1 1 1 1 1 1 1 1 1 1 1 1 1 1 1 1 1 1 1 1 1 1 0.048601872030303674 0.050986074911592343 1 1 1 1 1 1 1 1 0.055517770002709493 1 1 1 1 1 1 0.056789522212029001 1 1 1 1 1 0.05137912985094218 1 1 1 1 0.050583810063738764 1 1 1 0.049607689174697801 1 1 1 0.050737119349529208 1 1 0.053147907984204219 1 1 1 1 1 1 1 1 1 1 1 1 1 0.05069867352838664 1 1 1 1 1 1 1 1 0.054420315907467938 1 1 1 1 1 1 1 1 1 1 1 0.047819043189618923 1 1 1 0.049335275539346496 1 1 1 1 0.052190604318805942 1 1 1 1 1 1 1 1 0.053320868886293657 1 0.042206651357883054 1 1 0.059861744434827308 1 1 1 1 1 0.04510954776694872 1 1 1 1 1 1 1 1 1 1 1 1 0.051050253178583624 1 1 1 1 1 1 1 1 1 0.053805834691921232 1 1 1 1 1 1 0.052184660800002086 1 1 1 1 1 1 1 0.051888387513257771 1 1 1 1 1 0.052938640691841433 1 1 1 1 1 1 1 1 1 1 1 1 1 1 1 1 1 1 1 1 1 1 1 1 1 1 1 1 1 1 1 1 1 1 1 1 1 1 1 1 1 1 1 1 1 1 1 0.048704343956312013 1 0.046786903778456984 1 1 1 1 1 1 1 1 1 1 1 1 1 1 0.050370767320918414 1 1 1 1 1 1 1 1 1 1 1 1 1 1 1 0.059770293353923046 1 1 0.048637612911290075 1 0.041894061520515925 1 1 1 1 1 0.043948277793943426 1 1 1 1 1 1 1 1 1 1 1 1 1 1 1 1 1 1 1 1 0.065604063403919194 1 1 1 1 1 1 1 1 1 1 1 0.067835853613939276 1 0.04979523119225699 1 1 0.069260684603279443 1 0.029854367843486794 1 1 1 1 1 1 1 0.050270513239669579 1 0.095888617634900336 1 1 1 1 0.10782399142103073 1 1 1 1 0.049335324679818424 0.063528516161132864 1 1 0.064739855115482581 1 1 1 1 1 1 1 1 1 1 1 1 1 1 1 1 0.053694733332919742 1 1 1 1 1 1 1 1 1 1 1 1 1 1 0.060818360365898522 1 0.050210681261352218 1 1 1 1 1 1 1 2.7755575615628914e-17 1 0.0055612634779685019 1 1 1 1 1 1 1 1 1 0.05042653303247565 0.12361106257606937 1 1 1 0.081255010127357946 1 1 1 1 0.027772690430315231 1 0.064534466109069558 1 1 0.045892953719919111 1 0.0228628560251646 0.028839697594590083 0.047623021348485929 1 1 0.049967283051285179 1 1 1 0.025178011530047964 0.071495319444719069 0.0739064136283131 1 1 1 1 1 1 1 1 1 1 1 0.065312794593129192 1 1 1 1 1 1 0.1205575907513791 1 1 1 0.049307278762214607 1 1 1 1 1 1 1 1 0.058189179544167212 1 1 1 0.052588667591384669 1 1 1 1 1 1 1 1 1 1 1 1 1 1 1 1 1 1 1 1 1 1 1 1 1 1 1 1 1 1 1 1 1 1 1 1 1 1 1 1 1 1 1 1 1 1 1 1 1 1 1 1 1 1 1 1 1 1 1 1 0.047143756561547387 1 1 1 1 1 0.042373459646071927 1 1 1 1 0.048289947359220792 1 1 1 0.037451943291858712 1 1 1 1 1 1 1 1 1 1 1 1 1 1 1 1 1 1 1 1 1 1 1 1 1 1 1 1 1 1 1 1 1 1 1 1 1 1 1 1 0.052760467890023657 1 1 0.058031820307693369 1 1 1 1 1 1 1 0.048859362563379631 1 1 1 1 1 1 1 1 1 1 1 0.046536803806894095 1 1 0.049944783275657982 1 0.045143075664661053 1 1 1 0.063035969349184151 1 1 1 1 1 1 1 1 0.050259367144099801 1 1 1 1 0.048563314944127633 1 1 1 1 0.066677289551788615 1 0.046460735933504346 1 1 1 1 1 1 1 1 1 1 1 1 0.064838423602069234 1 0.066065956376489821 1 1 1 1 1 1 1 1 1 1 1 1 1 0.048882639573707337 1 1 1 1 1 1 1 1 1 0.048065079074781039 1 1 1 0.049182439501073663 1 1 1 1 1 1 1 1 1 1 1 1 1 1 1 1 1 1 1 1 1 1 1 1 1 1 1 1 1 1 1 1 1 1 1 0.043905573955680316 1 1 0.050190622919326383 1 1 1 1 0.053355245313746982 1 1 1 1 1 1 1 1 1 1 1 1 1 1 1 0.046582206634890863 1 1 1 1 1 1 1 1 1 0.051937656577839469 1 0.048759149192867349 1 1 1 1 1 1 1 0.050818927049061449 1 1 1 1 1 1 1 1 1 1 1 1 1 1 0.050912654048045763 1 1 1 1 1 1 1 1 1 1 1 0.051541818289826451 1 1 1 1 1 1 1 1 1 1 1 1 1 1 1 1 1 1 1 1 1 1 1 0.050396715655384103 1 0.048717487056711556 1 1 1 1 1 1 0.064654735813343508 1 0.046932069124914599 1 1 1 0.065452472784887028 1 1 1 0.0314701732057108 1 1 1 0.066580112677622524 1 1 0.036667911058117501 1 1 1 1 1 1 1 0.044792387028780453 1 1 1 1 1 1 1 0.058847417430138091 1 1 1 1 1 1 1 1 1 1 1 1 1 0.054861285641668825 1 1 1 1 1 1 1 1 0.065277287171291803 1 1 1 1 1 1 1 1 1 1 1 1 1 1 1 1 1 1 1 1 0.052291643912991306 1 1 1 1 1 1 1 1 1 1 1 1 1 1 1 1 1 1 1 1 1 1 1 1 1 1 1 1 1 1 1 1 1 1 1 1 1 1 1 1 1 1 1 1 1 1 1 1 1 1 0.047707987059257086 1 0.061742467731277097 1 1 1 0.044559061330100819 1 1 0.050537810481309925 0.065785250723266381 1 0.044248263378230325 1 1 1 1 1 1 1 1 1 1 1 1 1 1 1 1 1 1 1 1 1 1 1 1 1 1 1 1 1 1 1 1 1 1 1 0.049661359477507584 1 1 1 1 0.048983058453520655 1 1 0.072518346880664386 1 1 1 0.05007055757379672 1 1 1 1 0.045740601644991746 1 0.050010448254449738 0.046960005124114398 1 1 1 1 0.044997483063972471 1 1 1 0.048837574356733242 1 1 1 0.04995920990255584 1 1 1 1 1 1 0.050491510434401157 1 1 1 1 1 1 1 1 1 1 1 1 1 1 1 1 1 1 1 1 0.048456947072397762 1 1 1 1 1 1 1 1 1 1 1 1 1 1 1 1 1 1 0.051676078476403903 1 1 0.054703090309850738 1 1 0.038927924611221632 1 1 1 1 1 1 1 1 1 1 1 0.057305207220706769 1 1 1 1 0.047656213503984135 1 1 1 1 0.050279925404677628 1 1 1 0.048109717000062183 1 1 1 1 1 1 1 1 1 1 1 1 1 1 1 1 1 1 1 1 1 1 1 1 1 0.05337546266102812 1 1 1 1 1 1 1 1 0.048111745913590256 1 1 1 0.042288855492921398 1 1 1 1 1 1 1 1 1 1 1 1 1 1 1 1 1 1 1 1 1 1 1 1 0.029454959836114625 1 1 1 0.060112971708539846 1 1 1 1 1 1 1 1 0.033803546343419089 1 1 0.056412826621169004 1 1 1 1 0.052194314668220672 1 1 1 1 1 1 1 0.024868595566116466 1 0.053202825803748265 1 1 0.053225777814914998 1 1 0.03106900457846945 0.049988822510778727 1 1 1 1 1 1 1 1 1 1 1 1 1 1 1 1 1 1 1 1 1 0.012844959175910262 1 1 1 1 0.018777097362400047 1 1 1 1 1 1 1 1 1 1 1 1 1 0.010105613894026755 1 1 0.048899033959040758 1 1 1 1 1 1 1 1 1 1 1 1 1 1 1 1 1 1 1 1 1 1 1 1 1 1 1 1 1 1 1 1 1 1 1 1 1 1 1 1 1 1 1 1 1 1 1 1 1 1 1 1 1 1 1 1 1 1 1 1 1 1 1 1 1 1 1 1 1 1 1 1 1 1 1 1 1 1 1 1 1 1 1 1 1 1 1 1 1 1 1 1 1 1 1 1 1 1 1 1 1 1 1 1 1 1 1 1 1 1 1 1 1 1 1 1 1 1 1 1 1 1 1 1 1 1 1 1 0.051159244024785229 1 1 1 1 1 1 1 0.045833081101415027 1 1 1 1 1 1 1 1 1 0.03810657670153772 1 0.066586145003545288 1 1 1 0.056943235824128122 1 1 0.058092349412364359 1 1 1 1 1 1 1 1 1 1 1 1 1 1 1 1 1 1 1 1 1 1 1 1 1 1 1 1 1 1 1 1 1 1 1 1 1 0.054857548829146237 1 1 0.059383597919892679 0.033797410366413622 1 1 0.049013387554412848 1 1 0.073884885580393633 1 1 1 0.068553627936067021 1 1 1 1 1 1 1 1 1 0.0596754286174783 1 1 1 1 1 1 0.052489574002359235 1 1 1 1 1 1 1 1 1 1 1 1 1 1 1 1 1 1 1 1 1 1 1 1 1 1 1 1 1 1 1 0.00097424776539963703 1 1 1 1 1 1 1 1 1 1 1 1 1 1 1 1 1 1 1 1 1 1 1 1 1 1 1 1 1 1 1 1 1 1 1 1 1 1 1 1 1 1 1 1 1 1 0.077259921415115104 1 0.044706694459355531 1 1 1 1 0.04872229085786961 1 1 1 1 0.076162739332292492 1 1 1 1 0.049336427480363931 1 1 1 1 1 1 1 1 0.043192334559111048 1 1 0.04725168847905184 1 0.049788794549411368 1 1 1 1 0.041303279973588722 1 1 0.066700274420705905 0.033144850487324386 1 1 1 1 1 1 0.050225092508726567 1 1 1 1 1 1 1 1 1 1 0.065887694022676663 0.058978440939699006 1 1 1 1 1 0.063920165084346114 1 1 0.047497285284904961 1 1 1 1 0.031025591168851632 1 1 0.049938552381827678 1 1 1 1 1 1 1 1 1 1 1 1 1 1 1 1 1 1 1 1 1 1 1 1 1 1 1 1 1 0.050330551317247278 1 0.05010715615307712 1 1 1 1 1 1 1 1 1 1 1 1 1 0.049491749706251892 1 1 1 1 0.086359592846969674 0.091593579143512627 1 1 1 1 1 1 1 1 1 1 1 1 1 1 1 1 1 1 1 1 1 1 1 1 1 1 1 1 1 1 1 1 1 1 1 1 1 1 1 1 1 1 0.048981272846755103 1 1 1 0.049489523140503186 1 1 1 1 1 1 1 1 1 1 1 1 1 1 1 1 1 1 1 1 0.081121812275559979 1 1 0.075754251273149761 1 1 1 1 1 1 1 1 1 0.049966629711710869 1 1 1 1 1 0.074591943500677452 1 1 1 1 1 0.049814890227186402 1 0.050079519325722535 1 1 1 1 1 1 1 1 1 1 1 1 1 0.054848339118446207 1 1 1 0.045280754121135108 0.070349454597649991 1 1 1 1 1 1 1 1 0.049920984934376411 1 1 0.066210834442659974 1 1 0.049999661716059046 0.05768019723107539 1 1 1 1 1 0.049963871000764187 1 1 1 1 1 1 1 0.052803937491936057 1 1 0.058084949578336237 0.049388764238649824 1 1 1 1 1 1 0.050433152329276157 0.05006442676193712 1 1 1 0.050153565992408736 1 1 1 1 1 1 1 0.048340113480113231 1 1 1 1 1 1 1 1 1 1 1 1 1 1 1 1 1 1 1 1 1 1 1 1 1 1 0.12824541314866239 1 1 1 1 1 1 1 0.049076517842457035 1 1 1 1 1 1 1 1 1 1 1 0.11019120768684508 1 1 1 1 1 1 1 1 0.048082950235077443 1 1 1 1 1 1 1 1 1 1 1 1 1 1 1 1 0.048028672230253269 1 1 1 0.048968720068266719 1 1 1 1 1 0.044384618891840262 1 1 1 1 1 1 1 1 1 1 1 1 1 1 0.05581593686790487 1 1 1 1 0.068267189393341268 1 1 0.081985664032292793 1 1 1 1 1 0.049954138896728104 1 1 1 1 1 1 1 1 1 1 1 1 1 1 0.048884320850260302 1 0.023404216587373204 1 1 1 0.058611342949437241 1 0.086486428872869323 1 0.013107455922495417 1 1 1 1 1 1 0.04965805276935803 0.12645283550943215 1 1 1 1 1 1 0.12330256616379683 1 0.046998780393758585 1 1 1 1 1 1 1 1 1 1 1 1 1 1 1 1 1 0.024481268892941166 1 1 1 0.049660078432047568 0.030787588888554762 1 1 1 1 1 0.049083387005414321 1 1 0.049217166156027066 0.049912594440773547 1 1 1 1 1 1 1 1 1 1 1 1 1 1 1 1 1 1 1 1 1 1 1 1 1 1 1 1 1 1 1 1 1 1 1 1 1 1 1 1 1 1 1 1 0.021102876048127113 1 1 0.071802088334306763 0.062015700118045733 0.049508201086860611 1 1 1 1 1 1 0.049462316223944321 1 1 1 1 1 1 1 1 1 0.050080059363802942 1 1 1 0.032852717527358216 1 1 1 1 1 1 1 1 1 1 1 1 1 1 1 1 1 1 1 1 0.041137452303070865 1 1 1 1 0.047058078100434941 1 1 1 1 1 1 1 1 1 1 1 1 1 1 1 1 1 1 1 1 1 1 1 1 1 1 1 1 1 1 1 1 1 1 0.051112212535185365 1 0.050374952103489148 1 1 1 1 1 1 1 1 0.050256162121078571 1 1 1 0.054546060189743534 1 0.049881210017589432 1 1 1 1 1 1 1 1 0.088536416612626748 1 1 1 1 0.063369113100997479 1 1 1 1 0.06182446241082111 1 1 1 1 1 1 1 0.065733838345521919 1 1 1 1 0.057343223589259029 1 1 1 1 1 1 1 1 1 1 1 1 1 1 1 1 1 1 1 1 1 1 1 1 1 1 1 1 1 1 1 1 1 1 1 1 1 1 1 1 1 1 1 1 1 1 0.047718160442213844 1 1 1 1 0.049898838296251302 0.044236728609813619 1 1 0.037659384283333319 0.048986355700952708 1 1 1 1 1 1 1 1 1 1 1 1 1 1 1 1 1 1 1 0.049797592879921138 1 1 1 0.048483005105744659 0.049960251448980933 1 1 1 1 1 1 1 1 1 1 1 1 1 1 1 1 1 1 1 1 1 1 1 1 1 1 1 0.049585420702115163 1 1 1 1 1 1 1 0.0517674172236312 1 1 1 1 1 1 1 1 1 1 1 1 1 1 1 0.054312284342749886 1 1 1 1 1 1 1 1 0.048829738022548017 1 0.051379427116602434 0.046921701995994478 1 1 1 1 1 1 1 1 1 1 1 1 0.049114230166810713 1 1 1 1 1 1 1 1 1 1 1 1 1 1 1 1 1 1 0.041684174809933486 1 1 1 0.051009670982425148 1 1 1 1 1 1 1 1 0.050514460568619246 1 1 1 1 1 1 1 1 1 1 1 1 1 1 1 0.047224623520173051 1 1 1 0.049037114418778949 1 1 1 1 1 1 1 1 1 1 1 1 1 1 1 1 1 1 1 1 1 1 1 1 1 1 1 1 1 1 1 1 1 0.049224215171588537 1 0.049638177146033594 1 1 1 1 1 1 1 1 0.050083269930002318 1 1 1 1 1 1 1 1 1 0.050464790688521097 1 1 0.048906362660391535 1 1 1 1 1 0.049463769956109703 1 1 1 1 0.050087888036328715 1 1 1 1 0.052150907011190531 1 1 1 0.051518853992479852 1 0.052885887088015893 1 1 0.051841196348372795 1 1 1 1 1 1 1 1 1 1 1 1 1 1 0.05001064454975683 1 1 0.050015794304006739 1 0.049857899094927077 1 1 1 0.050142409519181565 1 1 0.055650513588730119 1 1 1 1 0.04835020446305778 1 0.048754313640268304 1 1 1 1 1 1 0.049542566718654132 1 0.049647832757162259 1 1 1 1 1 0.03947499953639997 1 1 1 1 0.048604679049028418 1 1 1 1 1 1 0.040492380290408844 1 1 1 1 1 1 1 1 1 1 1 1 1 1 1 1 1 1 1 1 1 1 1 1 1 1 1 1 1 1 1 1 1 0.049941537318266976 0.049969981232724205 1 1 1 1 1 1 1 1 1 1 0.037867692963448357 1 1 0.048888051606965924 0.04232063273838043 1 0.050001626698193552 1 1 1 1 1 1 1 0.039742963305677795 1 1 1 1 1 1 1 1 1 1 1 1 0.050858177523831073 1 1 1 1 0.050291384453817388 1 1 1 1 1 1 1 1 1 1 1 1 0.040298555602800823 1 1 1 1 1 1 1 1 1 1 1 1 1 1 1 1 1 0.041467686183220456 1 1 1 1 1 0.047383848974766912 1 1 1 0.046900980773289941 1 1 1 1 1 1 0.04636244748306613 1 0.037713141828523929 1 1 1 0.043035936764919694 1 1 1 1 1 1 1 1 1 0.02998880130850172 1 1 0.050056541027385874 1 1 1 1 1 1 1 0.048159973772331471 1 1 1 1 1 1 1 1 1 1 1 1 1 0.052658934070407337 1 1 0.043695748951085633 1 1 1 1 1 1 0.049744101868634233 1 1 1 1 1 1 0.026708862037287472 1 1 1 1 1 1 1 0.012677899058117406 1 1 1 1 1 1 1 1 1 1 1 1 1 1 1 1 1 1 1 1 1 1 0.04666925098273042 1 1 1 1 1 1 1 1 1 1 0.051386449410556999 1 1 1 1 0.054799752967948367 0.027055705275955813 1 1 1 1 0.031968151825946395 1 1 1 1 1 1 1 1 1 0.03684101551842317 1 1 1 1 1 1 1 1 1 1 1 0.035449075443069092 1 1 1 0.047613884924287669 1 1 1 0.044825494065737867 1 1 1 1 1 1 1 1 1 1 1 1 0.047412660961219141 1 1 1 1 1 0.049894213734169662 1 1 0.049736729651142529 1 1 1 1 1 1 1 1 1 1 1 1 1 1 0.050555925754558778 1 1 1 1 1 1 1 0.052150534068520181 1 1 1 0.054379654005708877 1 1 1 1 1 0.049702625488757604 1 1 1 1 1 1 1 1 1 0.049860109571784703 1 1 1 1 1 1 1 1 0.057250328184776086 1 1 1 1 1 0.048614918057314861 1 1 1 1 1 1 1 0.049497593587947766 1 1 1 1 1 1 1 1 1 1 1 1 1 1 1 1 1 1 1 1 1 1 1 1 1 1 1 1 1 1 1 1 1 1 1 1 1 1 1 1 1 1 1 1 1 1 1 1 0.048698507062555282 1 1 1 1 1 1 1 0.050524929153401302 1 1 1 1 1 1 1 1 1 1 1 1 1 1 1 1 1 1 1 1 1 1 0.04785304205273383 0.049575417380074774 1 1 0.051229518987719616 0.042200500524363631 1 1 1 1 1 1 1 0.04017692853013994 1 1 1 1 1 1 1 1 1 1 1 1 1 1 0.049090742199067214 1 1 1 1 1 1 1 1 0.049813792478898264 1 1 0.049830229614232231 1 1 1 0.049478197220282953 1 1 1 1 1 1 1 1 1 1 1 1 1 1 1 1 1 1 1 1 1 1 1 1 1 1 1 1 0.050664283423403247 1 1 1 1 1 1 1 1 0.049935988219121458 1 1 1 1 1 1 0.052303140428635417 0.049816780634484026 1 1 1 1 0.049304284448422137 1 1 0.050527187617886354 1 1 0.052864430196635087 1 1 1 1 1 1 0.050504214101636372 1 1 1 1 1 1 1 1 0.050068157851540382 1 1 1 1 1 1 1 1 1 1 1 0.050129486012828128 1 1 0.050061519095200388 1 1 1 1 1 1 1 0.052492040721061436 1 1 1 0.049378190847769426 1 0.046770423434234425 1 0.051496450546199363 1 1 1 1 1 1 1 1 1 1 1 1 1 1 1 1 1 0.038417757197965252 1 0.05000717318111049 1 1 1 1 1 1 1 1 1 1 0.042063741892108396 1 1 1 1 1 1 1 0.049203900884595253 1 1 1 0.050015135739689222 1 0.034377368742749895 0.050616530467152629 1 1 0.043113430456894308 1 1 1 1 0.032221082108238805 1 1 1 0.052718464085570571 1 1 1 0.034200676766578716 1 0.041439529481333545 0.026658588353589887 1 1 1 1 1 1 0.041790245417738806 1 1 1 1 1 1 1 1 0.047661347173958687 0.049991764325163203 0.049740148692040631 1 0.041697311170980272 1 1 0.040147138334582069 0.049997644262436983 1 1 0.060839035165752467 1 1 1 1 1 1 1 1 1 1 1 0.049976891655769698 1 1 1 1 1 1 1 1 1 1 1 1 1 0.059072684185228888 0.050354395664310658 1 1 1 1 0.054531562035970246 1 1 1 0.048026525013697911 1 1 1 1 1 0.051791047186269507 0.050001703970255551 1 1 1 0.048309427722239548 1 1 1 1 1 1 1 1 1 1 1 1 1 1 1 0.052484309468727133 1 1 1 0.044402926369543287 1 1 1 0.051409375807849683 1 1 1 1 1 1 0.02568728217482448 1 1 1 1 1 0.034115404319333908 1 1 1 1 1 1 1 1 0.050014547238370607 1 1 1 1 1 1 1 1 1 0.048937772141547126 1 1 1 1 0.050810173887715915 1 0.049843275123867326 1 1 0.054372401152392225 1 0.047537657207102749 1 1 1 1 1 1 0.047861993958208157 1 0.049975968963231324 0.034783709295827497 1 1 1 1 1 1 1 1 0.041371751106189389 1 0.050528392973232486 1 0.050081219969415461 1 0.031409973358449333 1 1 1 1 1 1 1 1 1 1 1 0.049894242210842044 1 1 1 0.050082668200177163 1 1 1 1 1 1 1 1 0.050188425989335095 1 1 1 1 1 1 1 1 1 0.051079364762114499 1 1 1 1 0.048395328099388152 1 1 0.045270005931207717 1 1 1 1 1 1 1 1 1 0.037948748378162755 1 1 1 0.042080356348641837 1 1 1 1 1 1 1 1 1 1 1 1 1 1 1 1 1 1 1 0.033085243028650582 1 1 1 1 1 1 1 1 1 1 0.048216164013237639 1 1 1 1 1 1 1 1 1 1 1 1 1 1 1 1 1 1 1 1 1 1 1 1 1 1 1 1 1 1 1 1 1 1 1 1 1 1 1 1 1 1 1 1 1 0.047948887310181001 0.049917705270122327 1 1 1 1 1 1 1 1 1 1 1 1 1 0.062455833506905548 0.055203695685343626 1 1 1 0.051904537587717424 1 1 0.033588238773176127 1 1 1 0.027383320505544373 1 1 1 0.044536175301588557 1 1 1 1 1 1 1 1 0.049776405301559426 1 1 0.048875415103007358 1 0.059035833106147975 0.052952258890250556 1 1 1 1 1 1 0.026133789500388891 1 0.055831661686839104 0.049989714668198931 0.049955957879725982 1 1 0.053170466772355679 1 1 0.02919121702826399 0.030168928358667552 1 1 1 1 1 1 1 1 1 1 1 1 1 1 1 1 1 1 1 1 1 0.029331528653738836 1 1 1 1 1 1 1 1 1 0.051036726290050308 1 1 1 1 1 1 1 0.049709764037994722 0.027420284689093868 1 1 1 1 1 1 1 1 1 1 1 1 1 1 1 1 1 1 1 1 1 1 1 0.049406011202676167 1 0.049996560604770368 1 1 1 1 1 1 1 0.044821777919592465 1 1 1 0.066042126659110384 0.030794121658331716 1 1 0.047991809015776064 1 1 1 1 0.067674465364771952 1 1 1 0.021186520038829058 1 1 1 0.052968589286970957 1 1 1 1 1 1 1 1 1 0.05201721739750953 0.04860807007653703 1 1 1 1 1 0.0256225059076432 1 1 0.075812447896529411 0.051025786228494269 0.064544653831574442 1 1 1 1 1 0.02622661014373745 1 1 1 1 1 1 1 1 1 0.05061997864371616 1 0.050263765328433394 1 1 1 1 1 1 1 1 1 1 1 1 1 1 1 1 1 1 1 1 1 1 1 1 0.047224760469474825 1 1 1 1 0.057160272575982732 0.041631509946765025 1 1 1 0.061924109615033134 1 1 1 1 1 1 1 1 1 1 1 1 1 1 1 1 0.003407891730055547 1 1 1 0.049851321351003543 1 1 0.050976852760325819 1 1 1 1 1 1 1 1 1 1 1 1 1 0.036173576927194868 1 1 0.015361488895159727 1 1 1 0.063211737944469215 1 0.053766087193608245 1 0.049388142538646373 1 0.049298750774870455 0.0079312490321791947 0.049853290876557557 1 1 1 1 1 1 1 1 0.049327593006389087 1 1 1 1 1 1 1 1 0.012193384728275719 1 1 0.07553855866867 1 1 1 1 1 1 1 1 1 1 1 1 1 1 1 1 1 1 1 1 1 0.061723836410222166 1 1 1 1 1 1 1 1 1 1 0.057326207548226621 1 0.069943526136096432 1 1 0.053318017271159396 1 0.041612324160394336 1 0.050066747564536676 1 1 0.049893696143331452 1 0.021871604203281089 1 1 0.057111225125144896 1 1 1 0.051100164171529752 1 1 1 1 1 1 1 1 1 1 1 1 1 1 1 1 1 1 1 1 1 1 1 1 1 1 1 1 1 1 1 1 1 1 1 1 1 1 1 1 1 1 1 1 1 1 1 1 1 1 1 1 1 1 1 1 1 1 1 1 1 0.037622709768475524 1 1 0.017064593028069855 1 1 1 1 1 1 0.054658704028810949 0.028390347072403607 1 1 1 1 1 1 1 1 1 1 1 1 1 1 1 1 1 1 0.028133053940808325 1 1 1 0.049488886461743889 1 1 1 1 1 1 1 1 1 1 1 1 1 1 1 1 0.050340140292091218 1 1 1 1 1 1 1 0.016998560393786971 1 1 1 1 1 1 1 1 0.026008091337425598 1 0.048988108693969988 1 1 1 1 1 1 1 1 1 1 1 1 1 1 1 1 0.049972974360855016 1 1 1 1 1 1 1 0.049961985468806744 1 1 1 1 0.049803643373108039 1 1 1 1 1 1 1 0.04938849798426477 1 1 0.072545082543040068 0.050173632539764028 1 1 0.046059571945551075 1 1 1 1 1 1 0.049981661377088996 1 1 1 1 1 1 1 1 1 0.049605828451793219 1 1 0.050123197936322986 1 1 0.050022235644125612 1 1 0.071883772461905068 1 1 1 1 1 0.070271909918307382 1 1 1 1 1 1 1 1 0.05118945014147272 1 1 1 1 1 1 1 0.054314351596049096 1 1 1 1 1 1 1 1 1 1 1 1 0.052518384358764547 1 1 1 1 1 1 1 0.049175502777888125 0.050108199665539491 1 0.053152149135219207 1 0.076098842269629777 1 1 1 1 1 1 1 1 1 1 1 1 1 1 1 0.049977255409702645 1 0.076356711049010983 1 1 1 1 1 1 1 1 0.052985266083677734 1 0.054389137379696126 1 0.06772335248095207 1 0.054867288992417593 1 0.049556913635756927 1 1 0.05071165804013314 1 1 1 1 1 0.052428620821711909 1 1 1 1 1 1 1 1 0.049774530785370093 1 1 1 1 1 0.049331382370472084 1 1 0.052020962147567421 1 0.047900848594789533 0.056993994879493852 1 1 1 1 1 1 1 1 0.050000144001804914 1 1 1 1 1 1 1 1 1 1 1 1 1 0.053344093728849476 1 1 1 1 1 1 1 0.050032692125171613 1 1 1 0.050032633382918162 1 1 1 1 1 1 1 1 1 1 1 1 1 1 1 1 1 0.048526621229030731 1 1 1 1 1 1 1 0.049480035745364789 1 1 0.0512162898027647 1 1 1 1 1 1 1 1 1 1 1 1 1 1 1 0.050821152939515182 1 1 1 1 0.047299760628422886 1 1 1 1 1 1 1 1 1 1 1 1 1 1 1 1 1 1 1 1 1 1 1 1 1 0.055021269448849247 1 1 1 1 1 1 0.050419300377226736 1 1 1 1 1 1 1 1 1 0.055578557503823109 0.051040952667942993 1 1 1 0.045347153693318501 1 0.049988156166381373 1 1 1 1 1 1 1 1 1 1 1 1 1 1 1 0.050439412775258471 1 1 1 1 1 1 1 1 1 1 1 1 0.049405925750655666 0.048864449404063495 1 1 1 1 1 1 1 1 0.05100211278188542 1 1 0.049862883654963372 1 1 0.055741638854361467 0.04529001876539028 1 1 1 1 1 1 1 0.051987928856458754 1 1 1 1 1 1 1 1 1 0.049458523653407804 1 1 1 0.052039092789190736 1 1 1 1 1 0.051276440657123584 1 1 1 1 1 1 1 1 1 1 1 1 0.051801940115182278 1 1 1 0.05000230496088915 1 1 1 0.049964475315382048 1 1 1 1 1 1 1 1 1 1 1 1 1 1 1 1 1 1 1 1 1 1 1 1 1 1 1 1 1 1 1 1 0.051550264070961416 1 1 1 1 1 1 1 1 1 1 1 1 1 1 1 1 1 1 1 1 1 1 1 1 0.049080637430902789 1 0.049924445946917584 1 1 0.06627558085795264 1 1 1 1 1 1 1 1 1 0.044386484688576852 1 1 1 1 1 1 1 1 1 1 1 1 1 1 0.061626885861133233 1 1 1 1 0.056644634723363965 1 1 1 0.052069843183895216 1 1 1 1 1 1 1 1 1 1 1 1 1 1 1 1 1 1 1 1 1 1 1 1 1 1 1 1 1 1 1 1 1 1 1 1 1 1 1 1 1 1 1 1 1 1 1 1 1 1 1 1 1 1 1 1 1 1 1 1 1 1 1 1 1 1 1 1 1 1 1 1 1 1 1 1 1 1 1 1 1 1 1 1 1 1 1 1 1 1 1 1 1 1 1 1 1 1 1 1 1 1 1 1 1 1 1 1 1 1 1 1 1 1 1 1 1 1 1 1 1 1 1 1 1 1 1 1 1 1 1 1 1 1 1 1 1 1 1 1 1 1 1 1 1 1 1 1 1 1 1 1 1 1 1 1 1 1 1 1 1 1 1 1 1 1 1 1 1 1 1 1 1 1 1 1 1 1 1 1 1 1 1 1 1 1 1 1 1 0.013683696646011045 1 1 1 1 1 1 1 1 1 1 1 1 1 1 1 1 0.046079264845244799 1 1 1 1 1 1 1 1 8.3266726846886741e-17 1 1 1 1 0.052167193854152846 1 1 1 1 1 1 1 1 1 1 1 1 1 1 1 1 1 1 1 1 1 1 0.044920747689082011 1 1 1 1 1 1 1 1 1 1 1 1 1 0.056448953123163913 0.016051546796097375 1 1 1 1 1 0.027287788091850063 1 0.037106220970698288 1 1 1 1 1 1 1 1 1 1 1 0.040923456408873911 1 1 1 1 1 1 1 0.064334091012411859 1 1 1 1 1 1 1 1 1 1 1 1 1 1 1 0.049447494973589086 0.060121199405796445 1 1 1 1 1 1 1 1 1 1 1 1 0.041997652741958616 1 1 1 1 1 1 1 1 1 1 1 1 1 1 1 1 0.047278786990891025 1 1 1 1 1 1 1 0.060111428470202233 1 1 1 1 1 1 1 1 1 1 0.05015729449441101 0.069641727058149944 1 1 1 1 1 1 1 1 1 1 1 1 1 1 1 1 1 1 1 1 1 1 1 1 1 1 1 1 1 1 0.045029227140956023 1 1 1 1 1 0.044088210442811998 1 1 1 1 1 1 1 1 1 1 0.047423345038740586 1 1 1 1 0.050970615806692182 1 1 1 1 1 1 1 1 1 1 0.04464276015315792 1 0.047977894749086522 1 1 1 1 1 1 1 1 1 1 1 1 1 1 1 1 1 1 1 1 1 1 1 1 1 1 1 1 1 1 1 0.049778819492642339 1 1 1 1 1 0.049226314466231422 1 1 1 1 1 1 1 1 1 1 1 1 1 1 1 1 1 1 0.052477866148815389 1 1 0.10085982597536476 1 1 1 0.050815244492063767 1 1 1 1 1 0.078055635258323361 1 1 1 1 1 1 1 1 1 1 0.019702533639856627 1 1 1 1 1 1 0.049130563881271239 1 1 1 1 1 0.08764062065824392 0.050098151949724321 1 1 0.10909078034025708 1 1 0.04779316969349956 1 1 1 1 1 1 1 1 1 1 0.04666154186884712 1 1 0.044895958389439723 1 1 0.046303641503446749 1 1 0.039155721902857904 1 1 0.047973248764159981 1 1 0.049174074252003368 1 1 1 1 1 1 0.049370512450815224 1 1 1 1 1 1 1 1 1 1 1 0.11299409125983255 1 1 1 1 1 1 1 0.047055993328343676 1 1 1 1 0.05346956036188312 1 1 1 0.11716617910636881 1 1 1 1 1 1 1 1 1 1 1 0.060405967936675506 1 1 1 1 1 1 1 1 1 1 1 1 1 1 1 1 1 1 1 1 1 1 1 1 0.049587286031257262 1 1 1 1 1 0.049138260753664439 1 1 1 1 1 1 1 1 1 1 1 1 1 1 0.050824988450674388 1 1 0.060246610428357342 1 0.010706579842599415 1 1 1 1 -9.7144514654701197e-17 1 0.050859419445891174 0.078905994440401334 1 0.074654346741367422 1 1 1 1 1 1 1 0.049692251883496505 1 0.039320498952864963 1 1 1 1 1 1 0.051721233006796298 1 1 1 1 1 1 0.05026475997422146 1 1 1 1 0.051147347492785961 1 1 1 1 1 0.049331387899891499 1 1 0.046860892754480452 1 1 1 1 0.052695652564788004 1 1 1 1 0.038877665546625015 1 1 1 1 1 1 0.050499726226648584 1 1 1 1 1 1 1 1 1 0.04938912855120646 1 1 1 1 1 1 0.046972364151191492 1 1 1 1 0.041598956741973801 1 1 1 1 1 1 1 1 1 1 1 1 1 1 1 1 0.050339321261332295 1 1 1 0.052185257541518759 1 1 0.01482094436774112 1 1 1 1 1 1 1 1 1 1 1 1 1 1 1 1 0.050466127237533229 1 0.019561477284301163 1 1 1 1 1 1 1 1 1 1 1 1 1 1 1 1 1 1 1 1 1 1 1 1 1 1 0.0072360806800768548 1 1 0.025153129522126269 1 1 1 1 1 1 1 1 1 1 0.034116595766352384 1 1 1 1 0.050239353482817467 1 1 1 1 0.049773226245284262 1 1 1 1 1 1 1 1 1 0.039768253805858189 1 1 1 1 1 1 1 1 1 1 1 1 1 1 1 1 1 1 1 1 1 1 1 1 1 1 1 1 
</DataArray>
</CellData>
</Piece>
</UnstructuredGrid>
</VTKFile>
